
     Program PWSCF v.7.5 starts on  5Oct2026 at  6:30:18 

     This program is part of the open-source Quantum ESPRESSO suite
     for quantum simulation of materials; please cite
         "P. Giannozzi et al., J. Phys.:Condens. Matter 21 395502 (2009);
         "P. Giannozzi et al., J. Phys.:Condens. Matter 29 465901 (2017);
         "P. Giannozzi et al., J. Chem. Phys. 152 154105 (2020);
          URL http://www.quantum-espresso.org", 
     in publications or presentations arising from this work. More details at
     http://www.quantum-espresso.org/quote

     Parallel version (MPI & OpenMP), running on       8 processor cores
     Number of MPI processes:                 8
     Threads/MPI process:                     1

     MPI processes distributed on     1 nodes
     109511 MiB available memory on the printing compute node when the environment starts

     Reading input from pw.in

     Current dimensions of program PWSCF are:
     Max number of different atomic species (ntypx) = 10
     Max number of k-points (npk) =  40000
     Max angular momentum in pseudopotentials (lmaxx) =  4
     file Ba.pbe-spn-kjpaw_psl.1.0.0.UPF: wavefunction(s)  5S 6S renormalized
     file O.pbe-n-kjpaw_psl.0.1.UPF: wavefunction(s)  2P renormalized

     IMPORTANT: XC functional enforced from input :
     Exchange-correlation= PBESOL
                           (   1   4  10   8   0   0   0)
     Any further DFT definition will be discarded
     Please, verify this is what you really want


     K-points division:     npool     =       2
     R & G space division:  proc/nbgrp/npool/nimage =       4
     Subspace diagonalization in iterative solution of the eigenvalue problem:
     a serial algorithm will be used


     Parallelization info
     --------------------
     sticks:   dense  smooth     PW     G-vecs:    dense   smooth      PW
     Min        1854     926    261                59980    21204    3210
     Max        1855     927    263                59981    21206    3211
     Sum        7417    3705   1049               239921    84819   12843

     Using Slab Decomposition



     bravais-lattice index     =            0
     lattice parameter (alat)  =      15.2544  a.u.
     unit-cell volume          =    1774.8311 (a.u.)^3
     number of atoms/cell      =           20
     number of atomic types    =            3
     number of electrons       =       160.00
     number of Kohn-Sham states=           96
     kinetic-energy cutoff     =      50.0000  Ry
     charge density cutoff     =     400.0000  Ry
     scf convergence threshold =      2.0E-09
     mixing beta               =       0.4000
     number of iterations used =            8  plain     mixing
     Exchange-correlation= PBESOL
                           (   1   4  10   8   0   0   0)

     celldm(1)=  15.254415  celldm(2)=   0.000000  celldm(3)=   0.000000
     celldm(4)=   0.000000  celldm(5)=   0.000000  celldm(6)=   0.000000

     crystal axes: (cart. coord. in units of alat)
               a(1) = (  -0.000000   0.000000   1.000000 )  
               a(2) = (   0.000000  -1.000000  -0.000000 )  
               a(3) = (   0.500000  -0.000000  -0.000000 )  

     reciprocal axes: (cart. coord. in units 2 pi/alat)
               b(1) = (  0.000000 -0.000000  1.000000 )  
               b(2) = ( -0.000000 -1.000000  0.000000 )  
               b(3) = (  1.999999  0.000000  0.000000 )  


     PseudoPot. # 1 for Ba read from file:
     /root/sssp/Ba.pbe-spn-kjpaw_psl.1.0.0.UPF
     MD5 check sum: c432291d3e53af55f19d5e8866385beb
     Pseudo is Projector augmented-wave + core cor, Zval = 10.0
     Generated using "atomic" code by A. Dal Corso  v.5.1
     Shape of augmentation charge: PSQ
     Using radial grid of 1251 points,  7 beta functions with: 
                l(1) =   0
                l(2) =   0
                l(3) =   0
                l(4) =   1
                l(5) =   1
                l(6) =   2
                l(7) =   2
     Q(r) pseudized with 0 coefficients 


     PseudoPot. # 2 for Ti read from file:
     /root/sssp/ti_pbe_v1.4.uspp.F.UPF
     MD5 check sum: 88a00a6731bd790ddea75d31a80cb452
     Pseudo is Ultrasoft + core correction, Zval = 12.0
     Generated by new atomic code, or converted to UPF format
     Using radial grid of  851 points,  6 beta functions with: 
                l(1) =   0
                l(2) =   0
                l(3) =   1
                l(4) =   1
                l(5) =   2
                l(6) =   2
     Q(r) pseudized with  6 coefficients,  rinner =    1.000   1.000   1.000
                                                       1.000   1.000

     PseudoPot. # 3 for O  read from file:
     /root/sssp/O.pbe-n-kjpaw_psl.0.1.UPF
     MD5 check sum: 0234752ac141de4415c5fc33072bef88
     Pseudo is Projector augmented-wave + core cor, Zval =  6.0
     Generated using "atomic" code by A. Dal Corso  v.5.0.99 svn rev. 10869
     Shape of augmentation charge: BESSEL
     Using radial grid of 1095 points,  4 beta functions with: 
                l(1) =   0
                l(2) =   0
                l(3) =   1
                l(4) =   1
     Q(r) pseudized with 0 coefficients 


     atomic species   valence    mass     pseudopotential
     Ba               10.00   137.32700     Ba( 1.00)
     Ti               12.00    47.86700     Ti( 1.00)
     O                 6.00    15.99900     O ( 1.00)

     No symmetry found



   Cartesian axes

     site n.     atom                  positions (alat units)
         1        Ba     tau(   1) = (   0.0000017   0.0000267   0.0000006  )
         2        Ba     tau(   2) = (  -0.0000009  -0.0000267   0.5000006  )
         3        Ba     tau(   3) = (  -0.0000008  -0.5000270   0.0000005  )
         4        Ba     tau(   4) = (   0.0000017  -0.4999734   0.5000005  )
         5        Ti     tau(   5) = (   0.1943164  -0.2500001   0.2499825  )
         6        Ti     tau(   6) = (   0.3056723  -0.2500000   0.7500185  )
         7        Ti     tau(   7) = (   0.3056724  -0.7500004   0.2500184  )
         8        Ti     tau(   8) = (   0.1942540  -0.7500003   0.7499824  )
         9        O      tau(   9) = (   0.5511349  -0.2500001   0.2499736  )
        10        O      tau(  10) = (   0.4487965  -0.2500000   0.7500265  )
        11        O      tau(  11) = (   0.4488756  -0.7500003   0.2500264  )
        12        O      tau(  12) = (   0.5512711  -0.7500002   0.7499735  )
        13        O      tau(  13) = (   0.2500065  -0.4999988   0.2499998  )
        14        O      tau(  14) = (   0.2499931  -0.5000012   0.7499998  )
        15        O      tau(  15) = (   0.2499933  -1.0000016   0.2499997  )
        16        O      tau(  16) = (   0.2500064  -0.9999989   0.7499997  )
        17        O      tau(  17) = (   0.2500069  -0.2500001   0.4999977  )
        18        O      tau(  18) = (   0.2499929  -0.2500000   0.9999993  )
        19        O      tau(  19) = (   0.2499930  -0.7500003   0.4999992  )
        20        O      tau(  20) = (   0.2500068  -0.7500002   0.9999976  )

     number of k points=    58  Marzari-Vanderbilt smearing, width (Ry)=  0.0050
                       cart. coord. in units 2pi/alat
        k(    1) = (   0.0000000   0.0000000   0.0000000), wk =   0.0178571
        k(    2) = (   0.2857142   0.0000000   0.0000001), wk =   0.0357143
        k(    3) = (   0.5714283   0.0000000   0.0000001), wk =   0.0357143
        k(    4) = (   0.8571425   0.0000001   0.0000002), wk =   0.0357143
        k(    5) = (  -0.0000000  -0.2499999   0.0000001), wk =   0.0357143
        k(    6) = (   0.2857141  -0.2499999   0.0000001), wk =   0.0357143
        k(    7) = (   0.5714283  -0.2499998   0.0000002), wk =   0.0357143
        k(    8) = (   0.8571425  -0.2499998   0.0000002), wk =   0.0357143
        k(    9) = (   0.0000000   0.4999998  -0.0000001), wk =   0.0178571
        k(   10) = (   0.2857142   0.4999998  -0.0000001), wk =   0.0357143
        k(   11) = (   0.5714284   0.4999998   0.0000000), wk =   0.0357143
        k(   12) = (   0.8571425   0.4999998   0.0000001), wk =   0.0357143
        k(   13) = (   0.0000000  -0.2499999   0.2500001), wk =   0.0357143
        k(   14) = (   0.2857142  -0.2499999   0.2500001), wk =   0.0357143
        k(   15) = (   0.5714284  -0.2499999   0.2500002), wk =   0.0357143
        k(   16) = (   0.8571425  -0.2499999   0.2500002), wk =   0.0357143
        k(   17) = (   0.0000001   0.4999997   0.2499999), wk =   0.0357143
        k(   18) = (   0.2857143   0.4999997   0.2499999), wk =   0.0357143
        k(   19) = (   0.5714284   0.4999998   0.2500000), wk =   0.0357143
        k(   20) = (   0.8571426   0.4999998   0.2500001), wk =   0.0357143
        k(   21) = (  -0.0000001   0.4999999  -0.5000001), wk =   0.0178571
        k(   22) = (   0.2857141   0.4999999  -0.5000001), wk =   0.0357143
        k(   23) = (   0.5714283   0.4999999  -0.5000000), wk =   0.0357143
        k(   24) = (   0.8571424   0.4999999  -0.4999999), wk =   0.0357143
        k(   25) = (  -0.0000001   0.0000001  -0.2500000), wk =   0.0357143
        k(   26) = (  -0.2857142  -0.2499999  -0.0000000), wk =   0.0357143
        k(   27) = (  -0.2857142   0.0000000  -0.2500001), wk =   0.0357143
        k(   28) = (  -0.2857141  -0.0000001   0.2499999), wk =   0.0357143
        k(   29) = (  -0.5714284  -0.2499999  -0.0000001), wk =   0.0357143
        k(   30) = (  -0.5714284   0.0000000  -0.2500001), wk =   0.0357143
        k(   31) = (  -0.5714283  -0.0000001   0.2499999), wk =   0.0357143
        k(   32) = (  -0.8571425  -0.2500000  -0.0000001), wk =   0.0357143
        k(   33) = (  -0.8571426  -0.0000000  -0.2500002), wk =   0.0357143
        k(   34) = (  -0.8571425  -0.0000001   0.2499998), wk =   0.0357143
        k(   35) = (   0.0000001  -0.0000001   0.5000000), wk =   0.0178571
        k(   36) = (  -0.2857141  -0.0000001   0.4999999), wk =   0.0357143
        k(   37) = (  -0.5714282  -0.0000002   0.4999999), wk =   0.0357143
        k(   38) = (  -0.8571424  -0.0000002   0.4999998), wk =   0.0357143
        k(   39) = (   0.0000001   0.2499998   0.2499999), wk =   0.0357143
        k(   40) = (  -0.2857141   0.2499998   0.2499999), wk =   0.0357143
        k(   41) = (  -0.2857142  -0.2499999  -0.2500000), wk =   0.0357143
        k(   42) = (   0.2857141   0.2500000  -0.2500000), wk =   0.0357143
        k(   43) = (  -0.5714283   0.2499998   0.2499998), wk =   0.0357143
        k(   44) = (  -0.5714284  -0.2499999  -0.2500001), wk =   0.0357143
        k(   45) = (   0.5714283   0.2500000  -0.2499999), wk =   0.0357143
        k(   46) = (  -0.8571424   0.2499998   0.2499998), wk =   0.0357143
        k(   47) = (  -0.8571426  -0.2499999  -0.2500001), wk =   0.0357143
        k(   48) = (   0.8571425   0.2500000  -0.2499999), wk =   0.0357143
        k(   49) = (   0.0000001   0.2499998   0.4999999), wk =   0.0357143
        k(   50) = (  -0.2857142  -0.4999998   0.2500001), wk =   0.0357143
        k(   51) = (  -0.2857140   0.2499998   0.4999999), wk =   0.0357143
        k(   52) = (  -0.2857143  -0.2499998  -0.5000000), wk =   0.0357143
        k(   53) = (  -0.5714283  -0.4999999   0.2500000), wk =   0.0357143
        k(   54) = (  -0.5714282   0.2499997   0.4999998), wk =   0.0357143
        k(   55) = (  -0.5714285  -0.2499998  -0.5000001), wk =   0.0357143
        k(   56) = (  -0.8571425  -0.4999999   0.2499999), wk =   0.0357143
        k(   57) = (  -0.8571424   0.2499997   0.4999998), wk =   0.0357143
        k(   58) = (  -0.8571426  -0.2499998  -0.5000001), wk =   0.0357143

     Dense  grid:   239921 G-vectors     FFT dimensions: ( 100, 100,  50)

     Smooth grid:    84819 G-vectors     FFT dimensions: (  72,  72,  36)

     Estimated max dynamical RAM per process >     279.81 MB

     Estimated total dynamical RAM >       2.13 GB

     Check: negative core charge=   -0.000004

     Initial potential from superposition of free atoms

     starting charge     155.9318, renormalised to     160.0000

     negative rho (up, down):  4.359E-03 0.000E+00
     Starting wfcs are  108 randomized atomic wfcs
     Checking if some PAW data can be deallocated... 

     total cpu time spent up to now is       15.9 secs

     per-process dynamical memory:   184.1 Mb

     Self-consistent Calculation

     iteration #  1     ecut=    50.00 Ry     beta= 0.40
     Davidson diagonalization with overlap
     ethr =  1.00E-02,  avg # of iterations =  3.4

     negative rho (up, down):  4.011E-02 0.000E+00

     total cpu time spent up to now is       62.6 secs

     total energy              =   -2687.90947026 Ry
     estimated scf accuracy    <       3.58934788 Ry

     iteration #  2     ecut=    50.00 Ry     beta= 0.40
     Davidson diagonalization with overlap
     ethr =  2.24E-03,  avg # of iterations =  5.5

     negative rho (up, down):  1.911E-01 0.000E+00

     total cpu time spent up to now is      108.5 secs

     total energy              =   -2688.36030559 Ry
     estimated scf accuracy    <       0.68903870 Ry

     iteration #  3     ecut=    50.00 Ry     beta= 0.40
     Davidson diagonalization with overlap
     ethr =  4.31E-04,  avg # of iterations =  7.1

     negative rho (up, down):  2.709E-01 0.000E+00

     total cpu time spent up to now is      159.6 secs

     total energy              =   -2688.44209987 Ry
     estimated scf accuracy    <       0.10319121 Ry

     iteration #  4     ecut=    50.00 Ry     beta= 0.40
     Davidson diagonalization with overlap
     ethr =  6.45E-05,  avg # of iterations =  5.9

     negative rho (up, down):  2.151E-01 0.000E+00

     total cpu time spent up to now is      211.0 secs

     total energy              =   -2688.45377810 Ry
     estimated scf accuracy    <       0.02936232 Ry

     iteration #  5     ecut=    50.00 Ry     beta= 0.40
     Davidson diagonalization with overlap
     ethr =  1.84E-05,  avg # of iterations =  3.6

     negative rho (up, down):  7.982E-02 0.000E+00

     total cpu time spent up to now is      254.8 secs

     total energy              =   -2688.45679908 Ry
     estimated scf accuracy    <       0.03513935 Ry

     iteration #  6     ecut=    50.00 Ry     beta= 0.40
     Davidson diagonalization with overlap
     ethr =  1.84E-05,  avg # of iterations =  1.0

     negative rho (up, down):  2.907E-03 0.000E+00

     total cpu time spent up to now is      288.0 secs

     total energy              =   -2688.45756711 Ry
     estimated scf accuracy    <       0.01252131 Ry

     iteration #  7     ecut=    50.00 Ry     beta= 0.40
     Davidson diagonalization with overlap
     ethr =  7.83E-06,  avg # of iterations =  3.8

     negative rho (up, down):  2.909E-03 0.000E+00

     total cpu time spent up to now is      331.0 secs

     total energy              =   -2688.45902900 Ry
     estimated scf accuracy    <       0.00041382 Ry

     iteration #  8     ecut=    50.00 Ry     beta= 0.40
     Davidson diagonalization with overlap
     c_bands:  2 eigenvalues not converged
     ethr =  2.59E-07,  avg # of iterations =  8.3

     negative rho (up, down):  2.910E-03 0.000E+00

     total cpu time spent up to now is      389.2 secs

     total energy              =   -2688.45932133 Ry
     estimated scf accuracy    <       0.00421602 Ry

     iteration #  9     ecut=    50.00 Ry     beta= 0.40
     Davidson diagonalization with overlap
     ethr =  2.59E-07,  avg # of iterations =  1.2

     negative rho (up, down):  2.911E-03 0.000E+00

     total cpu time spent up to now is      420.7 secs

     total energy              =   -2688.45934870 Ry
     estimated scf accuracy    <       0.00273091 Ry

     iteration # 10     ecut=    50.00 Ry     beta= 0.40
     Davidson diagonalization with overlap
     ethr =  2.59E-07,  avg # of iterations =  2.0

     negative rho (up, down):  2.911E-03 0.000E+00

     total cpu time spent up to now is      456.3 secs

     total energy              =   -2688.45939166 Ry
     estimated scf accuracy    <       0.00142081 Ry

     iteration # 11     ecut=    50.00 Ry     beta= 0.40
     Davidson diagonalization with overlap
     ethr =  2.59E-07,  avg # of iterations =  1.1

     negative rho (up, down):  2.912E-03 0.000E+00

     total cpu time spent up to now is      489.0 secs

     total energy              =   -2688.45940739 Ry
     estimated scf accuracy    <       0.00084481 Ry

     iteration # 12     ecut=    50.00 Ry     beta= 0.40
     Davidson diagonalization with overlap
     ethr =  2.59E-07,  avg # of iterations =  2.0

     negative rho (up, down):  2.913E-03 0.000E+00

     total cpu time spent up to now is      526.5 secs

     total energy              =   -2688.45941900 Ry
     estimated scf accuracy    <       0.00019083 Ry

     iteration # 13     ecut=    50.00 Ry     beta= 0.40
     Davidson diagonalization with overlap
     ethr =  1.19E-07,  avg # of iterations =  2.1

     negative rho (up, down):  2.912E-03 0.000E+00

     total cpu time spent up to now is      563.1 secs

     total energy              =   -2688.45942624 Ry
     estimated scf accuracy    <       0.00000628 Ry

     iteration # 14     ecut=    50.00 Ry     beta= 0.40
     Davidson diagonalization with overlap
     ethr =  3.93E-09,  avg # of iterations =  4.0

     negative rho (up, down):  2.912E-03 0.000E+00

     total cpu time spent up to now is      604.3 secs

     total energy              =   -2688.45942701 Ry
     estimated scf accuracy    <       0.00003999 Ry

     iteration # 15     ecut=    50.00 Ry     beta= 0.40
     Davidson diagonalization with overlap
     ethr =  3.93E-09,  avg # of iterations =  2.0

     negative rho (up, down):  2.912E-03 0.000E+00

     total cpu time spent up to now is      642.2 secs

     total energy              =   -2688.45942719 Ry
     estimated scf accuracy    <       0.00000500 Ry

     iteration # 16     ecut=    50.00 Ry     beta= 0.40
     Davidson diagonalization with overlap
     ethr =  3.13E-09,  avg # of iterations =  1.0

     negative rho (up, down):  2.912E-03 0.000E+00

     total cpu time spent up to now is      676.6 secs

     total energy              =   -2688.45942725 Ry
     estimated scf accuracy    <       0.00000021 Ry

     iteration # 17     ecut=    50.00 Ry     beta= 0.40
     Davidson diagonalization with overlap
     ethr =  1.29E-10,  avg # of iterations =  4.0

     negative rho (up, down):  2.912E-03 0.000E+00

     total cpu time spent up to now is      719.1 secs

     total energy              =   -2688.45942728 Ry
     estimated scf accuracy    <       0.00000029 Ry

     iteration # 18     ecut=    50.00 Ry     beta= 0.40
     Davidson diagonalization with overlap
     ethr =  1.29E-10,  avg # of iterations =  2.0

     negative rho (up, down):  2.912E-03 0.000E+00

     total cpu time spent up to now is      754.2 secs

     total energy              =   -2688.45942728 Ry
     estimated scf accuracy    <       0.00000001 Ry

     iteration # 19     ecut=    50.00 Ry     beta= 0.40
     Davidson diagonalization with overlap
     ethr =  6.94E-12,  avg # of iterations =  2.0

     negative rho (up, down):  2.912E-03 0.000E+00

     total cpu time spent up to now is      789.3 secs

     total energy              =   -2688.45942728 Ry
     estimated scf accuracy    <       0.00000002 Ry

     iteration # 20     ecut=    50.00 Ry     beta= 0.40
     Davidson diagonalization with overlap
     ethr =  6.94E-12,  avg # of iterations =  1.0

     negative rho (up, down):  2.912E-03 0.000E+00

     total cpu time spent up to now is      820.5 secs

     total energy              =   -2688.45942728 Ry
     estimated scf accuracy    <       0.00000002 Ry

     iteration # 21     ecut=    50.00 Ry     beta= 0.40
     Davidson diagonalization with overlap
     ethr =  6.94E-12,  avg # of iterations =  1.0

     negative rho (up, down):  2.912E-03 0.000E+00

     total cpu time spent up to now is      853.1 secs

     total energy              =   -2688.45942728 Ry
     estimated scf accuracy    <       0.00000002 Ry

     iteration # 22     ecut=    50.00 Ry     beta= 0.40
     Davidson diagonalization with overlap
     ethr =  6.94E-12,  avg # of iterations =  1.1

     negative rho (up, down):  2.912E-03 0.000E+00

     total cpu time spent up to now is      883.3 secs

     total energy              =   -2688.45942728 Ry
     estimated scf accuracy    <          2.4E-09 Ry

     iteration # 23     ecut=    50.00 Ry     beta= 0.40
     Davidson diagonalization with overlap
     ethr =  1.52E-12,  avg # of iterations =  2.0

     negative rho (up, down):  2.912E-03 0.000E+00

     total cpu time spent up to now is      921.1 secs

     End of self-consistent calculation

          k = 0.0000 0.0000 0.0000 ( 10613 PWs)   bands (ev):

   -46.7375 -46.7172 -46.7099 -46.7066 -26.0026 -25.9893 -25.9846 -25.9814
   -20.8683 -20.8682 -20.8617 -20.8616 -20.8241 -20.8238 -20.8218 -20.8215
   -15.4178 -15.3168 -15.3168 -15.2605  -6.1552  -6.1546  -5.9308  -5.3424
    -5.3002  -5.3002  -5.0892  -5.0337  -5.0337  -4.9276  -4.9264  -4.9206
    -0.9508  -0.9507  -0.7651  -0.7651  -0.5365  -0.5361  -0.3457  -0.2815
    -0.2813  -0.2090  -0.2090  -0.0228   2.3600   2.3601   2.3805   2.3806
     2.6422   2.6422   3.0696   3.0696   6.0891   6.5333   6.5333   6.9122
     7.4353   7.5948   8.3004   8.3012   8.3501   8.4777   8.4777   8.6770
     8.6773   8.6785   8.6789   8.7892   8.7892   8.8143   8.8161   9.1760
     9.1762   9.4777   9.4777   9.6141   9.8155  10.2894  10.2894  10.7002
    13.0283  13.7668  14.4063  14.4386  14.4386  14.5962  14.5966  15.0537
    15.7901  16.2581  16.2596  16.3948  16.3949  16.4913  16.6459  16.6460

          k = 0.2857 0.0000 0.0000 ( 10621 PWs)   bands (ev):

   -46.7374 -46.7170 -46.7098 -46.7064 -26.0063 -25.9929 -25.9883 -25.9851
   -20.8666 -20.8665 -20.8607 -20.8606 -20.8238 -20.8234 -20.8218 -20.8215
   -15.4018 -15.3066 -15.3066 -15.2505  -6.0655  -6.0649  -5.9531  -5.2758
    -5.2637  -5.2637  -5.0851  -5.0851  -5.0807  -4.9445  -4.9300  -4.9281
    -1.0629  -1.0629  -0.7522  -0.7522  -0.5097  -0.5092  -0.3925  -0.3924
    -0.2442  -0.2314  -0.2314  -0.2126   2.2987   2.2988   2.3693   2.3693
     2.6594   2.6594   3.0422   3.0422   6.0304   6.5188   6.5192   7.0755
     7.2344   7.5431   7.9715   7.9728   8.0932   8.3919   8.3919   8.7375
     8.7375   8.8514   8.8514   8.9243   8.9243   8.9826   8.9828   9.1169
     9.1181   9.4082   9.4082   9.5910   9.6125  10.2338  10.2338  10.7195
    13.0917  14.1986  14.6829  14.6833  14.6971  14.7168  14.7168  15.0582
    15.8008  16.0887  16.0899  16.1331  16.6491  16.6491  16.6737  16.6737

          k = 0.5714 0.0000 0.0000 ( 10621 PWs)   bands (ev):

   -46.7371 -46.7167 -46.7094 -46.7061 -26.0144 -26.0012 -25.9965 -25.9936
   -20.8627 -20.8625 -20.8586 -20.8584 -20.8232 -20.8228 -20.8217 -20.8213
   -15.3653 -15.2834 -15.2834 -15.2278  -6.0398  -5.8311  -5.8307  -5.2007
    -5.2007  -5.1768  -5.1768  -5.1178  -5.0614  -4.9654  -4.9640  -4.9456
    -1.3098  -1.3098  -0.7245  -0.7245  -0.6334  -0.6334  -0.5948  -0.4480
    -0.4475  -0.2719  -0.2719  -0.0214   2.1771   2.1771   2.3270   2.3270
     2.7042   2.7042   2.9744   2.9744   5.7903   6.3944   6.3960   6.4838
     7.4089   7.5527   7.5989   7.6001   7.9237   8.1581   8.1581   8.5849
     8.5850   8.7436   8.7436   9.0993   9.0993   9.2724   9.2724   9.2879
     9.4839   9.5362   9.5362   9.5449   9.5457  10.1746  10.1746  10.7638
    13.2580  14.8350  14.8352  15.0090  15.0129  15.3823  15.3823  15.4468
    15.8062  15.8068  15.8219  15.9156  16.6674  16.6674  17.1039  17.1040

          k = 0.8571 0.0000 0.0000 ( 10574 PWs)   bands (ev):

   -46.7368 -46.7165 -46.7092 -46.7059 -26.0210 -26.0077 -26.0031 -26.0003
   -20.8594 -20.8592 -20.8568 -20.8565 -20.8231 -20.8227 -20.8214 -20.8210
   -15.3355 -15.2645 -15.2645 -15.2095  -6.1368  -5.5707  -5.5705  -5.2933
    -5.2933  -5.1012  -5.1012  -5.0632  -5.0617  -5.0458  -4.9717  -4.9194
    -1.5057  -1.5056  -0.8678  -0.8183  -0.8182  -0.7028  -0.7028  -0.3969
    -0.3965  -0.2957  -0.2957   0.1556   2.0806   2.0806   2.2913   2.2914
     2.7587   2.7587   2.9020   2.9020   5.4568   6.1636   6.1969   6.2001
     7.2072   7.2858   7.4648   7.4655   7.9539   7.9539   8.2938   8.2940
     8.4526   8.6159   8.6159   9.1116   9.2335   9.2335   9.3626   9.6146
     9.6146   9.7977   9.7977   9.8425   9.8432  10.1957  10.1957  10.8001
    13.4312  14.8897  14.9273  14.9274  15.3759  15.5565  15.6168  15.6169
    16.0143  16.0143  16.2921  16.3940  16.6698  16.6698  16.6759  16.6759

          k =-0.0000-0.2500 0.0000 ( 10596 PWs)   bands (ev):

   -46.7375 -46.7172 -46.7099 -46.7066 -26.0025 -25.9893 -25.9844 -25.9817
   -20.8673 -20.8626 -20.8619 -20.8558 -20.8305 -20.8274 -20.8236 -20.8220
   -15.4032 -15.3318 -15.3087 -15.2689  -6.1080  -6.0800  -5.9455  -5.5983
    -5.2603  -5.1104  -5.1036  -5.0717  -5.0632  -4.9393  -4.9253  -4.9233
    -0.9055  -0.8684  -0.7351  -0.6933  -0.6166  -0.5745  -0.4103  -0.3525
    -0.3210  -0.2124  -0.1810  -0.0503   2.4066   2.4222   2.4836   2.4913
     2.6053   2.6087   2.9761   2.9800   6.1848   6.5014   6.6777   7.0773
     7.3254   7.6713   8.1981   8.2002   8.2576   8.3623   8.3870   8.4954
     8.4970   8.6160   8.6942   8.7646   8.7722   9.0189   9.0408   9.3052
     9.3779   9.5040   9.5335   9.7218   9.7315  10.0418  10.0967  10.5958
    13.3014  13.9987  14.3951  14.4291  14.4796  14.6046  14.8918  14.8954
    15.9759  16.1123  16.2270  16.3076  16.4530  16.6242  16.7639  16.8350

          k = 0.2857-0.2500 0.0000 ( 10585 PWs)   bands (ev):

   -46.7374 -46.7170 -46.7097 -46.7064 -26.0062 -25.9930 -25.9881 -25.9854
   -20.8657 -20.8615 -20.8604 -20.8550 -20.8300 -20.8273 -20.8233 -20.8219
   -15.3880 -15.3207 -15.2985 -15.2588  -6.0333  -5.9920  -5.9525  -5.5282
    -5.2354  -5.1090  -5.1015  -5.0967  -5.0791  -4.9496  -4.9383  -4.9337
    -1.0141  -0.9784  -0.7210  -0.7141  -0.6460  -0.5503  -0.5187  -0.4685
    -0.2223  -0.1980  -0.1935  -0.1923   2.3618   2.3876   2.4573   2.4704
     2.6119   2.6171   2.9484   2.9543   6.1221   6.4656   6.6390   7.0388
     7.3442   7.6195   7.9260   7.9498   8.0512   8.2403   8.2989   8.4106
     8.5373   8.6016   8.8810   8.9366   8.9528   9.1811   9.2210   9.2801
     9.3327   9.4684   9.5532   9.5771   9.6822  10.0377  10.0629  10.6114
    13.3528  14.3579  14.4298  14.6305  14.6989  14.8802  14.9379  15.0841
    15.9778  15.9880  16.0631  16.3085  16.5027  16.5847  16.8166  16.8366

          k = 0.5714-0.2500 0.0000 ( 10595 PWs)   bands (ev):

   -46.7371 -46.7167 -46.7094 -46.7061 -26.0144 -26.0012 -25.9963 -25.9938
   -20.8620 -20.8591 -20.8569 -20.8531 -20.8289 -20.8269 -20.8228 -20.8217
   -15.3535 -15.2955 -15.2753 -15.2361  -6.0039  -5.8523  -5.7636  -5.3564
    -5.1954  -5.1895  -5.1782  -5.0768  -5.0154  -4.9663  -4.9615  -4.9577
    -1.2334  -1.2212  -0.7511  -0.7287  -0.6915  -0.6690  -0.6680  -0.5185
    -0.4956  -0.2548  -0.2052  -0.0384   2.2566   2.3096   2.4049   2.4216
     2.6271   2.6466   2.8795   2.8895   5.8843   6.3130   6.4456   6.5007
     7.4732   7.5755   7.6350   7.6536   7.9359   8.0734   8.1848   8.2705
     8.4288   8.5180   9.0348   9.1166   9.2432   9.2827   9.3244   9.3473
     9.3745   9.5274   9.5519   9.7167   9.7699   9.9876  10.0547  10.6315
    13.4975  14.5723  14.8303  14.9538  15.1252  15.3307  15.5633  15.6307
    15.7958  15.8626  16.0635  16.0899  16.5605  16.8312  16.9105  17.1214

          k = 0.8571-0.2500 0.0000 ( 10583 PWs)   bands (ev):

   -46.7368 -46.7164 -46.7092 -46.7059 -26.0210 -26.0078 -26.0029 -26.0004
   -20.8589 -20.8570 -20.8541 -20.8514 -20.8283 -20.8264 -20.8226 -20.8215
   -15.3253 -15.2751 -15.2566 -15.2176  -6.0761  -5.7014  -5.5119  -5.2669
    -5.2104  -5.1916  -5.1312  -5.0536  -5.0455  -5.0383  -4.9652  -4.9495
    -1.4130  -1.3825  -0.9327  -0.8090  -0.7823  -0.7273  -0.6596  -0.6263
    -0.4545  -0.3560  -0.2226   0.0920   2.1677   2.2506   2.3661   2.3819
     2.6437   2.6917   2.8116   2.8190   5.5809   6.1032   6.1808   6.2092
     7.2747   7.4381   7.4509   7.5795   7.9482   7.9829   8.1978   8.3073
     8.4237   8.4315   8.8153   9.1497   9.1856   9.3815   9.3992   9.4884
     9.5739   9.6149   9.7936   9.9057   9.9391  10.0359  10.0962  10.6241
    13.6688  14.7095  14.8638  14.9048  15.5480  15.6588  15.6943  15.8755
    16.0393  16.2372  16.2381  16.5236  16.5614  16.6646  16.8094  17.0081

          k = 0.0000 0.5000-0.0000 ( 10606 PWs)   bands (ev):

   -46.7375 -46.7172 -46.7099 -46.7066 -26.0025 -25.9894 -25.9840 -25.9820
   -20.8655 -20.8644 -20.8473 -20.8455 -20.8417 -20.8413 -20.8233 -20.8223
   -15.3678 -15.3677 -15.2889 -15.2889  -6.0107  -6.0099  -5.8761  -5.8754
    -5.1652  -5.1649  -5.1057  -5.1054  -4.9907  -4.9894  -4.9259  -4.9240
    -0.7783  -0.7778  -0.6587  -0.6585  -0.6556  -0.6550  -0.5226  -0.5224
    -0.2630  -0.2629  -0.1156  -0.1156   2.5061   2.5134   2.5162   2.5236
     2.7399   2.7449   2.7457   2.7507   6.3758   6.3767   7.0175   7.0181
     7.5371   7.5375   7.9049   7.9056   8.2643   8.2648   8.3987   8.3989
     8.5379   8.5384   8.7305   8.7315   9.0344   9.0347   9.2927   9.2947
     9.5197   9.5199   9.5974   9.5979   9.7068   9.7068  10.2670  10.2672
    13.8791  13.8792  14.3244  14.3245  14.6229  14.6232  15.3075  15.3082
    15.6740  15.6744  16.2685  16.2692  16.2862  16.2870  17.2603  17.2607

          k = 0.2857 0.5000-0.0000 ( 10620 PWs)   bands (ev):

   -46.7374 -46.7170 -46.7097 -46.7064 -26.0062 -25.9931 -25.9878 -25.9857
   -20.8642 -20.8630 -20.8464 -20.8445 -20.8411 -20.8408 -20.8231 -20.8221
   -15.3546 -15.3546 -15.2788 -15.2788  -5.9764  -5.9757  -5.7941  -5.7934
    -5.1701  -5.1698  -5.1166  -5.1164  -4.9780  -4.9769  -4.9466  -4.9446
    -0.8648  -0.8644  -0.7624  -0.7618  -0.6405  -0.6403  -0.6077  -0.6075
    -0.1876  -0.1876  -0.1772  -0.1771   2.4879   2.4951   2.5058   2.5131
     2.7128   2.7184   2.7186   2.7241   6.3135   6.3144   6.8838   6.8849
     7.6815   7.6818   7.8101   7.8110   7.9397   7.9403   8.2905   8.2911
     8.4743   8.4747   8.9361   8.9369   9.1390   9.1391   9.3678   9.3687
     9.4986   9.4991   9.6275   9.6276   9.7078   9.7080  10.2658  10.2660
    13.9106  13.9107  14.5969  14.5970  14.7294  14.7297  15.4775  15.4781
    15.8034  15.8037  16.1724  16.1726  16.3668  16.3670  16.9558  16.9560

          k = 0.5714 0.5000 0.0000 ( 10592 PWs)   bands (ev):

   -46.7371 -46.7167 -46.7094 -46.7061 -26.0144 -26.0013 -25.9961 -25.9940
   -20.8611 -20.8600 -20.8443 -20.8422 -20.8398 -20.8396 -20.8228 -20.8218
   -15.3247 -15.3247 -15.2558 -15.2558  -5.9217  -5.9212  -5.5853  -5.5847
    -5.1850  -5.1847  -5.1374  -5.1369  -4.9755  -4.9743  -4.9591  -4.9574
    -1.0013  -1.0010  -0.9978  -0.9972  -0.7170  -0.7168  -0.6005  -0.6002
    -0.3606  -0.3606  -0.1016  -0.1016   2.4384   2.4455   2.4972   2.5046
     2.6484   2.6539   2.6542   2.6594   6.1036   6.1050   6.5053   6.5076
     7.5291   7.5303   7.7974   7.7977   8.0230   8.0234   8.0729   8.0735
     8.2712   8.2715   9.1884   9.1889   9.2651   9.2654   9.3293   9.3298
     9.5594   9.5603   9.6068   9.6073   9.9131   9.9132  10.2356  10.2357
    14.0312  14.0312  14.8665  14.8667  15.2356  15.2359  15.7403  15.7403
    16.1374  16.1379  16.2444  16.2447  16.5769  16.5770  16.9472  16.9472

          k = 0.8571 0.5000 0.0000 ( 10578 PWs)   bands (ev):

   -46.7368 -46.7165 -46.7092 -46.7059 -26.0209 -26.0078 -26.0028 -26.0006
   -20.8586 -20.8574 -20.8425 -20.8400 -20.8390 -20.8387 -20.8226 -20.8216
   -15.3004 -15.3004 -15.2372 -15.2372  -5.9125  -5.9122  -5.3626  -5.3622
    -5.2009  -5.2006  -5.1039  -5.1034  -5.0062  -5.0051  -4.9929  -4.9912
    -1.1822  -1.1817  -1.0468  -1.0464  -0.7759  -0.7756  -0.5964  -0.5960
    -0.5316  -0.5316  -0.0623  -0.0623   2.3882   2.3951   2.5166   2.5249
     2.5840   2.5883   2.5946   2.6004   5.8550   5.8570   6.2063   6.2091
     7.3648   7.3660   7.8142   7.8144   7.9343   7.9347   8.0685   8.0687
     8.3698   8.3703   9.1702   9.1709   9.1748   9.1752   9.4679   9.4684
     9.6295   9.6303   9.7011   9.7016   9.9914   9.9914  10.2319  10.2320
    14.1993  14.1994  14.8647  14.8649  15.6841  15.6842  16.0729  16.0730
    16.1514  16.1516  16.4100  16.4101  16.8669  16.8670  17.1712  17.1722

          k = 0.0000-0.2500 0.2500 ( 10620 PWs)   bands (ev):

   -46.7375 -46.7172 -46.7099 -46.7066 -26.0025 -25.9892 -25.9845 -25.9817
   -20.8611 -20.8610 -20.8573 -20.8560 -20.8307 -20.8295 -20.8280 -20.8277
   -15.3896 -15.3228 -15.3227 -15.2782  -6.0430  -6.0423  -5.9450  -5.6788
    -5.2730  -5.1242  -5.1038  -5.1038  -5.0376  -4.9334  -4.9322  -4.9262
    -0.9167  -0.7835  -0.7501  -0.6766  -0.6758  -0.5761  -0.3948  -0.3945
    -0.2975  -0.1964  -0.1963  -0.0776   2.3829   2.3925   2.4798   2.6144
     2.6235   2.6958   2.8027   2.9999   6.2889   6.6420   6.6424   7.2331
     7.2405   7.7379   8.1419   8.1422   8.2800   8.2804   8.3372   8.3796
     8.3826   8.6406   8.6408   8.8136   8.8155   8.9835   8.9852   9.3721
     9.3725   9.4746   9.6096   9.6265   9.8231   9.8234  10.2139  10.5245
    13.4689  14.2817  14.3493  14.3500  14.7503  14.7659  14.8175  14.8178
    16.0314  16.2190  16.3067  16.3073  16.5277  16.6987  16.6989  16.9558

          k = 0.2857-0.2500 0.2500 ( 10607 PWs)   bands (ev):

   -46.7374 -46.7170 -46.7097 -46.7064 -26.0062 -25.9928 -25.9882 -25.9854
   -20.8597 -20.8596 -20.8563 -20.8551 -20.8302 -20.8291 -20.8278 -20.8274
   -15.3751 -15.3118 -15.3118 -15.2680  -5.9694  -5.9688  -5.9413  -5.6122
    -5.2400  -5.1251  -5.1250  -5.1109  -5.0254  -4.9553  -4.9433  -4.9413
    -1.0138  -0.8713  -0.7925  -0.7069  -0.7061  -0.6171  -0.5179  -0.5176
    -0.2069  -0.1639  -0.1561  -0.1560   2.3438   2.3530   2.4688   2.5969
     2.6057   2.7077   2.7713   2.9801   6.2187   6.5815   6.5822   6.9855
     7.4391   7.6910   7.8914   7.8923   8.0545   8.2415   8.2632   8.2634
     8.3388   8.7018   8.7018   8.9182   9.0373   9.1536   9.1543   9.3941
     9.3948   9.4889   9.5103   9.6969   9.8087   9.8090  10.1890  10.5384
    13.5237  14.4187  14.4193  14.5740  14.7955  15.0226  15.0315  15.0318
    15.9710  16.1845  16.1855  16.1993  16.6957  16.7234  16.7236  16.8316

          k = 0.5714-0.2500 0.2500 ( 10592 PWs)   bands (ev):

   -46.7370 -46.7167 -46.7094 -46.7061 -26.0144 -26.0011 -25.9964 -25.9938
   -20.8565 -20.8563 -20.8540 -20.8531 -20.8291 -20.8282 -20.8273 -20.8268
   -15.3422 -15.2870 -15.2869 -15.2449  -5.9652  -5.7923  -5.7919  -5.4539
    -5.1797  -5.1796  -5.1620  -5.0806  -5.0054  -4.9752  -4.9684  -4.9664
    -1.2286  -1.0883  -0.8175  -0.8169  -0.8148  -0.6256  -0.6254  -0.6206
    -0.4467  -0.1868  -0.1866  -0.0416   2.2561   2.2648   2.4499   2.5578
     2.5662   2.6925   2.7384   2.9307   5.9697   6.3664   6.3683   6.4950
     7.5890   7.5981   7.6264   7.6273   7.9683   8.0436   8.2021   8.2022
     8.2097   8.7533   8.7535   9.1733   9.2516   9.2517   9.3278   9.3472
     9.5085   9.5092   9.5356   9.7256   9.8891   9.8894  10.1130  10.5403
    13.6703  14.5849  14.5854  14.8530  15.2894  15.5855  15.5857  15.7048
    15.9024  16.0346  16.0355  16.2191  16.7184  16.7185  16.8672  17.0498

          k = 0.8571-0.2500 0.2500 ( 10568 PWs)   bands (ev):

   -46.7368 -46.7164 -46.7092 -46.7059 -26.0209 -26.0077 -26.0030 -26.0005
   -20.8539 -20.8536 -20.8521 -20.8514 -20.8284 -20.8277 -20.8269 -20.8263
   -15.3154 -15.2668 -15.2668 -15.2262  -6.0157  -5.6441  -5.6439  -5.3136
    -5.1854  -5.1853  -5.0949  -5.0558  -5.0302  -5.0288  -4.9791  -4.9704
    -1.3997  -1.2061  -0.9482  -0.9477  -0.8342  -0.6938  -0.5883  -0.5879
    -0.5803  -0.2890  -0.2888   0.0283   2.1871   2.1955   2.4407   2.5273
     2.5355   2.6175   2.7758   2.8779   5.6795   6.1228   6.1256   6.1760
     7.4131   7.5215   7.5567   7.5572   7.8795   8.0788   8.1771   8.1772
     8.4482   8.6793   8.6796   9.1958   9.2738   9.2739   9.3938   9.4005
     9.4771   9.6485   9.6492   9.8363   9.9773   9.9775  10.1128  10.4841
    13.8478  14.7103  14.7107  14.8089  15.7904  15.7960  15.9325  15.9329
    16.2640  16.2643  16.4248  16.5246  16.6747  16.6752  16.8812  16.9580

          k = 0.0000 0.5000 0.2500 ( 10618 PWs)   bands (ev):

   -46.7375 -46.7172 -46.7099 -46.7066 -26.0025 -25.9892 -25.9842 -25.9821
   -20.8595 -20.8583 -20.8469 -20.8449 -20.8421 -20.8419 -20.8294 -20.8284
   -15.3564 -15.3564 -15.3006 -15.3006  -5.9743  -5.9735  -5.8723  -5.8715
    -5.2000  -5.1996  -5.1408  -5.1405  -4.9649  -4.9637  -4.9291  -4.9272
    -0.8331  -0.8330  -0.7599  -0.7599  -0.5545  -0.5542  -0.4441  -0.4440
    -0.2430  -0.2429  -0.1415  -0.1415   2.3861   2.3863   2.5585   2.5585
     2.7025   2.7026   2.8578   2.8578   6.5008   6.5016   6.9672   6.9679
     7.6580   7.6583   7.9456   7.9462   8.1879   8.1881   8.3239   8.3243
     8.4424   8.4426   8.8964   8.8973   9.0112   9.0117   9.1321   9.1324
     9.2580   9.2600   9.4689   9.4694  10.0510  10.0511  10.2776  10.2778
    13.9149  13.9150  14.4829  14.4831  14.6802  14.6802  15.4176  15.4183
    15.6092  15.6094  16.3350  16.3359  16.5845  16.5850  16.9857  16.9884

          k = 0.2857 0.5000 0.2500 ( 10616 PWs)   bands (ev):

   -46.7374 -46.7170 -46.7097 -46.7064 -26.0061 -25.9929 -25.9879 -25.9857
   -20.8583 -20.8571 -20.8460 -20.8440 -20.8415 -20.8413 -20.8290 -20.8281
   -15.3436 -15.3436 -15.2900 -15.2900  -5.9376  -5.9369  -5.8025  -5.8018
    -5.1872  -5.1869  -5.1357  -5.1354  -4.9697  -4.9687  -4.9531  -4.9511
    -0.9081  -0.9080  -0.7864  -0.7864  -0.6845  -0.6843  -0.5468  -0.5467
    -0.1660  -0.1659  -0.1263  -0.1263   2.3560   2.3562   2.5223   2.5223
     2.7022   2.7024   2.8426   2.8426   6.4208   6.4217   6.8205   6.8216
     7.6864   7.6866   7.8842   7.8847   7.9331   7.9336   8.2701   8.2705
     8.3649   8.3653   9.0248   9.0254   9.0989   9.0989   9.2220   9.2227
     9.3542   9.3548   9.5114   9.5125  10.0514  10.0514  10.2823  10.2825
    13.9620  13.9621  14.5424  14.5426  14.9052  14.9054  15.5807  15.5814
    15.7352  15.7355  16.2389  16.2389  16.6089  16.6091  16.8662  16.8664

          k = 0.5714 0.5000 0.2500 ( 10606 PWs)   bands (ev):

   -46.7370 -46.7167 -46.7094 -46.7061 -26.0143 -26.0011 -25.9962 -25.9940
   -20.8556 -20.8544 -20.8441 -20.8418 -20.8400 -20.8399 -20.8283 -20.8274
   -15.3147 -15.3147 -15.2660 -15.2660  -5.8744  -5.8739  -5.6367  -5.6361
    -5.1623  -5.1619  -5.1264  -5.1260  -4.9891  -4.9880  -4.9757  -4.9739
    -1.0732  -1.0732  -0.8663  -0.8663  -0.8556  -0.8555  -0.5965  -0.5964
    -0.2880  -0.2880  -0.0828  -0.0827   2.2921   2.2928   2.4381   2.4382
     2.7028   2.7034   2.8054   2.8055   6.1709   6.1723   6.4538   6.4559
     7.5833   7.5843   7.7699   7.7703   7.9056   7.9058   8.1717   8.1719
     8.3388   8.3390   9.1047   9.1049   9.1704   9.1705   9.2993   9.2997
     9.5355   9.5360   9.6117   9.6128  10.0413  10.0414  10.2501  10.2502
    14.1017  14.1018  14.6797  14.6799  15.4803  15.4808  15.9333  15.9333
    16.1411  16.1413  16.2600  16.2602  16.6193  16.6193  16.9001  16.9003

          k = 0.8571 0.5000 0.2500 ( 10572 PWs)   bands (ev):

   -46.7368 -46.7164 -46.7092 -46.7059 -26.0209 -26.0077 -26.0029 -26.0007
   -20.8534 -20.8522 -20.8425 -20.8399 -20.8391 -20.8387 -20.8278 -20.8268
   -15.2913 -15.2912 -15.2466 -15.2466  -5.8533  -5.8530  -5.4950  -5.4947
    -5.1280  -5.1276  -5.0912  -5.0908  -5.0091  -5.0083  -5.0021  -5.0000
    -1.2134  -1.2133  -0.9290  -0.9289  -0.8965  -0.8965  -0.5478  -0.5478
    -0.4857  -0.4857  -0.1260  -0.1260   2.2430   2.2441   2.3679   2.3683
     2.7094   2.7105   2.7687   2.7691   5.9078   5.9099   6.1560   6.1588
     7.5053   7.5065   7.7791   7.7793   7.9076   7.9079   8.1181   8.1183
     8.4983   8.4986   9.0695   9.0696   9.2179   9.2183   9.3281   9.3282
     9.5574   9.5585   9.6569   9.6574  10.0298  10.0299  10.1834  10.1834
    14.2743  14.2744  14.7375  14.7378  15.9456  15.9456  16.2399  16.2401
    16.3764  16.3766  16.5157  16.5158  16.8738  16.8746  17.0532  17.0538

          k =-0.0000 0.5000-0.5000 ( 10640 PWs)   bands (ev):

   -46.7375 -46.7172 -46.7099 -46.7066 -26.0024 -25.9891 -25.9844 -25.9821
   -20.8468 -20.8468 -20.8444 -20.8444 -20.8429 -20.8428 -20.8418 -20.8417
   -15.3287 -15.3287 -15.3286 -15.3286  -5.9033  -5.9033  -5.9021  -5.9004
    -5.2028  -5.2027  -5.2024  -5.2020  -4.9400  -4.9397  -4.9379  -4.9346
    -0.8430  -0.8430  -0.8419  -0.8419  -0.4416  -0.4414  -0.4412  -0.4412
    -0.1956  -0.1956  -0.1954  -0.1954   2.4002   2.4002   2.4098   2.4098
     2.8355   2.8355   2.8444   2.8445   6.7716   6.7716   6.7726   6.7741
     7.9460   7.9461   7.9461   7.9464   8.0784   8.0785   8.0789   8.0794
     8.6228   8.6230   8.6231   8.6232   9.1579   9.1585   9.1607   9.1651
     9.2003   9.2006   9.2008   9.2011  10.2494  10.2495  10.2498  10.2500
    14.1444  14.1446  14.1450  14.1455  15.5498  15.5500  15.5506  15.5508
    15.5878  15.5886  15.5888  15.5890  16.7805  16.7809  16.7814  16.7819

          k = 0.2857 0.5000-0.5000 ( 10608 PWs)   bands (ev):

   -46.7374 -46.7170 -46.7097 -46.7064 -26.0061 -25.9927 -25.9881 -25.9858
   -20.8460 -20.8460 -20.8436 -20.8435 -20.8421 -20.8421 -20.8411 -20.8410
   -15.3170 -15.3170 -15.3169 -15.3169  -5.8557  -5.8557  -5.8547  -5.8533
    -5.1791  -5.1789  -5.1787  -5.1782  -4.9621  -4.9618  -4.9600  -4.9566
    -0.8994  -0.8994  -0.8984  -0.8983  -0.5887  -0.5885  -0.5883  -0.5883
    -0.1110  -0.1110  -0.1109  -0.1109   2.3626   2.3626   2.3721   2.3721
     2.8327   2.8327   2.8416   2.8416   6.6450   6.6451   6.6463   6.6483
     7.7880   7.7883   7.7887   7.7898   8.0458   8.0459   8.0463   8.0468
     8.6377   8.6378   8.6383   8.6390   9.2060   9.2062   9.2064   9.2068
     9.3729   9.3732   9.3746   9.3774  10.2583  10.2584  10.2586  10.2588
    14.1973  14.1975  14.1980  14.1985  15.6513  15.6520  15.6523  15.6524
    15.7231  15.7232  15.7237  15.7239  16.6804  16.6807  16.6812  17.1292

          k = 0.5714 0.5000-0.5000 ( 10600 PWs)   bands (ev):

   -46.7370 -46.7167 -46.7094 -46.7061 -26.0143 -26.0010 -25.9963 -25.9941
   -20.8442 -20.8441 -20.8417 -20.8416 -20.8405 -20.8405 -20.8396 -20.8395
   -15.2906 -15.2906 -15.2905 -15.2905  -5.7579  -5.7579  -5.7572  -5.7563
    -5.1238  -5.1238  -5.1235  -5.1230  -5.0026  -5.0023  -5.0003  -4.9969
    -1.0269  -1.0269  -1.0259  -1.0259  -0.7071  -0.7069  -0.7067  -0.7066
    -0.1405  -0.1404  -0.1403  -0.1403   2.2795   2.2795   2.2887   2.2888
     2.8256   2.8256   2.8345   2.8345   6.3178   6.3181   6.3201   6.3239
     7.6816   7.6819   7.6826   7.6841   8.0055   8.0056   8.0060   8.0065
     8.6768   8.6770   8.6775   8.6782   9.2222   9.2223   9.2225   9.2229
     9.6030   9.6033   9.6040   9.6059  10.1977  10.1977  10.1979  10.1979
    14.3400  14.3402  14.3407  14.3412  16.0093  16.0100  16.0104  16.0105
    16.1747  16.1748  16.1757  16.1757  16.6864  16.6869  16.6872  17.0756

          k = 0.8571 0.5000-0.5000 ( 10604 PWs)   bands (ev):

   -46.7368 -46.7164 -46.7092 -46.7059 -26.0209 -26.0076 -26.0030 -26.0007
   -20.8427 -20.8427 -20.8401 -20.8400 -20.8392 -20.8392 -20.8383 -20.8383
   -15.2691 -15.2691 -15.2690 -15.2690  -5.6959  -5.6958  -5.6955  -5.6950
    -5.0776  -5.0775  -5.0772  -5.0766  -5.0174  -5.0171  -5.0150  -5.0116
    -1.1301  -1.1300  -1.1291  -1.1291  -0.6776  -0.6774  -0.6771  -0.6770
    -0.2949  -0.2949  -0.2947  -0.2946   2.2150   2.2150   2.2241   2.2241
     2.8190   2.8190   2.8279   2.8279   6.0311   6.0316   6.0343   6.0396
     7.7163   7.7163   7.7171   7.7182   8.0061   8.0062   8.0066   8.0072
     8.7807   8.7808   8.7814   8.7817   9.2305   9.2305   9.2307   9.2309
     9.5719   9.5724   9.5728   9.5749  10.0861  10.0861  10.0863  10.0864
    14.4834  14.4836  14.4842  14.4846  16.4068  16.4072  16.4087  16.4092
    16.6213  16.6216  16.6219  16.6223  17.0400  17.0404  17.0408  17.0412

          k =-0.0000 0.0000-0.2500 ( 10596 PWs)   bands (ev):

   -46.7375 -46.7172 -46.7099 -46.7066 -26.0026 -25.9891 -25.9848 -25.9814
   -20.8674 -20.8625 -20.8618 -20.8559 -20.8303 -20.8277 -20.8239 -20.8217
   -15.4032 -15.3318 -15.3087 -15.2689  -6.1080  -6.0800  -5.9455  -5.5983
    -5.2603  -5.1104  -5.1036  -5.0717  -5.0632  -4.9391  -4.9265  -4.9223
    -0.9055  -0.8684  -0.7351  -0.6933  -0.6166  -0.5745  -0.4103  -0.3525
    -0.3210  -0.2124  -0.1810  -0.0503   2.4064   2.4220   2.4838   2.4917
     2.6052   2.6086   2.9761   2.9800   6.1848   6.5014   6.6777   7.0773
     7.3254   7.6713   8.1981   8.2002   8.2576   8.3623   8.3870   8.4954
     8.4970   8.6160   8.6942   8.7646   8.7722   9.0189   9.0408   9.3052
     9.3779   9.5040   9.5336   9.7218   9.7315  10.0418  10.0967  10.5958
    13.3014  13.9987  14.3951  14.4291  14.4796  14.6046  14.8917  14.8954
    15.9759  16.1123  16.2270  16.3076  16.4530  16.6242  16.7639  16.8350

          k =-0.2857-0.2500-0.0000 ( 10585 PWs)   bands (ev):

   -46.7374 -46.7170 -46.7097 -46.7064 -26.0062 -25.9930 -25.9881 -25.9854
   -20.8657 -20.8615 -20.8604 -20.8550 -20.8300 -20.8273 -20.8233 -20.8219
   -15.3880 -15.3207 -15.2985 -15.2588  -6.0333  -5.9920  -5.9525  -5.5282
    -5.2354  -5.1090  -5.1015  -5.0967  -5.0791  -4.9496  -4.9383  -4.9337
    -1.0141  -0.9784  -0.7210  -0.7141  -0.6460  -0.5503  -0.5187  -0.4685
    -0.2223  -0.1980  -0.1935  -0.1923   2.3618   2.3876   2.4573   2.4704
     2.6119   2.6171   2.9484   2.9543   6.1221   6.4656   6.6390   7.0388
     7.3442   7.6195   7.9260   7.9498   8.0512   8.2403   8.2989   8.4106
     8.5373   8.6016   8.8810   8.9366   8.9528   9.1811   9.2210   9.2801
     9.3327   9.4684   9.5532   9.5771   9.6822  10.0377  10.0629  10.6114
    13.3528  14.3579  14.4298  14.6305  14.6989  14.8802  14.9379  15.0841
    15.9778  15.9880  16.0631  16.3085  16.5027  16.5847  16.8166  16.8366

          k =-0.2857 0.0000-0.2500 ( 10585 PWs)   bands (ev):

   -46.7374 -46.7170 -46.7098 -46.7064 -26.0062 -25.9928 -25.9884 -25.9852
   -20.8658 -20.8614 -20.8603 -20.8551 -20.8297 -20.8275 -20.8237 -20.8216
   -15.3880 -15.3207 -15.2985 -15.2588  -6.0333  -5.9919  -5.9525  -5.5282
    -5.2354  -5.1090  -5.1015  -5.0967  -5.0791  -4.9496  -4.9385  -4.9335
    -1.0141  -0.9784  -0.7210  -0.7141  -0.6460  -0.5503  -0.5186  -0.4686
    -0.2222  -0.1980  -0.1936  -0.1923   2.3617   2.3876   2.4574   2.4706
     2.6118   2.6170   2.9484   2.9544   6.1221   6.4656   6.6389   7.0388
     7.3442   7.6195   7.9261   7.9498   8.0510   8.2403   8.2991   8.4106
     8.5373   8.6016   8.8809   8.9367   8.9529   9.1811   9.2210   9.2800
     9.3327   9.4684   9.5532   9.5771   9.6822  10.0377  10.0629  10.6114
    13.3528  14.3579  14.4297  14.6305  14.6990  14.8802  14.9380  15.0841
    15.9779  15.9881  16.0630  16.3083  16.5026  16.5848  16.8167  16.8365

          k =-0.2857-0.0000 0.2500 ( 10585 PWs)   bands (ev):

   -46.7374 -46.7170 -46.7098 -46.7064 -26.0062 -25.9928 -25.9884 -25.9852
   -20.8658 -20.8614 -20.8603 -20.8551 -20.8297 -20.8275 -20.8237 -20.8216
   -15.3880 -15.3207 -15.2985 -15.2588  -6.0333  -5.9920  -5.9526  -5.5281
    -5.2354  -5.1090  -5.1015  -5.0967  -5.0791  -4.9496  -4.9384  -4.9336
    -1.0141  -0.9784  -0.7210  -0.7141  -0.6460  -0.5503  -0.5188  -0.4685
    -0.2223  -0.1980  -0.1934  -0.1923   2.3617   2.3875   2.4575   2.4706
     2.6118   2.6170   2.9484   2.9543   6.1221   6.4656   6.6390   7.0388
     7.3442   7.6194   7.9259   7.9499   8.0513   8.2403   8.2988   8.4106
     8.5373   8.6016   8.8810   8.9366   8.9527   9.1812   9.2210   9.2801
     9.3328   9.4684   9.5532   9.5771   9.6822  10.0377  10.0629  10.6114
    13.3528  14.3579  14.4299  14.6305  14.6988  14.8802  14.9378  15.0840
    15.9776  15.9880  16.0631  16.3087  16.5027  16.5846  16.8166  16.8366

          k =-0.5714-0.2500-0.0000 ( 10595 PWs)   bands (ev):

   -46.7371 -46.7167 -46.7094 -46.7061 -26.0144 -26.0012 -25.9963 -25.9938
   -20.8620 -20.8591 -20.8569 -20.8531 -20.8289 -20.8269 -20.8228 -20.8217
   -15.3535 -15.2955 -15.2753 -15.2361  -6.0039  -5.8523  -5.7636  -5.3564
    -5.1954  -5.1895  -5.1782  -5.0768  -5.0154  -4.9663  -4.9615  -4.9577
    -1.2334  -1.2212  -0.7511  -0.7287  -0.6915  -0.6690  -0.6680  -0.5185
    -0.4956  -0.2548  -0.2052  -0.0384   2.2566   2.3096   2.4049   2.4216
     2.6271   2.6466   2.8795   2.8895   5.8843   6.3130   6.4456   6.5007
     7.4732   7.5755   7.6350   7.6536   7.9359   8.0734   8.1848   8.2705
     8.4288   8.5180   9.0348   9.1166   9.2432   9.2827   9.3244   9.3473
     9.3745   9.5274   9.5519   9.7167   9.7699   9.9876  10.0547  10.6315
    13.4976  14.5723  14.8303  14.9538  15.1252  15.3307  15.5633  15.6307
    15.7958  15.8626  16.0635  16.0899  16.5605  16.8312  16.9104  17.1216

          k =-0.5714 0.0000-0.2500 ( 10595 PWs)   bands (ev):

   -46.7371 -46.7167 -46.7094 -46.7061 -26.0144 -26.0010 -25.9966 -25.9936
   -20.8622 -20.8589 -20.8567 -20.8533 -20.8284 -20.8272 -20.8232 -20.8213
   -15.3535 -15.2955 -15.2753 -15.2361  -6.0039  -5.8523  -5.7636  -5.3564
    -5.1954  -5.1896  -5.1782  -5.0768  -5.0153  -4.9667  -4.9605  -4.9583
    -1.2334  -1.2212  -0.7510  -0.7288  -0.6915  -0.6689  -0.6681  -0.5185
    -0.4956  -0.2548  -0.2052  -0.0384   2.2566   2.3096   2.4048   2.4217
     2.6270   2.6466   2.8796   2.8895   5.8843   6.3130   6.4455   6.5008
     7.4731   7.5755   7.6351   7.6535   7.9358   8.0735   8.1848   8.2706
     8.4289   8.5180   9.0347   9.1167   9.2430   9.2827   9.3245   9.3473
     9.3745   9.5274   9.5518   9.7167   9.7699   9.9876  10.0547  10.6315
    13.4975  14.5723  14.8302  14.9539  15.1251  15.3309  15.5632  15.6307
    15.7957  15.8627  16.0633  16.0899  16.5606  16.8312  16.9105  17.1214

          k =-0.5714-0.0000 0.2500 ( 10595 PWs)   bands (ev):

   -46.7371 -46.7167 -46.7094 -46.7061 -26.0144 -26.0010 -25.9966 -25.9936
   -20.8622 -20.8589 -20.8567 -20.8533 -20.8284 -20.8272 -20.8232 -20.8213
   -15.3535 -15.2955 -15.2753 -15.2361  -6.0039  -5.8523  -5.7636  -5.3564
    -5.1954  -5.1895  -5.1782  -5.0768  -5.0154  -4.9666  -4.9605  -4.9583
    -1.2334  -1.2212  -0.7511  -0.7287  -0.6915  -0.6689  -0.6681  -0.5185
    -0.4956  -0.2548  -0.2051  -0.0384   2.2565   2.3095   2.4049   2.4217
     2.6271   2.6466   2.8795   2.8895   5.8843   6.3130   6.4455   6.5007
     7.4732   7.5755   7.6351   7.6536   7.9359   8.0734   8.1849   8.2704
     8.4288   8.5180   9.0350   9.1165   9.2433   9.2826   9.3243   9.3472
     9.3745   9.5274   9.5519   9.7166   9.7699   9.9877  10.0547  10.6315
    13.4976  14.5723  14.8304  14.9537  15.1253  15.3305  15.5633  15.6306
    15.7957  15.8625  16.0636  16.0898  16.5604  16.8313  16.9104  17.1217

          k =-0.8571-0.2500-0.0000 ( 10583 PWs)   bands (ev):

   -46.7368 -46.7164 -46.7092 -46.7059 -26.0210 -26.0078 -26.0029 -26.0004
   -20.8589 -20.8570 -20.8541 -20.8514 -20.8283 -20.8264 -20.8226 -20.8215
   -15.3253 -15.2751 -15.2566 -15.2176  -6.0761  -5.7014  -5.5119  -5.2669
    -5.2104  -5.1916  -5.1312  -5.0536  -5.0455  -5.0383  -4.9652  -4.9495
    -1.4130  -1.3825  -0.9327  -0.8090  -0.7823  -0.7273  -0.6596  -0.6263
    -0.4545  -0.3560  -0.2226   0.0920   2.1677   2.2506   2.3661   2.3819
     2.6437   2.6917   2.8116   2.8190   5.5809   6.1032   6.1808   6.2092
     7.2747   7.4381   7.4509   7.5795   7.9482   7.9829   8.1978   8.3073
     8.4237   8.4315   8.8153   9.1497   9.1856   9.3815   9.3992   9.4884
     9.5739   9.6149   9.7936   9.9057   9.9391  10.0359  10.0962  10.6241
    13.6688  14.7095  14.8638  14.9048  15.5480  15.6588  15.6943  15.8755
    16.0393  16.2372  16.2381  16.5236  16.5614  16.6646  16.8094  17.0081

          k =-0.8571-0.0000-0.2500 ( 10583 PWs)   bands (ev):

   -46.7368 -46.7164 -46.7092 -46.7059 -26.0210 -26.0076 -26.0032 -26.0003
   -20.8592 -20.8567 -20.8538 -20.8517 -20.8278 -20.8268 -20.8231 -20.8211
   -15.3253 -15.2751 -15.2566 -15.2176  -6.0761  -5.7014  -5.5119  -5.2669
    -5.2104  -5.1916  -5.1312  -5.0536  -5.0455  -5.0383  -4.9653  -4.9494
    -1.4130  -1.3825  -0.9327  -0.8090  -0.7823  -0.7273  -0.6596  -0.6263
    -0.4545  -0.3560  -0.2226   0.0920   2.1676   2.2506   2.3661   2.3819
     2.6436   2.6917   2.8116   2.8190   5.5809   6.1033   6.1804   6.2095
     7.2747   7.4381   7.4509   7.5795   7.9482   7.9829   8.1978   8.3075
     8.4237   8.4314   8.8152   9.1497   9.1857   9.3815   9.3991   9.4885
     9.5740   9.6149   9.7936   9.9057   9.9391  10.0359  10.0962  10.6241
    13.6688  14.7095  14.8639  14.9047  15.5479  15.6590  15.6943  15.8755
    16.0392  16.2373  16.2382  16.5236  16.5615  16.6645  16.8093  17.0081

          k =-0.8571-0.0000 0.2500 ( 10583 PWs)   bands (ev):

   -46.7368 -46.7164 -46.7092 -46.7059 -26.0210 -26.0076 -26.0032 -26.0003
   -20.8592 -20.8567 -20.8538 -20.8517 -20.8278 -20.8268 -20.8231 -20.8211
   -15.3253 -15.2751 -15.2566 -15.2176  -6.0761  -5.7014  -5.5119  -5.2669
    -5.2104  -5.1916  -5.1312  -5.0536  -5.0455  -5.0383  -4.9652  -4.9495
    -1.4129  -1.3825  -0.9328  -0.8090  -0.7823  -0.7273  -0.6596  -0.6263
    -0.4545  -0.3560  -0.2225   0.0920   2.1676   2.2506   2.3661   2.3819
     2.6437   2.6917   2.8116   2.8190   5.5809   6.1033   6.1804   6.2095
     7.2747   7.4381   7.4509   7.5795   7.9482   7.9829   8.1978   8.3072
     8.4237   8.4315   8.8154   9.1497   9.1856   9.3815   9.3992   9.4884
     9.5739   9.6149   9.7937   9.9057   9.9392  10.0360  10.0962  10.6241
    13.6688  14.7095  14.8638  14.9048  15.5481  15.6586  15.6943  15.8756
    16.0393  16.2372  16.2381  16.5235  16.5612  16.6647  16.8094  17.0081

          k = 0.0000-0.0000 0.5000 ( 10606 PWs)   bands (ev):

   -46.7375 -46.7172 -46.7099 -46.7066 -26.0025 -25.9889 -25.9850 -25.9815
   -20.8659 -20.8640 -20.8475 -20.8450 -20.8425 -20.8408 -20.8237 -20.8218
   -15.3678 -15.3677 -15.2889 -15.2889  -6.0113  -6.0093  -5.8767  -5.8748
    -5.1654  -5.1647  -5.1058  -5.1053  -4.9916  -4.9884  -4.9271  -4.9229
    -0.7785  -0.7775  -0.6588  -0.6585  -0.6559  -0.6546  -0.5228  -0.5222
    -0.2630  -0.2629  -0.1156  -0.1156   2.5022   2.5123   2.5177   2.5278
     2.7354   2.7405   2.7498   2.7547   6.3754   6.3771   7.0171   7.0185
     7.5370   7.5376   7.9045   7.9059   8.2639   8.2652   8.3985   8.3991
     8.5375   8.5387   8.7299   8.7321   9.0342   9.0350   9.2914   9.2960
     9.5195   9.5201   9.5972   9.5981   9.7068   9.7068  10.2669  10.2673
    13.8788  13.8794  14.3242  14.3247  14.6229  14.6233  15.3074  15.3083
    15.6740  15.6745  16.2678  16.2699  16.2860  16.2872  17.2599  17.2615

          k =-0.2857-0.0000 0.5000 ( 10620 PWs)   bands (ev):

   -46.7374 -46.7170 -46.7098 -46.7064 -26.0062 -25.9926 -25.9886 -25.9852
   -20.8646 -20.8626 -20.8465 -20.8440 -20.8419 -20.8403 -20.8236 -20.8217
   -15.3546 -15.3546 -15.2788 -15.2788  -5.9769  -5.9752  -5.7946  -5.7928
    -5.1703  -5.1696  -5.1167  -5.1163  -4.9790  -4.9758  -4.9478  -4.9436
    -0.8650  -0.8641  -0.7627  -0.7615  -0.6406  -0.6402  -0.6078  -0.6073
    -0.1876  -0.1875  -0.1772  -0.1771   2.4840   2.4993   2.5020   2.5173
     2.7083   2.7140   2.7227   2.7281   6.3130   6.3149   6.8830   6.8857
     7.6813   7.6820   7.8095   7.8116   7.9393   7.9406   8.2901   8.2916
     8.4740   8.4750   8.9356   8.9374   9.1388   9.1393   9.3673   9.3692
     9.4982   9.4995   9.6274   9.6277   9.7076   9.7082  10.2657  10.2661
    13.9103  13.9110  14.5968  14.5971  14.7293  14.7298  15.4776  15.4781
    15.8033  15.8038  16.1720  16.1730  16.3664  16.3674  16.9556  16.9562

          k =-0.5714-0.0000 0.5000 ( 10592 PWs)   bands (ev):

   -46.7371 -46.7167 -46.7094 -46.7061 -26.0144 -26.0009 -25.9968 -25.9936
   -20.8615 -20.8595 -20.8444 -20.8418 -20.8406 -20.8391 -20.8232 -20.8213
   -15.3247 -15.3247 -15.2558 -15.2558  -5.9220  -5.9209  -5.5857  -5.5843
    -5.1852  -5.1845  -5.1376  -5.1366  -4.9765  -4.9731  -4.9601  -4.9566
    -1.0015  -1.0008  -0.9980  -0.9970  -0.7172  -0.7166  -0.6006  -0.6001
    -0.3606  -0.3605  -0.1017  -0.1015   2.4347   2.4496   2.4936   2.5087
     2.6440   2.6495   2.6583   2.6633   6.1028   6.1059   6.5037   6.5092
     7.5282   7.5312   7.7972   7.7979   8.0228   8.0236   8.0725   8.0739
     8.2710   8.2717   9.1880   9.1893   9.2650   9.2655   9.3291   9.3300
     9.5589   9.5608   9.6066   9.6076   9.9130   9.9133  10.2355  10.2358
    14.0309  14.0316  14.8663  14.8670  15.2355  15.2360  15.7397  15.7408
    16.1369  16.1384  16.2444  16.2447  16.5768  16.5771  16.9470  16.9475

          k =-0.8571-0.0000 0.5000 ( 10578 PWs)   bands (ev):

   -46.7368 -46.7164 -46.7092 -46.7059 -26.0209 -26.0075 -26.0033 -26.0003
   -20.8589 -20.8570 -20.8426 -20.8397 -20.8396 -20.8384 -20.8230 -20.8211
   -15.3004 -15.3003 -15.2372 -15.2372  -5.9127  -5.9120  -5.3628  -5.3620
    -5.2010  -5.2004  -5.1042  -5.1031  -5.0072  -5.0037  -4.9940  -4.9905
    -1.1825  -1.1815  -1.0470  -1.0462  -0.7761  -0.7754  -0.5965  -0.5958
    -0.5317  -0.5316  -0.0624  -0.0622   2.3846   2.3991   2.5138   2.5290
     2.5789   2.5902   2.5922   2.6044   5.8537   5.8584   6.2043   6.2111
     7.3640   7.3668   7.8141   7.8145   7.9340   7.9350   8.0683   8.0688
     8.3696   8.3705   9.1699   9.1712   9.1747   9.1753   9.4676   9.4687
     9.6290   9.6308   9.7008   9.7019   9.9914   9.9914  10.2318  10.2320
    14.1988  14.1998  14.8645  14.8651  15.6834  15.6849  16.0726  16.0732
    16.1510  16.1520  16.4099  16.4102  16.8669  16.8671  17.1706  17.1727

          k = 0.0000 0.2500 0.2500 ( 10620 PWs)   bands (ev):

   -46.7375 -46.7172 -46.7099 -46.7066 -26.0025 -25.9892 -25.9845 -25.9817
   -20.8611 -20.8610 -20.8573 -20.8560 -20.8307 -20.8295 -20.8280 -20.8277
   -15.3896 -15.3228 -15.3227 -15.2782  -6.0430  -6.0423  -5.9450  -5.6788
    -5.2730  -5.1242  -5.1038  -5.1038  -5.0376  -4.9334  -4.9322  -4.9262
    -0.9167  -0.7835  -0.7501  -0.6766  -0.6758  -0.5761  -0.3948  -0.3945
    -0.2975  -0.1964  -0.1963  -0.0776   2.3829   2.3925   2.4798   2.6144
     2.6235   2.6958   2.8027   2.9999   6.2889   6.6420   6.6424   7.2331
     7.2405   7.7379   8.1419   8.1422   8.2800   8.2804   8.3372   8.3796
     8.3826   8.6406   8.6408   8.8136   8.8155   8.9835   8.9852   9.3721
     9.3725   9.4746   9.6096   9.6265   9.8231   9.8234  10.2139  10.5245
    13.4689  14.2817  14.3493  14.3500  14.7503  14.7659  14.8175  14.8178
    16.0314  16.2190  16.3067  16.3073  16.5277  16.6988  16.6990  16.9558

          k =-0.2857 0.2500 0.2500 ( 10607 PWs)   bands (ev):

   -46.7374 -46.7170 -46.7097 -46.7064 -26.0062 -25.9928 -25.9882 -25.9854
   -20.8597 -20.8596 -20.8563 -20.8551 -20.8302 -20.8291 -20.8278 -20.8274
   -15.3751 -15.3118 -15.3118 -15.2680  -5.9694  -5.9688  -5.9413  -5.6121
    -5.2400  -5.1251  -5.1251  -5.1109  -5.0255  -4.9553  -4.9433  -4.9413
    -1.0138  -0.8712  -0.7925  -0.7069  -0.7061  -0.6171  -0.5179  -0.5176
    -0.2069  -0.1639  -0.1560  -0.1560   2.3437   2.3530   2.4688   2.5969
     2.6057   2.7077   2.7712   2.9801   6.2187   6.5816   6.5823   6.9854
     7.4391   7.6909   7.8914   7.8923   8.0548   8.2412   8.2631   8.2633
     8.3389   8.7018   8.7019   8.9181   9.0372   9.1536   9.1542   9.3942
     9.3949   9.4889   9.5103   9.6969   9.8088   9.8090  10.1890  10.5385
    13.5238  14.4188  14.4195  14.5740  14.7953  15.0227  15.0313  15.0316
    15.9711  16.1845  16.1855  16.1992  16.6957  16.7235  16.7237  16.8313

          k =-0.2857-0.2500-0.2500 ( 10607 PWs)   bands (ev):

   -46.7374 -46.7170 -46.7097 -46.7064 -26.0062 -25.9928 -25.9882 -25.9854
   -20.8597 -20.8596 -20.8563 -20.8551 -20.8302 -20.8291 -20.8278 -20.8274
   -15.3751 -15.3118 -15.3118 -15.2680  -5.9694  -5.9688  -5.9413  -5.6122
    -5.2400  -5.1251  -5.1251  -5.1109  -5.0254  -4.9553  -4.9433  -4.9413
    -1.0138  -0.8713  -0.7925  -0.7068  -0.7061  -0.6171  -0.5179  -0.5176
    -0.2069  -0.1639  -0.1561  -0.1560   2.3437   2.3530   2.4688   2.5969
     2.6057   2.7077   2.7713   2.9802   6.2187   6.5815   6.5822   6.9855
     7.4391   7.6910   7.8914   7.8923   8.0545   8.2415   8.2632   8.2634
     8.3388   8.7018   8.7019   8.9182   9.0373   9.1536   9.1543   9.3942
     9.3948   9.4889   9.5103   9.6969   9.8087   9.8090  10.1890  10.5384
    13.5237  14.4187  14.4193  14.5740  14.7955  15.0226  15.0315  15.0318
    15.9710  16.1845  16.1855  16.1993  16.6957  16.7235  16.7237  16.8316

          k = 0.2857 0.2500-0.2500 ( 10607 PWs)   bands (ev):

   -46.7374 -46.7170 -46.7097 -46.7064 -26.0062 -25.9928 -25.9882 -25.9854
   -20.8597 -20.8596 -20.8563 -20.8551 -20.8302 -20.8291 -20.8278 -20.8274
   -15.3751 -15.3118 -15.3118 -15.2680  -5.9694  -5.9688  -5.9413  -5.6122
    -5.2400  -5.1251  -5.1251  -5.1109  -5.0255  -4.9553  -4.9433  -4.9413
    -1.0138  -0.8712  -0.7925  -0.7069  -0.7061  -0.6171  -0.5179  -0.5176
    -0.2069  -0.1639  -0.1560  -0.1560   2.3437   2.3530   2.4688   2.5969
     2.6057   2.7077   2.7712   2.9801   6.2187   6.5816   6.5823   6.9855
     7.4391   7.6909   7.8914   7.8923   8.0548   8.2412   8.2631   8.2633
     8.3389   8.7018   8.7019   8.9181   9.0372   9.1536   9.1543   9.3942
     9.3948   9.4889   9.5103   9.6969   9.8088   9.8090  10.1890  10.5385
    13.5238  14.4188  14.4195  14.5740  14.7954  15.0227  15.0313  15.0316
    15.9711  16.1845  16.1855  16.1992  16.6958  16.7235  16.7237  16.8312

          k =-0.5714 0.2500 0.2500 ( 10592 PWs)   bands (ev):

   -46.7370 -46.7167 -46.7094 -46.7061 -26.0144 -26.0011 -25.9964 -25.9938
   -20.8565 -20.8563 -20.8540 -20.8531 -20.8291 -20.8282 -20.8273 -20.8268
   -15.3422 -15.2870 -15.2869 -15.2449  -5.9652  -5.7923  -5.7919  -5.4538
    -5.1797  -5.1796  -5.1620  -5.0806  -5.0055  -4.9752  -4.9684  -4.9664
    -1.2286  -1.0883  -0.8176  -0.8170  -0.8149  -0.6256  -0.6253  -0.6206
    -0.4466  -0.1868  -0.1866  -0.0417   2.2560   2.2648   2.4500   2.5578
     2.5662   2.6925   2.7384   2.9307   5.9696   6.3664   6.3683   6.4950
     7.5890   7.5982   7.6265   7.6273   7.9682   8.0436   8.2019   8.2021
     8.2097   8.7533   8.7535   9.1732   9.2517   9.2518   9.3278   9.3473
     9.5084   9.5091   9.5356   9.7256   9.8892   9.8894  10.1130  10.5403
    13.6703  14.5850  14.5855  14.8528  15.2895  15.5851  15.5854  15.7049
    15.9023  16.0348  16.0356  16.2189  16.7184  16.7186  16.8673  17.0491

          k =-0.5714-0.2500-0.2500 ( 10592 PWs)   bands (ev):

   -46.7370 -46.7167 -46.7094 -46.7061 -26.0144 -26.0011 -25.9964 -25.9938
   -20.8565 -20.8563 -20.8540 -20.8531 -20.8291 -20.8282 -20.8273 -20.8268
   -15.3422 -15.2870 -15.2869 -15.2449  -5.9652  -5.7923  -5.7919  -5.4539
    -5.1797  -5.1796  -5.1620  -5.0806  -5.0054  -4.9752  -4.9684  -4.9664
    -1.2287  -1.0883  -0.8175  -0.8169  -0.8149  -0.6256  -0.6254  -0.6206
    -0.4467  -0.1868  -0.1866  -0.0416   2.2560   2.2648   2.4499   2.5578
     2.5662   2.6925   2.7384   2.9308   5.9697   6.3664   6.3683   6.4950
     7.5890   7.5981   7.6264   7.6273   7.9682   8.0436   8.2021   8.2022
     8.2097   8.7533   8.7535   9.1733   9.2516   9.2517   9.3278   9.3472
     9.5085   9.5092   9.5356   9.7256   9.8891   9.8894  10.1130  10.5403
    13.6702  14.5849  14.5854  14.8530  15.2894  15.5854  15.5857  15.7048
    15.9024  16.0346  16.0355  16.2191  16.7184  16.7185  16.8672  17.0496

          k = 0.5714 0.2500-0.2500 ( 10592 PWs)   bands (ev):

   -46.7370 -46.7167 -46.7094 -46.7061 -26.0144 -26.0011 -25.9964 -25.9938
   -20.8565 -20.8563 -20.8540 -20.8531 -20.8291 -20.8282 -20.8273 -20.8268
   -15.3422 -15.2870 -15.2869 -15.2449  -5.9652  -5.7923  -5.7919  -5.4538
    -5.1797  -5.1796  -5.1620  -5.0806  -5.0055  -4.9752  -4.9684  -4.9665
    -1.2286  -1.0883  -0.8176  -0.8170  -0.8149  -0.6256  -0.6253  -0.6206
    -0.4466  -0.1868  -0.1866  -0.0417   2.2560   2.2648   2.4500   2.5578
     2.5662   2.6925   2.7384   2.9307   5.9697   6.3664   6.3683   6.4950
     7.5890   7.5982   7.6265   7.6273   7.9682   8.0436   8.2019   8.2021
     8.2097   8.7533   8.7536   9.1732   9.2517   9.2518   9.3278   9.3473
     9.5084   9.5091   9.5356   9.7256   9.8892   9.8894  10.1130  10.5403
    13.6703  14.5850  14.5855  14.8528  15.2895  15.5851  15.5854  15.7049
    15.9023  16.0348  16.0356  16.2189  16.7184  16.7186  16.8673  17.0492

          k =-0.8571 0.2500 0.2500 ( 10568 PWs)   bands (ev):

   -46.7368 -46.7164 -46.7092 -46.7059 -26.0209 -26.0077 -26.0030 -26.0005
   -20.8539 -20.8536 -20.8521 -20.8514 -20.8284 -20.8277 -20.8269 -20.8263
   -15.3154 -15.2668 -15.2668 -15.2262  -6.0157  -5.6441  -5.6439  -5.3136
    -5.1854  -5.1852  -5.0949  -5.0558  -5.0302  -5.0288  -4.9791  -4.9705
    -1.3997  -1.2061  -0.9482  -0.9478  -0.8343  -0.6938  -0.5883  -0.5879
    -0.5803  -0.2890  -0.2888   0.0283   2.1871   2.1955   2.4407   2.5273
     2.5355   2.6174   2.7758   2.8779   5.6795   6.1228   6.1256   6.1760
     7.4131   7.5215   7.5567   7.5572   7.8794   8.0788   8.1770   8.1771
     8.4483   8.6794   8.6797   9.1958   9.2738   9.2739   9.3939   9.4004
     9.4770   9.6484   9.6491   9.8363   9.9774   9.9776  10.1129  10.4841
    13.8478  14.7103  14.7108  14.8088  15.7904  15.7961  15.9323  15.9328
    16.2641  16.2644  16.4246  16.5245  16.6747  16.6753  16.8813  16.9580

          k =-0.8571-0.2500-0.2500 ( 10568 PWs)   bands (ev):

   -46.7368 -46.7164 -46.7092 -46.7059 -26.0209 -26.0077 -26.0030 -26.0005
   -20.8539 -20.8536 -20.8521 -20.8514 -20.8284 -20.8277 -20.8269 -20.8263
   -15.3154 -15.2668 -15.2668 -15.2262  -6.0157  -5.6441  -5.6439  -5.3136
    -5.1854  -5.1853  -5.0949  -5.0558  -5.0302  -5.0288  -4.9791  -4.9704
    -1.3997  -1.2061  -0.9482  -0.9477  -0.8343  -0.6938  -0.5883  -0.5879
    -0.5803  -0.2890  -0.2888   0.0283   2.1871   2.1955   2.4407   2.5273
     2.5355   2.6175   2.7758   2.8779   5.6795   6.1228   6.1256   6.1760
     7.4131   7.5215   7.5567   7.5572   7.8794   8.0788   8.1771   8.1772
     8.4482   8.6793   8.6796   9.1958   9.2738   9.2739   9.3938   9.4005
     9.4771   9.6485   9.6492   9.8363   9.9774   9.9775  10.1128  10.4841
    13.8478  14.7103  14.7107  14.8089  15.7904  15.7960  15.9325  15.9329
    16.2640  16.2643  16.4248  16.5246  16.6747  16.6752  16.8812  16.9580

          k = 0.8571 0.2500-0.2500 ( 10568 PWs)   bands (ev):

   -46.7368 -46.7164 -46.7092 -46.7059 -26.0209 -26.0077 -26.0030 -26.0005
   -20.8539 -20.8536 -20.8521 -20.8514 -20.8284 -20.8277 -20.8269 -20.8263
   -15.3154 -15.2668 -15.2668 -15.2262  -6.0157  -5.6440  -5.6439  -5.3136
    -5.1854  -5.1852  -5.0949  -5.0558  -5.0302  -5.0288  -4.9791  -4.9705
    -1.3997  -1.2061  -0.9482  -0.9478  -0.8343  -0.6938  -0.5883  -0.5879
    -0.5803  -0.2890  -0.2888   0.0283   2.1871   2.1955   2.4407   2.5273
     2.5355   2.6174   2.7758   2.8779   5.6795   6.1228   6.1256   6.1760
     7.4131   7.5215   7.5567   7.5572   7.8794   8.0788   8.1770   8.1771
     8.4483   8.6794   8.6797   9.1958   9.2738   9.2739   9.3939   9.4004
     9.4770   9.6485   9.6491   9.8363   9.9774   9.9775  10.1129  10.4841
    13.8478  14.7103  14.7108  14.8088  15.7904  15.7961  15.9323  15.9328
    16.2642  16.2644  16.4247  16.5245  16.6747  16.6753  16.8813  16.9580

          k = 0.0000 0.2500 0.5000 ( 10618 PWs)   bands (ev):

   -46.7375 -46.7172 -46.7099 -46.7066 -26.0025 -25.9890 -25.9847 -25.9818
   -20.8599 -20.8579 -20.8470 -20.8445 -20.8429 -20.8414 -20.8299 -20.8280
   -15.3564 -15.3564 -15.3006 -15.3006  -5.9749  -5.9729  -5.8729  -5.8709
    -5.2001  -5.1994  -5.1409  -5.1404  -4.9658  -4.9626  -4.9303  -4.9262
    -0.8331  -0.8329  -0.7599  -0.7599  -0.5546  -0.5541  -0.4442  -0.4440
    -0.2430  -0.2429  -0.1415  -0.1414   2.3860   2.3863   2.5586   2.5588
     2.7022   2.7025   2.8578   2.8578   6.5004   6.5021   6.9668   6.9683
     7.6579   7.6584   7.9453   7.9465   8.1876   8.1883   8.3237   8.3245
     8.4422   8.4428   8.8959   8.8978   9.0110   9.0119   9.1317   9.1328
     9.2567   9.2612   9.4687   9.4696  10.0509  10.0511  10.2775  10.2779
    13.9147  13.9153  14.4827  14.4832  14.6800  14.6804  15.4173  15.4186
    15.6092  15.6094  16.3348  16.3361  16.5838  16.5856  16.9465  16.9875

          k =-0.2857-0.5000 0.2500 ( 10616 PWs)   bands (ev):

   -46.7374 -46.7170 -46.7097 -46.7064 -26.0061 -25.9929 -25.9879 -25.9857
   -20.8583 -20.8571 -20.8460 -20.8440 -20.8415 -20.8413 -20.8290 -20.8281
   -15.3436 -15.3436 -15.2900 -15.2900  -5.9377  -5.9370  -5.8025  -5.8018
    -5.1872  -5.1869  -5.1357  -5.1354  -4.9697  -4.9687  -4.9531  -4.9511
    -0.9081  -0.9080  -0.7864  -0.7864  -0.6845  -0.6843  -0.5468  -0.5467
    -0.1660  -0.1659  -0.1263  -0.1263   2.3560   2.3562   2.5223   2.5223
     2.7022   2.7024   2.8426   2.8426   6.4208   6.4217   6.8205   6.8216
     7.6865   7.6867   7.8840   7.8845   7.9333   7.9338   8.2698   8.2702
     8.3650   8.3654   9.0247   9.0253   9.0989   9.0990   9.2220   9.2227
     9.3542   9.3548   9.5114   9.5126  10.0514  10.0515  10.2823  10.2825
    13.9621  13.9622  14.5425  14.5426  14.9050  14.9052  15.5808  15.5815
    15.7352  15.7354  16.2388  16.2388  16.6089  16.6091  16.8657  16.8660

          k =-0.2857 0.2500 0.5000 ( 10616 PWs)   bands (ev):

   -46.7374 -46.7170 -46.7097 -46.7064 -26.0061 -25.9927 -25.9884 -25.9855
   -20.8587 -20.8567 -20.8461 -20.8436 -20.8422 -20.8408 -20.8295 -20.8277
   -15.3436 -15.3436 -15.2900 -15.2900  -5.9381  -5.9364  -5.8031  -5.8013
    -5.1874  -5.1867  -5.1358  -5.1353  -4.9707  -4.9674  -4.9543  -4.9502
    -0.9082  -0.9080  -0.7864  -0.7864  -0.6847  -0.6842  -0.5468  -0.5466
    -0.1660  -0.1659  -0.1263  -0.1263   2.3558   2.3563   2.5223   2.5225
     2.7019   2.7024   2.8426   2.8427   6.4203   6.4222   6.8198   6.8223
     7.6862   7.6868   7.8838   7.8849   7.9330   7.9339   8.2696   8.2707
     8.3646   8.3657   9.0244   9.0258   9.0989   9.0990   9.2215   9.2233
     9.3540   9.3550   9.5106   9.5133  10.0514  10.0515  10.2822  10.2826
    13.9618  13.9624  14.5422  14.5428  14.9051  14.9053  15.5806  15.5816
    15.7352  15.7355  16.2386  16.2391  16.6085  16.6095  16.8657  16.8663

          k =-0.2857-0.2500-0.5000 ( 10616 PWs)   bands (ev):

   -46.7374 -46.7170 -46.7097 -46.7064 -26.0061 -25.9927 -25.9884 -25.9855
   -20.8587 -20.8567 -20.8461 -20.8436 -20.8422 -20.8408 -20.8295 -20.8277
   -15.3436 -15.3436 -15.2900 -15.2900  -5.9381  -5.9364  -5.8031  -5.8013
    -5.1874  -5.1867  -5.1358  -5.1353  -4.9707  -4.9674  -4.9543  -4.9502
    -0.9082  -0.9080  -0.7864  -0.7864  -0.6847  -0.6842  -0.5468  -0.5466
    -0.1660  -0.1659  -0.1263  -0.1263   2.3558   2.3563   2.5223   2.5225
     2.7019   2.7024   2.8426   2.8427   6.4203   6.4222   6.8198   6.8223
     7.6862   7.6868   7.8838   7.8849   7.9330   7.9339   8.2696   8.2707
     8.3646   8.3657   9.0244   9.0258   9.0989   9.0990   9.2215   9.2233
     9.3540   9.3550   9.5106   9.5133  10.0514  10.0515  10.2822  10.2826
    13.9618  13.9624  14.5422  14.5428  14.9051  14.9053  15.5806  15.5816
    15.7352  15.7355  16.2386  16.2391  16.6085  16.6095  16.8655  16.8664

          k =-0.5714-0.5000 0.2500 ( 10606 PWs)   bands (ev):

   -46.7370 -46.7167 -46.7094 -46.7061 -26.0143 -26.0011 -25.9962 -25.9940
   -20.8556 -20.8544 -20.8441 -20.8418 -20.8400 -20.8399 -20.8283 -20.8274
   -15.3147 -15.3147 -15.2660 -15.2660  -5.8744  -5.8739  -5.6366  -5.6361
    -5.1623  -5.1619  -5.1264  -5.1260  -4.9891  -4.9880  -4.9757  -4.9739
    -1.0732  -1.0732  -0.8667  -0.8667  -0.8553  -0.8552  -0.5964  -0.5964
    -0.2880  -0.2879  -0.0828  -0.0828   2.2922   2.2928   2.4380   2.4381
     2.7029   2.7034   2.8054   2.8055   6.1709   6.1723   6.4538   6.4559
     7.5834   7.5844   7.7698   7.7703   7.9055   7.9057   8.1716   8.1718
     8.3390   8.3392   9.1047   9.1049   9.1703   9.1704   9.2994   9.2998
     9.5354   9.5359   9.6117   9.6127  10.0414  10.0415  10.2501  10.2502
    14.1019  14.1019  14.6796  14.6798  15.4801  15.4805  15.9334  15.9334
    16.1419  16.1421  16.2593  16.2595  16.6191  16.6191  16.8998  16.9000

          k =-0.5714 0.2500 0.5000 ( 10606 PWs)   bands (ev):

   -46.7370 -46.7167 -46.7094 -46.7061 -26.0143 -26.0010 -25.9966 -25.9938
   -20.8560 -20.8540 -20.8442 -20.8414 -20.8408 -20.8395 -20.8288 -20.8269
   -15.3147 -15.3147 -15.2660 -15.2660  -5.8747  -5.8736  -5.6370  -5.6357
    -5.1625  -5.1617  -5.1266  -5.1257  -4.9901  -4.9867  -4.9768  -4.9731
    -1.0732  -1.0732  -0.8665  -0.8664  -0.8555  -0.8553  -0.5965  -0.5963
    -0.2880  -0.2879  -0.0828  -0.0827   2.2918   2.2931   2.4381   2.4382
     2.7025   2.7036   2.8054   2.8056   6.1700   6.1733   6.4523   6.4573
     7.5827   7.5851   7.7696   7.7706   7.9054   7.9059   8.1714   8.1720
     8.3387   8.3393   9.1044   9.1051   9.1702   9.1706   9.2993   9.2998
     9.5352   9.5362   9.6111   9.6134  10.0414  10.0415  10.2500  10.2502
    14.1015  14.1022  14.6794  14.6801  15.4801  15.4807  15.9330  15.9337
    16.1413  16.1419  16.2595  16.2601  16.6189  16.6195  16.8999  16.9003

          k =-0.5714-0.2500-0.5000 ( 10606 PWs)   bands (ev):

   -46.7370 -46.7167 -46.7094 -46.7061 -26.0143 -26.0010 -25.9966 -25.9938
   -20.8560 -20.8540 -20.8442 -20.8414 -20.8408 -20.8395 -20.8288 -20.8269
   -15.3147 -15.3147 -15.2660 -15.2660  -5.8747  -5.8736  -5.6370  -5.6357
    -5.1625  -5.1617  -5.1266  -5.1257  -4.9901  -4.9867  -4.9768  -4.9731
    -1.0732  -1.0732  -0.8665  -0.8664  -0.8555  -0.8553  -0.5965  -0.5963
    -0.2880  -0.2879  -0.0828  -0.0827   2.2918   2.2931   2.4381   2.4382
     2.7025   2.7036   2.8054   2.8056   6.1700   6.1733   6.4523   6.4573
     7.5827   7.5851   7.7696   7.7706   7.9054   7.9059   8.1714   8.1720
     8.3387   8.3393   9.1044   9.1051   9.1702   9.1706   9.2993   9.2998
     9.5352   9.5362   9.6111   9.6134  10.0414  10.0415  10.2500  10.2502
    14.1015  14.1022  14.6794  14.6801  15.4801  15.4807  15.9329  15.9337
    16.1413  16.1419  16.2595  16.2601  16.6189  16.6195  16.8999  16.9003

          k =-0.8571-0.5000 0.2500 ( 10572 PWs)   bands (ev):

   -46.7368 -46.7164 -46.7092 -46.7059 -26.0209 -26.0077 -26.0029 -26.0007
   -20.8534 -20.8522 -20.8425 -20.8399 -20.8391 -20.8387 -20.8278 -20.8268
   -15.2913 -15.2912 -15.2466 -15.2466  -5.8533  -5.8530  -5.4949  -5.4946
    -5.1280  -5.1276  -5.0912  -5.0908  -5.0091  -5.0084  -5.0020  -5.0000
    -1.2134  -1.2133  -0.9291  -0.9290  -0.8964  -0.8964  -0.5478  -0.5477
    -0.4857  -0.4857  -0.1260  -0.1260   2.2430   2.2442   2.3679   2.3683
     2.7094   2.7105   2.7687   2.7691   5.9078   5.9099   6.1560   6.1588
     7.5054   7.5065   7.7790   7.7793   7.9075   7.9078   8.1181   8.1184
     8.4984   8.4986   9.0695   9.0695   9.2179   9.2183   9.3281   9.3282
     9.5574   9.5585   9.6569   9.6573  10.0299  10.0300  10.1834  10.1834
    14.2744  14.2744  14.7375  14.7377  15.9455  15.9455  16.2401  16.2403
    16.3763  16.3765  16.5155  16.5155  16.8741  16.8741  17.0529  17.0536

          k =-0.8571 0.2500 0.5000 ( 10572 PWs)   bands (ev):

   -46.7368 -46.7164 -46.7092 -46.7059 -26.0209 -26.0076 -26.0031 -26.0005
   -20.8538 -20.8518 -20.8425 -20.8396 -20.8395 -20.8386 -20.8282 -20.8264
   -15.2913 -15.2912 -15.2466 -15.2466  -5.8535  -5.8528  -5.4951  -5.4945
    -5.1282  -5.1274  -5.0915  -5.0905  -5.0101  -5.0067  -5.0032  -4.9994
    -1.2135  -1.2133  -0.9290  -0.9289  -0.8965  -0.8965  -0.5479  -0.5477
    -0.4857  -0.4857  -0.1260  -0.1259   2.2423   2.2448   2.3677   2.3685
     2.7087   2.7110   2.7686   2.7693   5.9064   5.9113   6.1542   6.1606
     7.5046   7.5072   7.7789   7.7795   7.9074   7.9080   8.1179   8.1185
     8.4983   8.4987   9.0694   9.0696   9.2177   9.2185   9.3280   9.3283
     9.5568   9.5592   9.6567   9.6576  10.0298  10.0300  10.1834  10.1835
    14.2739  14.2748  14.7373  14.7379  15.9449  15.9461  16.2396  16.2406
    16.3763  16.3767  16.5153  16.5159  16.8739  16.8741  17.0527  17.0540

          k =-0.8571-0.2500-0.5000 ( 10572 PWs)   bands (ev):

   -46.7368 -46.7164 -46.7092 -46.7059 -26.0209 -26.0076 -26.0031 -26.0005
   -20.8538 -20.8518 -20.8425 -20.8396 -20.8395 -20.8386 -20.8282 -20.8264
   -15.2913 -15.2912 -15.2466 -15.2466  -5.8535  -5.8528  -5.4951  -5.4945
    -5.1282  -5.1274  -5.0915  -5.0905  -5.0101  -5.0067  -5.0032  -4.9994
    -1.2135  -1.2133  -0.9290  -0.9289  -0.8965  -0.8964  -0.5479  -0.5477
    -0.4857  -0.4856  -0.1260  -0.1259   2.2423   2.2448   2.3677   2.3685
     2.7087   2.7110   2.7686   2.7693   5.9064   5.9113   6.1542   6.1606
     7.5046   7.5072   7.7789   7.7795   7.9074   7.9080   8.1179   8.1185
     8.4983   8.4987   9.0694   9.0696   9.2177   9.2185   9.3280   9.3283
     9.5568   9.5592   9.6567   9.6576  10.0298  10.0300  10.1834  10.1835
    14.2739  14.2748  14.7373  14.7379  15.9449  15.9461  16.2396  16.2406
    16.3763  16.3767  16.5153  16.5159  16.8739  16.8741  17.0527  17.0540

     the Fermi energy is    11.8143 ev

!    total energy              =   -2688.45942728 Ry
     estimated scf accuracy    <          5.5E-11 Ry
     smearing contrib. (-TS)   =       0.00000000 Ry
     internal energy E=F+TS    =   -2688.45942728 Ry

     The total energy is F=E-TS. E is the sum of the following terms:
     one-electron contribution =    -400.63323112 Ry
     hartree contribution      =     299.01748617 Ry
     xc contribution           =    -244.55509345 Ry
     ewald contribution        =    -757.59874740 Ry
     one-center paw contrib.   =   -1584.68984149 Ry

     convergence has been achieved in  23 iterations

     negative rho (up, down):  2.912E-03 0.000E+00

     Forces acting on atoms (cartesian axes, Ry/au):

     atom    1 type  1   force =    -0.00002914   -0.00006830    0.00006325
     atom    2 type  1   force =    -0.00002748   -0.00000348   -0.00006508
     atom    3 type  1   force =    -0.00002810    0.00006814    0.00006356
     atom    4 type  1   force =    -0.00002839    0.00000384   -0.00006434
     atom    5 type  2   force =     3.05783563    0.00000320    0.00019069
     atom    6 type  2   force =    -3.06455299    0.00000353   -0.00019266
     atom    7 type  2   force =    -3.05530205    0.00000366   -0.00019193
     atom    8 type  2   force =     3.08141531    0.00000335    0.00019306
     atom    9 type  3   force =    -2.94168299   -0.00000474   -0.00015359
     atom   10 type  3   force =     2.94841701   -0.00000521    0.00015031
     atom   11 type  3   force =     2.93917518   -0.00000518    0.00014941
     atom   12 type  3   force =    -2.96499951   -0.00000475   -0.00015570
     atom   13 type  3   force =    -0.00001259   -0.00000520   -0.00000104
     atom   14 type  3   force =    -0.00003524    0.00008380   -0.00000102
     atom   15 type  3   force =     0.00000104    0.00000875   -0.00000107
     atom   16 type  3   force =    -0.00004885   -0.00008023   -0.00000104
     atom   17 type  3   force =    -0.00001699   -0.00000029   -0.00006108
     atom   18 type  3   force =    -0.00000350   -0.00000028    0.00006977
     atom   19 type  3   force =    -0.00003134   -0.00000031   -0.00014746
     atom   20 type  3   force =    -0.00004500   -0.00000030    0.00015594

     Total force =     8.505790     Total SCF correction =     0.000011
     Message from routine punch:
     Nothing written, as per user request (disk_io='none')

     init_run     :     14.71s CPU     15.49s WALL (       1 calls)
     electrons    :    848.48s CPU    905.21s WALL (       1 calls)
     forces       :     10.01s CPU     10.55s WALL (       1 calls)

     Called by init_run:
     wfcinit      :      9.22s CPU      9.67s WALL (       1 calls)
     potinit      :      1.35s CPU      1.47s WALL (       1 calls)
     hinit0       :      0.57s CPU      0.60s WALL (       1 calls)

     Called by electrons:
     c_bands      :    690.22s CPU    724.02s WALL (      23 calls)
     sum_band     :    117.23s CPU    132.52s WALL (      23 calls)
     v_of_rho     :      3.65s CPU      3.92s WALL (      24 calls)
     newd         :     14.85s CPU     22.29s WALL (      24 calls)
     PAW_pot      :     22.83s CPU     22.96s WALL (      24 calls)
     mix_rho      :      0.58s CPU      0.63s WALL (      23 calls)

     Called by c_bands:
     init_us_2    :     28.85s CPU     28.89s WALL (    1392 calls)
     cegterg      :    533.13s CPU    566.79s WALL (     667 calls)

     Called by *egterg:
     cdiaghg      :     31.28s CPU     31.33s WALL (    2625 calls)
     h_psi        :    288.50s CPU    320.57s WALL (    2654 calls)
     s_psi        :     43.17s CPU     43.22s WALL (    2654 calls)
     g_psi        :      1.93s CPU      1.94s WALL (    1958 calls)

     Called by h_psi:
     h_psi:calbec :     57.23s CPU     58.85s WALL (    2654 calls)
     vloc_psi     :    176.01s CPU    206.27s WALL (    2654 calls)
                                        0.00s GPU  (    2654 calls)
     add_vuspsi   :     48.53s CPU     48.59s WALL (    2654 calls)

     General routines
     calbec       :     83.88s CPU     86.36s WALL (    3437 calls)
     fft          :      3.55s CPU      3.95s WALL (     321 calls)
     ffts         :      0.39s CPU      0.41s WALL (      47 calls)
     fftw         :    187.71s CPU    220.46s WALL (  359138 calls)
     interpolate  :      0.55s CPU      0.59s WALL (      24 calls)

     Parallel routines

     PWSCF        :  14m33.59s CPU  15m31.74s WALL


   This run was terminated on:   6:45:50   5Oct2026            

=------------------------------------------------------------------------------=
   JOB DONE.
=------------------------------------------------------------------------------=
