
     Program PWSCF v.7.5 starts on  5Oct2026 at  0:15:51 

     This program is part of the open-source Quantum ESPRESSO suite
     for quantum simulation of materials; please cite
         "P. Giannozzi et al., J. Phys.:Condens. Matter 21 395502 (2009);
         "P. Giannozzi et al., J. Phys.:Condens. Matter 29 465901 (2017);
         "P. Giannozzi et al., J. Chem. Phys. 152 154105 (2020);
          URL http://www.quantum-espresso.org", 
     in publications or presentations arising from this work. More details at
     http://www.quantum-espresso.org/quote

     Parallel version (MPI & OpenMP), running on       8 processor cores
     Number of MPI processes:                 8
     Threads/MPI process:                     1

     MPI processes distributed on     1 nodes
     102416 MiB available memory on the printing compute node when the environment starts

     Reading input from pw.in

     Current dimensions of program PWSCF are:
     Max number of different atomic species (ntypx) = 10
     Max number of k-points (npk) =  40000
     Max angular momentum in pseudopotentials (lmaxx) =  4
     file Ba.pbe-spn-kjpaw_psl.1.0.0.UPF: wavefunction(s)  5S 6S renormalized
     file O.pbe-n-kjpaw_psl.0.1.UPF: wavefunction(s)  2P renormalized

     K-points division:     npool     =       8
     Subspace diagonalization in iterative solution of the eigenvalue problem:
     a serial algorithm will be used


     G-vector sticks info
     --------------------
     sticks:   dense  smooth     PW     G-vecs:    dense   smooth      PW
     Sum        3713    1855    547               119949    42425    6649

     Using Slab Decomposition



     bravais-lattice index     =            0
     lattice parameter (alat)  =      15.2492  a.u.
     unit-cell volume          =     887.1631 (a.u.)^3
     number of atoms/cell      =           10
     number of atomic types    =            3
     number of electrons       =        80.00
     number of Kohn-Sham states=           48
     kinetic-energy cutoff     =      50.0000  Ry
     charge density cutoff     =     400.0000  Ry
     scf convergence threshold =      1.0E-09
     mixing beta               =       0.4000
     number of iterations used =            8  plain     mixing
     Exchange-correlation= SLA  PW   PBX  PBC
                           (   1   4   3   4   0   0   0)

     celldm(1)=  15.249185  celldm(2)=   0.000000  celldm(3)=   0.000000
     celldm(4)=   0.000000  celldm(5)=   0.000000  celldm(6)=   0.000000

     crystal axes: (cart. coord. in units of alat)
               a(1) = (  -1.000000   0.000002  -0.000000 )  
               a(2) = (  -0.000001   0.500131  -0.000000 )  
               a(3) = (  -0.000000   0.000000  -0.500241 )  

     reciprocal axes: (cart. coord. in units 2 pi/alat)
               b(1) = ( -1.000000 -0.000002  0.000000 )  
               b(2) = (  0.000004  1.999475  0.000001 )  
               b(3) = (  0.000000 -0.000001 -1.999035 )  


     PseudoPot. # 1 for Ba read from file:
     /root/sssp/Ba.pbe-spn-kjpaw_psl.1.0.0.UPF
     MD5 check sum: c432291d3e53af55f19d5e8866385beb
     Pseudo is Projector augmented-wave + core cor, Zval = 10.0
     Generated using "atomic" code by A. Dal Corso  v.5.1
     Shape of augmentation charge: PSQ
     Using radial grid of 1251 points,  7 beta functions with: 
                l(1) =   0
                l(2) =   0
                l(3) =   0
                l(4) =   1
                l(5) =   1
                l(6) =   2
                l(7) =   2
     Q(r) pseudized with 0 coefficients 


     PseudoPot. # 2 for Ti read from file:
     /root/sssp/ti_pbe_v1.4.uspp.F.UPF
     MD5 check sum: 88a00a6731bd790ddea75d31a80cb452
     Pseudo is Ultrasoft + core correction, Zval = 12.0
     Generated by new atomic code, or converted to UPF format
     Using radial grid of  851 points,  6 beta functions with: 
                l(1) =   0
                l(2) =   0
                l(3) =   1
                l(4) =   1
                l(5) =   2
                l(6) =   2
     Q(r) pseudized with  6 coefficients,  rinner =    1.000   1.000   1.000
                                                       1.000   1.000

     PseudoPot. # 3 for O  read from file:
     /root/sssp/O.pbe-n-kjpaw_psl.0.1.UPF
     MD5 check sum: 0234752ac141de4415c5fc33072bef88
     Pseudo is Projector augmented-wave + core cor, Zval =  6.0
     Generated using "atomic" code by A. Dal Corso  v.5.0.99 svn rev. 10869
     Shape of augmentation charge: BESSEL
     Using radial grid of 1095 points,  4 beta functions with: 
                l(1) =   0
                l(2) =   0
                l(3) =   1
                l(4) =   1
     Q(r) pseudized with 0 coefficients 


     atomic species   valence    mass     pseudopotential
     Ba               10.00   137.32700     Ba( 1.00)
     Ti               12.00    47.86700     Ti( 1.00)
     O                 6.00    15.99900     O ( 1.00)

     No symmetry found



   Cartesian axes

     site n.     atom                  positions (alat units)
         1        Ba     tau(   1) = (  -0.0000386   0.5001123  -0.5002407  )
         2        Ba     tau(   2) = (  -0.4999872   0.5001260  -0.5002419  )
         3        Ti     tau(   3) = (  -0.2505640   0.2163978  -0.2328380  )
         4        Ti     tau(   4) = (  -0.7494508   0.2837987  -0.2674228  )
         5        O      tau(   5) = (  -0.4999732   0.2500327  -0.2501338  )
         6        O      tau(   6) = (  -1.0000077   0.2501213  -0.2501208  )
         7        O      tau(   7) = (  -0.2498994   0.5009853  -0.2500606  )
         8        O      tau(   8) = (  -0.7500918   0.4992734  -0.2501821  )
         9        O      tau(   9) = (  -0.2499703   0.2500105  -0.0002892  )
        10        O      tau(  10) = (  -0.7500234   0.2501379   0.0002817  )

     number of k points=    99  Marzari-Vanderbilt smearing, width (Ry)=  0.0050
                       cart. coord. in units 2pi/alat
        k(    1) = (   0.0000000   0.0000000   0.0000000), wk =   0.0102041
        k(    2) = (   0.0000000  -0.0000001  -0.2855764), wk =   0.0204082
        k(    3) = (   0.0000001  -0.0000002  -0.5711529), wk =   0.0204082
        k(    4) = (   0.0000001  -0.0000003  -0.8567293), wk =   0.0204082
        k(    5) = (   0.0000006   0.2856393   0.0000001), wk =   0.0204082
        k(    6) = (   0.0000006   0.2856392  -0.2855763), wk =   0.0204082
        k(    7) = (   0.0000006   0.2856391  -0.5711528), wk =   0.0204082
        k(    8) = (   0.0000007   0.2856390  -0.8567292), wk =   0.0204082
        k(    9) = (   0.0000011   0.5712786   0.0000002), wk =   0.0204082
        k(   10) = (   0.0000011   0.5712785  -0.2855762), wk =   0.0204082
        k(   11) = (   0.0000012   0.5712784  -0.5711527), wk =   0.0204082
        k(   12) = (   0.0000012   0.5712783  -0.8567291), wk =   0.0204082
        k(   13) = (   0.0000017   0.8569180   0.0000003), wk =   0.0204082
        k(   14) = (   0.0000017   0.8569179  -0.2855761), wk =   0.0204082
        k(   15) = (   0.0000017   0.8569178  -0.5711526), wk =   0.0204082
        k(   16) = (   0.0000018   0.8569177  -0.8567290), wk =   0.0204082
        k(   17) = (  -0.2500000  -0.0000005   0.0000000), wk =   0.0204082
        k(   18) = (  -0.2500000  -0.0000006  -0.2855764), wk =   0.0204082
        k(   19) = (  -0.2499999  -0.0000007  -0.5711528), wk =   0.0204082
        k(   20) = (  -0.2499999  -0.0000008  -0.8567293), wk =   0.0204082
        k(   21) = (  -0.2499994   0.2856388   0.0000001), wk =   0.0204082
        k(   22) = (  -0.2499994   0.2856387  -0.2855763), wk =   0.0204082
        k(   23) = (  -0.2499994   0.2856386  -0.5711527), wk =   0.0204082
        k(   24) = (  -0.2499993   0.2856385  -0.8567292), wk =   0.0204082
        k(   25) = (  -0.2499989   0.5712782   0.0000002), wk =   0.0204082
        k(   26) = (  -0.2499989   0.5712781  -0.2855762), wk =   0.0204082
        k(   27) = (  -0.2499988   0.5712780  -0.5711526), wk =   0.0204082
        k(   28) = (  -0.2499988   0.5712779  -0.8567291), wk =   0.0204082
        k(   29) = (  -0.2499983   0.8569175   0.0000003), wk =   0.0204082
        k(   30) = (  -0.2499983   0.8569174  -0.2855761), wk =   0.0204082
        k(   31) = (  -0.2499983   0.8569173  -0.5711525), wk =   0.0204082
        k(   32) = (  -0.2499982   0.8569172  -0.8567290), wk =   0.0204082
        k(   33) = (  -0.2500017  -0.8569185  -0.0000003), wk =   0.0204082
        k(   34) = (  -0.2500016  -0.8569186  -0.2855767), wk =   0.0204082
        k(   35) = (  -0.2500016  -0.8569187  -0.5711531), wk =   0.0204082
        k(   36) = (  -0.2500015  -0.8569188  -0.8567296), wk =   0.0204082
        k(   37) = (  -0.2500011  -0.5712791  -0.0000002), wk =   0.0204082
        k(   38) = (  -0.2500011  -0.5712792  -0.2855766), wk =   0.0204082
        k(   39) = (  -0.2500010  -0.5712793  -0.5711530), wk =   0.0204082
        k(   40) = (  -0.2500010  -0.5712794  -0.8567295), wk =   0.0204082
        k(   41) = (  -0.2500006  -0.2856398  -0.0000001), wk =   0.0204082
        k(   42) = (  -0.2500005  -0.2856399  -0.2855765), wk =   0.0204082
        k(   43) = (  -0.2500005  -0.2856400  -0.5711529), wk =   0.0204082
        k(   44) = (  -0.2500004  -0.2856401  -0.8567294), wk =   0.0204082
        k(   45) = (   0.5000000   0.0000010  -0.0000001), wk =   0.0102041
        k(   46) = (   0.5000000   0.0000009  -0.2855765), wk =   0.0204082
        k(   47) = (   0.5000001   0.0000008  -0.5711529), wk =   0.0204082
        k(   48) = (   0.5000001   0.0000007  -0.8567294), wk =   0.0204082
        k(   49) = (   0.5000006   0.2856403   0.0000000), wk =   0.0204082
        k(   50) = (   0.5000006   0.2856402  -0.2855764), wk =   0.0204082
        k(   51) = (   0.5000006   0.2856401  -0.5711528), wk =   0.0204082
        k(   52) = (   0.5000007   0.2856400  -0.8567293), wk =   0.0204082
        k(   53) = (   0.5000011   0.5712796   0.0000001), wk =   0.0204082
        k(   54) = (   0.5000011   0.5712795  -0.2855763), wk =   0.0204082
        k(   55) = (   0.5000012   0.5712794  -0.5711527), wk =   0.0204082
        k(   56) = (   0.5000012   0.5712793  -0.8567292), wk =   0.0204082
        k(   57) = (   0.5000017   0.8569189   0.0000002), wk =   0.0204082
        k(   58) = (   0.5000017   0.8569188  -0.2855762), wk =   0.0204082
        k(   59) = (   0.5000017   0.8569187  -0.5711526), wk =   0.0204082
        k(   60) = (   0.5000018   0.8569186  -0.8567291), wk =   0.0204082
        k(   61) = (  -0.0000005  -0.2856394  -0.2855765), wk =   0.0204082
        k(   62) = (  -0.0000005  -0.2856395  -0.5711530), wk =   0.0204082
        k(   63) = (  -0.0000004  -0.2856396  -0.8567294), wk =   0.0204082
        k(   64) = (  -0.0000011  -0.5712788  -0.2855766), wk =   0.0204082
        k(   65) = (  -0.0000010  -0.5712789  -0.5711531), wk =   0.0204082
        k(   66) = (  -0.0000010  -0.5712790  -0.8567295), wk =   0.0204082
        k(   67) = (  -0.0000016  -0.8569181  -0.2855767), wk =   0.0204082
        k(   68) = (  -0.0000016  -0.8569182  -0.5711532), wk =   0.0204082
        k(   69) = (  -0.0000015  -0.8569183  -0.8567296), wk =   0.0204082
        k(   70) = (   0.2500000   0.0000004  -0.2855765), wk =   0.0204082
        k(   71) = (   0.2500001   0.0000003  -0.5711529), wk =   0.0204082
        k(   72) = (   0.2500001   0.0000002  -0.8567293), wk =   0.0204082
        k(   73) = (   0.2499995  -0.2856389  -0.2855766), wk =   0.0204082
        k(   74) = (   0.2499995  -0.2856390  -0.5711530), wk =   0.0204082
        k(   75) = (   0.2499996  -0.2856391  -0.8567294), wk =   0.0204082
        k(   76) = (   0.2499989  -0.5712783  -0.2855767), wk =   0.0204082
        k(   77) = (   0.2499990  -0.5712784  -0.5711531), wk =   0.0204082
        k(   78) = (   0.2499990  -0.5712785  -0.8567295), wk =   0.0204082
        k(   79) = (   0.2499984  -0.8569176  -0.2855768), wk =   0.0204082
        k(   80) = (   0.2499984  -0.8569177  -0.5711532), wk =   0.0204082
        k(   81) = (   0.2499985  -0.8569178  -0.8567296), wk =   0.0204082
        k(   82) = (   0.2500017   0.8569184  -0.2855762), wk =   0.0204082
        k(   83) = (   0.2500017   0.8569183  -0.5711526), wk =   0.0204082
        k(   84) = (   0.2500018   0.8569182  -0.8567290), wk =   0.0204082
        k(   85) = (   0.2500011   0.5712790  -0.2855763), wk =   0.0204082
        k(   86) = (   0.2500012   0.5712789  -0.5711527), wk =   0.0204082
        k(   87) = (   0.2500012   0.5712788  -0.8567291), wk =   0.0204082
        k(   88) = (   0.2500006   0.2856397  -0.2855764), wk =   0.0204082
        k(   89) = (   0.2500006   0.2856396  -0.5711528), wk =   0.0204082
        k(   90) = (   0.2500007   0.2856395  -0.8567292), wk =   0.0204082
        k(   91) = (  -0.5000005  -0.2856404  -0.2855765), wk =   0.0204082
        k(   92) = (  -0.5000005  -0.2856405  -0.5711529), wk =   0.0204082
        k(   93) = (  -0.5000004  -0.2856406  -0.8567293), wk =   0.0204082
        k(   94) = (  -0.5000011  -0.5712797  -0.2855766), wk =   0.0204082
        k(   95) = (  -0.5000010  -0.5712798  -0.5711530), wk =   0.0204082
        k(   96) = (  -0.5000010  -0.5712799  -0.8567294), wk =   0.0204082
        k(   97) = (  -0.5000016  -0.8569190  -0.2855767), wk =   0.0204082
        k(   98) = (  -0.5000016  -0.8569191  -0.5711531), wk =   0.0204082
        k(   99) = (  -0.5000015  -0.8569192  -0.8567295), wk =   0.0204082

     Dense  grid:   119949 G-vectors     FFT dimensions: ( 100,  50,  50)

     Smooth grid:    42425 G-vectors     FFT dimensions: (  72,  36,  36)

     Estimated max dynamical RAM per process >     195.87 MB

     Estimated total dynamical RAM >       1.33 GB

     Check: negative core charge=   -0.000004

     Initial potential from superposition of free atoms

     starting charge      77.9659, renormalised to      80.0000

     negative rho (up, down):  2.747E-03 0.000E+00
     Starting wfcs are   54 randomized atomic wfcs
     Checking if some PAW data can be deallocated... 

     total cpu time spent up to now is       20.3 secs

     per-process dynamical memory:   136.4 Mb

     Self-consistent Calculation

     iteration #  1     ecut=    50.00 Ry     beta= 0.40
     Davidson diagonalization with overlap
     ethr =  1.00E-02,  avg # of iterations =  2.0

     negative rho (up, down):  8.120E-03 0.000E+00

     total cpu time spent up to now is       61.0 secs

     total energy              =   -1361.68161549 Ry
     estimated scf accuracy    <       1.73805778 Ry

     iteration #  2     ecut=    50.00 Ry     beta= 0.40
     Davidson diagonalization with overlap
     ethr =  2.17E-03,  avg # of iterations =  3.9

     negative rho (up, down):  1.578E-02 0.000E+00

     total cpu time spent up to now is      100.9 secs

     total energy              =   -1361.88348474 Ry
     estimated scf accuracy    <       1.85632863 Ry

     iteration #  3     ecut=    50.00 Ry     beta= 0.40
     Davidson diagonalization with overlap
     ethr =  2.17E-03,  avg # of iterations =  2.6

     negative rho (up, down):  3.623E-02 0.000E+00

     total cpu time spent up to now is      135.9 secs

     total energy              =   -1362.22792796 Ry
     estimated scf accuracy    <       0.09468130 Ry

     iteration #  4     ecut=    50.00 Ry     beta= 0.40
     Davidson diagonalization with overlap
     ethr =  1.18E-04,  avg # of iterations =  4.8

     negative rho (up, down):  3.872E-02 0.000E+00

     total cpu time spent up to now is      175.8 secs

     total energy              =   -1362.23380544 Ry
     estimated scf accuracy    <       0.02259231 Ry

     iteration #  5     ecut=    50.00 Ry     beta= 0.40
     Davidson diagonalization with overlap
     ethr =  2.82E-05,  avg # of iterations =  3.8

     negative rho (up, down):  2.801E-02 0.000E+00

     total cpu time spent up to now is      214.6 secs

     total energy              =   -1362.23825719 Ry
     estimated scf accuracy    <       0.00852688 Ry

     iteration #  6     ecut=    50.00 Ry     beta= 0.40
     Davidson diagonalization with overlap
     ethr =  1.07E-05,  avg # of iterations =  2.3

     negative rho (up, down):  6.104E-02 0.000E+00

     total cpu time spent up to now is      249.3 secs

     total energy              =   -1362.23835934 Ry
     estimated scf accuracy    <       0.01015222 Ry

     iteration #  7     ecut=    50.00 Ry     beta= 0.40
     Davidson diagonalization with overlap
     ethr =  1.07E-05,  avg # of iterations =  1.7

     negative rho (up, down):  2.548E-03 0.000E+00

     total cpu time spent up to now is      287.4 secs

     total energy              =   -1362.23915980 Ry
     estimated scf accuracy    <       0.02832655 Ry

     iteration #  8     ecut=    50.00 Ry     beta= 0.40
     Davidson diagonalization with overlap
     ethr =  1.07E-05,  avg # of iterations =  2.0

     negative rho (up, down):  2.545E-03 0.000E+00

     total cpu time spent up to now is      324.6 secs

     total energy              =   -1362.23951949 Ry
     estimated scf accuracy    <       0.00109970 Ry

     iteration #  9     ecut=    50.00 Ry     beta= 0.40
     Davidson diagonalization with overlap
     ethr =  1.37E-06,  avg # of iterations =  5.6

     negative rho (up, down):  2.542E-03 0.000E+00

     total cpu time spent up to now is      369.0 secs

     total energy              =   -1362.23966545 Ry
     estimated scf accuracy    <       0.00085819 Ry

     iteration # 10     ecut=    50.00 Ry     beta= 0.40
     Davidson diagonalization with overlap
     ethr =  1.07E-06,  avg # of iterations =  1.2

     negative rho (up, down):  2.540E-03 0.000E+00

     total cpu time spent up to now is      401.1 secs

     total energy              =   -1362.23968472 Ry
     estimated scf accuracy    <       0.00083782 Ry

     iteration # 11     ecut=    50.00 Ry     beta= 0.40
     Davidson diagonalization with overlap
     ethr =  1.05E-06,  avg # of iterations =  1.2

     negative rho (up, down):  2.538E-03 0.000E+00

     total cpu time spent up to now is      430.4 secs

     total energy              =   -1362.23970057 Ry
     estimated scf accuracy    <       0.00035334 Ry

     iteration # 12     ecut=    50.00 Ry     beta= 0.40
     Davidson diagonalization with overlap
     ethr =  4.42E-07,  avg # of iterations =  1.5

     negative rho (up, down):  2.535E-03 0.000E+00

     total cpu time spent up to now is      457.5 secs

     total energy              =   -1362.23970851 Ry
     estimated scf accuracy    <       0.00020695 Ry

     iteration # 13     ecut=    50.00 Ry     beta= 0.40
     Davidson diagonalization with overlap
     ethr =  2.59E-07,  avg # of iterations =  1.8

     negative rho (up, down):  2.535E-03 0.000E+00

     total cpu time spent up to now is      487.8 secs

     total energy              =   -1362.23971592 Ry
     estimated scf accuracy    <       0.00000702 Ry

     iteration # 14     ecut=    50.00 Ry     beta= 0.40
     Davidson diagonalization with overlap
     ethr =  8.78E-09,  avg # of iterations =  4.1

     negative rho (up, down):  2.535E-03 0.000E+00

     total cpu time spent up to now is      531.5 secs

     total energy              =   -1362.23971906 Ry
     estimated scf accuracy    <       0.00008002 Ry

     iteration # 15     ecut=    50.00 Ry     beta= 0.40
     Davidson diagonalization with overlap
     ethr =  8.78E-09,  avg # of iterations =  2.0

     negative rho (up, down):  2.535E-03 0.000E+00

     total cpu time spent up to now is      566.9 secs

     total energy              =   -1362.23971876 Ry
     estimated scf accuracy    <       0.00003021 Ry

     iteration # 16     ecut=    50.00 Ry     beta= 0.40
     Davidson diagonalization with overlap
     ethr =  8.78E-09,  avg # of iterations =  1.0

     negative rho (up, down):  2.535E-03 0.000E+00

     total cpu time spent up to now is      599.1 secs

     total energy              =   -1362.23971892 Ry
     estimated scf accuracy    <       0.00002277 Ry

     iteration # 17     ecut=    50.00 Ry     beta= 0.40
     Davidson diagonalization with overlap
     ethr =  8.78E-09,  avg # of iterations =  2.0

     negative rho (up, down):  2.535E-03 0.000E+00

     total cpu time spent up to now is      635.3 secs

     total energy              =   -1362.23971921 Ry
     estimated scf accuracy    <       0.00000072 Ry

     iteration # 18     ecut=    50.00 Ry     beta= 0.40
     Davidson diagonalization with overlap
     ethr =  8.96E-10,  avg # of iterations =  2.0

     negative rho (up, down):  2.535E-03 0.000E+00

     total cpu time spent up to now is      676.6 secs

     total energy              =   -1362.23971926 Ry
     estimated scf accuracy    <       0.00000228 Ry

     iteration # 19     ecut=    50.00 Ry     beta= 0.40
     Davidson diagonalization with overlap
     ethr =  8.96E-10,  avg # of iterations =  2.0

     negative rho (up, down):  2.535E-03 0.000E+00

     total cpu time spent up to now is      718.4 secs

     total energy              =   -1362.23971928 Ry
     estimated scf accuracy    <       0.00000013 Ry

     iteration # 20     ecut=    50.00 Ry     beta= 0.40
     Davidson diagonalization with overlap
     ethr =  1.67E-10,  avg # of iterations =  2.0

     negative rho (up, down):  2.535E-03 0.000E+00

     total cpu time spent up to now is      755.1 secs

     total energy              =   -1362.23971928 Ry
     estimated scf accuracy    <       0.00000008 Ry

     iteration # 21     ecut=    50.00 Ry     beta= 0.40
     Davidson diagonalization with overlap
     ethr =  1.01E-10,  avg # of iterations =  2.0

     negative rho (up, down):  2.535E-03 0.000E+00

     total cpu time spent up to now is      795.0 secs

     total energy              =   -1362.23971928 Ry
     estimated scf accuracy    <          3.2E-09 Ry

     iteration # 22     ecut=    50.00 Ry     beta= 0.40
     Davidson diagonalization with overlap
     ethr =  4.03E-12,  avg # of iterations =  4.0

     negative rho (up, down):  2.535E-03 0.000E+00

     total cpu time spent up to now is      815.6 secs

     total energy              =   -1362.23971928 Ry
     estimated scf accuracy    <          9.2E-09 Ry

     iteration # 23     ecut=    50.00 Ry     beta= 0.40
     Davidson diagonalization with overlap
     ethr =  4.03E-12,  avg # of iterations =  2.0

     negative rho (up, down):  2.535E-03 0.000E+00

     total cpu time spent up to now is      835.2 secs

     End of self-consistent calculation

          k = 0.0000 0.0000 0.0000 (  5267 PWs)   bands (ev):

   -46.1770 -46.1761 -22.5961 -22.5955 -22.4350 -22.4291 -22.4276 -22.3932
   -14.8921 -14.7820  -7.1003  -6.8497  -6.1565  -6.1099  -5.8781  -5.6342
    -0.1267  -0.0855  -0.0239   0.1011   0.1697   0.2849   6.4357   7.1511
     7.3886   7.4615   7.7745   7.7833   7.8031   8.0228   8.1463   8.2933
     8.4263   8.5526   8.7489   8.9089   8.9828   9.5163   9.6620   9.7148
    12.1241  12.5885  13.1402  13.3516  13.8037  14.0658  14.2038  14.7699

          k = 0.0000-0.0000-0.2856 (  5307 PWs)   bands (ev):

   -46.1768 -46.1759 -22.5958 -22.5951 -22.4378 -22.4361 -22.4343 -22.3928
   -14.8733 -14.7695  -7.0308  -6.8736  -6.1181  -6.0870  -5.8919  -5.6752
    -0.1037  -0.0363   0.0107   0.0620   0.1946   0.2155   6.3770   7.1946
     7.3338   7.3958   7.5175   7.6512   7.7396   7.7458   7.9575   7.9941
     8.1932   8.7494   8.7844   9.0167   9.1783   9.4027   9.5075   9.5320
    12.4148  12.6734  13.1073  13.2280  13.8123  14.1966  14.2043  15.1483

          k = 0.0000-0.0000-0.5712 (  5323 PWs)   bands (ev):

   -46.1765 -46.1756 -22.5950 -22.5943 -22.4574 -22.4551 -22.4330 -22.3921
   -14.8304 -14.7411  -6.9573  -6.8678  -6.0496  -6.0241  -5.8799  -5.7674
    -0.0921  -0.0558   0.0135   0.1221   0.1607   0.2735   6.2445   6.7320
     6.8608   6.8910   7.2817   7.3911   7.6735   7.8475   7.8620   8.0500
     8.0533   8.5174   8.5787   8.8271   8.9276   9.1473   9.3591   9.8147
    12.6490  13.1891  13.4154  13.4597  13.8961  14.2061  14.2740  15.3577

          k = 0.0000-0.0000-0.8567 (  5310 PWs)   bands (ev):

   -46.1762 -46.1753 -22.5944 -22.5937 -22.4730 -22.4703 -22.4319 -22.3915
   -14.7956 -14.7179  -7.0441  -6.7288  -6.0242  -5.9877  -5.8436  -5.7992
    -0.1710  -0.1324   0.0494   0.1516   0.2808   0.3331   6.0370   6.3455
     6.4618   6.6205   7.1097   7.1328   7.6247   7.7634   7.8501   8.0229
     8.2737   8.3910   8.4582   8.4783   8.8343   8.9389   9.2406  10.0671
    12.7316  13.6754  13.8426  13.8739  14.0132  14.2099  14.2794  15.2565

          k = 0.0000 0.2856 0.0000 (  5307 PWs)   bands (ev):

   -46.1768 -46.1759 -22.6054 -22.6043 -22.4343 -22.4287 -22.4273 -22.3929
   -14.8736 -14.7696  -7.0025  -6.7990  -6.2055  -6.1067  -5.8762  -5.6748
    -0.1076  -0.0595   0.0384   0.1307   0.1357   0.2083   6.3955   6.9950
     7.0607   7.2022   7.4393   7.7319   7.7414   8.0299   8.1093   8.3073
     8.4463   8.4719   8.6858   8.8113   9.1821   9.2932   9.5840   9.6513
    12.1827  12.8575  13.2807  13.4353  13.7991  14.1395  14.1993  15.0531

          k = 0.0000 0.2856-0.2856 (  5292 PWs)   bands (ev):

   -46.1767 -46.1758 -22.6050 -22.6039 -22.4375 -22.4358 -22.4337 -22.3926
   -14.8560 -14.7575  -6.9372  -6.8116  -6.1704  -6.0791  -5.8858  -5.7010
    -0.0755  -0.0570  -0.0204   0.0242   0.1746   0.2254   6.3364   7.0698
     7.1001   7.2904   7.3942   7.5613   7.6512   7.6681   7.8325   8.0138
     8.0196   8.6387   8.9440   9.0291   9.1871   9.1996   9.4206   9.4781
    12.4699  12.9288  13.2577  13.4267  13.8294  14.2172  14.4091  15.3486

          k = 0.0000 0.2856-0.5712 (  5303 PWs)   bands (ev):

   -46.1763 -46.1754 -22.6040 -22.6031 -22.4570 -22.4547 -22.4324 -22.3918
   -14.8158 -14.7297  -6.8741  -6.7799  -6.0754  -6.0200  -5.8816  -5.7628
    -0.1832  -0.1341  -0.0118   0.0143   0.1955   0.2312   6.2366   6.8050
     6.8748   6.9173   7.1906   7.3543   7.4342   7.5749   7.6220   7.7353
     8.0574   8.6067   8.8182   8.8547   9.0240   9.0840   9.2871   9.8013
    12.8550  13.2579  13.4748  13.6548  13.9398  14.2458  14.5359  15.7365

          k = 0.0000 0.2856-0.8567 (  5300 PWs)   bands (ev):

   -46.1760 -46.1751 -22.6033 -22.6025 -22.4725 -22.4699 -22.4314 -22.3912
   -14.7831 -14.7069  -6.9476  -6.6442  -6.0154  -5.9695  -5.8372  -5.8145
    -0.2759  -0.2412   0.0142   0.1002   0.1886   0.2108   6.0522   6.4282
     6.6361   6.6486   6.8925   7.1154   7.3387   7.6033   7.6323   7.7815
     8.1498   8.5879   8.6700   8.6976   8.9131   9.0568   9.1207  10.0810
    12.9637  13.6881  13.8363  13.9737  14.0714  14.2683  14.5279  15.7025

          k = 0.0000 0.5713 0.0000 (  5327 PWs)   bands (ev):

   -46.1764 -46.1756 -22.6260 -22.6242 -22.4329 -22.4279 -22.4265 -22.3922
   -14.8314 -14.7414  -6.7533  -6.7445  -6.2466  -6.1256  -5.8706  -5.7644
    -0.0866  -0.0507   0.0421   0.0848   0.2050   0.2354   6.2512   6.3777
     6.6042   6.6678   6.9988   7.6109   7.6148   7.8197   7.8473   8.0691
     8.3699   8.5867   8.7519   8.8359   8.8562   9.4224   9.5419   9.5959
    12.2969  13.4458  13.6794  13.7724  13.7871  14.2138  14.2524  15.1748

          k = 0.0000 0.5713-0.2856 (  5306 PWs)   bands (ev):

   -46.1763 -46.1754 -22.6254 -22.6238 -22.4365 -22.4349 -22.4323 -22.3919
   -14.8165 -14.7299  -6.7110  -6.6922  -6.2442  -6.0845  -5.8717  -5.7607
    -0.1549  -0.1318  -0.0231  -0.0041   0.1861   0.2437   6.2351   6.5734
     6.6444   6.6532   7.0718   7.3159   7.5816   7.5852   7.7310   7.8084
     8.0085   8.7691   8.8581   8.9606   9.1112   9.2743   9.3994   9.5686
    12.5809  13.4820  13.6087  13.7451  13.8539  14.2849  14.5509  15.6416

          k = 0.0000 0.5713-0.5712 (  5288 PWs)   bands (ev):

   -46.1759 -46.1750 -22.6242 -22.6229 -22.4558 -22.4538 -22.4312 -22.3911
   -14.7825 -14.7036  -6.6777  -6.5559  -6.1806  -5.9926  -5.8746  -5.7555
    -0.3917  -0.3452  -0.0965  -0.0655   0.1464   0.1893   6.1650   6.5496
     6.6767   6.7448   6.9636   7.0009   7.1936   7.3229   7.5182   7.5520
     7.7738   8.8540   8.8657   9.0227   9.1688   9.4133   9.4413   9.7938
    13.1356  13.5648  13.6802  13.8966  14.0220  14.3542  14.7380  16.2781

          k = 0.0000 0.5713-0.8567 (  5278 PWs)   bands (ev):

   -46.1756 -46.1747 -22.6233 -22.6222 -22.4711 -22.4689 -22.4303 -22.3905
   -14.7548 -14.6821  -6.7030  -6.4418  -6.0490  -5.9171  -5.8972  -5.7550
    -0.5176  -0.4935  -0.2983  -0.0198   0.0673   0.1847   5.9988   6.3051
     6.3784   6.6662   6.8532   6.9074   7.0619   7.2567   7.4894   7.5325
     7.8269   8.6234   8.9603   9.2144   9.2233   9.3875   9.4520  10.1076
    13.4297  13.7427  13.9243  14.1461  14.1875  14.4153  14.7020  16.2512

          k = 0.0000 0.8569 0.0000 (  5310 PWs)   bands (ev):

   -46.1761 -46.1752 -22.6424 -22.6401 -22.4317 -22.4272 -22.4259 -22.3917
   -14.7970 -14.7184  -6.7848  -6.4622  -6.2277  -6.1842  -5.8791  -5.8223
    -0.1772  -0.0895   0.0719   0.0914   0.2652   0.3603   5.8778   6.0128
     6.1474   6.4356   6.8361   7.4352   7.5385   7.6182   7.7190   7.7948
     8.1680   8.5400   8.5533   9.0618   9.0859   9.3123   9.4733   9.8093
    12.3843  13.7742  13.9232  14.0102  14.1067  14.2962  14.3413  15.1523

          k = 0.0000 0.8569-0.2856 (  5300 PWs)   bands (ev):

   -46.1760 -46.1751 -22.6418 -22.6397 -22.4357 -22.4343 -22.4312 -22.3913
   -14.7843 -14.7074  -6.7007  -6.4207  -6.2199  -6.1596  -5.8670  -5.8045
    -0.2833  -0.1809   0.0022   0.0342   0.1441   0.2849   5.9040   6.1194
     6.3118   6.4380   6.8704   7.0623   7.4559   7.5447   7.5882   7.7861
     8.0502   8.6156   8.8623   9.0906   9.1116   9.2946   9.3276   9.8182
    12.6627  13.8459  13.9342  13.9476  14.0412  14.3846  14.5772  15.6351

          k = 0.0000 0.8569-0.5712 (  5278 PWs)   bands (ev):

   -46.1756 -46.1747 -22.6404 -22.6387 -22.4548 -22.4532 -22.4302 -22.3905
   -14.7553 -14.6823  -6.5063  -6.3313  -6.2702  -6.0054  -5.8704  -5.7526
    -0.5226  -0.4488  -0.3342  -0.0713   0.1195   0.1788   5.9083   6.0570
     6.2753   6.5711   6.8763   6.9099   7.2123   7.2671   7.4627   7.5248
     7.7858   8.7593   9.0053   9.2259   9.3841   9.4121   9.6958   9.8638
    13.2194  13.9227  13.9580  14.0875  14.1414  14.4853  14.7285  16.3328

          k = 0.0000 0.8569-0.8567 (  5286 PWs)   bands (ev):

   -46.1753 -46.1744 -22.6393 -22.6379 -22.4699 -22.4682 -22.4295 -22.3899
   -14.7317 -14.6620  -6.4322  -6.2687  -6.1538  -5.9490  -5.8639  -5.7039
    -0.7103  -0.6666  -0.5887  -0.1256  -0.0170   0.2378   5.7917   5.9347
     6.0921   6.5137   6.6047   6.7367   7.0147   7.3541   7.4774   7.5751
     7.7588   8.5481   9.2950   9.3745   9.6318   9.6676   9.8453  10.1196
    13.6030  13.9537  14.0788  14.2736  14.3446  14.5702  14.6738  16.2372

          k =-0.2500-0.0000 0.0000 (  5290 PWs)   bands (ev):

   -46.1769 -46.1762 -22.5961 -22.5955 -22.4298 -22.4282 -22.4276 -22.3993
   -14.8783 -14.7964  -7.0569  -6.8772  -6.1439  -6.1129  -5.8656  -5.6820
    -0.0906  -0.0627  -0.0046   0.0819   0.1528   0.2415   6.6217   7.2531
     7.4096   7.5539   7.6532   7.7347   7.7918   7.9771   8.2103   8.2746
     8.3080   8.7169   8.7966   8.8098   8.9896   9.3478   9.4014   9.5368
    12.4193  12.8449  13.1779  13.3226  13.5826  13.9503  14.4516  14.9185

          k =-0.2500-0.0000-0.2856 (  5297 PWs)   bands (ev):

   -46.1767 -46.1760 -22.5957 -22.5952 -22.4377 -22.4364 -22.4282 -22.3989
   -14.8605 -14.7829  -6.9987  -6.8857  -6.1051  -6.0873  -5.8869  -5.7213
    -0.1213  -0.0367   0.0448   0.0560   0.1873   0.2164   6.5443   7.1979
     7.3288   7.3948   7.5895   7.6611   7.7156   7.7455   7.8965   8.0843
     8.2117   8.5645   8.8266   8.9283   9.0562   9.3145   9.3569   9.5947
    12.6266  12.8785  13.1470  13.2124  13.6034  13.9697  14.5751  15.2130

          k =-0.2500-0.0000-0.5712 (  5313 PWs)   bands (ev):

   -46.1764 -46.1756 -22.5949 -22.5944 -22.4572 -22.4554 -22.4270 -22.3981
   -14.8200 -14.7520  -6.9354  -6.8706  -6.0342  -6.0085  -5.8988  -5.8043
    -0.1231  -0.0874   0.0552   0.1528   0.1643   0.2588   6.3682   6.7439
     6.9371   6.9775   7.1993   7.5053   7.6259   7.7110   7.8520   8.0070
     8.1524   8.2487   8.6361   8.7088   8.8582   9.2370   9.3607   9.7885
    12.8773  13.2353  13.4397  13.4547  13.7374  13.9914  14.6016  15.3073

          k =-0.2500-0.0000-0.8567 (  5302 PWs)   bands (ev):

   -46.1761 -46.1753 -22.5943 -22.5938 -22.4727 -22.4707 -22.4260 -22.3974
   -14.7871 -14.7266  -6.9983  -6.7746  -6.0016  -5.9633  -5.8636  -5.8300
    -0.1582  -0.0852   0.0253   0.1753   0.2253   0.3086   6.1286   6.3549
     6.5618   6.7428   7.1218   7.2676   7.5898   7.6380   7.6995   7.9178
     8.1029   8.3240   8.4460   8.6411   8.7436   9.0999   9.1560   9.9779
    12.9514  13.6867  13.8632  13.8679  13.9059  14.0111  14.5565  15.2000

          k =-0.2500 0.2856 0.0000 (  5297 PWs)   bands (ev):

   -46.1767 -46.1760 -22.6053 -22.6045 -22.4294 -22.4277 -22.4272 -22.3989
   -14.8607 -14.7830  -6.9646  -6.8177  -6.1888  -6.1175  -5.8676  -5.7166
    -0.1131  -0.0436   0.0320   0.1023   0.1402   0.2310   6.5677   7.0604
     7.1699   7.2503   7.3899   7.6151   7.6774   7.9128   8.0656   8.2249
     8.4097   8.6529   8.7573   8.8239   9.1259   9.2552   9.4179   9.4846
    12.4610  13.0274  13.3180  13.4107  13.5906  13.9595  14.4980  15.0548

          k =-0.2500 0.2856-0.2856 (  5300 PWs)   bands (ev):

   -46.1766 -46.1759 -22.6048 -22.6041 -22.4373 -22.4360 -22.4276 -22.3986
   -14.8440 -14.7700  -6.9093  -6.8185  -6.1519  -6.0869  -5.8825  -5.7431
    -0.1134  -0.0649  -0.0204  -0.0151   0.2126   0.2814   6.4841   7.0444
     7.1726   7.2961   7.3546   7.5579   7.6339   7.7302   7.8368   7.8617
     8.0538   8.6300   8.8567   8.9206   9.1108   9.2433   9.3396   9.5237
    12.6766  13.0867  13.2995  13.4175  13.6251  13.9872  14.8076  15.3844

          k =-0.2500 0.2856-0.5712 (  5304 PWs)   bands (ev):

   -46.1762 -46.1755 -22.6039 -22.6032 -22.4567 -22.4550 -22.4264 -22.3978
   -14.8059 -14.7400  -6.8514  -6.7839  -6.0542  -6.0169  -5.8921  -5.8000
    -0.1938  -0.1169  -0.0963  -0.0116   0.2587   0.2769   6.3481   6.7276
     6.9184   7.0443   7.1264   7.3977   7.4631   7.5481   7.6636   7.7468
     7.8688   8.4801   8.7119   8.8479   9.0132   9.1314   9.3655   9.7751
    13.0464  13.3146  13.5155  13.6399  13.7832  14.0355  14.9212  15.7328

          k =-0.2500 0.2856-0.8567 (  5305 PWs)   bands (ev):

   -46.1759 -46.1752 -22.6032 -22.6026 -22.4721 -22.4702 -22.4255 -22.3971
   -14.7749 -14.7154  -6.9028  -6.6876  -5.9941  -5.9507  -5.8547  -5.8416
    -0.2667  -0.1829  -0.0807   0.0971   0.1857   0.2301   6.1414   6.3748
     6.7096   6.7732   6.9524   7.1909   7.3084   7.5233   7.6017   7.7850
     7.9178   8.4377   8.6736   8.7758   8.9615   9.0232   9.1604   9.9847
    13.1504  13.7103  13.8631  13.9523  13.9750  14.0732  14.8828  15.6774

          k =-0.2500 0.5713 0.0000 (  5313 PWs)   bands (ev):

   -46.1764 -46.1756 -22.6258 -22.6245 -22.4284 -22.4268 -22.4261 -22.3981
   -14.8208 -14.7524  -6.7328  -6.7254  -6.2471  -6.1592  -5.8647  -5.7809
    -0.1057  -0.0826   0.0472   0.1489   0.1737   0.2462   6.3314   6.4430
     6.6718   6.7811   7.0674   7.4318   7.5357   7.6202   7.8316   7.9810
     8.4488   8.6277   8.7029   8.9213   9.0094   9.3082   9.3750   9.5686
    12.5505  13.5046  13.5848  13.7153  13.7700  14.0610  14.5315  15.1376

          k =-0.2500 0.5713-0.2856 (  5305 PWs)   bands (ev):

   -46.1762 -46.1755 -22.6252 -22.6240 -22.4364 -22.4352 -22.4263 -22.3978
   -14.8065 -14.7403  -6.6895  -6.6805  -6.2337  -6.1173  -5.8673  -5.7808
    -0.1679  -0.1341  -0.0941  -0.0117   0.2407   0.2882   6.3127   6.5279
     6.7021   6.7935   7.0557   7.2278   7.5390   7.6084   7.6401   7.7935
     8.0648   8.6762   8.8257   8.8951   9.1750   9.2846   9.3704   9.5459
    12.7771  13.5464  13.6516  13.6665  13.7501  14.0983  14.9126  15.6259

          k =-0.2500 0.5713-0.5712 (  5300 PWs)   bands (ev):

   -46.1758 -46.1751 -22.6241 -22.6231 -22.4556 -22.4541 -22.4253 -22.3970
   -14.7738 -14.7126  -6.6501  -6.5642  -6.1549  -6.0164  -5.8720  -5.7834
    -0.3671  -0.3343  -0.1514  -0.1024   0.1114   0.2795   6.2472   6.4760
     6.7408   6.7650   6.9413   7.0418   7.1607   7.4293   7.5290   7.5959
     7.6955   8.4096   9.0403   9.0691   9.2437   9.3702   9.4439   9.7571
    13.2479  13.6400  13.7135  13.8773  13.8867  14.1852  15.1765  16.3353

          k =-0.2500 0.5713-0.8567 (  5281 PWs)   bands (ev):

   -46.1755 -46.1748 -22.6232 -22.6223 -22.4708 -22.4692 -22.4245 -22.3963
   -14.7472 -14.6900  -6.6624  -6.4770  -6.0207  -5.9198  -5.8953  -5.7924
    -0.4961  -0.4265  -0.2436  -0.0889  -0.0372   0.1892   6.0807   6.2812
     6.4771   6.7915   6.8504   6.8994   7.1112   7.1761   7.4774   7.5927
     7.7551   8.2856   9.1106   9.2410   9.3020   9.3161   9.4169   9.9962
    13.5400  13.7985  13.9445  14.0764  14.1321  14.2602  15.1462  16.3928

          k =-0.2500 0.8569 0.0000 (  5301 PWs)   bands (ev):

   -46.1760 -46.1753 -22.6421 -22.6405 -22.4276 -22.4262 -22.4252 -22.3975
   -14.7884 -14.7274  -6.7271  -6.4729  -6.2724  -6.2113  -5.8668  -5.8131
    -0.1583  -0.0707   0.0879   0.1005   0.2355   0.3071   5.9074   5.9994
     6.2872   6.6202   6.9292   7.2959   7.4004   7.4140   7.6379   7.7727
     8.3028   8.6411   8.8504   8.9481   9.0549   9.1616   9.3063   9.7262
    12.6213  13.5895  13.9407  14.0767  14.1081  14.2050  14.5552  15.1162

          k =-0.2500 0.8569-0.2856 (  5304 PWs)   bands (ev):

   -46.1759 -46.1752 -22.6415 -22.6400 -22.4357 -22.4345 -22.4253 -22.3971
   -14.7760 -14.7160  -6.6444  -6.4244  -6.2363  -6.2173  -5.8565  -5.7968
    -0.2740  -0.1508  -0.0722   0.0911   0.1468   0.2477   5.9343   6.0672
     6.3861   6.6295   6.8721   7.0272   7.3911   7.4220   7.6029   7.7651
     8.1906   8.7404   8.7865   8.9989   9.0445   9.2288   9.3042   9.7310
    12.8509  13.6847  13.9555  13.9912  14.0418  14.2602  14.9037  15.6172

          k =-0.2500 0.8569-0.5712 (  5280 PWs)   bands (ev):

   -46.1755 -46.1748 -22.6402 -22.6389 -22.4546 -22.4534 -22.4244 -22.3963
   -14.7477 -14.6902  -6.4599  -6.3380  -6.2567  -6.0692  -5.8556  -5.7619
    -0.5136  -0.3747  -0.2687  -0.1327   0.0143   0.1726   5.9486   6.0487
     6.3588   6.6826   6.7853   6.9308   7.1218   7.3918   7.4750   7.5610
     7.8335   8.4279   9.1156   9.2956   9.3693   9.3805   9.6014   9.7742
    13.3297  13.8959  13.9776  14.0366  14.1288  14.3663  15.1593  16.4089

          k =-0.2500 0.8569-0.8567 (  5272 PWs)   bands (ev):

   -46.1752 -46.1745 -22.6391 -22.6381 -22.4698 -22.4685 -22.4237 -22.3957
   -14.7246 -14.6692  -6.4042  -6.2881  -6.1121  -5.9251  -5.8988  -5.7526
    -0.6472  -0.5715  -0.4914  -0.2119  -0.1108   0.1092   5.8521   5.9552
     6.2597   6.5710   6.6040   6.8340   7.1266   7.1877   7.3938   7.6418
     7.7644   8.2273   9.3556   9.4448   9.6347   9.6562   9.7350   9.9836
    13.6809  14.0274  14.0906  14.1779  14.3144  14.4508  15.1255  16.4726

          k =-0.2500-0.8569-0.0000 (  5301 PWs)   bands (ev):

   -46.1760 -46.1753 -22.6421 -22.6405 -22.4276 -22.4262 -22.4251 -22.3975
   -14.7884 -14.7274  -6.7270  -6.4727  -6.2731  -6.2107  -5.8680  -5.8121
    -0.1657  -0.0542   0.0783   0.0981   0.2365   0.3092   5.9057   5.9976
     6.2922   6.6196   6.9295   7.2989   7.3944   7.4173   7.6293   7.7794
     8.3026   8.6404   8.8607   8.9472   9.0440   9.1653   9.3063   9.7253
    12.6219  13.5891  13.9390  14.0753  14.1067  14.2098  14.5555  15.1153

          k =-0.2500-0.8569-0.2856 (  5305 PWs)   bands (ev):

   -46.1759 -46.1752 -22.6415 -22.6400 -22.4356 -22.4345 -22.4253 -22.3971
   -14.7759 -14.7159  -6.6411  -6.4125  -6.2437  -6.2246  -5.8567  -5.7956
    -0.2824  -0.1858  -0.0382   0.0925   0.1274   0.2711   5.8963   6.0454
     6.3932   6.6075   6.8708   6.9981   7.3447   7.4588   7.6256   7.8248
     8.2648   8.6965   8.8137   9.0177   9.0583   9.2318   9.3347   9.7184
    12.8514  13.6762  13.9330  13.9666  14.0036  14.2740  14.8627  15.6293

          k =-0.2500-0.8569-0.5712 (  5280 PWs)   bands (ev):

   -46.1755 -46.1748 -22.6402 -22.6390 -22.4546 -22.4534 -22.4244 -22.3963
   -14.7475 -14.6901  -6.4469  -6.3258  -6.2719  -6.0807  -5.8534  -5.7610
    -0.5200  -0.4224  -0.1951  -0.1507  -0.0074   0.1876   5.8966   6.0319
     6.2943   6.6508   6.7621   6.9681   7.1611   7.3984   7.5221   7.6425
     7.8800   8.4112   9.1055   9.2347   9.3860   9.4838   9.6100   9.7418
    13.3326  13.8942  13.9653  14.0283  14.1072  14.3716  15.0891  16.3741

          k =-0.2500-0.8569-0.8567 (  5272 PWs)   bands (ev):

   -46.1752 -46.1745 -22.6391 -22.6381 -22.4697 -22.4685 -22.4237 -22.3957
   -14.7246 -14.6692  -6.3983  -6.2847  -6.1214  -5.9210  -5.9033  -5.7517
    -0.6455  -0.6070  -0.4532  -0.2171  -0.1165   0.1134   5.8456   5.9313
     6.1851   6.5760   6.6513   6.8614   7.1048   7.2359   7.3820   7.6676
     7.7773   8.2243   9.3300   9.4452   9.6548   9.6723   9.7412   9.9732
    13.6823  14.0144  14.1023  14.1751  14.3110  14.4510  15.0963  16.4593

          k =-0.2500-0.5713-0.0000 (  5313 PWs)   bands (ev):

   -46.1764 -46.1756 -22.6258 -22.6245 -22.4284 -22.4269 -22.4261 -22.3981
   -14.8208 -14.7524  -6.7351  -6.7228  -6.2476  -6.1589  -5.8659  -5.7797
    -0.1237  -0.0562   0.0452   0.1323   0.1771   0.2529   6.3237   6.4435
     6.6808   6.7831   7.0671   7.4341   7.5420   7.6089   7.8184   7.9923
     8.4467   8.6361   8.6999   8.9255   9.0049   9.3102   9.3734   9.5657
    12.5520  13.5006  13.5847  13.7138  13.7688  14.0671  14.5323  15.1358

          k =-0.2500-0.5713-0.2856 (  5305 PWs)   bands (ev):

   -46.1762 -46.1755 -22.6253 -22.6241 -22.4364 -22.4352 -22.4264 -22.3977
   -14.8063 -14.7401  -6.6850  -6.6694  -6.2410  -6.1251  -5.8659  -5.7795
    -0.2213  -0.1678  -0.0423  -0.0151   0.2436   0.3144   6.2815   6.4341
     6.6273   6.7940   7.0010   7.1526   7.4217   7.6312   7.7441   7.9701
     8.2869   8.6642   8.8609   8.9280   9.1938   9.2826   9.4642   9.5160
    12.7810  13.5143  13.5521  13.6109  13.6761  14.1133  14.8056  15.6863

          k =-0.2500-0.5713-0.5712 (  5300 PWs)   bands (ev):

   -46.1758 -46.1751 -22.6242 -22.6232 -22.4555 -22.4541 -22.4254 -22.3969
   -14.7735 -14.7124  -6.6420  -6.5506  -6.1670  -6.0279  -5.8680  -5.7819
    -0.3925  -0.3786  -0.1302  -0.0682   0.0901   0.3033   6.2316   6.3180
     6.5080   6.6549   6.9014   7.1373   7.2401   7.4625   7.6140   7.8128
     7.9189   8.3465   9.0103   9.1432   9.2151   9.4087   9.5184   9.7248
    13.2743  13.5896  13.6796  13.7940  13.8598  14.1934  15.0137  16.4441

          k =-0.2500-0.5713-0.8567 (  5281 PWs)   bands (ev):

   -46.1755 -46.1748 -22.6232 -22.6224 -22.4708 -22.4692 -22.4245 -22.3963
   -14.7471 -14.6899  -6.6591  -6.4710  -6.0285  -5.9246  -5.8912  -5.7916
    -0.5092  -0.4528  -0.1781  -0.1042  -0.0675   0.2036   6.0680   6.2067
     6.3657   6.7176   6.8234   7.0513   7.1307   7.2625   7.4489   7.6738
     7.8322   8.2545   9.0760   9.2565   9.2770   9.3232   9.4876   9.9867
    13.5557  13.7660  13.9486  14.0729  14.0998  14.2659  15.0762  16.3730

          k =-0.2500-0.2856-0.0000 (  5297 PWs)   bands (ev):

   -46.1767 -46.1760 -22.6053 -22.6045 -22.4294 -22.4278 -22.4271 -22.3989
   -14.8607 -14.7830  -6.9646  -6.8176  -6.1889  -6.1177  -5.8678  -5.7163
    -0.1014  -0.0540   0.0160   0.1045   0.1657   0.2180   6.5655   7.0586
     7.1727   7.2599   7.3828   7.6199   7.6814   7.8992   8.0570   8.2358
     8.4079   8.6515   8.7601   8.8204   9.1685   9.2215   9.4183   9.4801
    12.4624  13.0245  13.3179  13.4098  13.5903  13.9627  14.4986  15.0532

          k =-0.2500-0.2856-0.2856 (  5300 PWs)   bands (ev):

   -46.1766 -46.1759 -22.6049 -22.6041 -22.4373 -22.4360 -22.4277 -22.3985
   -14.8438 -14.7698  -6.9041  -6.8157  -6.1562  -6.0904  -5.8805  -5.7427
    -0.1593  -0.1040  -0.0087   0.0270   0.2303   0.2863   6.4996   6.9570
     7.0722   7.1760   7.3270   7.4321   7.5343   7.7336   7.9125   8.0486
     8.3346   8.6467   8.8722   9.0068   9.1194   9.2533   9.3907   9.5741
    12.6839  13.0420  13.2016  13.2332  13.6187  13.9953  14.6964  15.5678

          k =-0.2500-0.2856-0.5712 (  5304 PWs)   bands (ev):

   -46.1762 -46.1755 -22.6040 -22.6033 -22.4566 -22.4550 -22.4265 -22.3977
   -14.8057 -14.7398  -6.8489  -6.7761  -6.0616  -6.0195  -5.8899  -5.7996
    -0.2202  -0.1876  -0.0401  -0.0063   0.2517   0.3099   6.3328   6.6338
     6.8099   6.9195   7.0900   7.2753   7.4766   7.5238   7.7796   7.9334
     8.1827   8.3983   8.7884   8.8951   8.9674   9.2129   9.4193   9.7676
    13.0636  13.2758  13.4275  13.4805  13.7670  14.0461  14.8255  15.8030

          k =-0.2500-0.2856-0.8567 (  5305 PWs)   bands (ev):

   -46.1759 -46.1752 -22.6033 -22.6026 -22.4721 -22.4702 -22.4255 -22.3971
   -14.7748 -14.7154  -6.9018  -6.6840  -5.9958  -5.9522  -5.8545  -5.8419
    -0.2750  -0.2133  -0.0468   0.0844   0.1667   0.2627   6.1130   6.3489
     6.6905   6.7119   6.9360   7.2033   7.3093   7.5573   7.5632   7.8715
     8.0340   8.3994   8.6951   8.7988   8.8783   9.0854   9.2047   9.9793
    13.1516  13.6984  13.8309  13.8963  13.9543  14.0889  14.8501  15.6980

          k = 0.5000 0.0000-0.0000 (  5338 PWs)   bands (ev):

   -46.1768 -46.1763 -22.5960 -22.5956 -22.4288 -22.4282 -22.4147 -22.4133
   -14.8556 -14.8198  -6.9604  -6.9582  -6.1247  -6.1223  -5.8261  -5.7566
    -0.0569  -0.0193   0.0210   0.0590   0.1405   0.1726   7.0435   7.0856
     7.5158   7.5175   7.6602   7.6624   7.8408   7.8609   8.1663   8.1852
     8.6539   8.6808   8.7164   8.7248   9.1134   9.1730   9.1891   9.2471
    13.0209  13.0434  13.2509  13.2558  13.4014  13.4203  14.8713  14.8755

          k = 0.5000 0.0000-0.2856 (  5320 PWs)   bands (ev):

   -46.1766 -46.1761 -22.5956 -22.5953 -22.4374 -22.4368 -22.4143 -22.4129
   -14.8398 -14.8041  -6.9338  -6.9306  -6.0909  -6.0885  -5.8591  -5.7906
    -0.1032  -0.0876   0.0670   0.0845   0.1865   0.2029   6.9069   6.9334
     7.3795   7.3914   7.6604   7.6692   7.7127   7.7184   8.1256   8.1300
     8.2384   8.2464   8.6780   8.7160   9.1316   9.1687   9.4627   9.4999
    13.0893  13.1055  13.1679  13.1700  13.4492  13.4662  15.1183  15.1253

          k = 0.5000 0.0000-0.5712 (  5308 PWs)   bands (ev):

   -46.1763 -46.1758 -22.5949 -22.5945 -22.4566 -22.4560 -22.4132 -22.4118
   -14.8040 -14.7683  -6.8965  -6.8903  -6.0019  -5.9981  -5.9173  -5.8536
    -0.1360  -0.1242   0.1200   0.1232   0.2081   0.2283   6.5826   6.5913
     7.1039   7.1295   7.3889   7.4181   7.5595   7.5609   7.7581   7.7761
     8.3278   8.3395   8.4405   8.4748   8.9956   9.0269   9.6419   9.6751
    13.3391  13.3448  13.3949  13.4009  13.5874  13.5973  15.0861  15.0950

          k = 0.5000 0.0000-0.8567 (  5290 PWs)   bands (ev):

   -46.1760 -46.1755 -22.5942 -22.5939 -22.4720 -22.4714 -22.4124 -22.4110
   -14.7749 -14.7392  -6.8913  -6.8818  -5.9623  -5.9157  -5.9010  -5.8830
    -0.1142  -0.0892   0.0785   0.1114   0.2240   0.2605   6.2630   6.2671
     6.9357   6.9636   7.0864   7.1189   7.4477   7.4632   7.7323   7.7493
     8.3059   8.3315   8.3702   8.3795   8.7876   8.8281   9.6638   9.6978
    13.4448  13.4619  13.7647  13.7718  13.8885  13.8947  14.9799  14.9883

          k = 0.5000 0.2856 0.0000 (  5324 PWs)   bands (ev):

   -46.1766 -46.1761 -22.6051 -22.6047 -22.4284 -22.4278 -22.4142 -22.4128
   -14.8400 -14.8043  -6.8833  -6.8802  -6.1523  -6.1470  -5.8419  -5.7762
    -0.0881  -0.0662   0.0290   0.0617   0.1991   0.2160   6.9282   6.9576
     7.2730   7.2854   7.5017   7.5127   7.6052   7.6288   8.0679   8.0900
     8.6019   8.6164   8.8152   8.8263   9.1158   9.1634   9.2888   9.3292
    13.0371  13.0588  13.3518  13.3541  13.4928  13.5058  14.9383  14.9447

          k = 0.5000 0.2856-0.2856 (  5320 PWs)   bands (ev):

   -46.1765 -46.1760 -22.6046 -22.6043 -22.4370 -22.4364 -22.4138 -22.4124
   -14.8251 -14.7894  -6.8553  -6.8513  -6.1159  -6.1105  -5.8655  -5.8008
    -0.1164  -0.1052  -0.0493  -0.0158   0.2777   0.2980   6.7829   6.8021
     7.3185   7.3423   7.4341   7.4509   7.6239   7.6324   7.8793   7.8859
     8.1989   8.2162   8.8170   8.8264   9.1790   9.2212   9.4172   9.4511
    13.1404  13.1586  13.3717  13.3756  13.5068  13.5223  15.4125  15.4144

          k = 0.5000 0.2856-0.5712 (  5300 PWs)   bands (ev):

   -46.1761 -46.1756 -22.6038 -22.6034 -22.4562 -22.4556 -22.4128 -22.4114
   -14.7910 -14.7553  -6.8115  -6.8049  -6.0224  -6.0144  -5.9047  -5.8456
    -0.1867  -0.1766  -0.0815  -0.0485   0.2965   0.3192   6.5280   6.5373
     7.0973   7.1157   7.2970   7.3117   7.4890   7.5093   7.6034   7.6219
     8.0040   8.0218   8.8150   8.8262   8.9955   9.0312   9.6245   9.6609
    13.4188  13.4286  13.5517  13.5588  13.6469  13.6545  15.5230  15.5313

          k = 0.5000 0.2856-0.8567 (  5292 PWs)   bands (ev):

   -46.1758 -46.1753 -22.6031 -22.6027 -22.4715 -22.4709 -22.4120 -22.4106
   -14.7632 -14.7275  -6.7993  -6.7898  -5.9538  -5.9187  -5.9011  -5.8716
    -0.2154  -0.1966  -0.0564  -0.0161   0.2142   0.2389   6.2691   6.2724
     6.8884   6.8976   7.1081   7.1430   7.3297   7.3432   7.6125   7.6169
     8.0566   8.0752   8.7339   8.7559   8.8635   8.8878   9.6531   9.6896
    13.5801  13.5924  13.8028  13.8081  13.9346  13.9418  15.4380  15.4462

          k = 0.5000 0.5713 0.0000 (  5308 PWs)   bands (ev):

   -46.1762 -46.1757 -22.6253 -22.6250 -22.4276 -22.4270 -22.4131 -22.4118
   -14.8047 -14.7690  -6.7118  -6.7039  -6.2266  -6.2172  -5.8563  -5.7994
    -0.1252  -0.1068   0.0883   0.1220   0.2143   0.2327   6.4244   6.4345
     6.9463   6.9615   7.1841   7.2057   7.3428   7.3517   7.8583   7.8887
     8.5026   8.5167   8.9033   8.9203   9.0742   9.0950   9.4331   9.4678
    13.0824  13.1027  13.6934  13.6994  13.7869  13.7954  14.9511  14.9599

          k = 0.5000 0.5713-0.2856 (  5302 PWs)   bands (ev):

   -46.1761 -46.1756 -22.6248 -22.6245 -22.4361 -22.4355 -22.4127 -22.4114
   -14.7915 -14.7558  -6.6714  -6.6634  -6.1932  -6.1826  -5.8594  -5.8036
    -0.1845  -0.1688  -0.0834  -0.0449   0.2928   0.3151   6.4216   6.4323
     6.8370   6.8465   7.2133   7.2563   7.3692   7.3751   7.7474   7.7555
     8.2309   8.2488   8.8715   8.8848   9.2833   9.2923   9.4162   9.4586
    13.2178  13.2344  13.6985  13.7000  13.7899  13.8008  15.4443  15.4520

          k = 0.5000 0.5713-0.5712 (  5290 PWs)   bands (ev):

   -46.1757 -46.1752 -22.6238 -22.6234 -22.4552 -22.4546 -22.4118 -22.4104
   -14.7612 -14.7255  -6.6014  -6.5932  -6.0928  -6.0779  -5.8656  -5.8142
    -0.3077  -0.3000  -0.2355  -0.2020   0.2301   0.2496   6.3447   6.3538
     6.7899   6.7937   7.0595   7.0652   7.3055   7.3563   7.5291   7.5387
     7.8485   7.8782   9.1383   9.1496   9.2478   9.2761   9.5922   9.6364
    13.5174  13.5249  13.8172  13.8240  13.8872  13.8979  16.0511  16.0610

          k = 0.5000 0.5713-0.8567 (  5278 PWs)   bands (ev):

   -46.1754 -46.1749 -22.6229 -22.6226 -22.4704 -22.4698 -22.4111 -22.4097
   -14.7366 -14.7008  -6.5716  -6.5629  -5.9650  -5.9419  -5.8870  -5.8439
    -0.3817  -0.3673  -0.2786  -0.2384   0.0604   0.0770   6.1967   6.1998
     6.7227   6.7261   6.9090   6.9133   7.1648   7.2003   7.5502   7.5543
     7.7713   7.7826   9.1625   9.2146   9.3298   9.3334   9.6570   9.6996
    13.7831  13.7871  13.9792  13.9901  14.0658  14.0725  16.0413  16.0507

          k = 0.5000 0.8569 0.0000 (  5302 PWs)   bands (ev):

   -46.1759 -46.1754 -22.6415 -22.6411 -22.4270 -22.4264 -22.4122 -22.4109
   -14.7759 -14.7402  -6.5948  -6.5754  -6.2684  -6.2659  -5.8574  -5.8050
    -0.1175  -0.0888   0.1418   0.1587   0.1861   0.2017   5.9519   5.9595
     6.6846   6.7065   7.0496   7.0991   7.1755   7.1806   7.6895   7.7237
     8.5700   8.5773   8.8825   8.9146   9.0128   9.0328   9.4293   9.4697
    13.1208  13.1398  14.0263  14.0345  14.1090  14.1125  14.9338  14.9435

          k = 0.5000 0.8569-0.2856 (  5292 PWs)   bands (ev):

   -46.1758 -46.1753 -22.6409 -22.6406 -22.4354 -22.4348 -22.4119 -22.4105
   -14.7640 -14.7283  -6.5200  -6.5009  -6.2617  -6.2576  -5.8448  -5.7935
    -0.2291  -0.2139   0.0012   0.0371   0.1785   0.2022   5.9886   5.9939
     6.5913   6.6017   7.0692   7.1123   7.2006   7.2222   7.6934   7.7066
     8.4092   8.4332   8.8503   8.8578   9.1732   9.1814   9.4385   9.4821
    13.2702  13.2858  14.0139  14.0162  14.0804  14.0916  15.4119  15.4205

          k = 0.5000 0.8569-0.5712 (  5280 PWs)   bands (ev):

   -46.1754 -46.1749 -22.6397 -22.6394 -22.4543 -22.4537 -22.4110 -22.4097
   -14.7369 -14.7012  -6.3800  -6.3696  -6.2004  -6.1834  -5.8303  -5.7825
    -0.4077  -0.4000  -0.2155  -0.1843   0.0323   0.0481   6.0079   6.0099
     6.5320   6.5364   6.9430   6.9560   7.2553   7.3038   7.4969   7.5062
     7.9937   8.0136   9.2737   9.2952   9.3824   9.3966   9.5369   9.5784
    13.6007  13.6099  14.0592  14.0606  14.1648  14.1760  16.0068  16.0141

          k = 0.5000 0.8569-0.8567 (  5274 PWs)   bands (ev):

   -46.1751 -46.1746 -22.6388 -22.6384 -22.4694 -22.4688 -22.4103 -22.4090
   -14.7149 -14.6792  -6.3446  -6.3412  -6.0159  -5.9861  -5.8726  -5.8301
    -0.4750  -0.4521  -0.3837  -0.3514  -0.1670  -0.1465   5.9266   5.9278
     6.5850   6.5856   6.7322   6.7382   7.1771   7.2128   7.4434   7.4765
     7.8126   7.8258   9.4854   9.5432   9.6120   9.6331   9.6894   9.7223
    13.8795  13.8864  14.2087  14.2147  14.2423  14.2480  16.0601  16.0644

          k =-0.0000-0.2856-0.2856 (  5292 PWs)   bands (ev):

   -46.1767 -46.1758 -22.6050 -22.6040 -22.4374 -22.4358 -22.4338 -22.3925
   -14.8558 -14.7574  -6.9313  -6.8095  -6.1746  -6.0820  -5.8837  -5.7018
    -0.1455  -0.0928   0.0239   0.0895   0.1543   0.2328   6.3598   7.0190
     7.0474   7.1511   7.2740   7.4323   7.5270   7.8367   7.8472   8.0719
     8.3554   8.8105   8.9402   8.9684   9.1357   9.1929   9.4915   9.6133
    12.5092  12.8831  13.1627  13.2469  13.8202  14.2088  14.2814  15.4837

          k =-0.0000-0.2856-0.5712 (  5303 PWs)   bands (ev):

   -46.1763 -46.1754 -22.6041 -22.6032 -22.4569 -22.4547 -22.4325 -22.3918
   -14.8156 -14.7296  -6.8719  -6.7709  -6.0830  -6.0214  -5.8801  -5.7638
    -0.2317  -0.1591   0.0056   0.0440   0.2033   0.2398   6.2342   6.7671
     6.7932   6.7965   7.0829   7.2271   7.3871   7.5930   7.6672   8.1648
     8.1811   8.7227   8.7351   8.8392   8.9595   9.0995   9.4557   9.8022
    12.9057  13.1990  13.4062  13.4899  13.9252  14.2408  14.4205  15.8159

          k =-0.0000-0.2856-0.8567 (  5300 PWs)   bands (ev):

   -46.1760 -46.1751 -22.6033 -22.6025 -22.4724 -22.4699 -22.4314 -22.3912
   -14.7830 -14.7069  -6.9466  -6.6397  -6.0192  -5.9695  -5.8377  -5.8145
    -0.2844  -0.2594   0.0445   0.0790   0.1823   0.2307   6.0270   6.4215
     6.5942   6.6137   6.8916   7.1464   7.2961   7.5069   7.6110   8.0443
     8.2286   8.6005   8.6090   8.6749   8.9282   8.9525   9.2682  10.0761
    12.9728  13.6720  13.8123  13.9099  14.0646  14.2697  14.4873  15.7196

          k =-0.0000-0.5713-0.2856 (  5306 PWs)   bands (ev):

   -46.1763 -46.1754 -22.6255 -22.6239 -22.4364 -22.4350 -22.4324 -22.3918
   -14.8162 -14.7298  -6.7040  -6.6835  -6.2511  -6.0922  -5.8692  -5.7616
    -0.2117  -0.1574  -0.0245   0.0620   0.1799   0.2576   6.2299   6.5341
     6.5589   6.6294   6.9520   7.1842   7.4964   7.7083   7.7725   7.9531
     8.2972   8.7905   8.8467   8.9905   9.0008   9.3334   9.5252   9.5643
    12.6033  13.4478  13.5418  13.6158  13.8457  14.2779  14.4148  15.7170

          k =-0.0000-0.5713-0.5712 (  5288 PWs)   bands (ev):

   -46.1759 -46.1750 -22.6243 -22.6230 -22.4557 -22.4539 -22.4313 -22.3910
   -14.7822 -14.7034  -6.6695  -6.5410  -6.1933  -6.0026  -5.8705  -5.7567
    -0.4329  -0.3669  -0.0860  -0.0255   0.1243   0.2124   6.1643   6.3178
     6.5366   6.8006   6.8399   6.8857   7.2496   7.4289   7.6621   7.8674
     7.8751   8.7885   8.8090   9.1076   9.1171   9.4431   9.5617   9.7790
    13.1905  13.4901  13.6645  13.8125  14.0066  14.3471  14.5668  16.3947

          k =-0.0000-0.5713-0.8567 (  5278 PWs)   bands (ev):

   -46.1756 -46.1747 -22.6234 -22.6222 -22.4710 -22.4689 -22.4304 -22.3904
   -14.7546 -14.6820  -6.6997  -6.4344  -6.0579  -5.9186  -5.8954  -5.7555
    -0.5286  -0.5168  -0.2662  -0.0469   0.0962   0.1804   5.9865   6.1748
     6.3287   6.7019   6.8090   7.0183   7.0414   7.2403   7.5111   7.6509
     7.8938   8.6023   8.9287   9.1703   9.2482   9.3877   9.5326  10.1002
    13.4562  13.7002  13.9333  14.1253  14.1841  14.4125  14.6294  16.2491

          k =-0.0000-0.8569-0.2856 (  5300 PWs)   bands (ev):

   -46.1760 -46.1751 -22.6418 -22.6397 -22.4357 -22.4343 -22.4312 -22.3913
   -14.7842 -14.7073  -6.6980  -6.4100  -6.2235  -6.1691  -5.8662  -5.8045
    -0.2911  -0.2089   0.0106   0.0763   0.1148   0.2957   5.8662   6.1222
     6.2958   6.4341   6.8507   7.0111   7.4517   7.5663   7.5827   7.8420
     8.1635   8.6203   8.8098   9.0748   9.1263   9.3056   9.4000   9.8079
    12.6692  13.8373  13.9130  13.9370  14.0020  14.3859  14.5241  15.6474

          k =-0.0000-0.8569-0.5712 (  5278 PWs)   bands (ev):

   -46.1756 -46.1747 -22.6404 -22.6387 -22.4547 -22.4532 -22.4303 -22.3905
   -14.7552 -14.6822  -6.4948  -6.3201  -6.2843  -6.0148  -5.8676  -5.7531
    -0.5321  -0.4863  -0.2893  -0.0861   0.1363   0.1743   5.8524   6.0526
     6.1958   6.6268   6.8182   6.8815   7.2384   7.2647   7.5507   7.6040
     7.8348   8.7520   8.9766   9.1608   9.4059   9.5111   9.7095   9.8410
    13.2277  13.9020  13.9707  14.0771  14.1235  14.4863  14.6560  16.3238

          k =-0.0000-0.8569-0.8567 (  5286 PWs)   bands (ev):

   -46.1753 -46.1744 -22.6393 -22.6379 -22.4699 -22.4682 -22.4295 -22.3899
   -14.7316 -14.6619  -6.4257  -6.2642  -6.1651  -5.9449  -5.8667  -5.7042
    -0.7147  -0.6871  -0.5659  -0.1360  -0.0055   0.2369   5.7898   5.8860
     6.0521   6.5635   6.5939   6.7769   7.0089   7.3273   7.5097   7.5877
     7.7838   8.5480   9.2561   9.3842   9.6589   9.6787   9.8490  10.1132
    13.6060  13.9377  14.0898  14.2744  14.3453  14.5689  14.6446  16.2458

          k = 0.2500 0.0000-0.2856 (  5297 PWs)   bands (ev):

   -46.1767 -46.1760 -22.5957 -22.5952 -22.4377 -22.4364 -22.4282 -22.3989
   -14.8605 -14.7829  -6.9987  -6.8857  -6.1051  -6.0870  -5.8878  -5.7208
    -0.1091  -0.0594   0.0348   0.0828   0.1795   0.2178   6.5435   7.2047
     7.3215   7.3970   7.5905   7.6601   7.7203   7.7320   7.9076   8.0883
     8.2058   8.5580   8.8505   8.9061   9.0436   9.3471   9.3569   9.5784
    12.6249  12.8814  13.1454  13.2104  13.6058  13.9693  14.5748  15.2124

          k = 0.2500 0.0000-0.5712 (  5313 PWs)   bands (ev):

   -46.1764 -46.1756 -22.5949 -22.5944 -22.4572 -22.4555 -22.4270 -22.3981
   -14.8200 -14.7520  -6.9351  -6.8710  -6.0337  -6.0068  -5.9036  -5.8017
    -0.1350  -0.0660   0.0418   0.1452   0.1765   0.2582   6.3663   6.7468
     6.9311   6.9809   7.2040   7.5014   7.6300   7.7037   7.8624   8.0048
     8.1442   8.2506   8.6512   8.7057   8.8430   9.2373   9.3690   9.7852
    12.8782  13.2362  13.4378  13.4504  13.7416  13.9916  14.6014  15.3070

          k = 0.2500 0.0000-0.8567 (  5302 PWs)   bands (ev):

   -46.1761 -46.1753 -22.5943 -22.5938 -22.4727 -22.4707 -22.4260 -22.3974
   -14.7871 -14.7266  -6.9982  -6.7747  -5.9990  -5.9653  -5.8679  -5.8263
    -0.1655  -0.0666   0.0121   0.1730   0.2306   0.3076   6.1273   6.3556
     6.5636   6.7408   7.1276   7.2610   7.6058   7.6335   7.6850   7.9265
     8.0974   8.3222   8.4545   8.6405   8.7368   9.1003   9.1583   9.9774
    12.9519  13.6866  13.8608  13.8665  13.9060  14.0146  14.5564  15.1998

          k = 0.2500-0.2856-0.2856 (  5300 PWs)   bands (ev):

   -46.1766 -46.1759 -22.6049 -22.6041 -22.4373 -22.4360 -22.4277 -22.3985
   -14.8438 -14.7698  -6.9040  -6.8159  -6.1561  -6.0903  -5.8808  -5.7426
    -0.1549  -0.1132  -0.0068   0.0333   0.2226   0.2906   6.5012   6.9555
     7.0732   7.1781   7.3205   7.4273   7.5338   7.7405   7.9228   8.0426
     8.3349   8.6530   8.8566   9.0018   9.1080   9.2758   9.4001   9.5654
    12.6816  13.0435  13.2025  13.2330  13.6217  13.9913  14.6965  15.5670

          k = 0.2500-0.2856-0.5712 (  5304 PWs)   bands (ev):

   -46.1762 -46.1755 -22.6040 -22.6033 -22.4566 -22.4550 -22.4265 -22.3977
   -14.8057 -14.7398  -6.8485  -6.7766  -6.0617  -6.0179  -5.8933  -5.7976
    -0.2365  -0.1602  -0.0441  -0.0183   0.2677   0.2987   6.3323   6.6367
     6.8067   6.9199   7.0994   7.2684   7.4736   7.5178   7.7869   7.9300
     8.1856   8.4093   8.7662   8.8812   8.9861   9.2159   9.4284   9.7626
    13.0621  13.2766  13.4264  13.4810  13.7697  14.0430  14.8265  15.8039

          k = 0.2500-0.2856-0.8567 (  5305 PWs)   bands (ev):

   -46.1759 -46.1752 -22.6033 -22.6026 -22.4721 -22.4702 -22.4255 -22.3971
   -14.7748 -14.7154  -6.9016  -6.6841  -5.9963  -5.9502  -5.8655  -5.8324
    -0.2753  -0.2093  -0.0540   0.0767   0.1900   0.2506   6.1124   6.3500
     6.6951   6.7086   6.9426   7.2010   7.3052   7.5463   7.5682   7.8669
     8.0323   8.4179   8.6914   8.7919   8.8766   9.0865   9.2094   9.9778
    13.1510  13.6988  13.8323  13.8940  13.9537  14.0889  14.8515  15.6990

          k = 0.2500-0.5713-0.2856 (  5305 PWs)   bands (ev):

   -46.1762 -46.1755 -22.6253 -22.6241 -22.4364 -22.4352 -22.4264 -22.3977
   -14.8063 -14.7401  -6.6832  -6.6714  -6.2407  -6.1255  -5.8644  -5.7808
    -0.1992  -0.1916  -0.0615   0.0068   0.2464   0.3105   6.2866   6.4327
     6.6249   6.7938   6.9915   7.1536   7.4247   7.6385   7.7555   7.9524
     8.2903   8.6674   8.8574   8.9333   9.1818   9.2850   9.4550   9.5303
    12.7791  13.5149  13.5517  13.6103  13.6839  14.1068  14.8055  15.6878

          k = 0.2500-0.5713-0.5712 (  5300 PWs)   bands (ev):

   -46.1758 -46.1751 -22.6242 -22.6232 -22.4555 -22.4541 -22.4254 -22.3969
   -14.7735 -14.7124  -6.6416  -6.5510  -6.1671  -6.0281  -5.8670  -5.7825
    -0.4025  -0.3645  -0.1360  -0.0751   0.1023   0.2995   6.2312   6.3188
     6.5098   6.6572   6.8995   7.1253   7.2403   7.4674   7.6302   7.7990
     7.9186   8.3505   9.0065   9.1444   9.2122   9.4073   9.5274   9.7212
    13.2716  13.5923  13.6801  13.7924  13.8650  14.1879  15.0144  16.4466

          k = 0.2500-0.5713-0.8567 (  5281 PWs)   bands (ev):

   -46.1755 -46.1748 -22.6232 -22.6224 -22.4708 -22.4692 -22.4245 -22.3963
   -14.7471 -14.6899  -6.6589  -6.4709  -6.0292  -5.9254  -5.8909  -5.7907
    -0.5017  -0.4575  -0.2018  -0.0980  -0.0478   0.1985   6.0683   6.2061
     6.3658   6.7197   6.8221   7.0558   7.1359   7.2560   7.4490   7.6593
     7.8360   8.2607   9.0826   9.2402   9.2785   9.3318   9.4897   9.9845
    13.5565  13.7670  13.9502  14.0642  14.1074  14.2622  15.0768  16.3776

          k = 0.2500-0.8569-0.2856 (  5304 PWs)   bands (ev):

   -46.1759 -46.1752 -22.6415 -22.6400 -22.4356 -22.4345 -22.4253 -22.3971
   -14.7759 -14.7159  -6.6411  -6.4129  -6.2415  -6.2267  -5.8539  -5.7981
    -0.2837  -0.1796  -0.0507   0.1088   0.1211   0.2687   5.8967   6.0470
     6.3891   6.6083   6.8641   7.0049   7.3459   7.4588   7.6334   7.8160
     8.2697   8.6962   8.8072   9.0211   9.0568   9.2278   9.3377   9.7207
    12.8504  13.6770  13.9297  13.9722  14.0057  14.2690  14.8635  15.6296

          k = 0.2500-0.8569-0.5712 (  5280 PWs)   bands (ev):

   -46.1755 -46.1748 -22.6402 -22.6390 -22.4546 -22.4534 -22.4244 -22.3963
   -14.7475 -14.6901  -6.4467  -6.3260  -6.2721  -6.0813  -5.8503  -5.7633
    -0.5268  -0.4090  -0.1845  -0.1779   0.0050   0.1852   5.8964   6.0323
     6.2954   6.6535   6.7585   6.9587   7.1651   7.4035   7.5289   7.6395
     7.8767   8.4120   9.1034   9.2352   9.3892   9.4762   9.6111   9.7458
    13.3305  13.8965  13.9615  14.0339  14.1083  14.3677  15.0902  16.3725

          k = 0.2500-0.8569-0.8567 (  5272 PWs)   bands (ev):

   -46.1752 -46.1745 -22.6391 -22.6381 -22.4697 -22.4685 -22.4237 -22.3957
   -14.7246 -14.6692  -6.3984  -6.2838  -6.1222  -5.9305  -5.8928  -5.7527
    -0.6503  -0.5971  -0.4599  -0.2211  -0.1087   0.1112   5.8460   5.9309
     6.1852   6.5763   6.6515   6.8608   7.1040   7.2344   7.3855   7.6729
     7.7686   8.2264   9.3320   9.4428   9.6565   9.6702   9.7428   9.9723
    13.6815  14.0157  14.1026  14.1755  14.3120  14.4481  15.0966  16.4625

          k = 0.2500 0.8569-0.2856 (  5305 PWs)   bands (ev):

   -46.1759 -46.1752 -22.6415 -22.6400 -22.4357 -22.4345 -22.4253 -22.3971
   -14.7760 -14.7160  -6.6444  -6.4240  -6.2386  -6.2154  -5.8556  -5.7975
    -0.2796  -0.1485  -0.0533   0.0709   0.1432   0.2560   5.9337   6.0654
     6.3872   6.6285   6.8726   7.0342   7.3842   7.4191   7.6103   7.7606
     8.1977   8.7369   8.7816   8.9963   9.0407   9.2475   9.2952   9.7304
    12.8505  13.6863  13.9533  13.9913  14.0420  14.2606  14.9047  15.6156

          k = 0.2500 0.8569-0.5712 (  5280 PWs)   bands (ev):

   -46.1755 -46.1748 -22.6402 -22.6389 -22.4546 -22.4534 -22.4244 -22.3963
   -14.7477 -14.6902  -6.4601  -6.3379  -6.2563  -6.0702  -5.8530  -5.7636
    -0.5188  -0.3792  -0.2335  -0.1542   0.0022   0.1806   5.9481   6.0488
     6.3591   6.6761   6.7893   6.9363   7.1170   7.3955   7.4739   7.5605
     7.8372   8.4244   9.1143   9.2868   9.3692   9.3880   9.6034   9.7746
    13.3278  13.8977  13.9761  14.0380  14.1283  14.3668  15.1603  16.4051

          k = 0.2500 0.8569-0.8567 (  5272 PWs)   bands (ev):

   -46.1752 -46.1745 -22.6391 -22.6381 -22.4698 -22.4685 -22.4237 -22.3957
   -14.7246 -14.6692  -6.4040  -6.2891  -6.1107  -5.9320  -5.8910  -5.7543
    -0.6548  -0.5717  -0.4762  -0.2156  -0.1187   0.1134   5.8510   5.9558
     6.2613   6.5703   6.6046   6.8325   7.1238   7.1872   7.3967   7.6425
     7.7659   8.2275   9.3520   9.4444   9.6336   9.6563   9.7371   9.9853
    13.6781  14.0278  14.0881  14.1841  14.3126  14.4515  15.1266  16.4711

          k = 0.2500 0.5713-0.2856 (  5305 PWs)   bands (ev):

   -46.1762 -46.1755 -22.6252 -22.6240 -22.4364 -22.4352 -22.4263 -22.3978
   -14.8065 -14.7403  -6.6931  -6.6766  -6.2339  -6.1176  -5.8676  -5.7802
    -0.1803  -0.1309  -0.0752  -0.0166   0.2213   0.3029   6.3067   6.5267
     6.7094   6.7941   7.0568   7.2348   7.5342   7.5997   7.6398   7.7968
     8.0720   8.6574   8.8375   8.8940   9.1703   9.3001   9.3711   9.5370
    12.7768  13.5444  13.6489  13.6712  13.7471  14.1024  14.9126  15.6235

          k = 0.2500 0.5713-0.5712 (  5300 PWs)   bands (ev):

   -46.1758 -46.1751 -22.6241 -22.6231 -22.4556 -22.4541 -22.4253 -22.3970
   -14.7738 -14.7126  -6.6504  -6.5640  -6.1541  -6.0177  -5.8715  -5.7833
    -0.3703  -0.3395  -0.1323  -0.0968   0.0848   0.2897   6.2429   6.4764
     6.7414   6.7680   6.9353   7.0508   7.1606   7.4299   7.5248   7.5954
     7.7047   8.3972   9.0409   9.0709   9.2450   9.3886   9.4249   9.7589
    13.2463  13.6393  13.7116  13.8779  13.8884  14.1883  15.1754  16.3351

          k = 0.2500 0.5713-0.8567 (  5281 PWs)   bands (ev):

   -46.1755 -46.1748 -22.6232 -22.6223 -22.4708 -22.4692 -22.4245 -22.3963
   -14.7472 -14.6900  -6.6624  -6.4773  -6.0187  -5.9220  -5.8942  -5.7930
    -0.5037  -0.4264  -0.2104  -0.0937  -0.0665   0.1977   6.0790   6.2812
     6.4790   6.7903   6.8516   6.9001   7.1071   7.1683   7.4848   7.6080
     7.7511   8.2782   9.1052   9.2470   9.2865   9.3293   9.4172   9.9977
    13.5375  13.7984  13.9415  14.0875  14.1257  14.2622  15.1460  16.3885

          k = 0.2500 0.2856-0.2856 (  5300 PWs)   bands (ev):

   -46.1766 -46.1759 -22.6048 -22.6041 -22.4374 -22.4360 -22.4276 -22.3986
   -14.8440 -14.7700  -6.9094  -6.8182  -6.1517  -6.0873  -5.8832  -5.7424
    -0.1061  -0.0562  -0.0421  -0.0155   0.2306   0.2695   6.4811   7.0493
     7.1692   7.3007   7.3543   7.5595   7.6419   7.7279   7.8245   7.8634
     8.0546   8.6138   8.8545   8.9412   9.1173   9.2338   9.3570   9.5068
    12.6756  13.0851  13.3004  13.4161  13.6266  13.9894  14.8066  15.3851

          k = 0.2500 0.2856-0.5712 (  5304 PWs)   bands (ev):

   -46.1762 -46.1755 -22.6039 -22.6032 -22.4567 -22.4550 -22.4264 -22.3978
   -14.8059 -14.7400  -6.8514  -6.7840  -6.0532  -6.0167  -5.8955  -5.7980
    -0.1952  -0.1280  -0.0834  -0.0065   0.2320   0.2982   6.3444   6.7311
     6.9128   7.0491   7.1247   7.4015   7.4590   7.5617   7.6589   7.7501
     7.8664   8.4593   8.7132   8.8747   9.0008   9.1303   9.3653   9.7747
    13.0453  13.3161  13.5136  13.6362  13.7886  14.0368  14.9193  15.7314

          k = 0.2500 0.2856-0.8567 (  5305 PWs)   bands (ev):

   -46.1759 -46.1752 -22.6032 -22.6026 -22.4721 -22.4702 -22.4255 -22.3971
   -14.7749 -14.7154  -6.9028  -6.6876  -5.9921  -5.9500  -5.8656  -5.8333
    -0.2732  -0.1798  -0.0673   0.0949   0.1584   0.2497   6.1401   6.3748
     6.7104   6.7681   6.9538   7.1875   7.3185   7.5125   7.6137   7.7884
     7.9232   8.4148   8.6787   8.7807   8.9674   9.0173   9.1599   9.9853
    13.1509  13.7100  13.8605  13.9624  13.9685  14.0734  14.8813  15.6762

          k =-0.5000-0.2856-0.2856 (  5320 PWs)   bands (ev):

   -46.1765 -46.1760 -22.6047 -22.6044 -22.4370 -22.4364 -22.4138 -22.4124
   -14.8249 -14.7892  -6.8516  -6.8475  -6.1200  -6.1145  -5.8637  -5.7992
    -0.1614  -0.1359  -0.0229  -0.0031   0.2934   0.3108   6.7693   6.7829
     7.1059   7.1189   7.4680   7.4854   7.5833   7.5938   7.9792   7.9947
     8.3570   8.3648   8.8485   8.8653   9.2379   9.2778   9.4261   9.4604
    13.1069  13.1202  13.2078  13.2148  13.5362  13.5508  15.4557  15.4659

          k =-0.5000-0.2856-0.5712 (  5300 PWs)   bands (ev):

   -46.1761 -46.1756 -22.6038 -22.6035 -22.4562 -22.4556 -22.4128 -22.4114
   -14.7908 -14.7551  -6.8069  -6.8001  -6.0286  -6.0203  -5.9016  -5.8427
    -0.2218  -0.1998  -0.0719  -0.0463   0.3154   0.3372   6.4743   6.4783
     6.9147   6.9256   7.2618   7.2952   7.4984   7.5150   7.8152   7.8269
     8.0921   8.0985   8.7894   8.8109   9.1210   9.1467   9.6089   9.6450
    13.3714  13.3791  13.4439  13.4543  13.6549  13.6625  15.5287  15.5384

          k =-0.5000-0.2856-0.8567 (  5292 PWs)   bands (ev):

   -46.1758 -46.1753 -22.6031 -22.6028 -22.4715 -22.4709 -22.4120 -22.4106
   -14.7631 -14.7274  -6.7974  -6.7879  -5.9560  -5.9228  -5.9000  -5.8688
    -0.2265  -0.2054  -0.0585  -0.0225   0.2268   0.2507   6.2388   6.2420
     6.8145   6.8282   7.1087   7.1495   7.3570   7.3769   7.6904   7.7049
     8.0459   8.0625   8.7186   8.7401   8.9257   8.9489   9.6464   9.6827
    13.5605  13.5726  13.8009  13.8084  13.8987  13.9055  15.4446  15.4533

          k =-0.5000-0.5713-0.2856 (  5302 PWs)   bands (ev):

   -46.1761 -46.1756 -22.6249 -22.6245 -22.4361 -22.4355 -22.4127 -22.4114
   -14.7912 -14.7555  -6.6639  -6.6557  -6.2007  -6.1905  -5.8577  -5.8017
    -0.2184  -0.1955  -0.0720  -0.0431   0.3122   0.3337   6.3418   6.3510
     6.7804   6.7915   7.2015   7.2370   7.3367   7.3578   7.8445   7.8642
     8.3578   8.3641   8.9205   8.9282   9.3192   9.3418   9.3872   9.4303
    13.1929  13.2091  13.5882  13.5927  13.7894  13.8033  15.4376  15.4467

          k =-0.5000-0.5713-0.5712 (  5290 PWs)   bands (ev):

   -46.1757 -46.1752 -22.6239 -22.6235 -22.4551 -22.4545 -22.4118 -22.4105
   -14.7610 -14.7252  -6.5913  -6.5829  -6.1049  -6.0902  -5.8616  -5.8101
    -0.3550  -0.3313  -0.2120  -0.1886   0.2450   0.2641   6.2816   6.2870
     6.5525   6.5552   7.1230   7.1458   7.4178   7.4311   7.6832   7.7057
     7.8981   7.9092   9.1344   9.1567   9.3280   9.3442   9.5567   9.6009
    13.5055  13.5144  13.7433  13.7472  13.8809  13.8932  15.9177  15.9270

          k =-0.5000-0.5713-0.8567 (  5278 PWs)   bands (ev):

   -46.1754 -46.1749 -22.6230 -22.6226 -22.4703 -22.4697 -22.4111 -22.4097
   -14.7365 -14.7007  -6.5673  -6.5585  -5.9744  -5.9512  -5.8810  -5.8381
    -0.4023  -0.3831  -0.2640  -0.2338   0.0671   0.0816   6.1744   6.1766
     6.5344   6.5380   7.0618   7.0792   7.2056   7.2288   7.6192   7.6315
     7.7450   7.7506   9.1460   9.1949   9.3744   9.3807   9.6422   9.6846
    13.7838  13.7896  13.9645  13.9751  14.0518  14.0569  15.9864  15.9950

          k =-0.5000-0.8569-0.2856 (  5292 PWs)   bands (ev):

   -46.1758 -46.1753 -22.6410 -22.6406 -22.4354 -22.4348 -22.4119 -22.4105
   -14.7639 -14.7282  -6.5138  -6.4940  -6.2677  -6.2645  -5.8443  -5.7928
    -0.2389  -0.2216  -0.0064   0.0240   0.1963   0.2187   5.9544   5.9604
     6.5884   6.5981   7.0382   7.0742   7.2166   7.2456   7.7324   7.7518
     8.4309   8.4493   8.8848   8.8899   9.1796   9.1949   9.4257   9.4690
    13.2615  13.2773  13.9719  13.9768  14.0836  14.0950  15.4092  15.4180

          k =-0.5000-0.8569-0.5712 (  5280 PWs)   bands (ev):

   -46.1754 -46.1749 -22.6398 -22.6394 -22.4543 -22.4537 -22.4110 -22.4097
   -14.7368 -14.7011  -6.3646  -6.3543  -6.2168  -6.1999  -5.8285  -5.7805
    -0.4236  -0.4095  -0.2081  -0.1862   0.0415   0.0530   5.9740   5.9768
     6.4657   6.4684   6.9602   6.9824   7.2971   7.3346   7.5669   7.5787
     7.9934   8.0078   9.2947   9.3151   9.4004   9.4043   9.5179   9.5575
    13.5952  13.6058  14.0491  14.0527  14.1540  14.1657  15.9540  15.9606

          k =-0.5000-0.8569-0.8567 (  5274 PWs)   bands (ev):

   -46.1751 -46.1746 -22.6388 -22.6385 -22.4694 -22.4688 -22.4103 -22.4090
   -14.7149 -14.6791  -6.3399  -6.3367  -6.0242  -5.9940  -5.8686  -5.8263
    -0.4879  -0.4646  -0.3569  -0.3550  -0.1637  -0.1505   5.9155   5.9163
     6.4817   6.4828   6.8508   6.8528   7.1525   7.1889   7.4898   7.5245
     7.7965   7.8139   9.4825   9.5352   9.6449   9.6599   9.6693   9.7023
    13.8817  13.8899  14.2041  14.2107  14.2388  14.2420  16.0330  16.0359

     the Fermi energy is    11.1519 ev

!    total energy              =   -1362.23971929 Ry
     estimated scf accuracy    <          2.0E-11 Ry
     smearing contrib. (-TS)   =       0.00000000 Ry
     internal energy E=F+TS    =   -1362.23971929 Ry

     The total energy is F=E-TS. E is the sum of the following terms:
     one-electron contribution =    -147.53327630 Ry
     hartree contribution      =     123.13572504 Ry
     xc contribution           =    -121.76763328 Ry
     ewald contribution        =    -409.05645549 Ry
     one-center paw contrib.   =    -807.01807924 Ry

     convergence has been achieved in  23 iterations

     negative rho (up, down):  2.535E-03 0.000E+00

     Forces acting on atoms (cartesian axes, Ry/au):

     atom    1 type  1   force =     0.00004705    0.00005810   -0.00001274
     atom    2 type  1   force =    -0.00000860    0.00003035   -0.00000866
     atom    3 type  2   force =     0.00439067    0.09919728   -0.01726097
     atom    4 type  2   force =    -0.00445923   -0.09969047    0.01728613
     atom    5 type  3   force =    -0.00005183    0.00008078    0.00001476
     atom    6 type  3   force =     0.00005628   -0.00006447   -0.00001328
     atom    7 type  3   force =    -0.00120647   -0.02838521    0.00426768
     atom    8 type  3   force =     0.00122424    0.02875933   -0.00426024
     atom    9 type  3   force =    -0.00126898   -0.01659210   -0.01199087
     atom   10 type  3   force =     0.00127687    0.01660642    0.01197818

     Total force =     0.151420     Total SCF correction =     0.000003
     Message from routine punch:
     Nothing written, as per user request (disk_io='none')

     init_run     :     18.85s CPU     19.42s WALL (       1 calls)
     electrons    :    791.55s CPU    814.92s WALL (       1 calls)
     forces       :      5.02s CPU      5.73s WALL (       1 calls)

     Called by init_run:
     wfcinit      :      3.46s CPU      3.58s WALL (       1 calls)
     potinit      :      4.72s CPU      4.92s WALL (       1 calls)
     hinit0       :      2.34s CPU      2.40s WALL (       1 calls)

     Called by electrons:
     c_bands      :    599.97s CPU    603.12s WALL (      23 calls)
     sum_band     :    109.59s CPU    117.36s WALL (      23 calls)
     v_of_rho     :     11.86s CPU     12.85s WALL (      24 calls)
     newd         :     19.56s CPU     25.19s WALL (      24 calls)
     PAW_pot      :     48.74s CPU     54.82s WALL (      24 calls)
     mix_rho      :      2.43s CPU      2.45s WALL (      23 calls)

     Called by c_bands:
     init_us_2    :     22.45s CPU     22.49s WALL (     624 calls)
     cegterg      :    288.98s CPU    291.65s WALL (     299 calls)

     Called by *egterg:
     cdiaghg      :      4.71s CPU      4.74s WALL (    1071 calls)
     h_psi        :    176.50s CPU    178.19s WALL (    1084 calls)
     s_psi        :     22.57s CPU     22.60s WALL (    1084 calls)
     g_psi        :      1.43s CPU      1.44s WALL (     772 calls)

     Called by h_psi:
     h_psi:calbec :     26.92s CPU     26.97s WALL (    1084 calls)
     vloc_psi     :    122.21s CPU    123.06s WALL (    1084 calls)
                                        0.00s GPU  (    1084 calls)
     add_vuspsi   :     22.85s CPU     22.91s WALL (    1084 calls)

     General routines
     calbec       :     39.37s CPU     39.45s WALL (    1435 calls)
     fft          :      4.47s CPU      4.49s WALL (     321 calls)
     ffts         :      0.60s CPU      0.60s WALL (      47 calls)
     fftw         :    112.08s CPU    112.78s WALL (   78604 calls)
     interpolate  :      0.98s CPU      0.98s WALL (      24 calls)

     Parallel routines

     PWSCF        :  13m36.57s CPU  14m 1.29s WALL


   This run was terminated on:   0:29:53   5Oct2026            

=------------------------------------------------------------------------------=
   JOB DONE.
=------------------------------------------------------------------------------=
