
     Program PWSCF v.7.5 starts on  4Oct2026 at 14:42:20 

     This program is part of the open-source Quantum ESPRESSO suite
     for quantum simulation of materials; please cite
         "P. Giannozzi et al., J. Phys.:Condens. Matter 21 395502 (2009);
         "P. Giannozzi et al., J. Phys.:Condens. Matter 29 465901 (2017);
         "P. Giannozzi et al., J. Chem. Phys. 152 154105 (2020);
          URL http://www.quantum-espresso.org", 
     in publications or presentations arising from this work. More details at
     http://www.quantum-espresso.org/quote

     Parallel version (MPI & OpenMP), running on       8 processor cores
     Number of MPI processes:                 8
     Threads/MPI process:                     1

     MPI processes distributed on     1 nodes
     81968 MiB available memory on the printing compute node when the environment starts

     Reading input from pw.in

     Current dimensions of program PWSCF are:
     Max number of different atomic species (ntypx) = 10
     Max number of k-points (npk) =  40000
     Max angular momentum in pseudopotentials (lmaxx) =  4
     file K.pbe-spn-kjpaw_psl.1.0.0.UPF: wavefunction(s)  3S renormalized
     file Nb.pbe-spn-kjpaw_psl.0.3.0.UPF: wavefunction(s)  4S 4P renormalized
     file O.pbe-n-kjpaw_psl.0.1.UPF: wavefunction(s)  2P renormalized

     K-points division:     npool     =       4
     R & G space division:  proc/nbgrp/npool/nimage =       2
     Subspace diagonalization in iterative solution of the eigenvalue problem:
     a serial algorithm will be used


     Parallelization info
     --------------------
     sticks:   dense  smooth     PW     G-vecs:    dense   smooth      PW
     Min        4496    2246    612               320085   113319   16210
     Max        4497    2247    613               320086   113320   16213
     Sum        8993    4493   1225               640171   226639   32423

     Using Slab Decomposition



     bravais-lattice index     =            0
     lattice parameter (alat)  =      15.3320  a.u.
     unit-cell volume          =    3604.1149 (a.u.)^3
     number of atoms/cell      =           40
     number of atomic types    =            3
     number of electrons       =       320.00
     number of Kohn-Sham states=          192
     kinetic-energy cutoff     =      60.0000  Ry
     charge density cutoff     =     480.0000  Ry
     scf convergence threshold =      4.0E-09
     mixing beta               =       0.4000
     number of iterations used =            8  plain     mixing
     Exchange-correlation= SLA  PW   PBX  PBC
                           (   1   4   3   4   0   0   0)

     celldm(1)=  15.332026  celldm(2)=   0.000000  celldm(3)=   0.000000
     celldm(4)=   0.000000  celldm(5)=   0.000000  celldm(6)=   0.000000

     crystal axes: (cart. coord. in units of alat)
               a(1) = (   1.000000  -0.000000   0.000000 )  
               a(2) = (   0.000000   1.000000  -0.000000 )  
               a(3) = (  -0.000000  -0.000000   1.000000 )  

     reciprocal axes: (cart. coord. in units 2 pi/alat)
               b(1) = (  1.000000  0.000000  0.000000 )  
               b(2) = (  0.000000  1.000000  0.000000 )  
               b(3) = (  0.000000  0.000000  1.000000 )  


     PseudoPot. # 1 for K  read from file:
     /root/sssp/K.pbe-spn-kjpaw_psl.1.0.0.UPF
     MD5 check sum: 7d58810084cac21f60fbe77ea2b688fd
     Pseudo is Projector augmented-wave + core cor, Zval =  9.0
     Generated using "atomic" code by A. Dal Corso  v.5.1
     Shape of augmentation charge: PSQ
     Using radial grid of 1165 points,  6 beta functions with: 
                l(1) =   0
                l(2) =   0
                l(3) =   1
                l(4) =   1
                l(5) =   2
                l(6) =   2
     Q(r) pseudized with 0 coefficients 


     PseudoPot. # 2 for Nb read from file:
     /root/sssp/Nb.pbe-spn-kjpaw_psl.0.3.0.UPF
     MD5 check sum: 411d72ad547312f8017e2943ceca08cc
     Pseudo is Projector augmented-wave + core cor, Zval = 13.0
     Generated using "atomic" code by A. Dal Corso  v.5.0.99 svn rev. 10869
     Shape of augmentation charge: PSQ
     Using radial grid of 1227 points,  6 beta functions with: 
                l(1) =   0
                l(2) =   0
                l(3) =   1
                l(4) =   1
                l(5) =   2
                l(6) =   2
     Q(r) pseudized with 0 coefficients 


     PseudoPot. # 3 for O  read from file:
     /root/sssp/O.pbe-n-kjpaw_psl.0.1.UPF
     MD5 check sum: 0234752ac141de4415c5fc33072bef88
     Pseudo is Projector augmented-wave + core cor, Zval =  6.0
     Generated using "atomic" code by A. Dal Corso  v.5.0.99 svn rev. 10869
     Shape of augmentation charge: BESSEL
     Using radial grid of 1095 points,  4 beta functions with: 
                l(1) =   0
                l(2) =   0
                l(3) =   1
                l(4) =   1
     Q(r) pseudized with 0 coefficients 


     atomic species   valence    mass     pseudopotential
     K                 9.00    39.09830     K ( 1.00)
     Nb               13.00    92.90640     Nb( 1.00)
     O                 6.00    15.99900     O ( 1.00)

     No symmetry found



   Cartesian axes

     site n.     atom                  positions (alat units)
         1        K      tau(   1) = (   0.0000301  -0.0039189  -0.0031252  )
         2        K      tau(   2) = (   0.4934276   0.0078508   0.0159373  )
         3        K      tau(   3) = (   0.0027772   0.4984618  -0.0022668  )
         4        K      tau(   4) = (   0.4861289   0.4893491  -0.0016285  )
         5        K      tau(   5) = (   0.0000473  -0.0024351   0.5023564  )
         6        K      tau(   6) = (   0.5020531   0.0221487   0.4921067  )
         7        K      tau(   7) = (  -0.0074013   0.4919260   0.4958886  )
         8        K      tau(   8) = (   0.5114085   0.5130350   0.5041518  )
         9        Nb     tau(   9) = (   0.2446506   0.2465492   0.2552068  )
        10        Nb     tau(  10) = (   0.7445357   0.2509134   0.2516113  )
        11        Nb     tau(  11) = (   0.2532331   0.7477979   0.2508216  )
        12        Nb     tau(  12) = (   0.7460312   0.7532106   0.2451606  )
        13        Nb     tau(  13) = (   0.2462943   0.2505025   0.7476400  )
        14        Nb     tau(  14) = (   0.7511132   0.2485794   0.7504918  )
        15        Nb     tau(  15) = (   0.2582600   0.7452599   0.7528023  )
        16        Nb     tau(  16) = (   0.7536584   0.7441356   0.7488841  )
        17        O      tau(  17) = (   0.4937712   0.2440708   0.2292597  )
        18        O      tau(  18) = (  -0.0055362   0.2428915   0.2634913  )
        19        O      tau(  19) = (   0.5052504   0.7652145   0.2616767  )
        20        O      tau(  20) = (  -0.0022227   0.7451432   0.2416065  )
        21        O      tau(  21) = (   0.4999897   0.2605417   0.7475560  )
        22        O      tau(  22) = (   0.0054222   0.2455728   0.7346504  )
        23        O      tau(  23) = (   0.5124672   0.7566096   0.7463553  )
        24        O      tau(  24) = (   0.0133904   0.7541268   0.7696351  )
        25        O      tau(  25) = (   0.2421642   0.0005405   0.2612121  )
        26        O      tau(  26) = (   0.7492695  -0.0175742   0.2461683  )
        27        O      tau(  27) = (   0.2564895   0.4983598   0.2522993  )
        28        O      tau(  28) = (   0.7517496   0.4979660   0.2476113  )
        29        O      tau(  29) = (   0.2578797   0.0045641   0.7425360  )
        30        O      tau(  30) = (   0.7556533   0.0176521   0.7483682  )
        31        O      tau(  31) = (   0.2448602   0.4995268   0.7501512  )
        32        O      tau(  32) = (   0.7481927   0.5071878   0.7467974  )
        33        O      tau(  33) = (   0.2452527   0.2406137   0.0010706  )
        34        O      tau(  34) = (   0.7524700   0.2711821  -0.0136144  )
        35        O      tau(  35) = (   0.2633005   0.7478142   0.0057914  )
        36        O      tau(  36) = (   0.7339361   0.7564129  -0.0030506  )
        37        O      tau(  37) = (   0.2617600   0.2556538   0.4842556  )
        38        O      tau(  38) = (   0.7464373   0.2510029   0.4935284  )
        39        O      tau(  39) = (   0.2617848   0.7497355   0.5113594  )
        40        O      tau(  40) = (   0.7473516   0.7408588   0.5077207  )

     number of k points=    36  Marzari-Vanderbilt smearing, width (Ry)=  0.0050
                       cart. coord. in units 2pi/alat
        k(    1) = (   0.0000000   0.0000000   0.0000000), wk =   0.0312500
        k(    2) = (   0.0000000   0.0000000   0.2500000), wk =   0.0625000
        k(    3) = (   0.0000000   0.0000000  -0.5000000), wk =   0.0312500
        k(    4) = (   0.0000000   0.2500000   0.2500000), wk =   0.0625000
        k(    5) = (   0.0000000   0.2500000  -0.5000000), wk =   0.0625000
        k(    6) = (   0.0000000  -0.5000000  -0.5000000), wk =   0.0312500
        k(    7) = (   0.2500000   0.2500000   0.2500000), wk =   0.0625000
        k(    8) = (   0.2500000   0.2500000  -0.5000000), wk =   0.0625000
        k(    9) = (   0.2500000  -0.5000000  -0.5000000), wk =   0.0625000
        k(   10) = (  -0.5000000  -0.5000000  -0.5000000), wk =   0.0312500
        k(   11) = (   0.2500000   0.0000000   0.0000000), wk =   0.0625000
        k(   12) = (   0.0000000   0.2500000   0.0000000), wk =   0.0625000
        k(   13) = (  -0.5000000   0.0000000   0.0000000), wk =   0.0312500
        k(   14) = (   0.0000000  -0.5000000   0.0000000), wk =   0.0312500
        k(   15) = (   0.0000000  -0.2500000   0.2500000), wk =   0.0625000
        k(   16) = (   0.2500000   0.0000000  -0.2500000), wk =   0.0625000
        k(   17) = (  -0.2500000   0.0000000  -0.2500000), wk =   0.0625000
        k(   18) = (   0.2500000  -0.2500000   0.0000000), wk =   0.0625000
        k(   19) = (  -0.2500000  -0.2500000   0.0000000), wk =   0.0625000
        k(   20) = (   0.2500000   0.0000000   0.5000000), wk =   0.0625000
        k(   21) = (  -0.5000000  -0.2500000   0.0000000), wk =   0.0625000
        k(   22) = (   0.0000000  -0.5000000   0.2500000), wk =   0.0625000
        k(   23) = (   0.2500000  -0.5000000   0.0000000), wk =   0.0625000
        k(   24) = (  -0.5000000   0.0000000   0.2500000), wk =   0.0625000
        k(   25) = (  -0.5000000   0.0000000   0.5000000), wk =   0.0312500
        k(   26) = (  -0.5000000   0.5000000   0.0000000), wk =   0.0312500
        k(   27) = (  -0.2500000  -0.2500000   0.2500000), wk =   0.0625000
        k(   28) = (  -0.2500000   0.2500000  -0.2500000), wk =   0.0625000
        k(   29) = (   0.2500000  -0.2500000  -0.2500000), wk =   0.0625000
        k(   30) = (  -0.2500000   0.2500000   0.5000000), wk =   0.0625000
        k(   31) = (  -0.5000000  -0.2500000   0.2500000), wk =   0.0625000
        k(   32) = (   0.5000000  -0.2500000  -0.2500000), wk =   0.0625000
        k(   33) = (  -0.2500000  -0.5000000   0.2500000), wk =   0.0625000
        k(   34) = (  -0.2500000   0.5000000  -0.2500000), wk =   0.0625000
        k(   35) = (  -0.5000000   0.2500000   0.5000000), wk =   0.0625000
        k(   36) = (  -0.5000000   0.5000000   0.2500000), wk =   0.0625000

     Dense  grid:   640171 G-vectors     FFT dimensions: ( 108, 108, 108)

     Smooth grid:   226639 G-vectors     FFT dimensions: (  75,  75,  75)

     Estimated max dynamical RAM per process >       1.01 GB

     Estimated total dynamical RAM >       7.61 GB

     Check: negative core charge=   -0.000003

     Initial potential from superposition of free atoms

     starting charge     319.8323, renormalised to     320.0000
     Starting wfcs are  240 randomized atomic wfcs
     Checking if some PAW data can be deallocated... 

     total cpu time spent up to now is       73.8 secs

     per-process dynamical memory:   695.3 Mb

     Self-consistent Calculation

     iteration #  1     ecut=    60.00 Ry     beta= 0.40
     Davidson diagonalization with overlap
     ethr =  1.00E-02,  avg # of iterations =  2.0

     total cpu time spent up to now is      236.1 secs

     total energy              =   -4575.61088922 Ry
     estimated scf accuracy    <      20.69049700 Ry

     iteration #  2     ecut=    60.00 Ry     beta= 0.40
     Davidson diagonalization with overlap
     ethr =  6.47E-03,  avg # of iterations =  4.0

     total cpu time spent up to now is      432.0 secs

     total energy              =   -4580.52298016 Ry
     estimated scf accuracy    <       6.72745132 Ry

     iteration #  3     ecut=    60.00 Ry     beta= 0.40
     Davidson diagonalization with overlap
     ethr =  2.10E-03,  avg # of iterations =  2.6

     total cpu time spent up to now is      587.8 secs

     total energy              =   -4582.05033030 Ry
     estimated scf accuracy    <       0.51506261 Ry

     iteration #  4     ecut=    60.00 Ry     beta= 0.40
     Davidson diagonalization with overlap
     ethr =  1.61E-04,  avg # of iterations = 13.2

     total cpu time spent up to now is      811.0 secs

     total energy              =   -4582.01302984 Ry
     estimated scf accuracy    <       0.20653808 Ry

     iteration #  5     ecut=    60.00 Ry     beta= 0.40
     Davidson diagonalization with overlap
     ethr =  6.45E-05,  avg # of iterations =  7.7

     total cpu time spent up to now is     1043.9 secs

     total energy              =   -4582.06854888 Ry
     estimated scf accuracy    <       0.07434861 Ry

     iteration #  6     ecut=    60.00 Ry     beta= 0.40
     Davidson diagonalization with overlap
     ethr =  2.32E-05,  avg # of iterations =  2.9

     total cpu time spent up to now is     1198.6 secs

     total energy              =   -4582.06450344 Ry
     estimated scf accuracy    <       0.03938496 Ry

     iteration #  7     ecut=    60.00 Ry     beta= 0.40
     Davidson diagonalization with overlap
     ethr =  1.23E-05,  avg # of iterations =  2.3

     total cpu time spent up to now is     1344.7 secs

     total energy              =   -4582.06071465 Ry
     estimated scf accuracy    <       0.01059494 Ry

     iteration #  8     ecut=    60.00 Ry     beta= 0.40
     Davidson diagonalization with overlap
     c_bands:  1 eigenvalues not converged
     c_bands:  1 eigenvalues not converged
     ethr =  3.31E-06,  avg # of iterations = 10.6

     total cpu time spent up to now is     1532.1 secs

     total energy              =   -4582.06415610 Ry
     estimated scf accuracy    <       0.00186962 Ry

     iteration #  9     ecut=    60.00 Ry     beta= 0.40
     Davidson diagonalization with overlap
     c_bands:  1 eigenvalues not converged
     c_bands:  1 eigenvalues not converged
     ethr =  5.84E-07,  avg # of iterations =  2.9

     total cpu time spent up to now is     1660.3 secs

     total energy              =   -4582.06407762 Ry
     estimated scf accuracy    <       0.00064438 Ry

     iteration # 10     ecut=    60.00 Ry     beta= 0.40
     Davidson diagonalization with overlap
     c_bands:  1 eigenvalues not converged
     ethr =  2.01E-07,  avg # of iterations =  2.5

     total cpu time spent up to now is     1778.4 secs

     total energy              =   -4582.06410716 Ry
     estimated scf accuracy    <       0.00007721 Ry

     iteration # 11     ecut=    60.00 Ry     beta= 0.40
     Davidson diagonalization with overlap
     ethr =  2.41E-08,  avg # of iterations =  4.0

     total cpu time spent up to now is     1918.9 secs

     total energy              =   -4582.06412982 Ry
     estimated scf accuracy    <       0.00000487 Ry

     iteration # 12     ecut=    60.00 Ry     beta= 0.40
     Davidson diagonalization with overlap
     ethr =  1.52E-09,  avg # of iterations =  3.9

     total cpu time spent up to now is     2049.2 secs

     total energy              =   -4582.06413173 Ry
     estimated scf accuracy    <       0.00000141 Ry

     iteration # 13     ecut=    60.00 Ry     beta= 0.40
     Davidson diagonalization with overlap
     ethr =  4.40E-10,  avg # of iterations =  2.1

     total cpu time spent up to now is     2167.2 secs

     total energy              =   -4582.06413203 Ry
     estimated scf accuracy    <       0.00000012 Ry

     iteration # 14     ecut=    60.00 Ry     beta= 0.40
     Davidson diagonalization with overlap
     ethr =  3.77E-11,  avg # of iterations =  4.0

     total cpu time spent up to now is     2313.8 secs

     total energy              =   -4582.06413207 Ry
     estimated scf accuracy    <       0.00000004 Ry

     iteration # 15     ecut=    60.00 Ry     beta= 0.40
     Davidson diagonalization with overlap
     ethr =  1.33E-11,  avg # of iterations =  2.0

     total cpu time spent up to now is     2440.0 secs

     total energy              =   -4582.06413208 Ry
     estimated scf accuracy    <          6.9E-09 Ry

     iteration # 16     ecut=    60.00 Ry     beta= 0.40
     Davidson diagonalization with overlap
     ethr =  2.17E-12,  avg # of iterations =  2.9

     total cpu time spent up to now is     2578.8 secs

     End of self-consistent calculation

          k = 0.0000 0.0000 0.0000 ( 28353 PWs)   bands (ev):

   -47.3917 -47.2805 -47.1150 -47.0847 -46.9423 -46.9390 -46.9365 -46.9087
   -23.4775 -23.4523 -23.4388 -23.3670 -23.3426 -23.3258 -23.2491 -23.2347
   -23.2219 -23.1930 -23.1875 -23.1803 -23.1574 -23.1294 -23.1095 -23.0908
   -23.0770 -23.0585 -23.0506 -23.0388 -23.0366 -23.0223 -22.9765 -22.9635
   -19.4881 -19.4451 -19.4371 -19.4251 -19.3385 -19.3268 -19.3158 -19.3039
    -9.1630  -9.0862  -9.0710  -9.0263  -8.8604  -8.8132  -8.7773  -8.7055
    -8.6843  -8.6743  -8.6070  -8.5294  -7.9997  -7.9516  -7.9301  -7.8730
    -7.8703  -7.8167  -7.7974  -7.7884  -7.7644  -7.7424  -7.7277  -7.6758
    -3.1740  -3.1730  -3.1698  -3.0245  -3.0082  -2.9955  -2.9918  -2.9758
    -2.9687  -2.9586  -2.9470  -2.9447  -2.9420  -2.9251  -2.8864  -2.8765
    -2.8706  -2.8575  -2.8480  -2.8289  -2.8230  -2.8104  -2.8022  -2.7721
     2.7375   2.7861   2.7968   2.8419   2.8933   2.9614   3.0186   3.0719
     3.1835   3.2406   3.3086   3.5717   3.6417   3.6713   3.6936   4.1708
     4.2035   4.2297   5.0871   5.0965   5.1351   5.1526   5.2668   5.2747
     5.3700   5.3797   5.4122   5.4587   5.5139   5.5269   5.7217   5.7283
     5.7735   5.8251   5.8334   5.8664   5.8756   5.8910   5.9381   5.9757
     6.0132   6.0479   6.3720   6.4029   6.4195   6.4352   6.4746   6.5348
     6.5417   6.5812   6.5923   6.6228   6.6614   6.7228   6.8764   6.9639
     6.9838   7.0377   7.0455   7.0766   7.1095   7.1291   7.1793   7.2526
     7.2827   7.3308   7.8606   7.8776   7.8927   7.9370   7.9900   8.0258
     9.5049   9.5687   9.6377   9.7051   9.7354   9.7911  11.6118  11.6986
    11.7601  11.7966  11.9141  11.9759  12.0147  12.0387  12.0872  12.1200
    12.1291  12.2136  12.7866  12.8272  12.8729  12.9161  12.9703  13.0063
    13.0765  13.0894  13.1356  13.1523  13.1726  14.0826  14.1688  14.3030

          k = 0.0000 0.0000 0.2500 ( 28242 PWs)   bands (ev):

   -47.3916 -47.2805 -47.1149 -47.0847 -46.9422 -46.9391 -46.9365 -46.9087
   -23.4741 -23.4522 -23.4388 -23.3587 -23.3425 -23.3255 -23.2489 -23.2340
   -23.2076 -23.1966 -23.1930 -23.1803 -23.1575 -23.1305 -23.1242 -23.0825
   -23.0762 -23.0584 -23.0506 -23.0388 -23.0366 -23.0224 -22.9772 -22.9765
   -19.4875 -19.4448 -19.4365 -19.4264 -19.3368 -19.3273 -19.3162 -19.3047
    -9.1253  -9.0448  -9.0180  -8.9764  -8.8505  -8.7901  -8.7389  -8.6798
    -8.6519  -8.6393  -8.5898  -8.4557  -8.1255  -8.0127  -7.9606  -7.9344
    -7.9040  -7.8647  -7.8304  -7.8168  -7.7877  -7.7704  -7.7486  -7.7330
    -3.1465  -3.1436  -3.1361  -3.0295  -3.0150  -3.0012  -2.9956  -2.9794
    -2.9763  -2.9607  -2.9541  -2.9488  -2.9382  -2.9124  -2.8874  -2.8785
    -2.8730  -2.8634  -2.8519  -2.8449  -2.8319  -2.8202  -2.8123  -2.7849
     2.7543   2.8539   2.8864   2.9371   2.9856   3.0559   3.0796   3.2204
     3.3806   3.4273   3.5741   3.7498   3.7554   3.7981   3.8650   4.1287
     4.2656   4.3305   4.7897   4.8729   4.9163   4.9756   5.1258   5.2561
     5.2845   5.3091   5.3744   5.3939   5.4571   5.4895   5.5123   5.5280
     5.6143   5.7004   5.7402   5.7730   5.7955   5.9040   5.9426   5.9574
     6.0693   6.2281   6.3014   6.3862   6.4361   6.4691   6.5026   6.5581
     6.6025   6.6298   6.6536   6.6937   6.7521   6.7846   6.8235   6.8759
     6.8946   6.9295   6.9636   6.9969   7.0122   7.0590   7.1025   7.1337
     7.1876   7.2355   7.7481   7.7908   7.8174   7.8900   7.9096   7.9910
     9.5155   9.7611   9.9769  10.0087  10.0777  10.0900  11.5191  11.5552
    11.6011  11.6372  11.6638  11.9800  12.0334  12.0439  12.0578  12.1181
    12.1281  12.2034  12.6741  12.7385  12.7876  12.8536  12.9062  12.9937
    13.0526  13.1415  13.3999  13.4523  13.5502  14.1043  14.2330  14.7157

          k = 0.0000 0.0000-0.5000 ( 28326 PWs)   bands (ev):

   -47.3916 -47.2805 -47.1150 -47.0847 -46.9421 -46.9393 -46.9365 -46.9087
   -23.4706 -23.4520 -23.4386 -23.3498 -23.3422 -23.3248 -23.2489 -23.2338
   -23.2072 -23.1929 -23.1807 -23.1796 -23.1575 -23.1542 -23.1287 -23.0859
   -23.0587 -23.0583 -23.0507 -23.0388 -23.0367 -23.0226 -22.9961 -22.9765
   -19.4869 -19.4446 -19.4355 -19.4282 -19.3344 -19.3287 -19.3164 -19.3057
    -9.1024  -9.0189  -8.9441  -8.8853  -8.8812  -8.8146  -8.6793  -8.6154
    -8.5776  -8.5550  -8.4771  -8.3393  -8.2665  -8.2401  -8.0879  -8.0669
    -7.9448  -7.9284  -7.8487  -7.8387  -7.7801  -7.7740  -7.7572  -7.7381
    -3.0985  -3.0900  -3.0736  -3.0621  -3.0533  -3.0336  -2.9991  -2.9816
    -2.9761  -2.9716  -2.9545  -2.9509  -2.9263  -2.9079  -2.8871  -2.8827
    -2.8722  -2.8715  -2.8591  -2.8529  -2.8366  -2.8304  -2.8249  -2.8006
     2.7570   2.8555   2.9120   2.9917   2.9995   3.0861   3.1689   3.2473
     3.9074   3.9683   4.1086   4.1259   4.1550   4.2008   4.2312   4.2675
     4.3239   4.4161   4.4602   4.5216   4.5823   4.6439   4.6535   4.7431
     4.8478   4.8710   5.1487   5.2949   5.3843   5.4297   5.4376   5.4735
     5.5465   5.6062   5.6371   5.6705   5.7225   5.7585   6.1192   6.1896
     6.2000   6.2309   6.3321   6.3653   6.4055   6.4241   6.4661   6.4904
     6.5229   6.5253   6.5666   6.6210   6.6687   6.6836   6.6944   6.7259
     6.7762   6.8384   7.0979   7.1264   7.1484   7.1885   7.3143   7.3853
     7.4426   7.4646   7.4714   7.4880   7.5108   7.6178   7.8931   7.9906
     9.5203   9.7597  10.6096  10.7103  10.7495  10.8044  10.8676  10.9074
    11.0635  11.1661  11.6216  11.9888  12.0385  12.1110  12.2415  12.2952
    12.3046  12.3316  12.3616  12.4437  12.4549  12.5891  12.8651  12.9994
    13.0462  13.1436  13.7431  13.9151  13.9290  14.0709  14.4572  14.6482

          k = 0.0000 0.2500 0.2500 ( 28303 PWs)   bands (ev):

   -47.3916 -47.2805 -47.1149 -47.0847 -46.9422 -46.9391 -46.9365 -46.9087
   -23.4739 -23.4488 -23.4364 -23.3586 -23.3376 -23.3255 -23.2364 -23.2325
   -23.2073 -23.1994 -23.1967 -23.1807 -23.1440 -23.1426 -23.1253 -23.0822
   -23.0766 -23.0584 -23.0541 -23.0534 -23.0394 -23.0226 -22.9772 -22.9765
   -19.4870 -19.4433 -19.4374 -19.4275 -19.3351 -19.3272 -19.3171 -19.3057
    -9.0731  -8.9909  -8.9576  -8.9350  -8.8015  -8.7634  -8.7078  -8.6648
    -8.6234  -8.5860  -8.5553  -8.4548  -8.1313  -8.0606  -8.0339  -8.0025
    -7.9682  -7.9557  -7.9194  -7.8797  -7.8250  -7.7858  -7.7540  -7.7359
    -3.1430  -3.1203  -3.0935  -3.0305  -3.0200  -3.0132  -3.0063  -2.9932
    -2.9758  -2.9577  -2.9541  -2.9445  -2.9365  -2.9044  -2.8934  -2.8826
    -2.8760  -2.8740  -2.8588  -2.8511  -2.8344  -2.8278  -2.8130  -2.7897
     2.8872   2.9445   2.9807   3.0705   3.1754   3.2061   3.3334   3.3672
     3.4765   3.5183   3.6420   3.8405   3.8898   3.9208   3.9726   4.1802
     4.3142   4.3769   4.7701   4.8131   4.8898   4.9435   4.9961   5.0591
     5.0883   5.1699   5.2727   5.2969   5.3471   5.3753   5.4170   5.4542
     5.4833   5.5298   5.5602   5.6485   5.7126   5.7762   5.8333   5.8983
     5.9416   6.1988   6.2790   6.3417   6.3645   6.4483   6.5148   6.5694
     6.6193   6.6489   6.7439   6.7709   6.7941   6.8197   6.8440   6.8801
     6.9106   6.9350   6.9465   6.9577   6.9855   7.0078   7.0534   7.0879
     7.1178   7.1482   7.7008   7.7226   7.7379   7.7883   7.8683   7.9246
     9.9201  10.0159  10.0704  10.1559  10.2686  10.3576  11.4589  11.5287
    11.5540  11.6187  11.6610  11.7406  11.8971  12.0093  12.0404  12.0659
    12.0884  12.1293  12.5494  12.6593  12.6926  12.7056  12.7822  12.8618
    13.2916  13.4450  13.4732  13.8293  13.8702  14.1679  14.7372  14.7794

          k = 0.0000 0.2500-0.5000 ( 28234 PWs)   bands (ev):

   -47.3916 -47.2805 -47.1149 -47.0847 -46.9421 -46.9393 -46.9365 -46.9087
   -23.4704 -23.4488 -23.4363 -23.3496 -23.3375 -23.3248 -23.2359 -23.2325
   -23.2071 -23.1994 -23.1810 -23.1796 -23.1545 -23.1431 -23.1426 -23.0858
   -23.0590 -23.0586 -23.0536 -23.0534 -23.0394 -23.0227 -22.9961 -22.9765
   -19.4865 -19.4431 -19.4359 -19.4296 -19.3330 -19.3277 -19.3177 -19.3067
    -9.0351  -8.9617  -8.8972  -8.8286  -8.8167  -8.7622  -8.6348  -8.5807
    -8.5573  -8.5501  -8.4756  -8.3461  -8.2713  -8.2444  -8.1025  -8.0803
    -8.0424  -7.9942  -7.9771  -7.9419  -7.8979  -7.7808  -7.7594  -7.7388
    -3.1005  -3.0891  -3.0726  -3.0517  -3.0305  -3.0277  -3.0017  -2.9916
    -2.9860  -2.9734  -2.9476  -2.9395  -2.9257  -2.9199  -2.9016  -2.8861
    -2.8834  -2.8774  -2.8647  -2.8560  -2.8419  -2.8287  -2.8103  -2.7948
     2.9021   2.9700   2.9806   3.0986   3.3071   3.3777   3.4116   3.4868
     4.0055   4.0642   4.1276   4.1604   4.2024   4.2153   4.2438   4.3196
     4.3820   4.4344   4.5103   4.5476   4.5962   4.6556   4.7153   4.7770
     4.8576   4.8750   4.9566   5.0498   5.1523   5.2019   5.2739   5.3548
     5.3781   5.3934   5.4755   5.6261   5.6611   5.7049   5.7383   5.7927
     5.9239   6.0069   6.1323   6.1624   6.4246   6.4799   6.5059   6.5159
     6.5957   6.6479   6.6636   6.7329   6.7555   6.8122   6.8452   6.8816
     6.9075   6.9241   6.9678   7.0104   7.0149   7.0600   7.3122   7.3569
     7.4271   7.4389   7.4547   7.4766   7.4879   7.6141   7.7922   7.8828
     9.9238  10.1391  10.7130  10.7758  10.8078  10.8660  10.9263  11.0502
    11.0676  11.3233  11.4751  11.7394  12.0123  12.0234  12.1132  12.1217
    12.1933  12.2767  12.3056  12.3211  12.3715  12.4395  12.7274  12.8529
    13.3280  13.5116  13.8322  13.9827  14.3650  14.5660  14.7645  14.9894

          k = 0.0000-0.5000-0.5000 ( 28276 PWs)   bands (ev):

   -47.3916 -47.2805 -47.1149 -47.0847 -46.9421 -46.9393 -46.9365 -46.9087
   -23.4702 -23.4466 -23.4324 -23.3495 -23.3325 -23.3247 -23.2340 -23.2120
   -23.2069 -23.2061 -23.1829 -23.1796 -23.1649 -23.1538 -23.1183 -23.0851
   -23.0799 -23.0587 -23.0583 -23.0573 -23.0412 -23.0227 -22.9961 -22.9766
   -19.4860 -19.4411 -19.4364 -19.4315 -19.3314 -19.3266 -19.3194 -19.3078
    -8.9772  -8.9098  -8.8849  -8.7912  -8.6792  -8.6414  -8.5838  -8.5411
    -8.4825  -8.4548  -8.3783  -8.3673  -8.3324  -8.3099  -8.2242  -8.2159
    -8.1797  -8.1184  -8.0727  -8.0252  -7.9412  -7.7807  -7.7599  -7.7393
    -3.0878  -3.0826  -3.0637  -3.0553  -3.0499  -3.0207  -3.0048  -2.9985
    -2.9624  -2.9541  -2.9467  -2.9394  -2.9302  -2.9294  -2.9198  -2.8966
    -2.8882  -2.8846  -2.8739  -2.8626  -2.8350  -2.8223  -2.8073  -2.7917
     2.9286   3.0026   3.0188   3.1091   4.0016   4.0133   4.0388   4.0970
     4.1523   4.2026   4.2201   4.2458   4.2708   4.2823   4.3097   4.3455
     4.4350   4.4727   4.5168   4.5451   4.5774   4.5900   4.6310   4.6477
     4.6822   4.7324   4.7611   4.8102   4.8583   4.9497   4.9632   5.0495
     5.1061   5.1805   5.2469   5.3060   5.3837   5.4466   5.5557   5.6453
     5.7290   5.8921   5.9287   6.0142   6.4628   6.4917   6.5055   6.5319
     6.5950   6.6348   6.7109   6.7181   6.7273   6.7729   6.8386   6.8626
     7.0044   7.0845   7.1883   7.2162   7.2376   7.2911   7.3215   7.3465
     7.3510   7.3810   7.4053   7.4652   7.5022   7.5631   7.6366   7.6490
    10.6230  10.6971  10.7692  10.8083  10.9107  10.9307  11.0480  11.0665
    11.1383  11.2969  11.3593  11.5482  11.6942  11.7555  11.8272  11.8591
    12.2046  12.2689  12.2844  12.3373  12.3754  12.4292  12.4395  12.5187
    13.6921  13.7311  13.8525  13.8936  15.0245  15.3595  15.4395  15.7386

          k = 0.2500 0.2500 0.2500 ( 28324 PWs)   bands (ev):

   -47.3916 -47.2805 -47.1149 -47.0847 -46.9422 -46.9391 -46.9365 -46.9087
   -23.4739 -23.4472 -23.4344 -23.3585 -23.3376 -23.3202 -23.2352 -23.2278
   -23.2071 -23.1994 -23.1966 -23.1712 -23.1436 -23.1425 -23.1252 -23.0823
   -23.0767 -23.0643 -23.0554 -23.0542 -23.0415 -23.0329 -22.9831 -22.9772
   -19.4868 -19.4430 -19.4373 -19.4273 -19.3355 -19.3273 -19.3172 -19.3059
    -9.0200  -8.9419  -8.9218  -8.8765  -8.7838  -8.7088  -8.6821  -8.6192
    -8.5931  -8.5736  -8.5125  -8.4289  -8.1517  -8.0903  -8.0558  -8.0358
    -7.9961  -7.9749  -7.9412  -7.9128  -7.8953  -7.8758  -7.8644  -7.8216
    -3.1259  -3.1190  -3.0664  -3.0363  -3.0203  -3.0092  -3.0003  -2.9972
    -2.9827  -2.9667  -2.9627  -2.9570  -2.9458  -2.9264  -2.8960  -2.8857
    -2.8771  -2.8666  -2.8584  -2.8466  -2.8318  -2.8269  -2.8084  -2.7870
     3.1201   3.1648   3.1962   3.2307   3.2799   3.3411   3.3926   3.4429
     3.5499   3.6158   3.6794   3.9227   4.0036   4.0415   4.0682   4.2560
     4.3799   4.4174   4.7724   4.8014   4.8886   4.9285   4.9630   5.0196
     5.0454   5.0913   5.1350   5.1729   5.2112   5.2566   5.2804   5.3408
     5.3819   5.4446   5.4871   5.5109   5.5420   5.5773   5.6317   5.8401
     5.8681   5.9234   6.1265   6.1486   6.2922   6.3470   6.4006   6.4732
     6.6639   6.6925   6.7357   6.8100   6.8233   6.8647   6.8713   6.9078
     6.9408   6.9606   6.9815   7.0000   7.0330   7.0544   7.0987   7.1174
     7.1394   7.1634   7.6489   7.6732   7.7254   7.7299   7.7848   7.8462
    10.1916  10.2399  10.2972  10.3476  10.3745  10.4335  11.4200  11.5034
    11.5551  11.6194  11.7067  11.7650  11.8297  11.8545  11.9048  11.9258
    11.9399  12.0421  12.4956  12.5113  12.5522  12.5830  12.6468  12.6801
    13.7671  13.8518  13.8813  13.9391  14.0372  14.6222  14.7447  14.8807

          k = 0.2500 0.2500-0.5000 ( 28270 PWs)   bands (ev):

   -47.3916 -47.2805 -47.1149 -47.0847 -46.9421 -46.9393 -46.9365 -46.9087
   -23.4704 -23.4471 -23.4343 -23.3494 -23.3374 -23.3196 -23.2348 -23.2276
   -23.2071 -23.1994 -23.1799 -23.1712 -23.1543 -23.1429 -23.1423 -23.0858
   -23.0646 -23.0590 -23.0554 -23.0537 -23.0416 -23.0330 -22.9961 -22.9831
   -19.4863 -19.4428 -19.4358 -19.4295 -19.3332 -19.3279 -19.3179 -19.3068
    -8.9700  -8.8948  -8.8417  -8.7872  -8.7658  -8.7062  -8.6021  -8.5579
    -8.5426  -8.5284  -8.4592  -8.3484  -8.2736  -8.2441  -8.1239  -8.1009
    -8.0561  -8.0427  -7.9925  -7.9781  -7.9140  -7.9075  -7.8840  -7.8675
    -3.0916  -3.0853  -3.0720  -3.0591  -3.0296  -3.0212  -3.0038  -2.9989
    -2.9940  -2.9752  -2.9581  -2.9533  -2.9388  -2.9275  -2.9062  -2.8922
    -2.8857  -2.8765  -2.8497  -2.8404  -2.8358  -2.8216  -2.8021  -2.7875
     3.1446   3.2434   3.2993   3.3579   3.3763   3.4562   3.5320   3.6005
     4.0862   4.1237   4.1452   4.1868   4.2262   4.2439   4.3326   4.3694
     4.4024   4.4558   4.5232   4.5874   4.6508   4.7050   4.7334   4.7859
     4.8859   4.9020   4.9401   4.9933   5.0806   5.1205   5.1714   5.1995
     5.2290   5.2932   5.3298   5.3602   5.4338   5.4535   5.6699   5.7191
     5.7367   5.7833   5.9177   5.9675   6.0211   6.0611   6.3262   6.3659
     6.7254   6.7733   6.7810   6.8381   6.8625   6.8743   6.9098   6.9289
     6.9686   6.9969   7.0202   7.0422   7.1193   7.1283   7.2883   7.3528
     7.4080   7.4346   7.4520   7.4642   7.4956   7.5891   7.7186   7.7971
    10.2116  10.4050  10.7761  10.8867  10.9254  10.9541  11.0057  11.0568
    11.2055  11.3240  11.4379  11.7745  11.8565  11.9096  12.0148  12.0462
    12.0669  12.0868  12.1366  12.2003  12.2097  12.3483  12.5297  12.6395
    13.7956  14.0231  14.3297  14.4857  14.4946  14.6925  14.8815  15.1278

          k = 0.2500-0.5000-0.5000 ( 28280 PWs)   bands (ev):

   -47.3916 -47.2805 -47.1149 -47.0847 -46.9421 -46.9393 -46.9365 -46.9087
   -23.4702 -23.4442 -23.4312 -23.3492 -23.3324 -23.3196 -23.2282 -23.2119
   -23.2069 -23.2061 -23.1797 -23.1756 -23.1620 -23.1537 -23.1183 -23.0852
   -23.0800 -23.0646 -23.0586 -23.0582 -23.0441 -23.0331 -22.9961 -22.9831
   -19.4859 -19.4409 -19.4362 -19.4313 -19.3316 -19.3268 -19.3195 -19.3080
    -8.8754  -8.8156  -8.7977  -8.7073  -8.6672  -8.6284  -8.5710  -8.5235
    -8.4786  -8.4522  -8.3812  -8.3701  -8.3314  -8.3026  -8.2256  -8.2149
    -8.1794  -8.1285  -8.0861  -8.0730  -8.0172  -7.9114  -7.8850  -7.8792
    -3.0833  -3.0802  -3.0608  -3.0568  -3.0476  -3.0254  -3.0175  -3.0142
    -2.9771  -2.9735  -2.9656  -2.9604  -2.9494  -2.9354  -2.9241  -2.8999
    -2.8685  -2.8593  -2.8570  -2.8474  -2.8206  -2.8081  -2.7951  -2.7814
     3.3009   3.3696   3.3873   3.4745   4.0024   4.0176   4.0390   4.1054
     4.1886   4.2087   4.2329   4.2650   4.2924   4.3191   4.3307   4.3908
     4.4545   4.4835   4.5244   4.5822   4.6283   4.6701   4.6869   4.7239
     4.7692   4.8017   4.8133   4.8687   4.8927   4.9224   4.9547   5.0235
     5.0702   5.1083   5.1378   5.1757   5.2302   5.2780   5.3025   5.3386
     5.4644   5.5659   5.6042   5.6651   5.9278   6.0188   6.0912   6.1454
     6.8139   6.8333   6.8795   6.9202   6.9391   6.9491   6.9927   7.0236
     7.0583   7.1253   7.1886   7.2064   7.2333   7.2796   7.3154   7.3406
     7.3532   7.3686   7.4154   7.4502   7.5066   7.5515   7.6095   7.6285
    10.7905  10.8739  10.9076  10.9593  11.0428  11.0673  11.0820  11.2042
    11.2656  11.3070  11.3643  11.5546  11.6873  11.7496  11.8198  11.8460
    11.9617  12.0433  12.0535  12.0962  12.1316  12.1931  12.2230  12.2725
    14.2999  14.3553  14.4972  14.5394  15.0351  15.3795  15.4440  15.7412

          k =-0.5000-0.5000-0.5000 ( 28480 PWs)   bands (ev):

   -47.3917 -47.2805 -47.1149 -47.0848 -46.9421 -46.9393 -46.9365 -46.9087
   -23.4702 -23.4422 -23.4295 -23.3490 -23.3323 -23.3141 -23.2222 -23.2118
   -23.2069 -23.2061 -23.1797 -23.1714 -23.1546 -23.1535 -23.1183 -23.0852
   -23.0801 -23.0709 -23.0604 -23.0584 -23.0466 -23.0451 -22.9962 -22.9900
   -19.4857 -19.4407 -19.4360 -19.4311 -19.3318 -19.3269 -19.3196 -19.3081
    -8.7480  -8.7282  -8.7035  -8.6416  -8.5970  -8.5666  -8.5194  -8.4688
    -8.4578  -8.4341  -8.4096  -8.3811  -8.3103  -8.3040  -8.2608  -8.2265
    -8.1897  -8.1779  -8.1466  -8.1301  -8.1087  -8.0562  -8.0378  -8.0079
    -3.0795  -3.0779  -3.0651  -3.0531  -3.0403  -3.0287  -3.0246  -3.0192
    -2.9983  -2.9920  -2.9853  -2.9789  -2.9615  -2.9426  -2.9284  -2.9035
    -2.8509  -2.8413  -2.8357  -2.8300  -2.8127  -2.8000  -2.7863  -2.7738
     3.9216   3.9666   4.0085   4.0473   4.1120   4.1410   4.1740   4.2003
     4.2099   4.2283   4.2752   4.2875   4.3064   4.3475   4.3556   4.3738
     4.4006   4.4146   4.4581   4.4959   4.5042   4.5387   4.5817   4.6178
     4.8140   4.8785   4.8823   4.9640   4.9778   4.9923   5.0008   5.0080
     5.0590   5.0636   5.0972   5.1278   5.1304   5.1577   5.1755   5.2264
     5.2439   5.2546   5.2829   5.2933   5.3425   5.3604   5.3918   5.4439
     6.9709   6.9840   7.0215   7.0485   7.0710   7.1086   7.1325   7.1454
     7.1643   7.1853   7.2099   7.2310   7.2516   7.2666   7.2714   7.3395
     7.3694   7.4011   7.4111   7.4739   7.4973   7.5206   7.5484   7.5772
    11.0344  11.1332  11.1875  11.2409  11.2615  11.3062  11.3581  11.3904
    11.4215  11.5087  11.5223  11.5421  11.5694  11.6170  11.6439  11.6669
    11.6938  11.7356  11.7553  11.7801  11.8107  11.8589  11.8794  11.9135
    14.9808  15.2248  15.3053  15.3416  15.4608  15.6039  15.6294  15.6745

          k = 0.2500 0.0000 0.0000 ( 28242 PWs)   bands (ev):

   -47.3916 -47.2805 -47.1149 -47.0847 -46.9423 -46.9390 -46.9365 -46.9087
   -23.4775 -23.4514 -23.4361 -23.3669 -23.3426 -23.3205 -23.2490 -23.2299
   -23.2209 -23.1930 -23.1874 -23.1707 -23.1575 -23.1292 -23.1094 -23.0908
   -23.0770 -23.0644 -23.0533 -23.0394 -23.0380 -23.0321 -22.9830 -22.9635
   -19.4879 -19.4448 -19.4369 -19.4250 -19.3389 -19.3269 -19.3159 -19.3040
    -9.1341  -9.0709  -9.0160  -8.9743  -8.8668  -8.8222  -8.6883  -8.6736
    -8.6544  -8.6210  -8.5575  -8.4686  -8.1021  -7.9865  -7.9505  -7.9173
    -7.8970  -7.8792  -7.8617  -7.8574  -7.8189  -7.7850  -7.7649  -7.6801
    -3.1520  -3.1487  -3.1348  -3.0234  -3.0066  -2.9955  -2.9914  -2.9753
    -2.9656  -2.9615  -2.9506  -2.9475  -2.9404  -2.9374  -2.9011  -2.8855
    -2.8787  -2.8671  -2.8496  -2.8348  -2.8300  -2.8151  -2.8126  -2.7810
     2.7615   2.7983   2.8713   2.9173   2.9970   3.0198   3.0983   3.2357
     3.4065   3.5182   3.5396   3.7170   3.7534   3.8281   3.8691   4.0949
     4.2996   4.3261   4.8315   4.8623   4.9309   5.0216   5.1097   5.1587
     5.3095   5.3351   5.3677   5.3815   5.4637   5.4935   5.5188   5.5289
     5.5712   5.7094   5.7459   5.7843   5.8464   5.9087   5.9527   5.9682
     6.0633   6.1816   6.2821   6.3884   6.4380   6.4663   6.4781   6.5140
     6.5564   6.5762   6.6118   6.7045   6.7528   6.7869   6.8408   6.8681
     6.9043   6.9480   6.9770   6.9808   7.0209   7.0771   7.1297   7.1583
     7.2356   7.2751   7.7581   7.7756   7.8703   7.8864   7.9242   7.9331
     9.5706   9.7263   9.9143   9.9995  10.0816  10.1251  11.4201  11.5120
    11.6534  11.6735  11.7683  11.8086  12.0435  12.0836  12.0879  12.1182
    12.1470  12.2143  12.6990  12.7197  12.7844  12.8590  12.9056  13.0090
    13.0415  13.0853  13.4086  13.4447  13.6226  14.1062  14.1340  14.7166

          k = 0.0000 0.2500 0.0000 ( 28242 PWs)   bands (ev):

   -47.3916 -47.2805 -47.1149 -47.0847 -46.9423 -46.9390 -46.9365 -46.9087
   -23.4774 -23.4489 -23.4365 -23.3670 -23.3377 -23.3258 -23.2374 -23.2325
   -23.2215 -23.1994 -23.1875 -23.1806 -23.1438 -23.1425 -23.1097 -23.0907
   -23.0772 -23.0585 -23.0540 -23.0533 -23.0393 -23.0225 -22.9765 -22.9635
   -19.4875 -19.4438 -19.4380 -19.4259 -19.3366 -19.3274 -19.3161 -19.3049
    -9.1279  -9.0396  -9.0164  -8.9813  -8.8421  -8.7771  -8.7303  -8.7050
    -8.6415  -8.5996  -8.5639  -8.5266  -8.0744  -8.0220  -7.9903  -7.9626
    -7.9383  -7.9121  -7.8657  -7.7926  -7.7795  -7.7497  -7.7326  -7.6812
    -3.1463  -3.1451  -3.1371  -3.0343  -3.0107  -3.0045  -2.9909  -2.9791
    -2.9764  -2.9655  -2.9549  -2.9440  -2.9309  -2.9228  -2.8827  -2.8766
    -2.8707  -2.8632  -2.8505  -2.8439  -2.8353  -2.8208  -2.8142  -2.7849
     2.7932   2.8541   2.9012   2.9469   2.9947   3.0445   3.0785   3.2269
     3.3823   3.4740   3.5269   3.7425   3.7672   3.7987   3.8277   4.1553
     4.2678   4.2960   4.8272   4.8635   4.9131   4.9993   5.1645   5.2566
     5.2856   5.3032   5.3605   5.3849   5.4416   5.4627   5.4922   5.5334
     5.5467   5.7073   5.7289   5.7596   5.8006   5.8415   5.9391   5.9994
     6.0707   6.2431   6.2796   6.4079   6.4459   6.4892   6.5343   6.5452
     6.5816   6.6111   6.6423   6.6758   6.7530   6.8120   6.8328   6.8659
     6.8992   6.9062   6.9555   6.9752   7.0006   7.0333   7.0680   7.1461
     7.2279   7.2933   7.7746   7.7878   7.8240   7.8601   7.8780   8.0252
     9.6346   9.7041   9.9258   9.9756  10.1059  10.1574  11.4637  11.5531
    11.6262  11.6983  11.7351  11.9208  12.0074  12.0443  12.0754  12.0992
    12.1368  12.1895  12.7040  12.7599  12.7891  12.8574  12.8814  12.8916
    13.1256  13.1461  13.3789  13.4115  13.6121  14.0758  14.2113  14.7053

          k =-0.5000 0.0000 0.0000 ( 28326 PWs)   bands (ev):

   -47.3916 -47.2805 -47.1150 -47.0847 -46.9423 -46.9390 -46.9365 -46.9087
   -23.4775 -23.4507 -23.4330 -23.3669 -23.3426 -23.3148 -23.2489 -23.2264
   -23.2181 -23.1930 -23.1874 -23.1595 -23.1574 -23.1287 -23.1094 -23.0909
   -23.0771 -23.0706 -23.0566 -23.0463 -23.0389 -23.0376 -22.9898 -22.9635
   -19.4876 -19.4444 -19.4368 -19.4248 -19.3394 -19.3270 -19.3160 -19.3042
    -9.1142  -9.0554  -8.9558  -8.9184  -8.8707  -8.8472  -8.6814  -8.6287
    -8.5008  -8.4352  -8.4321  -8.3929  -8.2278  -8.1972  -8.1300  -8.0758
    -7.9830  -7.9218  -7.8756  -7.8460  -7.8355  -7.7846  -7.7652  -7.6848
    -3.1240  -3.1144  -3.0804  -3.0199  -3.0126  -3.0049  -2.9936  -2.9892
    -2.9831  -2.9608  -2.9566  -2.9474  -2.9385  -2.9351  -2.9335  -2.8876
    -2.8816  -2.8693  -2.8527  -2.8420  -2.8367  -2.8248  -2.8190  -2.7902
     2.7672   2.7978   2.8961   2.9393   3.0234   3.0382   3.1988   3.2559
     3.8827   3.9278   4.1183   4.1837   4.2041   4.2365   4.2910   4.3232
     4.3931   4.4176   4.4828   4.5441   4.5908   4.6271   4.6562   4.7238
     4.7955   4.8263   5.1250   5.1858   5.3295   5.4416   5.4752   5.5211
     5.5415   5.5964   5.6519   5.6743   5.7363   5.8381   6.1160   6.1423
     6.1996   6.2420   6.2788   6.3085   6.3353   6.4098   6.4507   6.4623
     6.4734   6.5350   6.5924   6.6188   6.6635   6.7055   6.7351   6.7528
     6.7662   6.8406   7.1318   7.1554   7.1794   7.2170   7.3235   7.3415
     7.4134   7.4445   7.4877   7.5115   7.6009   7.6555   7.8980   7.9287
     9.5765   9.7201  10.6876  10.6995  10.7455  10.7692  10.8742  10.9359
    10.9732  11.0471  11.7666  11.8040  12.0807  12.1799  12.2619  12.2679
    12.2856  12.3860  12.4005  12.4393  12.4804  12.5176  12.9021  13.0145
    13.0508  13.0697  13.8131  13.9067  13.9487  14.0047  14.4947  14.5160

          k = 0.0000-0.5000 0.0000 ( 28326 PWs)   bands (ev):

   -47.3916 -47.2805 -47.1149 -47.0847 -46.9423 -46.9390 -46.9365 -46.9087
   -23.4773 -23.4466 -23.4326 -23.3669 -23.3326 -23.3258 -23.2354 -23.2231
   -23.2102 -23.2061 -23.1875 -23.1827 -23.1649 -23.1179 -23.1097 -23.0910
   -23.0803 -23.0757 -23.0585 -23.0573 -23.0411 -23.0225 -22.9766 -22.9635
   -19.4870 -19.4412 -19.4401 -19.4269 -19.3338 -19.3293 -19.3161 -19.3060
    -9.1064  -9.0082  -8.9562  -8.9047  -8.8552  -8.7701  -8.7061  -8.6171
    -8.5437  -8.4976  -8.4319  -8.3545  -8.3047  -8.2590  -8.2185  -8.0952
    -7.9864  -7.9372  -7.8744  -7.7799  -7.7755  -7.7616  -7.7372  -7.6864
    -3.1000  -3.0939  -3.0747  -3.0659  -3.0519  -3.0370  -2.9908  -2.9838
    -2.9832  -2.9660  -2.9556  -2.9467  -2.9229  -2.9041  -2.8827  -2.8774
    -2.8756  -2.8680  -2.8633  -2.8519  -2.8416  -2.8332  -2.8227  -2.8028
     2.7950   2.8666   2.9230   3.0086   3.0251   3.0702   3.1684   3.2724
     3.9143   4.0024   4.1164   4.1534   4.2127   4.2266   4.2447   4.2846
     4.3737   4.4273   4.4591   4.5566   4.5660   4.6050   4.6424   4.6523
     4.6684   4.7962   5.1870   5.3268   5.3417   5.4076   5.4327   5.4631
     5.5316   5.5567   5.6036   5.6836   5.7033   5.7331   6.1103   6.1663
     6.1962   6.2525   6.3154   6.3596   6.3986   6.4351   6.4509   6.4961
     6.5255   6.5648   6.5817   6.6051   6.6580   6.6822   6.7052   6.7581
     6.7812   6.8706   6.9964   7.1383   7.1989   7.2387   7.3208   7.3467
     7.4020   7.4214   7.5003   7.5340   7.5596   7.5958   7.8639   8.0251
     9.6685   9.6734  10.6422  10.7152  10.7525  10.8459  10.9070  10.9258
    11.0692  11.0992  11.7009  11.9198  12.0140  12.0939  12.2008  12.2594
    12.3550  12.3601  12.4236  12.4650  12.5201  12.5328  12.8048  12.8759
    13.1361  13.1380  13.8366  13.8793  13.9398  13.9824  14.5262  14.5527

          k = 0.0000-0.2500 0.2500 ( 28303 PWs)   bands (ev):

   -47.3916 -47.2805 -47.1149 -47.0847 -46.9422 -46.9391 -46.9365 -46.9087
   -23.4739 -23.4488 -23.4364 -23.3586 -23.3376 -23.3255 -23.2363 -23.2325
   -23.2074 -23.1994 -23.1967 -23.1807 -23.1439 -23.1426 -23.1253 -23.0822
   -23.0766 -23.0584 -23.0540 -23.0534 -23.0394 -23.0226 -22.9772 -22.9765
   -19.4870 -19.4433 -19.4374 -19.4275 -19.3350 -19.3274 -19.3169 -19.3058
    -9.0738  -8.9888  -8.9589  -8.9393  -8.7929  -8.7614  -8.7126  -8.6658
    -8.6212  -8.5864  -8.5570  -8.4550  -8.1387  -8.0559  -8.0251  -8.0043
    -7.9734  -7.9550  -7.9217  -7.8777  -7.8245  -7.7869  -7.7534  -7.7358
    -3.1429  -3.1197  -3.0892  -3.0311  -3.0244  -3.0164  -3.0050  -2.9970
    -2.9747  -2.9604  -2.9496  -2.9399  -2.9334  -2.9112  -2.8938  -2.8839
    -2.8762  -2.8699  -2.8623  -2.8488  -2.8400  -2.8225  -2.8134  -2.7880
     2.8868   2.9458   2.9797   3.0723   3.1765   3.2036   3.3411   3.3678
     3.4793   3.5045   3.6496   3.8479   3.8905   3.9155   3.9542   4.1845
     4.3162   4.3655   4.7677   4.8467   4.9128   4.9563   4.9823   5.0344
     5.0808   5.1174   5.2728   5.3108   5.3482   5.3895   5.4266   5.4560
     5.4821   5.5227   5.5628   5.6416   5.7128   5.8105   5.8454   5.8994
     5.9373   6.1758   6.2966   6.3410   6.3685   6.4524   6.4867   6.5754
     6.6288   6.6393   6.7602   6.7818   6.8086   6.8391   6.8466   6.8711
     6.9106   6.9377   6.9521   6.9592   6.9817   6.9993   7.0225   7.0759
     7.0895   7.1411   7.7010   7.7277   7.7520   7.7887   7.8724   7.9170
     9.8958  10.0314  10.0655  10.1696  10.2704  10.3710  11.4639  11.5214
    11.5690  11.6251  11.6479  11.7557  11.8820  11.9866  12.0395  12.0623
    12.0872  12.1262  12.5516  12.6663  12.6957  12.7187  12.7698  12.8607
    13.2937  13.4421  13.4788  13.8295  13.8674  14.1682  14.7367  14.7743

          k = 0.2500 0.0000-0.2500 ( 28303 PWs)   bands (ev):

   -47.3916 -47.2805 -47.1150 -47.0847 -46.9422 -46.9391 -46.9365 -46.9087
   -23.4741 -23.4513 -23.4360 -23.3586 -23.3425 -23.3202 -23.2488 -23.2283
   -23.2074 -23.1966 -23.1930 -23.1707 -23.1575 -23.1303 -23.1241 -23.0826
   -23.0764 -23.0643 -23.0534 -23.0395 -23.0380 -23.0322 -22.9830 -22.9772
   -19.4873 -19.4445 -19.4364 -19.4263 -19.3371 -19.3274 -19.3163 -19.3049
    -9.0887  -9.0105  -8.9853  -8.9130  -8.8495  -8.7503  -8.6903  -8.6385
    -8.6179  -8.6059  -8.5328  -8.4281  -8.1219  -8.0997  -8.0194  -7.9502
    -7.9269  -7.9053  -7.8889  -7.8740  -7.8536  -7.8292  -7.8116  -7.7703
    -3.1399  -3.1271  -3.0980  -3.0275  -3.0091  -3.0026  -3.0005  -2.9791
    -2.9750  -2.9674  -2.9561  -2.9537  -2.9470  -2.9306  -2.8951  -2.8834
    -2.8770  -2.8611  -2.8534  -2.8449  -2.8364  -2.8204  -2.8170  -2.7925
     2.8151   2.9165   2.9392   2.9892   3.1873   3.2664   3.3536   3.4301
     3.4956   3.5337   3.6359   3.8401   3.8664   3.8968   4.0203   4.1470
     4.2877   4.4360   4.7155   4.8585   4.8961   4.9310   4.9944   5.0211
     5.0925   5.1273   5.3018   5.3509   5.3753   5.3980   5.4516   5.4759
     5.5144   5.5454   5.5844   5.6139   5.7274   5.8197   5.8513   5.8936
     5.9445   6.1797   6.2546   6.2865   6.3788   6.4445   6.4835   6.5085
     6.5863   6.6795   6.7143   6.7586   6.7736   6.8110   6.8403   6.8734
     6.9121   6.9193   6.9413   6.9713   7.0233   7.0469   7.0721   7.0901
     7.1505   7.1777   7.6598   7.7508   7.7925   7.8275   7.8350   7.8878
     9.8935   9.9918  10.0628  10.1291  10.2830  10.3666  11.4145  11.5110
    11.5612  11.6144  11.6867  11.7349  11.8113  11.8932  12.0804  12.1122
    12.1400  12.1987  12.4999  12.5886  12.7233  12.7748  12.8549  12.8897
    13.2243  13.3515  13.5135  13.8565  13.9148  14.1224  14.7004  14.9659

          k =-0.2500 0.0000-0.2500 ( 28303 PWs)   bands (ev):

   -47.3916 -47.2805 -47.1150 -47.0847 -46.9422 -46.9392 -46.9365 -46.9087
   -23.4741 -23.4513 -23.4360 -23.3586 -23.3425 -23.3202 -23.2488 -23.2284
   -23.2074 -23.1966 -23.1930 -23.1707 -23.1575 -23.1303 -23.1241 -23.0826
   -23.0764 -23.0643 -23.0534 -23.0395 -23.0380 -23.0322 -22.9830 -22.9772
   -19.4873 -19.4445 -19.4364 -19.4263 -19.3372 -19.3274 -19.3163 -19.3049
    -9.0894  -9.0097  -8.9855  -8.9121  -8.8514  -8.7521  -8.6861  -8.6389
    -8.6160  -8.6051  -8.5350  -8.4284  -8.1436  -8.0788  -8.0208  -7.9469
    -7.9214  -7.9076  -7.8900  -7.8743  -7.8557  -7.8327  -7.8099  -7.7703
    -3.1406  -3.1270  -3.0939  -3.0314  -3.0112  -3.0066  -2.9943  -2.9773
    -2.9747  -2.9672  -2.9610  -2.9562  -2.9462  -2.9283  -2.8921  -2.8789
    -2.8745  -2.8645  -2.8567  -2.8469  -2.8335  -2.8247  -2.8175  -2.7897
     2.8151   2.9167   2.9412   2.9874   3.1777   3.2722   3.3481   3.4239
     3.4913   3.5347   3.6460   3.8491   3.8809   3.8964   4.0174   4.1510
     4.2844   4.4345   4.7190   4.8843   4.9121   4.9249   4.9878   5.0265
     5.0563   5.1270   5.2880   5.3280   5.3676   5.4339   5.4574   5.4673
     5.4979   5.5309   5.5773   5.6209   5.7217   5.8187   5.8455   5.8841
     5.9550   6.1990   6.2475   6.2959   6.3878   6.4383   6.4789   6.5027
     6.6083   6.6618   6.7244   6.7753   6.8115   6.8408   6.8554   6.8765
     6.9009   6.9313   6.9410   6.9554   6.9879   7.0323   7.0650   7.0855
     7.1282   7.1773   7.6777   7.7615   7.7970   7.8153   7.8307   7.8863
     9.8952   9.9868  10.0622  10.1300  10.2764  10.3638  11.4177  11.5016
    11.5574  11.6220  11.6829  11.7073  11.8281  11.9212  12.0893  12.1050
    12.1395  12.1995  12.4960  12.5840  12.7288  12.7719  12.8492  12.8925
    13.2208  13.3551  13.5133  13.8614  13.9199  14.1243  14.6974  14.8809

          k = 0.2500-0.2500 0.0000 ( 28303 PWs)   bands (ev):

   -47.3916 -47.2805 -47.1149 -47.0847 -46.9423 -46.9390 -46.9365 -46.9087
   -23.4774 -23.4473 -23.4345 -23.3669 -23.3377 -23.3204 -23.2360 -23.2288
   -23.2206 -23.1994 -23.1874 -23.1712 -23.1434 -23.1425 -23.1096 -23.0907
   -23.0772 -23.0644 -23.0553 -23.0541 -23.0415 -23.0328 -22.9831 -22.9635
   -19.4873 -19.4434 -19.4379 -19.4258 -19.3370 -19.3275 -19.3162 -19.3050
    -9.0885  -9.0194  -8.9735  -8.9214  -8.8316  -8.7328  -8.6798  -8.6455
    -8.6218  -8.5875  -8.5318  -8.4680  -8.1091  -8.0656  -8.0156  -7.9866
    -7.9654  -7.9263  -7.9197  -7.8941  -7.8681  -7.8518  -7.7774  -7.6835
    -3.1413  -3.1238  -3.1006  -3.0351  -3.0101  -3.0032  -2.9929  -2.9816
    -2.9738  -2.9645  -2.9601  -2.9493  -2.9434  -2.9379  -2.8908  -2.8800
    -2.8752  -2.8656  -2.8506  -2.8441  -2.8366  -2.8235  -2.8206  -2.7896
     2.8596   2.8941   2.9495   3.0710   3.1739   3.2479   3.3287   3.4300
     3.4848   3.5605   3.6124   3.8399   3.8582   3.9256   3.9927   4.1587
     4.3028   4.3993   4.7348   4.8792   4.9151   4.9484   5.0117   5.0430
     5.0953   5.1260   5.2695   5.3275   5.3518   5.3765   5.4444   5.4695
     5.4819   5.5263   5.5491   5.5899   5.7072   5.8015   5.8470   5.9132
     5.9609   6.2037   6.2533   6.3055   6.3639   6.4123   6.4736   6.5053
     6.5698   6.6242   6.7282   6.7768   6.8245   6.8345   6.8556   6.8794
     6.9205   6.9353   6.9618   6.9924   7.0092   7.0231   7.0394   7.0749
     7.1105   7.2239   7.6879   7.7456   7.7880   7.7943   7.8284   7.9270
     9.9424  10.0287  10.0496  10.1209  10.2178  10.4177  11.4255  11.5033
    11.5552  11.6221  11.6825  11.7765  11.8559  11.9212  12.0502  12.0874
    12.1083  12.1838  12.5121  12.6444  12.7142  12.7547  12.8028  12.8745
    13.2825  13.3511  13.4683  13.8004  14.0080  14.0853  14.6625  14.9121

          k =-0.2500-0.2500 0.0000 ( 28303 PWs)   bands (ev):

   -47.3916 -47.2805 -47.1149 -47.0847 -46.9423 -46.9390 -46.9365 -46.9087
   -23.4774 -23.4473 -23.4344 -23.3669 -23.3377 -23.3204 -23.2361 -23.2288
   -23.2206 -23.1994 -23.1874 -23.1712 -23.1435 -23.1424 -23.1096 -23.0907
   -23.0772 -23.0644 -23.0553 -23.0542 -23.0415 -23.0328 -22.9830 -22.9635
   -19.4873 -19.4434 -19.4379 -19.4258 -19.3370 -19.3275 -19.3162 -19.3050
    -9.0881  -9.0201  -8.9738  -8.9202  -8.8337  -8.7325  -8.6773  -8.6468
    -8.6225  -8.5863  -8.5319  -8.4672  -8.1110  -8.0687  -8.0179  -7.9792
    -7.9624  -7.9358  -7.9181  -7.8885  -7.8702  -7.8515  -7.7776  -7.6836
    -3.1422  -3.1245  -3.0987  -3.0367  -3.0119  -2.9995  -2.9896  -2.9811
    -2.9736  -2.9668  -2.9585  -2.9520  -2.9438  -2.9375  -2.8891  -2.8821
    -2.8729  -2.8676  -2.8508  -2.8450  -2.8391  -2.8242  -2.8188  -2.7880
     2.8598   2.8936   2.9494   3.0701   3.1707   3.2500   3.3346   3.4241
     3.4896   3.5609   3.6084   3.8464   3.8569   3.9277   3.9878   4.1573
     4.3061   4.4005   4.7376   4.8641   4.9061   4.9312   4.9878   5.0774
     5.1001   5.1621   5.2716   5.3290   5.3482   5.3653   5.4311   5.4594
     5.4865   5.5329   5.5607   5.5821   5.7217   5.7696   5.8520   5.9144
     5.9748   6.2260   6.2518   6.3162   6.3611   6.4098   6.4622   6.5228
     6.5557   6.6183   6.7282   6.7746   6.7972   6.8341   6.8498   6.8601
     6.8989   6.9291   6.9551   6.9775   7.0166   7.0539   7.0774   7.0890
     7.1338   7.2156   7.6836   7.7419   7.7798   7.7991   7.8248   7.9266
     9.9452  10.0083  10.0673  10.1215  10.2171  10.4254  11.4175  11.5094
    11.5549  11.6108  11.6850  11.7746  11.8537  11.9283  12.0592  12.0810
    12.0986  12.1899  12.5106  12.6466  12.7099  12.7653  12.7901  12.8829
    13.2784  13.3488  13.4749  13.7987  14.0085  14.0915  14.6638  14.9731

          k = 0.2500 0.0000 0.5000 ( 28234 PWs)   bands (ev):

   -47.3916 -47.2805 -47.1149 -47.0847 -46.9421 -46.9393 -46.9365 -46.9087
   -23.4706 -23.4511 -23.4360 -23.3496 -23.3421 -23.3196 -23.2488 -23.2280
   -23.2072 -23.1929 -23.1799 -23.1707 -23.1576 -23.1541 -23.1285 -23.0860
   -23.0646 -23.0584 -23.0535 -23.0394 -23.0380 -23.0323 -22.9961 -22.9830
   -19.4867 -19.4443 -19.4353 -19.4281 -19.3346 -19.3289 -19.3165 -19.3058
    -9.0604  -8.9690  -8.9262  -8.8830  -8.7852  -8.7252  -8.6193  -8.5819
    -8.5546  -8.5391  -8.4606  -8.3423  -8.2676  -8.2408  -8.1134  -8.0890
    -8.0488  -7.9391  -7.9025  -7.8937  -7.8804  -7.8481  -7.8308  -7.7723
    -3.0956  -3.0878  -3.0779  -3.0472  -3.0351  -3.0295  -3.0007  -2.9824
    -2.9795  -2.9715  -2.9617  -2.9511  -2.9401  -2.9207  -2.8975  -2.8796
    -2.8773  -2.8689  -2.8591  -2.8492  -2.8359  -2.8304  -2.8233  -2.8015
     2.8260   2.9486   2.9630   2.9995   3.3206   3.4415   3.4689   3.5342
     4.0059   4.0682   4.1198   4.1407   4.1971   4.2135   4.2716   4.3288
     4.3633   4.4236   4.4683   4.5555   4.5999   4.6510   4.7137   4.7783
     4.8882   4.9094   4.9214   4.9734   5.1496   5.2783   5.3144   5.3903
     5.4060   5.4589   5.5360   5.5770   5.6327   5.7273   5.7681   5.8127
     5.9373   6.0299   6.1067   6.1406   6.3726   6.4191   6.4645   6.5372
     6.5467   6.6165   6.6686   6.6999   6.7412   6.7767   6.8458   6.8655
     6.9116   6.9344   6.9818   7.0378   7.0895   7.1210   7.2905   7.3825
     7.4164   7.4594   7.4665   7.4848   7.5100   7.5934   7.7911   7.8829
     9.9141  10.1069  10.6122  10.7489  10.8736  10.9074  10.9554  11.0067
    11.1554  11.2210  11.4355  11.6834  12.0126  12.0672  12.0936  12.1109
    12.1373  12.2076  12.3137  12.3495  12.4434  12.5850  12.7392  12.8540
    13.2794  13.4936  13.7687  13.9774  14.4689  14.6180  14.7393  14.9624

          k =-0.5000-0.2500 0.0000 ( 28234 PWs)   bands (ev):

   -47.3916 -47.2805 -47.1149 -47.0847 -46.9423 -46.9390 -46.9365 -46.9087
   -23.4774 -23.4461 -23.4319 -23.3668 -23.3377 -23.3148 -23.2356 -23.2255
   -23.2180 -23.1994 -23.1874 -23.1606 -23.1429 -23.1419 -23.1096 -23.0909
   -23.0773 -23.0706 -23.0580 -23.0546 -23.0445 -23.0431 -22.9899 -22.9635
   -19.4871 -19.4431 -19.4378 -19.4257 -19.3374 -19.3277 -19.3163 -19.3052
    -9.0591  -9.0050  -8.9219  -8.8890  -8.7763  -8.7580  -8.6174  -8.5997
    -8.4959  -8.4427  -8.4244  -8.3954  -8.2342  -8.2050  -8.1419  -8.0851
    -8.0577  -7.9920  -7.9829  -7.9580  -7.9086  -7.8634  -7.7760  -7.6860
    -3.1128  -3.0949  -3.0859  -3.0349  -3.0132  -2.9992  -2.9931  -2.9866
    -2.9821  -2.9692  -2.9626  -2.9571  -2.9403  -2.9359  -2.9298  -2.8822
    -2.8743  -2.8670  -2.8556  -2.8426  -2.8400  -2.8266  -2.8238  -2.7932
     2.8708   2.9017   2.9710   3.0796   3.2882   3.3781   3.4721   3.4777
     3.9875   4.0272   4.1657   4.1977   4.2304   4.2817   4.3122   4.3536
     4.4194   4.4587   4.4985   4.5500   4.6250   4.6546   4.6836   4.7322
     4.8310   4.8726   4.9169   4.9468   5.1987   5.2660   5.2843   5.3187
     5.3840   5.4306   5.5013   5.5634   5.6570   5.7194   5.7778   5.8070
     5.9402   5.9899   6.0650   6.1527   6.3854   6.4008   6.4450   6.4591
     6.5691   6.6395   6.6607   6.7259   6.7817   6.8258   6.8640   6.9050
     6.9193   6.9281   6.9989   7.0143   7.0550   7.1333   7.3040   7.3287
     7.3827   7.4413   7.4640   7.5076   7.5713   7.6458   7.8056   7.8375
     9.9737  10.0863  10.6909  10.7492  10.8765  10.9026  10.9352  11.0333
    11.0625  11.1503  11.5662  11.6381  12.0011  12.0832  12.1202  12.1552
    12.1781  12.2391  12.2811  12.2993  12.4388  12.4772  12.7844  12.8661
    13.3388  13.3884  13.8323  13.9464  14.5015  14.5193  14.8159  14.8302

          k = 0.0000-0.5000 0.2500 ( 28234 PWs)   bands (ev):

   -47.3916 -47.2805 -47.1149 -47.0847 -46.9422 -46.9391 -46.9365 -46.9087
   -23.4738 -23.4466 -23.4325 -23.3586 -23.3326 -23.3254 -23.2344 -23.2137
   -23.2061 -23.2053 -23.1966 -23.1828 -23.1649 -23.1255 -23.1181 -23.0828
   -23.0793 -23.0759 -23.0584 -23.0573 -23.0412 -23.0226 -22.9772 -22.9766
   -19.4865 -19.4407 -19.4393 -19.4286 -19.3326 -19.3281 -19.3175 -19.3069
    -9.0408  -8.9420  -8.9088  -8.8476  -8.8165  -8.7229  -8.6649  -8.6058
    -8.5167  -8.4631  -8.4324  -8.3564  -8.3079  -8.2696  -8.2182  -8.1106
    -8.1007  -8.0035  -7.9535  -7.8889  -7.8310  -7.7801  -7.7601  -7.7384
    -3.1001  -3.0897  -3.0776  -3.0523  -3.0328  -3.0219  -3.0079  -2.9933
    -2.9846  -2.9696  -2.9443  -2.9352  -2.9315  -2.9161  -2.8978  -2.8848
    -2.8804  -2.8762  -2.8706  -2.8571  -2.8416  -2.8315  -2.8105  -2.7943
     2.8993   2.9859   3.0075   3.0821   3.2927   3.3641   3.4287   3.5396
     4.0106   4.1108   4.1152   4.2048   4.2411   4.2554   4.2942   4.3385
     4.4159   4.4579   4.4828   4.5613   4.5995   4.6088   4.6386   4.6744
     4.7524   4.8387   4.9579   4.9899   5.1049   5.2547   5.2791   5.3253
     5.3430   5.4142   5.5047   5.5815   5.6679   5.7228   5.7450   5.7910
     5.9478   5.9965   6.0852   6.2205   6.4052   6.4724   6.4963   6.5360
     6.5933   6.6438   6.6932   6.7224   6.7751   6.8164   6.8366   6.8910
     6.9044   6.9426   6.9561   6.9994   7.0579   7.0798   7.2772   7.3430
     7.3716   7.4189   7.4981   7.5092   7.5200   7.5948   7.7629   7.9158
    10.0340  10.0462  10.6457  10.8412  10.8607  10.8881  10.9154  11.0819
    11.0990  11.2451  11.5278  11.6653  12.0062  12.0567  12.0604  12.1208
    12.2169  12.2325  12.2884  12.3493  12.4193  12.5152  12.7047  12.7623
    13.4164  13.4319  13.8776  13.9502  14.4147  14.5403  14.7736  14.8924

          k = 0.2500-0.5000 0.0000 ( 28234 PWs)   bands (ev):

   -47.3916 -47.2805 -47.1149 -47.0847 -46.9423 -46.9390 -46.9365 -46.9087
   -23.4773 -23.4442 -23.4314 -23.3668 -23.3326 -23.3204 -23.2309 -23.2216
   -23.2102 -23.2061 -23.1874 -23.1757 -23.1620 -23.1179 -23.1097 -23.0911
   -23.0803 -23.0758 -23.0644 -23.0585 -23.0440 -23.0329 -22.9831 -22.9635
   -19.4868 -19.4410 -19.4399 -19.4267 -19.3340 -19.3295 -19.3162 -19.3062
    -9.0594  -8.9683  -8.9510  -8.8341  -8.7935  -8.6892  -8.6435  -8.5888
    -8.5225  -8.4667  -8.4306  -8.3586  -8.3075  -8.2635  -8.2216  -8.1042
    -8.0866  -7.9694  -7.9217  -7.8915  -7.8870  -7.8572  -7.7761  -7.6865
    -3.0944  -3.0914  -3.0807  -3.0489  -3.0367  -3.0325  -2.9927  -2.9871
    -2.9810  -2.9713  -2.9608  -2.9462  -2.9309  -2.9189  -2.9005  -2.8901
    -2.8713  -2.8634  -2.8574  -2.8487  -2.8436  -2.8322  -2.8208  -2.8004
     2.8763   2.9203   2.9623   3.1120   3.3560   3.3918   3.4438   3.5449
     4.0152   4.0992   4.1234   4.1816   4.2276   4.2697   4.3145   4.3449
     4.3958   4.4481   4.4688   4.5385   4.5732   4.6198   4.6439   4.6936
     4.8003   4.8570   4.9173   5.0568   5.1097   5.2521   5.3052   5.3600
     5.3696   5.4000   5.5173   5.5664   5.6122   5.6602   5.7332   5.8337
     5.9313   6.0849   6.1006   6.1576   6.3837   6.4169   6.4815   6.5068
     6.5508   6.5907   6.6476   6.6917   6.7562   6.8326   6.8623   6.9031
     6.9143   6.9422   7.0005   7.0608   7.0785   7.1452   7.3056   7.3219
     7.3918   7.3998   7.4709   7.5327   7.5530   7.5682   7.7713   7.9252
    10.0105  10.0509  10.7140  10.7439  10.8153  10.9243  10.9890  11.0528
    11.0742  11.2513  11.5174  11.6671  11.9418  12.0398  12.0734  12.1067
    12.2030  12.2636  12.2933  12.3650  12.4629  12.5301  12.7302  12.7824
    13.3807  13.4024  13.8191  13.9435  14.4217  14.5918  14.8251  14.9019

          k =-0.5000 0.0000 0.2500 ( 28234 PWs)   bands (ev):

   -47.3916 -47.2805 -47.1149 -47.0847 -46.9422 -46.9391 -46.9365 -46.9087
   -23.4741 -23.4506 -23.4330 -23.3585 -23.3425 -23.3146 -23.2488 -23.2225
   -23.2070 -23.1966 -23.1930 -23.1595 -23.1574 -23.1298 -23.1240 -23.0827
   -23.0767 -23.0702 -23.0567 -23.0463 -23.0390 -23.0376 -22.9898 -22.9772
   -19.4871 -19.4442 -19.4362 -19.4262 -19.3375 -19.3276 -19.3164 -19.3050
    -9.0644  -8.9918  -8.9303  -8.8771  -8.8088  -8.7806  -8.6383  -8.5545
    -8.4986  -8.4401  -8.4238  -8.3937  -8.2309  -8.1985  -8.1374  -8.1220
    -8.0715  -8.0053  -7.9271  -7.8965  -7.8477  -7.8446  -7.8172  -7.7720
    -3.1068  -3.1017  -3.0869  -3.0284  -3.0092  -3.0055  -2.9986  -2.9798
    -2.9738  -2.9693  -2.9619  -2.9582  -2.9484  -2.9424  -2.9310  -2.8805
    -2.8759  -2.8617  -2.8543  -2.8462  -2.8386  -2.8271  -2.8206  -2.7968
     2.8336   2.9224   2.9692   2.9893   3.3203   3.3487   3.4490   3.5648
     3.9898   4.0256   4.1350   4.2086   4.2431   4.2885   4.3375   4.3502
     4.4039   4.4373   4.4861   4.5580   4.6116   4.6261   4.6980   4.7643
     4.8403   4.8736   4.9053   4.9607   5.1135   5.2166   5.2836   5.3827
     5.4007   5.5070   5.5627   5.6242   5.6426   5.7059   5.7532   5.8060
     5.9146   6.0538   6.0944   6.1417   6.3712   6.3908   6.4568   6.5157
     6.5832   6.6038   6.6557   6.7294   6.7627   6.8095   6.8469   6.8725
     6.8938   6.9235   7.0101   7.0396   7.0710   7.1092   7.2953   7.3388
     7.4134   7.4190   7.4755   7.4982   7.5966   7.6168   7.8063   7.8288
     9.9787  10.0544  10.7006  10.7675  10.8525  10.8702  10.9062  10.9796
    11.0867  11.2003  11.5652  11.6273  11.9870  12.0053  12.1009  12.1798
    12.2055  12.2226  12.2827  12.3913  12.4141  12.5039  12.7817  12.8765
    13.3423  13.3621  13.8631  13.9694  14.4739  14.5270  14.7752  14.8598

          k =-0.5000 0.0000 0.5000 ( 28276 PWs)   bands (ev):

   -47.3916 -47.2805 -47.1149 -47.0847 -46.9421 -46.9393 -46.9365 -46.9087
   -23.4706 -23.4504 -23.4329 -23.3494 -23.3421 -23.3141 -23.2487 -23.2218
   -23.2072 -23.1930 -23.1799 -23.1596 -23.1575 -23.1539 -23.1280 -23.0860
   -23.0708 -23.0586 -23.0567 -23.0462 -23.0390 -23.0377 -22.9962 -22.9898
   -19.4866 -19.4440 -19.4351 -19.4279 -19.3348 -19.3291 -19.3166 -19.3059
    -9.0295  -8.9189  -8.9048  -8.8934  -8.6300  -8.6266  -8.5583  -8.5069
    -8.4745  -8.4568  -8.4065  -8.3441  -8.3050  -8.2760  -8.2024  -8.1574
    -8.1335  -8.1060  -8.0579  -8.0158  -7.9241  -7.8479  -7.8346  -7.7727
    -3.0853  -3.0783  -3.0644  -3.0529  -3.0458  -3.0193  -3.0055  -2.9866
    -2.9806  -2.9756  -2.9678  -2.9503  -2.9293  -2.9117  -2.9068  -2.8925
    -2.8865  -2.8760  -2.8596  -2.8481  -2.8349  -2.8293  -2.8216  -2.8010
     2.8497   2.9711   2.9877   2.9967   4.0054   4.0661   4.0962   4.0992
     4.1650   4.2018   4.2060   4.2282   4.2434   4.3155   4.3464   4.3725
     4.4106   4.4423   4.4583   4.4981   4.5571   4.6021   4.6110   4.6459
     4.6800   4.7193   4.7274   4.7908   4.9800   5.0040   5.0760   5.1114
     5.1984   5.2457   5.2820   5.3500   5.4416   5.4986   5.5632   5.6062
     5.7858   5.8671   5.8824   5.9393   6.4092   6.4615   6.4841   6.5016
     6.5816   6.5825   6.6080   6.6670   6.7379   6.7779   6.8029   6.8735
     7.0315   7.1260   7.1860   7.2467   7.2780   7.3144   7.3327   7.3476
     7.3755   7.3887   7.4376   7.5155   7.5335   7.5454   7.5925   7.6369
    10.5838  10.6436  10.7348  10.8186  10.8426  10.9228  10.9971  11.1578
    11.2163  11.2549  11.3776  11.5681  11.5935  11.6322  11.7398  11.7854
    12.2602  12.3177  12.3307  12.4006  12.4209  12.4286  12.5135  12.5902
    13.5605  13.7272  13.7578  13.9837  15.3043  15.3255  15.3769  15.6970

          k =-0.5000 0.5000 0.0000 ( 28276 PWs)   bands (ev):

   -47.3916 -47.2805 -47.1149 -47.0847 -46.9423 -46.9390 -46.9365 -46.9087
   -23.4773 -23.4422 -23.4297 -23.3668 -23.3325 -23.3148 -23.2279 -23.2183
   -23.2102 -23.2062 -23.1874 -23.1715 -23.1544 -23.1180 -23.1097 -23.0912
   -23.0804 -23.0758 -23.0707 -23.0603 -23.0465 -23.0450 -22.9900 -22.9635
   -19.4866 -19.4407 -19.4397 -19.4266 -19.3343 -19.3297 -19.3163 -19.3063
    -9.0193  -8.9521  -8.9324  -8.8115  -8.6280  -8.5985  -8.5323  -8.4922
    -8.4583  -8.4395  -8.4081  -8.3461  -8.3114  -8.2811  -8.2503  -8.2375
    -8.1493  -8.1123  -8.0866  -8.0406  -7.9710  -7.8682  -7.7764  -7.6866
    -3.0857  -3.0805  -3.0621  -3.0569  -3.0528  -3.0134  -2.9942  -2.9930
    -2.9769  -2.9761  -2.9654  -2.9492  -2.9423  -2.9202  -2.9012  -2.8930
    -2.8803  -2.8616  -2.8608  -2.8482  -2.8471  -2.8308  -2.8178  -2.7987
     2.8935   2.9343   2.9818   3.1306   3.9451   4.0546   4.1278   4.1784
     4.1842   4.2185   4.2295   4.2420   4.2733   4.3061   4.3511   4.3860
     4.4077   4.4608   4.4915   4.5226   4.5631   4.5656   4.6374   4.6390
     4.6529   4.7017   4.7229   4.7890   4.8468   4.9843   5.0151   5.1234
     5.1280   5.1662   5.2480   5.3533   5.4166   5.4362   5.5555   5.5956
     5.7178   5.7991   5.9154   6.0479   6.4043   6.4193   6.4822   6.5188
     6.5759   6.5936   6.6021   6.6622   6.7857   6.8168   6.8507   6.9501
     7.0811   7.1500   7.1771   7.2319   7.2443   7.2634   7.2807   7.3316
     7.3805   7.4002   7.4211   7.5023   7.5052   7.5334   7.6158   7.7174
    10.6294  10.6810  10.7699  10.7910  10.8839  10.9161  11.0517  11.1190
    11.1549  11.2844  11.4337  11.5266  11.5642  11.6700  11.7694  11.8641
    12.2332  12.2553  12.3095  12.3898  12.4203  12.4393  12.5090  12.5431
    13.6541  13.6611  13.7619  13.9351  15.1039  15.3811  15.6144  15.6590

          k =-0.2500-0.2500 0.2500 ( 28324 PWs)   bands (ev):

   -47.3916 -47.2805 -47.1149 -47.0847 -46.9422 -46.9391 -46.9365 -46.9087
   -23.4739 -23.4472 -23.4344 -23.3585 -23.3376 -23.3202 -23.2351 -23.2279
   -23.2072 -23.1994 -23.1966 -23.1712 -23.1435 -23.1425 -23.1253 -23.0823
   -23.0768 -23.0643 -23.0554 -23.0542 -23.0415 -23.0328 -22.9831 -22.9772
   -19.4868 -19.4430 -19.4372 -19.4273 -19.3354 -19.3275 -19.3170 -19.3059
    -9.0204  -8.9432  -8.9187  -8.8827  -8.7691  -8.7181  -8.6818  -8.6208
    -8.5939  -8.5725  -8.5136  -8.4281  -8.1386  -8.1074  -8.0511  -8.0287
    -8.0020  -7.9762  -7.9446  -7.9159  -7.8912  -7.8762  -7.8622  -7.8208
    -3.1265  -3.1161  -3.0705  -3.0320  -3.0211  -3.0146  -3.0008  -2.9983
    -2.9799  -2.9660  -2.9544  -2.9538  -2.9461  -2.9370  -2.8974  -2.8861
    -2.8756  -2.8693  -2.8587  -2.8444  -2.8382  -2.8174  -2.8089  -2.7872
     3.1272   3.1690   3.1922   3.2299   3.2784   3.3481   3.3927   3.4451
     3.5598   3.6106   3.6709   3.9110   3.9952   4.0364   4.0648   4.2392
     4.3832   4.4248   4.7713   4.8100   4.8770   4.9511   4.9665   4.9955
     5.0334   5.1073   5.1313   5.1502   5.2095   5.2524   5.2939   5.3516
     5.3981   5.4655   5.4908   5.5227   5.5567   5.5755   5.6326   5.8440
     5.8873   5.9309   6.0967   6.1445   6.2869   6.3439   6.3998   6.4939
     6.6457   6.6997   6.7394   6.7801   6.8129   6.8508   6.8783   6.9119
     6.9431   6.9555   6.9826   7.0020   7.0298   7.0655   7.0848   7.1067
     7.1334   7.1785   7.6426   7.6630   7.7218   7.7502   7.7846   7.8479
    10.1764  10.2784  10.2975  10.3490  10.3756  10.4343  11.4190  11.5118
    11.5729  11.6230  11.7323  11.7620  11.8121  11.8395  11.8915  11.9104
    11.9353  12.0209  12.4982  12.5174  12.5610  12.5773  12.6527  12.6816
    13.7771  13.8537  13.8688  13.9327  14.0356  14.6259  14.7381  14.8761

          k =-0.2500 0.2500-0.2500 ( 28324 PWs)   bands (ev):

   -47.3916 -47.2805 -47.1149 -47.0847 -46.9422 -46.9391 -46.9365 -46.9087
   -23.4739 -23.4472 -23.4344 -23.3585 -23.3376 -23.3202 -23.2351 -23.2279
   -23.2072 -23.1994 -23.1966 -23.1712 -23.1435 -23.1426 -23.1253 -23.0822
   -23.0768 -23.0643 -23.0554 -23.0542 -23.0415 -23.0329 -22.9831 -22.9772
   -19.4868 -19.4430 -19.4372 -19.4273 -19.3354 -19.3275 -19.3170 -19.3059
    -9.0222  -8.9399  -8.9207  -8.8812  -8.7711  -8.7186  -8.6797  -8.6194
    -8.5888  -8.5773  -8.5154  -8.4287  -8.1593  -8.0772  -8.0580  -8.0276
    -8.0030  -7.9814  -7.9363  -7.9138  -7.8979  -7.8727  -7.8660  -7.8215
    -3.1259  -3.1186  -3.0613  -3.0359  -3.0200  -3.0145  -3.0051  -2.9993
    -2.9795  -2.9654  -2.9633  -2.9529  -2.9491  -2.9285  -2.8963  -2.8882
    -2.8754  -2.8640  -2.8583  -2.8441  -2.8366  -2.8204  -2.8110  -2.7868
     3.1319   3.1627   3.1918   3.2306   3.2799   3.3360   3.3907   3.4460
     3.5532   3.6100   3.6857   3.9307   3.9861   4.0344   4.0710   4.2473
     4.3764   4.4186   4.7890   4.8315   4.8784   4.9562   4.9920   5.0058
     5.0313   5.0823   5.0947   5.1686   5.1876   5.2141   5.2980   5.3518
     5.3906   5.4790   5.4960   5.5096   5.5417   5.5888   5.6171   5.8536
     5.8690   5.9285   6.1074   6.1426   6.3004   6.3246   6.3868   6.4969
     6.7008   6.7311   6.7603   6.7980   6.8293   6.8614   6.8865   6.9216
     6.9355   6.9507   6.9627   7.0071   7.0126   7.0466   7.0676   7.0942
     7.1157   7.1478   7.6598   7.6714   7.7249   7.7485   7.7973   7.8393
    10.1790  10.2571  10.3120  10.3372  10.3746  10.4304  11.4318  11.5027
    11.5674  11.6284  11.7069  11.7651  11.8164  11.8613  11.8782  11.9304
    11.9579  12.0069  12.4952  12.5170  12.5428  12.6000  12.6423  12.6830
    13.7797  13.8519  13.8774  13.9317  14.0273  14.6320  14.7313  14.8809

          k = 0.2500-0.2500-0.2500 ( 28324 PWs)   bands (ev):

   -47.3916 -47.2805 -47.1149 -47.0847 -46.9422 -46.9391 -46.9365 -46.9087
   -23.4739 -23.4472 -23.4344 -23.3585 -23.3376 -23.3202 -23.2352 -23.2278
   -23.2072 -23.1994 -23.1966 -23.1712 -23.1436 -23.1426 -23.1252 -23.0823
   -23.0767 -23.0643 -23.0554 -23.0542 -23.0415 -23.0329 -22.9831 -22.9772
   -19.4868 -19.4430 -19.4373 -19.4273 -19.3354 -19.3273 -19.3172 -19.3059
    -9.0193  -8.9403  -8.9238  -8.8793  -8.7737  -8.7129  -8.6878  -8.6191
    -8.5935  -8.5743  -8.5115  -8.4288  -8.1322  -8.1009  -8.0577  -8.0380
    -8.0009  -7.9758  -7.9345  -7.9219  -7.8924  -7.8765  -7.8612  -7.8210
    -3.1258  -3.1176  -3.0705  -3.0310  -3.0177  -3.0133  -3.0093  -2.9945
    -2.9788  -2.9658  -2.9646  -2.9564  -2.9461  -2.9268  -2.8971  -2.8804
    -2.8736  -2.8711  -2.8611  -2.8466  -2.8331  -2.8186  -2.8097  -2.7908
     3.1241   3.1711   3.1946   3.2328   3.2762   3.3398   3.3911   3.4538
     3.5504   3.6088   3.6777   3.8987   4.0088   4.0368   4.0672   4.2564
     4.3849   4.4146   4.7543   4.8150   4.8736   4.9266   4.9816   5.0209
     5.0593   5.1038   5.1335   5.1735   5.1894   5.2405   5.3075   5.3531
     5.3778   5.4462   5.4824   5.5023   5.5683   5.5963   5.6354   5.8463
     5.8711   5.9106   6.1070   6.1556   6.2909   6.3197   6.4101   6.4642
     6.6450   6.6802   6.7547   6.7832   6.8377   6.8625   6.8733   6.9097
     6.9432   6.9570   6.9890   7.0023   7.0397   7.0640   7.0985   7.1081
     7.1327   7.1734   7.6463   7.6617   7.7143   7.7452   7.7912   7.8516
    10.1873  10.2633  10.3108  10.3253  10.3765  10.4254  11.4184  11.5136
    11.5630  11.6201  11.7321  11.7706  11.8132  11.8554  11.8763  11.9222
    11.9455  12.0319  12.4985  12.5154  12.5480  12.5989  12.6423  12.6722
    13.7765  13.8540  13.8669  13.9229  14.0370  14.6337  14.7361  14.8782

          k =-0.2500 0.2500 0.5000 ( 28270 PWs)   bands (ev):

   -47.3916 -47.2805 -47.1149 -47.0847 -46.9421 -46.9393 -46.9365 -46.9087
   -23.4704 -23.4471 -23.4343 -23.3494 -23.3374 -23.3196 -23.2348 -23.2276
   -23.2071 -23.1994 -23.1799 -23.1712 -23.1543 -23.1429 -23.1425 -23.0858
   -23.0646 -23.0590 -23.0554 -23.0537 -23.0416 -23.0330 -22.9961 -22.9831
   -19.4863 -19.4428 -19.4358 -19.4295 -19.3332 -19.3279 -19.3179 -19.3068
    -8.9706  -8.8953  -8.8397  -8.7842  -8.7686  -8.7069  -8.6018  -8.5580
    -8.5413  -8.5301  -8.4610  -8.3486  -8.2730  -8.2436  -8.1214  -8.1007
    -8.0559  -8.0413  -7.9941  -7.9818  -7.9125  -7.9034  -7.8858  -7.8694
    -3.0917  -3.0864  -3.0750  -3.0483  -3.0282  -3.0252  -3.0159  -2.9928
    -2.9866  -2.9823  -2.9573  -2.9548  -2.9382  -2.9303  -2.9071  -2.8967
    -2.8813  -2.8665  -2.8517  -2.8445  -2.8312  -2.8217  -2.8023  -2.7902
     3.1495   3.2426   3.2934   3.3623   3.3730   3.4593   3.5276   3.6009
     4.0865   4.1216   4.1529   4.1778   4.2093   4.2703   4.3053   4.3741
     4.4187   4.4533   4.5383   4.5761   4.6502   4.6853   4.7608   4.7973
     4.8618   4.8963   4.9481   5.0531   5.0736   5.1045   5.1462   5.1937
     5.2405   5.2865   5.3208   5.3578   5.4203   5.4614   5.6718   5.6911
     5.7743   5.8003   5.9171   5.9739   5.9984   6.0583   6.3059   6.3543
     6.7563   6.7865   6.7979   6.8590   6.8865   6.8890   6.9015   6.9350
     6.9473   6.9687   6.9923   7.0464   7.0969   7.1242   7.2821   7.3543
     7.4024   7.4301   7.4620   7.4798   7.4883   7.5935   7.7176   7.8063
    10.2122  10.3960  10.7796  10.8840  10.9224  10.9542  11.0072  11.0586
    11.2043  11.3206  11.4507  11.7777  11.8630  11.9051  12.0128  12.0406
    12.0753  12.0941  12.1122  12.2082  12.2193  12.3408  12.5314  12.6378
    13.7979  14.0146  14.3156  14.4902  14.5040  14.6859  14.8890  15.1322

          k =-0.5000-0.2500 0.2500 ( 28270 PWs)   bands (ev):

   -47.3916 -47.2805 -47.1149 -47.0847 -46.9422 -46.9391 -46.9365 -46.9087
   -23.4739 -23.4461 -23.4318 -23.3584 -23.3376 -23.3146 -23.2348 -23.2222
   -23.2069 -23.1994 -23.1966 -23.1606 -23.1429 -23.1420 -23.1252 -23.0823
   -23.0771 -23.0703 -23.0580 -23.0547 -23.0446 -23.0431 -22.9899 -22.9772
   -19.4867 -19.4427 -19.4371 -19.4272 -19.3357 -19.3277 -19.3171 -19.3061
    -8.9823  -8.9255  -8.8535  -8.8131  -8.7630  -8.7302  -8.5903  -8.5437
    -8.4929  -8.4433  -8.4226  -8.3979  -8.2374  -8.2044  -8.1484  -8.1312
    -8.0785  -8.0428  -8.0083  -7.9892  -7.9714  -7.9166  -7.8748  -7.8271
    -3.1052  -3.0874  -3.0776  -3.0342  -3.0203  -3.0149  -3.0084  -2.9956
    -2.9824  -2.9771  -2.9703  -2.9596  -2.9569  -2.9274  -2.9098  -2.8976
    -2.8776  -2.8658  -2.8565  -2.8398  -2.8317  -2.8158  -2.8079  -2.7867
     3.1560   3.1926   3.2669   3.3186   3.3963   3.4098   3.5587   3.6132
     4.0847   4.1179   4.1672   4.2193   4.2796   4.3149   4.3521   4.3840
     4.4395   4.4977   4.5199   4.5676   4.6361   4.6693   4.7458   4.7991
     4.8601   4.8766   4.9405   4.9756   5.0442   5.0904   5.1164   5.1611
     5.2643   5.2996   5.3390   5.3651   5.4285   5.5218   5.6643   5.6886
     5.7428   5.8156   5.9062   5.9518   5.9935   6.0960   6.2793   6.3598
     6.7433   6.7973   6.8069   6.8385   6.8538   6.8957   6.9080   6.9472
     6.9593   6.9800   7.0032   7.0187   7.0980   7.1423   7.2843   7.3112
     7.3850   7.4208   7.4591   7.4900   7.5733   7.6070   7.7339   7.7665
    10.2716  10.3440  10.8584  10.8717  10.9046  10.9212  11.0461  11.0833
    11.1496  11.1972  11.5801  11.6398  11.8768  11.9573  11.9991  12.0348
    12.0458  12.1387  12.1620  12.2003  12.2154  12.2762  12.5755  12.6657
    13.8575  13.8615  14.4095  14.5175  14.5427  14.5783  14.9461  14.9808

          k = 0.5000-0.2500-0.2500 ( 28270 PWs)   bands (ev):

   -47.3916 -47.2805 -47.1149 -47.0847 -46.9422 -46.9391 -46.9365 -46.9087
   -23.4739 -23.4461 -23.4318 -23.3584 -23.3376 -23.3146 -23.2349 -23.2222
   -23.2068 -23.1994 -23.1966 -23.1606 -23.1430 -23.1420 -23.1252 -23.0823
   -23.0771 -23.0703 -23.0580 -23.0547 -23.0446 -23.0431 -22.9899 -22.9772
   -19.4867 -19.4427 -19.4371 -19.4272 -19.3358 -19.3275 -19.3173 -19.3060
    -8.9791  -8.9250  -8.8591  -8.8190  -8.7557  -8.7277  -8.5944  -8.5440
    -8.4931  -8.4451  -8.4190  -8.3959  -8.2364  -8.2061  -8.1479  -8.1286
    -8.0793  -8.0457  -8.0139  -7.9821  -7.9731  -7.9144  -7.8776  -7.8260
    -3.1045  -3.0853  -3.0807  -3.0353  -3.0208  -3.0116  -3.0070  -2.9927
    -2.9900  -2.9787  -2.9706  -2.9661  -2.9551  -2.9162  -2.9112  -2.8939
    -2.8739  -2.8696  -2.8547  -2.8459  -2.8295  -2.8192  -2.8058  -2.7884
     3.1487   3.1950   3.2699   3.3131   3.4027   3.4155   3.5539   3.6064
     4.0945   4.1120   4.1893   4.2181   4.2800   4.3006   4.3692   4.3997
     4.4161   4.4617   4.5288   4.6116   4.6466   4.6859   4.7280   4.7783
     4.8478   4.8704   4.9057   4.9369   5.0880   5.0982   5.1421   5.1970
     5.2535   5.2962   5.3394   5.3673   5.4257   5.5108   5.6692   5.7013
     5.7474   5.7874   5.8950   5.9351   5.9829   6.0971   6.3135   6.3392
     6.7174   6.7390   6.8187   6.8436   6.8623   6.8803   6.9217   6.9477
     6.9675   6.9956   7.0425   7.0511   7.1038   7.1368   7.2924   7.3062
     7.3818   7.4201   7.4630   7.4904   7.5637   7.6102   7.7337   7.7554
    10.2736  10.3256  10.8494  10.8773  10.9044  10.9236  11.0481  11.0876
    11.1461  11.2007  11.5674  11.6320  11.8901  11.9691  12.0075  12.0325
    12.0544  12.1294  12.1639  12.2010  12.2376  12.2589  12.5718  12.6590
    13.8525  13.8621  14.4119  14.5218  14.5410  14.5825  14.9458  14.9740

          k =-0.2500-0.5000 0.2500 ( 28270 PWs)   bands (ev):

   -47.3916 -47.2805 -47.1149 -47.0847 -46.9422 -46.9391 -46.9365 -46.9087
   -23.4738 -23.4442 -23.4313 -23.3585 -23.3325 -23.3201 -23.2288 -23.2134
   -23.2061 -23.2052 -23.1966 -23.1758 -23.1620 -23.1255 -23.1181 -23.0829
   -23.0793 -23.0760 -23.0643 -23.0585 -23.0441 -23.0330 -22.9831 -22.9772
   -19.4863 -19.4405 -19.4390 -19.4285 -19.3329 -19.3283 -19.3176 -19.3070
    -8.9726  -8.8788  -8.8570  -8.7954  -8.7737  -8.6578  -8.6209  -8.5814
    -8.5138  -8.4340  -8.4305  -8.3596  -8.3122  -8.2710  -8.2192  -8.1157
    -8.1052  -8.0830  -8.0051  -7.9192  -7.9097  -7.8782  -7.8723  -7.8252
    -3.0899  -3.0858  -3.0789  -3.0524  -3.0326  -3.0232  -3.0141  -2.9968
    -2.9849  -2.9765  -2.9564  -2.9507  -2.9404  -2.9303  -2.9054  -2.8881
    -2.8824  -2.8706  -2.8584  -2.8448  -2.8305  -2.8231  -2.8015  -2.7878
     3.1778   3.2520   3.2956   3.3777   3.4039   3.4383   3.5169   3.6094
     4.0902   4.1158   4.1946   4.2134   4.2787   4.3135   4.3570   4.4013
     4.4122   4.4820   4.5062   4.5795   4.6155   4.6379   4.7043   4.7438
     4.7745   4.8601   4.9313   5.0000   5.0590   5.1009   5.1315   5.1755
     5.2442   5.3090   5.3425   5.3615   5.3842   5.4242   5.6426   5.7136
     5.7658   5.8046   5.9232   5.9604   6.0177   6.0982   6.3052   6.4322
     6.6815   6.7836   6.8153   6.8435   6.8585   6.8801   6.9196   6.9360
     6.9566   6.9938   7.0407   7.0524   7.1273   7.1458   7.2745   7.3184
     7.3602   7.3998   7.4704   7.5144   7.5165   7.5655   7.6899   7.8439
    10.3047  10.3244  10.7954  10.8762  10.8857  11.0064  11.0486  11.0811
    11.2362  11.2535  11.5229  11.7392  11.8066  11.8782  11.9538  12.0042
    12.0938  12.1437  12.1995  12.2225  12.2683  12.2905  12.5300  12.5752
    13.8791  13.9140  14.4015  14.4501  14.5466  14.5877  14.9812  15.0094

          k =-0.2500 0.5000-0.2500 ( 28270 PWs)   bands (ev):

   -47.3916 -47.2805 -47.1149 -47.0847 -46.9422 -46.9391 -46.9365 -46.9087
   -23.4738 -23.4442 -23.4313 -23.3585 -23.3325 -23.3201 -23.2288 -23.2134
   -23.2061 -23.2052 -23.1966 -23.1758 -23.1620 -23.1255 -23.1181 -23.0828
   -23.0793 -23.0760 -23.0643 -23.0585 -23.0441 -23.0330 -22.9831 -22.9772
   -19.4863 -19.4405 -19.4390 -19.4285 -19.3329 -19.3283 -19.3176 -19.3070
    -8.9744  -8.8795  -8.8528  -8.7978  -8.7724  -8.6608  -8.6188  -8.5793
    -8.5137  -8.4360  -8.4287  -8.3593  -8.3122  -8.2747  -8.2206  -8.1218
    -8.1087  -8.0690  -8.0074  -7.9125  -7.9070  -7.8838  -7.8746  -7.8258
    -3.0912  -3.0855  -3.0794  -3.0550  -3.0296  -3.0183  -3.0084  -3.0014
    -2.9877  -2.9766  -2.9592  -2.9532  -2.9383  -2.9268  -2.9037  -2.8911
    -2.8825  -2.8766  -2.8561  -2.8409  -2.8310  -2.8227  -2.8029  -2.7874
     3.1694   3.2585   3.2917   3.3782   3.3942   3.4333   3.5257   3.6208
     4.0923   4.1213   4.2022   4.2142   4.2803   4.3014   4.3602   4.3903
     4.4316   4.4787   4.5043   4.5964   4.6098   4.6414   4.7038   4.7258
     4.7857   4.8633   4.9643   5.0105   5.0360   5.0863   5.1389   5.1595
     5.2475   5.2684   5.3267   5.3583   5.4072   5.4157   5.6409   5.7026
     5.7505   5.7994   5.9180   5.9770   6.0268   6.1059   6.3025   6.4361
     6.7784   6.7968   6.8170   6.8405   6.8517   6.8669   6.9121   6.9364
     6.9693   6.9845   7.0131   7.0405   7.1072   7.1365   7.2704   7.3201
     7.3615   7.4058   7.4693   7.5094   7.5187   7.5684   7.7074   7.8373
    10.2831  10.3304  10.8011  10.8683  10.8932  11.0014  11.0497  11.0829
    11.2384  11.2551  11.5097  11.7110  11.8264  11.9063  11.9647  12.0011
    12.0941  12.1361  12.1945  12.2151  12.2722  12.2997  12.5254  12.5747
    13.8891  13.9197  14.3805  14.4620  14.5346  14.5996  14.9849  15.0061

          k =-0.5000 0.2500 0.5000 ( 28280 PWs)   bands (ev):

   -47.3916 -47.2805 -47.1149 -47.0847 -46.9421 -46.9393 -46.9365 -46.9087
   -23.4703 -23.4460 -23.4317 -23.3492 -23.3374 -23.3141 -23.2346 -23.2216
   -23.2071 -23.1994 -23.1799 -23.1608 -23.1540 -23.1428 -23.1414 -23.0859
   -23.0708 -23.0593 -23.0581 -23.0540 -23.0447 -23.0432 -22.9962 -22.9899
   -19.4862 -19.4426 -19.4356 -19.4293 -19.3334 -19.3281 -19.3180 -19.3070
    -8.9202  -8.8271  -8.8051  -8.7898  -8.6187  -8.6070  -8.5580  -8.5081
    -8.4726  -8.4530  -8.4080  -8.3500  -8.3040  -8.2822  -8.2050  -8.1575
    -8.1410  -8.1146  -8.0653  -8.0389  -8.0206  -7.9884  -7.9688  -7.8950
    -3.0830  -3.0785  -3.0679  -3.0499  -3.0359  -3.0213  -3.0163  -3.0067
    -3.0019  -2.9899  -2.9687  -2.9635  -2.9483  -2.9391  -2.9056  -2.8886
    -2.8724  -2.8649  -2.8458  -2.8360  -2.8269  -2.8193  -2.7954  -2.7838
     3.2255   3.3501   3.3650   3.3732   4.0067   4.0764   4.1054   4.1207
     4.1759   4.2054   4.2365   4.2702   4.3029   4.3359   4.3431   4.3809
     4.4180   4.4623   4.5148   4.5509   4.6138   4.6436   4.6998   4.7138
     4.7519   4.7739   4.7942   4.8270   4.9519   4.9937   5.0410   5.0699
     5.1028   5.1606   5.1978   5.2345   5.2625   5.3123   5.3307   5.3521
     5.4958   5.5503   5.5819   5.6132   5.9227   5.9650   6.0369   6.0698
     6.8140   6.8250   6.8652   6.8878   6.9228   6.9516   6.9582   6.9892
     7.0580   7.1420   7.1909   7.2426   7.2584   7.2937   7.3240   7.3406
     7.3648   7.3768   7.4300   7.4963   7.5296   7.5427   7.5751   7.6146
    10.7560  10.8274  10.9015  10.9743  10.9994  11.0825  11.1396  11.2398
    11.2584  11.3009  11.3977  11.5685  11.5968  11.6274  11.7304  11.7794
    12.0049  12.0637  12.0891  12.1472  12.1847  12.1930  12.2606  12.3445
    14.1753  14.3748  14.4110  14.6245  15.3095  15.3316  15.3902  15.6977

          k =-0.5000 0.5000 0.2500 ( 28280 PWs)   bands (ev):

   -47.3916 -47.2805 -47.1149 -47.0847 -46.9422 -46.9391 -46.9365 -46.9087
   -23.4737 -23.4422 -23.4296 -23.3584 -23.3325 -23.3145 -23.2232 -23.2129
   -23.2062 -23.2051 -23.1966 -23.1715 -23.1545 -23.1254 -23.1181 -23.0830
   -23.0794 -23.0762 -23.0703 -23.0603 -23.0465 -23.0451 -22.9900 -22.9772
   -19.4862 -19.4403 -19.4388 -19.4284 -19.3331 -19.3285 -19.3177 -19.3072
    -8.9088  -8.8572  -8.8209  -8.7599  -8.6012  -8.5787  -8.5344  -8.4909
    -8.4590  -8.4397  -8.4086  -8.3505  -8.3105  -8.2712  -8.2534  -8.2386
    -8.1509  -8.1190  -8.1048  -8.0865  -8.0434  -7.9951  -7.8908  -7.8278
    -3.0816  -3.0795  -3.0709  -3.0499  -3.0411  -3.0231  -3.0127  -3.0046
    -2.9949  -2.9884  -2.9687  -2.9646  -2.9534  -2.9414  -2.9045  -2.8832
    -2.8749  -2.8606  -2.8500  -2.8363  -2.8281  -2.8196  -2.7947  -2.7821
     3.2604   3.3166   3.3418   3.4900   3.9449   4.0569   4.1675   4.1795
     4.2107   4.2242   4.2534   4.2822   4.3122   4.3331   4.3545   4.3834
     4.4292   4.4667   4.5104   4.5576   4.6250   4.6652   4.6776   4.7044
     4.7238   4.7615   4.8164   4.8347   4.8675   4.9575   4.9905   5.0209
     5.0958   5.1192   5.1683   5.2006   5.2214   5.2866   5.2977   5.3553
     5.4554   5.4815   5.5799   5.7132   5.9063   5.9711   6.0727   6.1905
     6.7936   6.8290   6.8630   6.8977   6.9405   6.9534   6.9836   7.0241
     7.1079   7.1562   7.1795   7.2229   7.2361   7.2527   7.2806   7.3323
     7.3688   7.3870   7.4161   7.4895   7.5034   7.5263   7.5884   7.6814
    10.8107  10.8217  10.9252  10.9419  11.0366  11.0620  11.1488  11.2123
    11.2715  11.3074  11.4314  11.5370  11.5623  11.6611  11.7618  11.8512
    11.9922  12.0090  12.0583  12.1588  12.1760  12.2007  12.2619  12.2995
    14.2763  14.3187  14.3799  14.5849  15.1194  15.3859  15.6195  15.6638

     the Fermi energy is     8.3598 ev

!    total energy              =   -4582.06413209 Ry
     total all-electron energy =    -74369.955054 Ry
     estimated scf accuracy    <          1.2E-09 Ry
     smearing contrib. (-TS)   =       0.00000000 Ry
     internal energy E=F+TS    =   -4582.06413209 Ry

     The total energy is F=E-TS. E is the sum of the following terms:
     one-electron contribution =    -589.91873364 Ry
     hartree contribution      =     474.62790637 Ry
     xc contribution           =    -499.99641739 Ry
     ewald contribution        =   -1627.13193311 Ry
     one-center paw contrib.   =   -2339.64495431 Ry

     convergence has been achieved in  16 iterations

     Forces acting on atoms (cartesian axes, Ry/au):

     atom    1 type  1   force =     0.00252596    0.00346416    0.00385169
     atom    2 type  1   force =     0.00323270   -0.01101109   -0.02763504
     atom    3 type  1   force =    -0.00265794    0.00184730    0.00550295
     atom    4 type  1   force =     0.01580502    0.00685570    0.00074685
     atom    5 type  1   force =     0.00084755   -0.00702124   -0.00078841
     atom    6 type  1   force =    -0.00315646   -0.02563728    0.01548459
     atom    7 type  1   force =     0.00773575    0.01334160   -0.00000108
     atom    8 type  1   force =    -0.01215246   -0.01217336   -0.00448779
     atom    9 type  2   force =    -0.00728858   -0.00073137   -0.04001446
     atom   10 type  2   force =     0.00995891    0.05526440    0.01119629
     atom   11 type  2   force =    -0.02042004   -0.00477770    0.00197528
     atom   12 type  2   force =     0.01729683   -0.03180013   -0.01277436
     atom   13 type  2   force =     0.02928777   -0.04442323    0.04312745
     atom   14 type  2   force =    -0.03867314   -0.00866444    0.02217626
     atom   15 type  2   force =    -0.01404827    0.02773954   -0.03243452
     atom   16 type  2   force =    -0.01779988   -0.01307149   -0.00380181
     atom   17 type  3   force =     0.05866703   -0.00126465    0.02360920
     atom   18 type  3   force =    -0.01623947    0.00406477   -0.02826239
     atom   19 type  3   force =    -0.04502910   -0.02764224   -0.00532828
     atom   20 type  3   force =     0.03610118   -0.00010750    0.01565972
     atom   21 type  3   force =    -0.00167257   -0.00323793   -0.00726853
     atom   22 type  3   force =     0.00503481    0.01987174   -0.00024169
     atom   23 type  3   force =    -0.03258209   -0.00176580    0.01416953
     atom   24 type  3   force =    -0.01711589    0.00231713   -0.01728086
     atom   25 type  3   force =     0.00594477   -0.02803194   -0.01118664
     atom   26 type  3   force =     0.00900989    0.09856261    0.00429575
     atom   27 type  3   force =    -0.00890646    0.03457589   -0.00374528
     atom   28 type  3   force =    -0.01431347   -0.04341190   -0.00015631
     atom   29 type  3   force =    -0.00243945    0.00951845    0.00677833
     atom   30 type  3   force =    -0.00053803   -0.03225253   -0.00175563
     atom   31 type  3   force =     0.01289662    0.00712946    0.00268953
     atom   32 type  3   force =     0.02365367    0.01069321    0.00035068
     atom   33 type  3   force =    -0.01251279    0.01612401   -0.04131692
     atom   34 type  3   force =     0.01029096   -0.02964010    0.04059067
     atom   35 type  3   force =     0.00558194    0.00664098    0.01918263
     atom   36 type  3   force =     0.02058383   -0.01118632    0.01979787
     atom   37 type  3   force =    -0.00702844    0.00170430    0.06905386
     atom   38 type  3   force =    -0.01069602    0.00126828   -0.04126576
     atom   39 type  3   force =    -0.01771084   -0.00701939   -0.02437621
     atom   40 type  3   force =     0.02852621    0.02388811   -0.01611713

     Total force =     0.249609     Total SCF correction =     0.000098
     Message from routine punch:
     Nothing written, as per user request (disk_io='none')

     init_run     :     68.88s CPU     73.17s WALL (       1 calls)
     electrons    :   2408.54s CPU   2505.04s WALL (       1 calls)
     forces       :     32.51s CPU     34.23s WALL (       1 calls)

     Called by init_run:
     wfcinit      :     34.90s CPU     37.80s WALL (       1 calls)
     potinit      :      4.27s CPU      4.57s WALL (       1 calls)
     hinit0       :      1.10s CPU      1.22s WALL (       1 calls)

     Called by electrons:
     c_bands      :   2064.84s CPU   2136.38s WALL (      16 calls)
     sum_band     :    261.74s CPU    276.30s WALL (      16 calls)
     v_of_rho     :     20.22s CPU     21.90s WALL (      17 calls)
     newd         :     30.16s CPU     39.90s WALL (      17 calls)
     PAW_pot      :     32.17s CPU     32.18s WALL (      17 calls)
     mix_rho      :      2.20s CPU      2.26s WALL (      16 calls)

     Called by c_bands:
     init_us_2    :     45.39s CPU     45.53s WALL (     306 calls)
     cegterg      :   1580.68s CPU   1651.87s WALL (     144 calls)

     Called by *egterg:
     cdiaghg      :     49.72s CPU     49.74s WALL (     811 calls)
     h_psi        :    761.87s CPU    800.54s WALL (     820 calls)
     s_psi        :    130.51s CPU    130.54s WALL (     820 calls)
     g_psi        :      5.04s CPU      5.05s WALL (     667 calls)

     Called by h_psi:
     h_psi:calbec :    177.86s CPU    178.34s WALL (     820 calls)
     vloc_psi     :    445.74s CPU    470.19s WALL (     820 calls)
                                        0.00s GPU  (     820 calls)
     add_vuspsi   :    132.61s CPU    132.63s WALL (     820 calls)

     General routines
     calbec       :    255.54s CPU    256.34s WALL (    1000 calls)
     fft          :     27.61s CPU     28.78s WALL (     230 calls)
     ffts         :      1.03s CPU      1.07s WALL (      33 calls)
     fftw         :    480.26s CPU    508.01s WALL (  162668 calls)
     interpolate  :      2.10s CPU      2.18s WALL (      17 calls)

     Parallel routines

     PWSCF        :  41m50.53s CPU  43m33.22s WALL


   This run was terminated on:  15:25:53   4Oct2026            

=------------------------------------------------------------------------------=
   JOB DONE.
=------------------------------------------------------------------------------=
