40
Lattice="8.068094053620356 -4.38423541214265e-18 -5.299365615194938e-18 -1.6788496834586077e-17 8.068094053620356 1.6634455206828052e-17 -2.654045609411134e-17 -6.832089622168243e-17 8.06809405362036" Properties=species:S:1:pos:R:3:u_disp:R:3 system=batio3_cubic base_model=mace_mp0 role=train_pool T=100.0 draw=0 n_tries=13 rms_disp_A=0.0963472981974155 min_pair_ratio=0.9140234912784794 nearest_heldout_A=0.09178823461647544 site_map_ok=1 nearest_heldout_src=batio3_cubic_orb_v2_q0-1d2-0-b1.extxyz#3 pbc="T T T"
Ba      -0.03313664       0.05741459       0.00568930      -0.03313664       0.05741459       0.00568930
Ba       3.99213761      -0.02876893       0.02608297      -0.04190942      -0.02876893       0.02608297
Ba       0.00236074       4.03962465       0.03289192       0.00236074       0.00557762       0.03289192
Ba       4.04615248       4.05730257      -0.05167682       0.01210545       0.02325555      -0.05167682
Ba      -0.00187120      -0.04372171       4.01656426      -0.00187120      -0.04372171      -0.01748277
Ba       4.03053696       0.01902751       3.98343180      -0.00351007       0.01902751      -0.05061523
Ba       0.03289130       4.00193279       4.02404684       0.03289130      -0.03211424      -0.01000019
Ba       4.07782238       4.00339002       4.01120737       0.04377535      -0.03065700      -0.02283966
Ti       2.08668643       2.02382726       2.05418120       0.06966292       0.00680374       0.03715769
Ti       6.06867055       2.00934668       2.04859569       0.01760001      -0.00767684       0.03157218
Ti       1.94561269       6.00697521       1.99081116      -0.07141083      -0.04409533      -0.02621235
Ti       5.97525861       5.97224298       2.07366379      -0.07581193      -0.07882756       0.05664028
Ti       2.03794480       2.07711276       5.99572818       0.02092129       0.06008924      -0.05534236
Ti       6.07534173       2.08345417       6.07475501       0.02427119       0.06643066       0.02368447
Ti       1.92113379       6.08906931       6.03368988      -0.09588973       0.03799877      -0.01738066
Ti       5.95868305       6.05748712       6.11244032      -0.09238749       0.00641658       0.06136978
O        0.08879354       1.95108216       2.12096702       0.08879354      -0.06594135       0.10394351
O        3.97502752       2.14592717       2.03907339      -0.05901951       0.12890366       0.02204987
O        0.09956424       6.04043669       1.96808475       0.09956424      -0.01063385      -0.04893876
O        4.12575174       6.05946602       2.14957678       0.09170471       0.00839548       0.13255326
O        0.05621109       2.08503331       6.09950004       0.05621109       0.06800979       0.04842950
O        3.99319290       2.06539905       6.02076277      -0.04085413       0.04837554      -0.03030777
O        0.01187300       6.01990338       6.07465456       0.01187300      -0.03116716       0.02358402
O        4.03976527       6.08213240       6.05578239       0.00571824       0.03106186       0.00471185
O        2.04488590      -0.07855815       2.04401856       0.02786239      -0.07855815       0.02699504
O        6.13106620       0.04049371       2.02685385       0.07999566       0.04049371       0.00983034
O        2.03015763       4.12936299       1.92709797       0.01313411       0.09531596      -0.08992554
O        6.05082754       3.99179069       2.00313659      -0.00024301      -0.04225634      -0.01388692
O        1.97590549       0.08053100       6.11088264      -0.04111803       0.08053100       0.05981210
O        6.13053272      -0.04074968       6.11720747       0.07946218      -0.04074968       0.06613693
O        2.05386983       3.99471542       6.00436264       0.03684632      -0.03933160      -0.04670790
O        6.14798367       3.92554302       6.05691913       0.09691313      -0.10850401       0.00584859
O        2.07893591       2.13737714       0.11510878       0.06191239       0.12035362       0.11510878
O        5.98749015       2.10637666       0.01995711      -0.06358039       0.08935315       0.01995711
O        2.05144998       6.08449310       0.02816718       0.03442647       0.03342256       0.02816718
O        6.00798708       5.94685282      -0.03029749      -0.04308346      -0.10421772      -0.03029749
O        2.01095358       1.95185013       4.03552354      -0.00606994      -0.06517338       0.00147652
O        6.05106397       1.92122135       4.08039477      -0.00000657      -0.09580216       0.04634774
O        1.96352793       6.14929793       4.06036099      -0.05349558       0.09822739       0.02631396
O        6.08970401       6.00731383       3.97419413       0.03863347      -0.04375671      -0.05985290
40
Lattice="8.068094053620356 -4.38423541214265e-18 -5.299365615194938e-18 -1.6788496834586077e-17 8.068094053620356 1.6634455206828052e-17 -2.654045609411134e-17 -6.832089622168243e-17 8.06809405362036" Properties=species:S:1:pos:R:3:u_disp:R:3 system=batio3_cubic base_model=mace_mp0 role=train_pool T=100.0 draw=1 n_tries=13 rms_disp_A=0.08211038791307906 min_pair_ratio=0.9246174247891543 nearest_heldout_A=0.08007770168619344 site_map_ok=1 nearest_heldout_src=batio3_cubic_mace_mp0_q1d2-0-0-b0.extxyz#2 pbc="T T T"
Ba       0.02740111      -0.00780399      -0.00246708       0.02740111      -0.00780399      -0.00246708
Ba       4.03474694      -0.01235895      -0.04181423       0.00069992      -0.01235895      -0.04181423
Ba      -0.03453566       4.02981653       0.00820747      -0.03453566      -0.00423049       0.00820747
Ba       4.01620125       3.99072048      -0.00411152      -0.01784577      -0.04332655      -0.00411152
Ba      -0.01827281       0.02131632       4.06847653      -0.01827281       0.02131632       0.03442950
Ba       3.97690100      -0.02745941       4.06604682      -0.05714602      -0.02745941       0.03199979
Ba       0.02745506       4.09309473       4.03184538       0.02745506       0.05904771      -0.00220165
Ba       4.04888386       4.06441684       4.05384622       0.01483683       0.03036981       0.01979920
Ti       2.06901667       2.02664341       1.97633824       0.05199316       0.00961989      -0.04068527
Ti       6.07056205       2.02324764       1.97802908       0.01949151       0.00622412      -0.03899443
Ti       2.06040789       6.05037759       1.97623999       0.04338437      -0.00069295      -0.04078352
Ti       6.02099727       6.03096355       1.99320524      -0.03007327      -0.02010699      -0.02381827
Ti       2.02885795       2.07265236       5.97974182       0.01183444       0.05562884      -0.07132872
Ti       6.11096372       1.98616470       6.06412487       0.05989318      -0.03085881       0.01305433
Ti       2.02311977       6.07802506       6.02499855       0.00609625       0.02695452      -0.02607199
Ti       6.04439587       5.93987274       6.06218566      -0.00667467      -0.11119780       0.01111512
O       -0.00657886       2.05419161       2.00416873      -0.00657886       0.03716809      -0.01285478
O        4.09688245       2.02738478       2.09253665       0.06283543       0.01036126       0.07551314
O       -0.07308156       6.02193994       2.00940281      -0.07308156      -0.02913060      -0.00762070
O        4.03895345       6.00830189       2.01458190       0.00490642      -0.04276865      -0.00244162
O        0.04542994       1.98608773       6.05990217       0.04542994      -0.03093579       0.00883163
O        3.96807607       1.90458391       6.12354754      -0.06597096      -0.11243960       0.07247700
O        0.03342113       6.06382117       6.02221912       0.03342113       0.01275063      -0.02885142
O        4.11443892       5.97178395       6.09451529       0.08039189      -0.07928660       0.04344475
O        2.04235545      -0.00769788       1.98800017       0.02533193      -0.00769788      -0.02902334
O        6.08084661       0.03954887       1.95550235       0.02977607       0.03954887      -0.06152116
O        2.00031091       4.06245579       2.11450164      -0.01671260       0.02840876       0.09747812
O        6.13877114       4.08021485       2.03007306       0.08770060       0.04616783       0.01304954
O        1.92912977       0.03677630       6.10091754      -0.08789374       0.03677630       0.04984700
O        6.16625972      -0.06528918       6.12348762       0.11518918      -0.06528918       0.07241708
O        2.07434089       4.03325006       5.95020241       0.05731737      -0.00079697      -0.10086813
O        6.02730635       4.07530142       6.09702546      -0.02376419       0.04125439       0.04595492
O        1.98397386       2.10039814       0.02604515      -0.03304965       0.08337462       0.02604515
O        6.05205887       2.05329214      -0.10448800       0.00098833       0.03626863      -0.10448800
O        2.06409596       6.04464819       0.06398279       0.04707245      -0.00642235       0.06398279
O        5.93548662       6.10082852       0.05769308      -0.11558392       0.04975798       0.05769308
O        2.00479504       2.05835305       4.09632228      -0.01222847       0.04132954       0.06227525
O        5.97444079       2.06551638       3.97546998      -0.07662975       0.04849287      -0.05857704
O        1.99661362       6.03240809       4.04704200      -0.02040989      -0.01866245       0.01299498
O        6.01879957       5.99209219       4.01274050      -0.03227097      -0.05897835      -0.02130653
40
Lattice="8.068094053620356 -4.38423541214265e-18 -5.299365615194938e-18 -1.6788496834586077e-17 8.068094053620356 1.6634455206828052e-17 -2.654045609411134e-17 -6.832089622168243e-17 8.06809405362036" Properties=species:S:1:pos:R:3:u_disp:R:3 system=batio3_cubic base_model=mace_mp0 role=train_pool T=100.0 draw=2 n_tries=13 rms_disp_A=0.08450040796961408 min_pair_ratio=0.904909044104902 nearest_heldout_A=0.08257361561588195 site_map_ok=1 nearest_heldout_src=batio3_cubic_orb_v2_q1d2-0-0-b0.extxyz#2 pbc="T T T"
Ba      -0.02117679      -0.07230586       0.01167749      -0.02117679      -0.07230586       0.01167749
Ba       4.00759401       0.03512459       0.05031473      -0.02645301       0.03512459       0.05031473
Ba       0.01575908       4.05455629      -0.09091073       0.01575908       0.02050927      -0.09091073
Ba       4.02516023       4.04903914      -0.00800330      -0.00888679       0.01499211      -0.00800330
Ba       0.03392189       0.02718293       4.00749798       0.03392189       0.02718293      -0.02654904
Ba       4.04565502       0.03215897       4.08250727       0.01160799       0.03215897       0.04846025
Ba       0.06531531       4.08628343       4.00977718       0.06531531       0.05223641      -0.02426984
Ba       3.99669867       3.99759450       4.06958750      -0.03734836      -0.03645253       0.03554047
Ti       2.01561459       2.00663825       2.05217777      -0.00140892      -0.01038526       0.03515426
Ti       6.10182763       2.02581018       1.94210082       0.05075709       0.00878667      -0.07492269
Ti       2.01342894       5.98415172       2.05608435      -0.00359457      -0.06691882       0.03906084
Ti       6.08115088       6.06382662       1.96616839       0.03008034       0.01275608      -0.05085512
Ti       1.98071344       2.00709910       6.05234949      -0.03631007      -0.00992441       0.00127895
Ti       6.06511835       1.99397295       5.99043578       0.01404781      -0.02305056      -0.06063476
Ti       1.99928253       6.09424831       6.08798672      -0.01774098       0.04317777       0.03691618
Ti       6.00251318       6.01891059       6.07220157      -0.04855736      -0.03215995       0.02113103
O        0.05452084       2.04553297       2.09301970       0.05452084       0.02850946       0.07599618
O        4.06444156       2.03636420       2.03328528       0.03039453       0.01934069       0.01626177
O       -0.05199733       6.06253187       2.00966715      -0.05199733       0.01146133      -0.00735637
O        4.01823435       6.06474584       2.08381238      -0.01581268       0.01367530       0.06678887
O       -0.00699043       1.98861847       6.00093807      -0.00699043      -0.02840505      -0.05013247
O        3.93123691       2.02293688       6.06772322      -0.10281011       0.00591336       0.01665268
O        0.04568806       6.04297298       6.04203140       0.04568806      -0.00809756      -0.00903914
O        3.95835977       5.99328174       6.08646052      -0.07568726      -0.05778880       0.03538998
O        1.99926850      -0.06660040       1.97338082      -0.01775501      -0.06660040      -0.04364269
O        5.99459689       0.07026801       1.96273561      -0.05647365       0.07026801      -0.05428791
O        1.99743531       4.10923534       2.01647948      -0.01958821       0.07518832      -0.00054403
O        6.16182106       4.01681694       1.91799374       0.11075052      -0.01723009      -0.09902977
O        2.02758079       0.00123120       6.05808718       0.01055728       0.00123120       0.00701664
O        6.04633782      -0.08598961       6.02487752      -0.00473272      -0.08598961      -0.02619302
O        1.98837034       4.03688581       6.13612606      -0.02865318       0.00283878       0.08505552
O        5.96063156       3.96772343       6.05280471      -0.09043898      -0.06632360       0.00173417
O        2.04057078       1.98418489       0.14767131       0.02354727      -0.03283863       0.14767131
O        6.04599204       1.91791514       0.12092555      -0.00507850      -0.09910837       0.12092555
O        1.90542821       6.04142811      -0.03150906      -0.11159530      -0.00964243      -0.03150906
O        6.04956256       6.00040305      -0.02696913      -0.00150798      -0.05066749      -0.02696913
O        2.05179480       2.00949280       3.99451915       0.03477129      -0.00753071      -0.03952788
O        6.07765359       2.01079595       4.10059287       0.02658305      -0.00622756       0.06654584
O        1.95637230       6.06863476       4.00704391      -0.06065121       0.01756422      -0.02700312
O        6.12109587       5.94364331       3.99952472       0.07002533      -0.10742723      -0.03452231
40
Lattice="8.068094053620356 -4.38423541214265e-18 -5.299365615194938e-18 -1.6788496834586077e-17 8.068094053620356 1.6634455206828052e-17 -2.654045609411134e-17 -6.832089622168243e-17 8.06809405362036" Properties=species:S:1:pos:R:3:u_disp:R:3 system=batio3_cubic base_model=mace_mp0 role=train_pool T=100.0 draw=3 n_tries=13 rms_disp_A=0.097864329363515 min_pair_ratio=0.9139509073670324 nearest_heldout_A=0.09502166125627715 site_map_ok=1 nearest_heldout_src=batio3_cubic_mace_mp0_q0-0-0-b0.extxyz#2 pbc="T T T"
Ba       0.04409543      -0.04160643       0.07866824       0.04409543      -0.04160643       0.07866824
Ba       3.97961112       0.03378656       0.01452021      -0.05443590       0.03378656       0.01452021
Ba      -0.05685204       4.06450395      -0.01051868      -0.05685204       0.03045692      -0.01051868
Ba       4.10145756       4.03368752       0.01330087       0.06741053      -0.00035951       0.01330087
Ba      -0.02917869       0.06784750       4.05904395      -0.02917869       0.06784750       0.02499692
Ba       4.02957866      -0.03185131       3.91178604      -0.00446837      -0.03185131      -0.12226099
Ba       0.02477020       4.06248737       4.00889896       0.02477020       0.02844035      -0.02514806
Ba       4.00418260       3.98289773       4.02228914      -0.02986442      -0.05114930      -0.01175788
Ti       2.06958562       2.04976977       2.03462539       0.05256210       0.03274626       0.01760188
Ti       6.13929502       2.04275094       2.04618615       0.08822448       0.02572743       0.02916264
Ti       2.01738120       6.07694411       2.10639763       0.00035769       0.02587357       0.08937412
Ti       6.08491815       6.05873002       1.98611581       0.03384761       0.00765948      -0.03090771
Ti       2.08074338       1.98691814       6.02386940       0.06371986      -0.03010537      -0.02720114
Ti       6.02170905       2.00609827       6.01959183      -0.02936149      -0.01092524      -0.03147871
Ti       2.01600899       6.05488432       6.06264125      -0.00101452       0.00381378       0.01157071
Ti       6.08046743       6.02528940       5.98926374       0.02939689      -0.02578114      -0.06180680
O       -0.08149929       1.93276295       2.06430237      -0.08149929      -0.08426056       0.04727886
O        4.00448736       2.02523964       1.98629883      -0.02955967       0.00821612      -0.03072468
O       -0.11346350       6.09166199       2.00650677      -0.11346350       0.04059145      -0.01051675
O        3.94269468       5.92414688       1.99691985      -0.09135235      -0.12692366      -0.02010367
O       -0.01709625       1.95097368       5.98205939      -0.01709625      -0.06604984      -0.06901115
O        3.99925087       2.01888617       6.12334293      -0.03479616       0.00186266       0.07227239
O        0.02402523       6.10482384       6.02772100       0.02402523       0.05375330      -0.02334954
O        4.01365245       6.03843280       6.03458407      -0.02039458      -0.01263774      -0.01648647
O        2.00484345      -0.04115019       2.05346765      -0.01218006      -0.04115019       0.03644414
O        5.93522637      -0.01436585       1.92923434      -0.11584417      -0.01436585      -0.08778917
O        2.08125548       4.06637237       2.25085618       0.06423196       0.03232535       0.23383267
O        6.04045278       4.00593198       2.07713818      -0.01061776      -0.02811505       0.06011467
O        1.94862374       0.06519370       6.07914877      -0.06839977       0.06519370       0.02807822
O        6.01108956      -0.00677648       6.04109601      -0.03998098      -0.00677648      -0.00997453
O        2.00764391       4.03916666       6.03737814      -0.00937961       0.00511963      -0.01369240
O        6.12655011       4.00128026       6.06997120       0.07547957      -0.03276676       0.01890066
O        1.98991531       2.06994619       0.10875194      -0.02710820       0.05292267       0.10875194
O        6.15035381       1.99939300       0.07586529       0.09928327      -0.01763051       0.07586529
O        2.05104205       5.98280949      -0.04463585       0.03401853      -0.06826105      -0.04463585
O        6.10153141       5.98555653       0.07891871       0.05046087      -0.06551401       0.07891871
O        1.98218025       2.02923701       3.87589811      -0.03484326       0.01221350      -0.15814892
O        6.02259487       1.90839492       3.97981167      -0.02847567      -0.10862859      -0.05423536
O        2.00502697       6.00867424       4.05366942      -0.01199655      -0.04239630       0.01962239
O        6.06996566       6.10229850       4.13153549       0.01889512       0.05122796       0.09748846
40
Lattice="8.068094053620356 -4.38423541214265e-18 -5.299365615194938e-18 -1.6788496834586077e-17 8.068094053620356 1.6634455206828052e-17 -2.654045609411134e-17 -6.832089622168243e-17 8.06809405362036" Properties=species:S:1:pos:R:3:u_disp:R:3 system=batio3_cubic base_model=mace_mp0 role=train_pool T=100.0 draw=4 n_tries=13 rms_disp_A=0.0898445320360324 min_pair_ratio=0.9199156385890916 nearest_heldout_A=0.08836213929093195 site_map_ok=1 nearest_heldout_src=batio3_cubic_chgnet_q0-1d2-0-b1.extxyz#2 pbc="T T T"
Ba       0.02292846       0.10872779      -0.00858963       0.02292846       0.10872779      -0.00858963
Ba       3.95751037      -0.04556672       0.02428479      -0.07653666      -0.04556672       0.02428479
Ba      -0.01182177       4.06784101      -0.04543804      -0.01182177       0.03379398      -0.04543804
Ba       4.03034410       4.05252688      -0.03393186      -0.00370292       0.01847985      -0.03393186
Ba       0.05290762      -0.01837138       4.05977258       0.05290762      -0.01837138       0.02572555
Ba       4.04201479       0.04145911       4.07693994       0.00796776       0.04145911       0.04289292
Ba       0.01933653       3.94652728       3.97607713       0.01933653      -0.08751975      -0.05796990
Ba       4.03340771       3.99290068       4.04865234      -0.00063931      -0.04114635       0.01460531
Ti       2.06256897       1.99030184       1.99013583       0.04554545      -0.02672168      -0.02688768
Ti       6.03538835       2.03631995       1.97346770      -0.01568219       0.01929644      -0.04355581
Ti       2.03643475       6.05668932       2.02926067       0.01941123       0.00561878       0.01223716
Ti       5.99289061       6.01573258       2.09739433      -0.05817993      -0.03533796       0.08037082
Ti       2.03530055       2.04381419       6.06297643       0.01827704       0.02679068       0.01190589
Ti       6.07845270       2.05164300       6.05026967       0.02738216       0.03461948      -0.00080087
Ti       2.01490033       6.07162425       6.06408343      -0.00212318       0.02055371       0.01301289
Ti       6.01200133       6.07607758       6.03425191      -0.03906921       0.02500704      -0.01681863
O       -0.04625957       2.09433265       1.97940319      -0.04625957       0.07730913      -0.03762032
O        4.07242540       1.94606758       2.05054792       0.03837838      -0.07095593       0.03352440
O        0.01152341       6.08042251       2.01483066       0.01152341       0.02935197      -0.00219286
O        3.97625806       6.01258886       2.04725090      -0.05778897      -0.03848168       0.03022739
O       -0.03594621       2.04634284       6.13466426      -0.03594621       0.02931932       0.08359372
O        3.88925114       2.04557102       6.17837259      -0.14479589       0.02854751       0.12730205
O        0.05536594       6.05975014       6.05023931       0.05536594       0.00867960      -0.00083123
O        4.03074931       6.00331931       6.16475708      -0.00329772      -0.04775123       0.11368654
O        1.88064963       0.02931420       2.14818175      -0.13637388       0.02931420       0.13115824
O        6.07834279      -0.00986891       2.07363562       0.02727225      -0.00986891       0.05661211
O        2.11212756       4.01456260       2.00325780       0.09510405      -0.01948442      -0.01376571
O        6.09071985       4.05928341       1.97911947       0.03964931       0.02523638      -0.03790405
O        2.00573598      -0.07045491       5.92165474      -0.01128753      -0.07045491      -0.12941580
O        6.03506995      -0.02818632       5.96449985      -0.01600059      -0.02818632      -0.08657069
O        1.99773097       4.06854563       5.99996963      -0.01929255       0.03449860      -0.05110091
O        6.09157583       4.00281614       6.09553136       0.04050529      -0.03123089       0.04446082
O        2.10775800       2.00919060       0.03658481       0.09073449      -0.00783292       0.03658481
O        5.98672660       1.90117623      -0.07140779      -0.06434394      -0.11584728      -0.07140779
O        2.02270091       6.07136498      -0.02294593       0.00567739       0.02029444      -0.02294593
O        6.09187923       6.10123650       0.03623160       0.04080869       0.05016596       0.03623160
O        2.07927808       1.95686971       3.98539245       0.06225457      -0.06015381      -0.04865457
O        5.98363340       2.03615986       4.04501438      -0.06743714       0.01913635       0.01096735
O        2.06158605       5.98534880       4.01981177       0.04456254      -0.06572174      -0.01423526
O        6.02573092       5.97167903       4.08796974      -0.02533962      -0.07939151       0.05392271
40
Lattice="8.068094053620356 -4.38423541214265e-18 -5.299365615194938e-18 -1.6788496834586077e-17 8.068094053620356 1.6634455206828052e-17 -2.654045609411134e-17 -6.832089622168243e-17 8.06809405362036" Properties=species:S:1:pos:R:3:u_disp:R:3 system=batio3_cubic base_model=mace_mp0 role=train_pool T=100.0 draw=5 n_tries=13 rms_disp_A=0.09365320410645771 min_pair_ratio=0.924162774775317 nearest_heldout_A=0.09188857985595106 site_map_ok=1 nearest_heldout_src=batio3_cubic_chgnet_q0-1d2-0-b0.extxyz#2 pbc="T T T"
Ba      -0.00145642       0.01057840       0.03314298      -0.00145642       0.01057840       0.03314298
Ba       4.14209358       0.00741710      -0.05365756       0.10804655       0.00741710      -0.05365756
Ba      -0.01092711       3.97781243       0.02024870      -0.01092711      -0.05623459       0.02024870
Ba       4.02345587       4.11600875       0.00585772      -0.01059116       0.08196172       0.00585772
Ba      -0.00984691      -0.00587994       4.04206675      -0.00984691      -0.00587994       0.00801972
Ba       4.04045741       0.02060611       4.02139407       0.00641038       0.02060611      -0.01265296
Ba      -0.03731949       4.03218075       4.01676507      -0.03731949      -0.00186627      -0.01728196
Ba       4.00407025       4.01879425       4.08921043      -0.02997678      -0.01525278       0.05516340
Ti       2.02252399       1.93647855       1.93456632       0.00550047      -0.08054496      -0.08245719
Ti       6.05732799       2.00189772       2.02335339       0.00625745      -0.01512579       0.00632988
Ti       2.08084976       5.97670300       2.07280519       0.06382625      -0.07436754       0.05578168
Ti       5.98338107       6.08472853       1.99167846      -0.06768947       0.03365799      -0.02534505
Ti       2.04531534       1.98807256       6.06933719       0.02829183      -0.02895095       0.01826665
Ti       6.08701262       2.03197790       6.03134905       0.03594208       0.01495439      -0.01972149
Ti       1.93550633       6.10935577       6.07826473      -0.08151719       0.05828523       0.02719419
Ti       6.01883264       6.07309246       6.06239038      -0.03223790       0.02202192       0.01131984
O        0.09597726       2.06118442       2.02785434       0.09597726       0.04416090       0.01083082
O        4.12939147       2.08616725       2.06901841       0.09534445       0.06914374       0.05199490
O       -0.01360120       6.08338679       1.96565655      -0.01360120       0.03231625      -0.05136696
O        3.93634390       6.03981326       1.90585908      -0.09770313      -0.01125728      -0.11116443
O        0.06330874       2.00234076       6.08487825       0.06330874      -0.01468275       0.03380771
O        4.01552733       1.95392495       5.91706412      -0.01851970      -0.06309857      -0.13400642
O       -0.05863205       5.97570964       5.94506920      -0.05863205      -0.07536090      -0.10600134
O        4.09140254       6.11036163       6.08817320       0.05735552       0.05929108       0.03710266
O        2.08345050       0.00721601       2.05458883       0.06642699       0.00721601       0.03756532
O        6.10326109       0.03670245       1.94669464       0.05219055       0.03670245      -0.07032887
O        2.01575923       4.00712436       2.08916356      -0.00126428      -0.02692267       0.07214005
O        6.02648439       3.99244352       1.96776134      -0.02458615      -0.04160351      -0.04926217
O        1.97472052       0.01318879       6.08464820      -0.04230299       0.01318879       0.03357766
O        6.03017076      -0.02364930       6.06870566      -0.02089978      -0.02364930       0.01763512
O        1.88795743       4.13569631       6.11635805      -0.12906609       0.10164928       0.06528751
O        5.95380429       4.02938668       6.02565998      -0.09726625      -0.00466035      -0.02541056
O        2.10199392       1.96646657      -0.04775156       0.08497041      -0.05055695      -0.04775156
O        6.15206025       1.89051646       0.00979072       0.10098971      -0.12650705       0.00979072
O        2.00820477       6.03882048      -0.04589760      -0.00881874      -0.01225006      -0.04589760
O        5.97851782       6.06340502      -0.08621513      -0.07255272       0.01233448      -0.08621513
O        2.02959815       1.97477177       4.05708349       0.01257464      -0.04225175       0.02303646
O        6.05430933       2.03362695       4.02778127       0.00323879       0.01660343      -0.00626576
O        2.09730452       5.96857023       4.05462358       0.08028101      -0.08250031       0.02057655
O        5.92508779       6.08865606       4.04682182      -0.12598275       0.03758552       0.01277479
40
Lattice="8.068094053620356 -4.38423541214265e-18 -5.299365615194938e-18 -1.6788496834586077e-17 8.068094053620356 1.6634455206828052e-17 -2.654045609411134e-17 -6.832089622168243e-17 8.06809405362036" Properties=species:S:1:pos:R:3:u_disp:R:3 system=batio3_cubic base_model=mace_mp0 role=train_pool T=100.0 draw=6 n_tries=13 rms_disp_A=0.08539364771162195 min_pair_ratio=0.9326682068254883 nearest_heldout_A=0.08359011023319594 site_map_ok=1 nearest_heldout_src=batio3_cubic_chgnet_q1d2-1d2-0-b0.extxyz#2 pbc="T T T"
Ba       0.00106167       0.02711836       0.05310717       0.00106167       0.02711836       0.05310717
Ba       4.04534140      -0.02108226      -0.02785503       0.01129437      -0.02108226      -0.02785503
Ba       0.01688106       3.96179078      -0.04405024       0.01688106      -0.07225625      -0.04405024
Ba       4.08884615       4.04110517      -0.02009770       0.05479912       0.00705814      -0.02009770
Ba      -0.03887768       0.05732759       4.00592063      -0.03887768       0.05732759      -0.02812640
Ba       4.09041196      -0.05346050       4.04077435       0.05636493      -0.05346050       0.00672732
Ba      -0.07917245       4.06014566       4.07175857      -0.07917245       0.02609863       0.03771155
Ba       4.03691115       4.05837705       4.00703836       0.00286412       0.02433003      -0.02700867
Ti       2.02489239       2.06278954       2.04791892       0.00786888       0.04576602       0.03089540
Ti       5.99534323       2.06729981       2.02247478      -0.05572731       0.05027629       0.00545127
Ti       2.00720185       6.05340533       1.98121052      -0.00982167       0.00233479      -0.03581299
Ti       6.06046001       6.01888128       2.05004822       0.00938947      -0.03218926       0.03302470
Ti       1.99940785       1.97967254       6.00153452      -0.01761567      -0.03735097      -0.04953602
Ti       5.99563512       2.02295923       6.01687866      -0.05543542       0.00593571      -0.03419188
Ti       2.02685583       6.03146642       6.07236649       0.00983232      -0.01960413       0.02129595
Ti       6.06245811       6.02019677       6.02807340       0.01138757      -0.03087377      -0.02299714
O        0.02211252       1.98462360       2.06794747       0.02211252      -0.03239991       0.05092395
O        4.07420407       1.94780466       1.95462138       0.04015705      -0.06921885      -0.06240213
O        0.06788970       5.98498708       2.02364193       0.06788970      -0.06608346       0.00661841
O        4.09891354       6.17443063       2.09103323       0.06486651       0.12336009       0.07400971
O        0.06270423       2.02212707       6.01344867       0.06270423       0.00510356      -0.03762187
O        4.07355977       2.01050380       6.08677782       0.03951275      -0.00651971       0.03570728
O       -0.11203313       6.08909408       6.07852041      -0.11203313       0.03802354       0.02744987
O        4.03685027       6.01765720       6.14175862       0.00280324      -0.03341334       0.09068808
O        1.91960400       0.00911826       2.05861879      -0.09741951       0.00911826       0.04159527
O        6.15003446      -0.03959591       2.00583195       0.09896392      -0.03959591      -0.01119156
O        2.00195613       4.02667940       2.10300468      -0.01506739      -0.00736762       0.08598117
O        6.10473661       3.96385921       1.99291816       0.05366607      -0.07018782      -0.02410535
O        2.05009884      -0.01670269       6.15775194       0.03307533      -0.01670269       0.10668140
O        6.05058830       0.14294780       6.05563681      -0.00048224       0.14294780       0.00456627
O        2.02016824       4.07278711       6.07862850       0.00314472       0.03874009       0.02755796
O        6.14240021       4.00789256       6.14287427       0.09132967      -0.02615447       0.09180373
O        1.99259695       2.03453582       0.05343626      -0.02442657       0.01751231       0.05343626
O        6.06413349       1.96012714       0.01100089       0.01306295      -0.05689638       0.01100089
O        1.96032702       6.00570258      -0.03347656      -0.05669649      -0.04536796      -0.03347656
O        6.05290958       6.01447875       0.03951565       0.00183904      -0.03659179       0.03951565
O        1.97420556       2.04571415       4.11395426      -0.04281795       0.02869064       0.07990723
O        5.92752781       2.08675035       4.00909546      -0.12354273       0.06972684      -0.02495156
O        1.98256201       6.07872097       4.00905056      -0.03446151       0.02765043      -0.02499647
O        6.04600682       6.14545231       4.00619710      -0.00506372       0.09438177      -0.02784993
40
Lattice="8.068094053620356 -4.38423541214265e-18 -5.299365615194938e-18 -1.6788496834586077e-17 8.068094053620356 1.6634455206828052e-17 -2.654045609411134e-17 -6.832089622168243e-17 8.06809405362036" Properties=species:S:1:pos:R:3:u_disp:R:3 system=batio3_cubic base_model=mace_mp0 role=train_pool T=100.0 draw=7 n_tries=13 rms_disp_A=0.09583814204507059 min_pair_ratio=0.9216066448456226 nearest_heldout_A=0.09318466434369428 site_map_ok=1 nearest_heldout_src=batio3_cubic_sevennet0_q1d2-0-0-b0.extxyz#2 pbc="T T T"
Ba      -0.00553433       0.04526847      -0.01521244      -0.00553433       0.04526847      -0.01521244
Ba       4.01422613      -0.03794636      -0.02581579      -0.01982089      -0.03794636      -0.02581579
Ba       0.06558747       3.95437860      -0.00711159       0.06558747      -0.07966843      -0.00711159
Ba       4.01570224       4.02705384       0.04760897      -0.01834479      -0.00699319       0.04760897
Ba      -0.06250718       0.09839381       4.06355313      -0.06250718       0.09839381       0.02950610
Ba       4.04643193       0.01155180       4.08591892       0.01238490       0.01155180       0.05187190
Ba      -0.03857256       4.01122529       4.02670673      -0.03857256      -0.02282173      -0.00734030
Ba       4.05910877       4.03422242       4.09472615       0.02506175       0.00017539       0.06067912
Ti       2.03748711       1.99534092       1.99848612       0.02046359      -0.02168260      -0.01853740
Ti       6.01630576       2.03983235       1.99243190      -0.03476478       0.02280884      -0.02459161
Ti       2.07363919       6.00709431       2.02683530       0.05661568      -0.04397623       0.00981179
Ti       6.10847908       6.11773921       2.00029240       0.05740854       0.06666867      -0.01673111
Ti       2.05965480       2.00766414       6.04627007       0.04263129      -0.00935937      -0.00480047
Ti       5.99258681       2.05340168       6.00235110      -0.05848373       0.03637817      -0.04871944
Ti       1.99548751       6.01935353       5.98082876      -0.02153600      -0.03171701      -0.07024178
Ti       6.05191353       6.08394202       6.01597472       0.00084299       0.03287148      -0.03509582
O        0.07228815       1.98225853       1.95092401       0.07228815      -0.03476499      -0.06609950
O        4.06051857       2.04426048       2.03869070       0.02647155       0.02723696       0.02166718
O       -0.02487381       6.06280416       2.04078754      -0.02487381       0.01173362       0.02376403
O        4.09549757       6.08838455       1.99317179       0.06145055       0.03731400      -0.02385172
O        0.02205608       2.12080264       6.02251716       0.02205608       0.10377912      -0.02855338
O        3.98718417       2.01005660       6.08013878      -0.04686286      -0.00696691       0.02906824
O        0.01038375       6.04229119       5.98783087       0.01038375      -0.00877935      -0.06323967
O        4.06889016       6.11488232       6.24233223       0.03484313       0.06381178       0.19126169
O        2.02475554       0.06769607       2.03888757       0.00773203       0.06769607       0.02186405
O        5.99785409      -0.04984472       2.05547318      -0.05321645      -0.04984472       0.03844967
O        1.95282612       4.02061296       1.96073995      -0.06419739      -0.01343407      -0.05628357
O        6.10405260       3.96592360       2.09681293       0.05298206      -0.06812343       0.07978942
O        1.91984093      -0.11615759       6.00917481      -0.09718258      -0.11615759      -0.04189573
O        6.05984363       0.01929343       6.01774412       0.00877309       0.01929343      -0.03332642
O        2.03788792       4.01409151       5.94736957       0.02086441      -0.01995551      -0.10370097
O        6.04894930       4.00790269       5.89433841      -0.00212124      -0.02614434      -0.15673213
O        2.05039028       1.99723091      -0.04930898       0.03336677      -0.01979260      -0.04930898
O        6.20850342       1.95758511      -0.07700212       0.15743288      -0.05943840      -0.07700212
O        1.93694135       6.06556518      -0.08776706      -0.08008216       0.01449464      -0.08776706
O        6.10532814       5.95067570       0.03941057       0.05425760      -0.10039484       0.03941057
O        2.04021334       1.98367869       3.98366165       0.02318983      -0.03334482      -0.05038538
O        6.05882368       1.89253793       3.99552669       0.00775314      -0.12448558      -0.03852034
O        2.06661897       6.11531096       4.00432142       0.04959546       0.06424042      -0.02972561
O        5.94546546       6.09922737       3.96841634      -0.10560508       0.04815683      -0.06563069
40
Lattice="8.068094053620356 -4.38423541214265e-18 -5.299365615194938e-18 -1.6788496834586077e-17 8.068094053620356 1.6634455206828052e-17 -2.654045609411134e-17 -6.832089622168243e-17 8.06809405362036" Properties=species:S:1:pos:R:3:u_disp:R:3 system=batio3_cubic base_model=mace_mp0 role=train_pool T=100.0 draw=8 n_tries=13 rms_disp_A=0.09058381102030397 min_pair_ratio=0.9013190288991398 nearest_heldout_A=0.08601073724064542 site_map_ok=1 nearest_heldout_src=batio3_cubic_mace_mp0_q1d2-0-0-b0.extxyz#2 pbc="T T T"
Ba       0.00100963       0.01053112      -0.00520389       0.00100963       0.01053112      -0.00520389
Ba       4.09370716      -0.02562157       0.02838034       0.05966014      -0.02562157       0.02838034
Ba       0.01779610       4.06208346      -0.00321914       0.01779610       0.02803643      -0.00321914
Ba       4.05069454       4.02791435       0.00868876       0.01664752      -0.00613267       0.00868876
Ba       0.03871618      -0.05796616       4.06325108       0.03871618      -0.05796616       0.02920406
Ba       3.98071591      -0.04079580       4.07988597      -0.05333112      -0.04079580       0.04583894
Ba       0.02183248       3.97520954       3.95527653       0.02183248      -0.05883748      -0.07877050
Ba       4.00837145       4.10754642       4.10445661      -0.02567558       0.07349940       0.07040958
Ti       2.07636577       2.04015257       2.04361524       0.05934226       0.02312905       0.02659173
Ti       5.99806904       2.05474513       2.02809770      -0.05300150       0.03772162       0.01107418
Ti       1.91588809       6.02242699       1.98023771      -0.10113542      -0.02864355      -0.03678581
Ti       6.03586093       6.05376317       2.00103761      -0.01520961       0.00269263      -0.01598590
Ti       2.05646959       2.01834619       6.07225340       0.03944607       0.00132268       0.02118286
Ti       6.00452445       2.03778875       6.07332282      -0.04654609       0.02076523       0.02225228
Ti       2.02849202       6.02240595       5.97437190       0.01146851      -0.02866459      -0.07669864
Ti       6.02718265       6.09393179       6.09546995      -0.02388789       0.04286125       0.04439941
O       -0.08124050       1.98516852       1.89311347      -0.08124050      -0.03185499      -0.12391004
O        4.01833140       1.96506494       2.05365457      -0.01571562      -0.05195857       0.03663106
O        0.09955281       6.08112902       1.92986310       0.09955281       0.03005848      -0.08716042
O        4.05684067       5.99000534       1.95374090       0.02279364      -0.06106520      -0.06328262
O       -0.03026586       1.99379470       6.03086758      -0.03026586      -0.02322881      -0.02020296
O        4.02362005       2.03220118       6.04808331      -0.01042697       0.01517766      -0.00298723
O        0.01110474       6.05577627       5.99004228       0.01110474       0.00470572      -0.06102826
O        4.00803781       5.99425822       5.97318981      -0.02600922      -0.05681232      -0.07788073
O        1.99977555      -0.07212975       1.91727948      -0.01724796      -0.07212975      -0.09974404
O        6.10620948       0.12664918       2.00613339       0.05513894       0.12664918      -0.01089012
O        2.00267970       4.01499149       1.95634482      -0.01434381      -0.01905554      -0.06067870
O        5.96764607       4.06410966       1.99513207      -0.08342447       0.03006264      -0.02189144
O        1.98957378       0.04285932       5.97168918      -0.02744973       0.04285932      -0.07938136
O        6.01062112       0.02526437       5.91398673      -0.04044942       0.02526437      -0.13708381
O        2.03087311       4.06162938       6.05637988       0.01384960       0.02758235       0.00530934
O        5.94067468       4.10924884       6.08632927      -0.11039586       0.07520182       0.03525873
O        2.01214320       2.12172940       0.03319828      -0.00488032       0.10470588       0.03319828
O        5.96948810       2.09690305      -0.07907502      -0.08158244       0.07987954      -0.07907502
O        2.01899753       6.04912537       0.00306810       0.00197402      -0.00194517       0.00306810
O        6.11065678       6.15857253       0.02943491       0.05958624       0.10750199       0.02943491
O        2.06010627       2.03156942       4.07219138       0.04308275       0.01454590       0.03814435
O        5.97300217       2.04804832       3.97054097      -0.07806837       0.03102480      -0.06350606
O        2.05080911       5.99251146       4.07561108       0.03378559      -0.05855908       0.04156405
O        6.06125902       6.16286316       3.99379186       0.01018848       0.11179262      -0.04025517
40
Lattice="8.068094053620356 -4.38423541214265e-18 -5.299365615194938e-18 -1.6788496834586077e-17 8.068094053620356 1.6634455206828052e-17 -2.654045609411134e-17 -6.832089622168243e-17 8.06809405362036" Properties=species:S:1:pos:R:3:u_disp:R:3 system=batio3_cubic base_model=mace_mp0 role=train_pool T=100.0 draw=9 n_tries=13 rms_disp_A=0.08770086955239907 min_pair_ratio=0.9200375432852863 nearest_heldout_A=0.08596813765010845 site_map_ok=1 nearest_heldout_src=batio3_cubic_orb_v2_q0-0-1d2-b0.extxyz#2 pbc="T T T"
Ba      -0.01425936       0.02694311       0.01423909      -0.01425936       0.02694311       0.01423909
Ba       4.02194715      -0.00918074      -0.04969910      -0.01209988      -0.00918074      -0.04969910
Ba      -0.00481218       4.08927791       0.03360643      -0.00481218       0.05523088       0.03360643
Ba       3.97966163       4.00203811      -0.04097761      -0.05438540      -0.03200892      -0.04097761
Ba       0.00155842      -0.01001323       3.99521600       0.00155842      -0.01001323      -0.03883102
Ba       4.09962797      -0.01260039       4.04991808       0.06558095      -0.01260039       0.01587105
Ba      -0.03609672       4.02824187       4.06018571      -0.03609672      -0.00580515       0.02613868
Ba       4.02242571       3.97548677       4.08529977      -0.01162132      -0.05856026       0.05125275
Ti       1.94774449       2.00730003       2.03534400      -0.06927902      -0.00972349       0.01832049
Ti       6.02421849       2.02948718       2.05663724      -0.02685205       0.01246367       0.03961372
Ti       2.10062553       6.05926343       2.07158350       0.08360202       0.00819289       0.05455999
Ti       6.09504089       5.98524040       1.98939352       0.04397035      -0.06583014      -0.02762999
Ti       2.00285707       2.04634283       6.06817306      -0.01416645       0.02931932       0.01710252
Ti       6.12852102       2.07234608       6.03079930       0.07745048       0.05532256      -0.02027124
Ti       2.04292881       6.09362574       6.11480777       0.02590530       0.04255520       0.06373723
Ti       6.07386673       6.14162717       6.02043897       0.02279619       0.09055663      -0.03063157
O        0.05485970       1.90995620       1.94480494       0.05485970      -0.10706731      -0.07221857
O        4.05737673       2.08936136       1.97341147       0.02332970       0.07233785      -0.04361204
O        0.00160589       6.10095967       2.06592085       0.00160589       0.04988913       0.04889734
O        4.02225256       6.07239376       1.93889922      -0.01179447       0.02132322      -0.07812429
O        0.00724099       2.05984083       6.09036422       0.00724099       0.04281731       0.03929368
O        4.00940350       2.05812288       6.07275907      -0.02464352       0.04109936       0.02168853
O       -0.08809248       5.98280969       5.99333746      -0.08809248      -0.06826085      -0.05773308
O        4.06232162       6.05461628       6.10396046       0.02827459       0.00354574       0.05288992
O        2.11430846      -0.05066206       1.98130649       0.09728494      -0.05066206      -0.03571702
O        5.93688815      -0.04436631       1.96228022      -0.11418239      -0.04436631      -0.05474330
O        1.94973113       4.01288105       2.03855711      -0.06729239      -0.02116597       0.02153360
O        6.11954065       4.13466805       2.12556582       0.06847011       0.10062103       0.10854230
O        1.99391638      -0.00644928       6.00145637      -0.02310713      -0.00644928      -0.04961417
O        6.15891779       0.06296698       6.03486004       0.10784725       0.06296698      -0.01621050
O        2.07236638       3.97702004       6.03595889       0.05534287      -0.05702699      -0.01511165
O        6.05787819       3.96578823       5.97847978       0.00680765      -0.06825880      -0.07259076
O        1.98682666       2.01112668       0.02372880      -0.03019685      -0.00589684       0.02372880
O        5.97863114       2.06226351      -0.04366312      -0.07243940       0.04523999      -0.04366312
O        2.00526906       5.91670937      -0.02924402      -0.01175445      -0.13436117      -0.02924402
O        6.05569130       6.04603142      -0.03571385       0.00462076      -0.00503912      -0.03571385
O        2.14063851       2.00823822       4.01163878       0.12361500      -0.00878529      -0.02240825
O        6.03480167       2.07534319       3.96071129      -0.01626887       0.05831968      -0.07333574
O        2.00881990       6.04367855       4.05785607      -0.00820361      -0.00739199       0.02380904
O        6.07830038       6.04519217       3.95067407       0.02722984      -0.00587837      -0.08337296
40
Lattice="8.068094053620356 -4.38423541214265e-18 -5.299365615194938e-18 -1.6788496834586077e-17 8.068094053620356 1.6634455206828052e-17 -2.654045609411134e-17 -6.832089622168243e-17 8.06809405362036" Properties=species:S:1:pos:R:3:u_disp:R:3 system=batio3_cubic base_model=mace_mp0 role=train_pool T=100.0 draw=10 n_tries=13 rms_disp_A=0.09454741943904746 min_pair_ratio=0.9105067601149768 nearest_heldout_A=0.09352499515778116 site_map_ok=1 nearest_heldout_src=batio3_cubic_chgnet_q0-1d2-1d2-b0.extxyz#2 pbc="T T T"
Ba      -0.01177116      -0.02401875      -0.06522127      -0.01177116      -0.02401875      -0.06522127
Ba       4.03380092      -0.01245923       0.08453386      -0.00024611      -0.01245923       0.08453386
Ba       0.03291648       4.11841003      -0.01936347       0.03291648       0.08436300      -0.01936347
Ba       4.05078879       4.05792736      -0.05699611       0.01674176       0.02388033      -0.05699611
Ba       0.00707983       0.02904447       4.00621136       0.00707983       0.02904447      -0.02783567
Ba       4.02021503      -0.00233455       4.06980613      -0.01383200      -0.00233455       0.03575910
Ba      -0.05810085       3.94970743       4.00130850      -0.05810085      -0.08433960      -0.03273852
Ba       4.05211303       4.09360088       4.06932486       0.01806600       0.05955386       0.03527783
Ti       2.05590820       2.00994606       2.05626669       0.03888469      -0.00707745       0.03924318
Ti       6.08089882       2.05300293       2.05645989       0.02982828       0.03597942       0.03943638
Ti       1.98424056       5.97508474       2.03770939      -0.03278295      -0.07598580       0.02068588
Ti       6.02836364       5.94734372       2.03478199      -0.02270690      -0.10372682       0.01775848
Ti       2.05644183       2.02502899       6.11126033       0.03941831       0.00800548       0.06018979
Ti       6.07844406       1.97944823       5.99235869       0.02737352      -0.03757528      -0.05871185
Ti       2.01689703       6.05859374       6.04695123      -0.00012648       0.00752320      -0.00411931
Ti       6.12770466       6.03741876       6.01594607       0.07663412      -0.01365178      -0.03512447
O       -0.06401642       2.04912526       2.12474933      -0.06401642       0.03210174       0.10772582
O        4.02575000       2.01747339       2.12409444      -0.00829703       0.00044987       0.10707093
O       -0.02304081       6.03158084       1.89327358      -0.02304081      -0.01948970      -0.12374993
O        4.04415403       5.93728017       1.92993106       0.01010701      -0.11379038      -0.08709245
O       -0.02865503       2.01867945       6.11193563      -0.02865503       0.00165594       0.06086509
O        4.02633695       2.04176918       6.01341328      -0.00771007       0.02474567      -0.03765726
O       -0.10456802       6.04215313       6.06614029      -0.10456802      -0.00891741       0.01506975
O        4.03183669       5.99903949       6.01237949      -0.00221034      -0.05203105      -0.03869105
O        1.96064467      -0.01489354       2.05751040      -0.05637884      -0.01489354       0.04048688
O        5.96908216       0.03979966       2.00138952      -0.08198839       0.03979966      -0.01563399
O        2.04979583       4.01693989       2.01697339       0.03277231      -0.01710714      -0.00005012
O        6.11103962       4.11049883       2.00478345       0.05996908       0.07645180      -0.01224006
O        2.10287783      -0.03830985       6.05783302       0.08585431      -0.03830985       0.00676248
O        6.13276459      -0.01558836       6.04589881       0.08169405      -0.01558836      -0.00517173
O        2.00504004       4.10229412       6.07762631      -0.01198347       0.06824709       0.02655577
O        6.08812169       4.07911036       6.01713756       0.03705115       0.04506333      -0.03393298
O        1.99082708       2.09945462      -0.01430587      -0.02619643       0.08243111      -0.01430587
O        6.04037329       2.00121726       0.02055369      -0.01069725      -0.01580625       0.02055369
O        2.11393553       6.12455293       0.04160746       0.09691202       0.07348239       0.04160746
O        6.01433382       6.03292712       0.02414591      -0.03673672      -0.01814342       0.02414591
O        1.87425334       1.98465773       4.08101885      -0.14277017      -0.03236578       0.04697182
O        5.91687810       1.80365197       4.11676752      -0.13419244      -0.21337155       0.08272049
O        1.98721011       6.09870165       4.05885440      -0.02981340       0.04763111       0.02480738
O        6.02618404       6.04432654       3.95965027      -0.02488650      -0.00674400      -0.07439675
40
Lattice="8.068094053620356 -4.38423541214265e-18 -5.299365615194938e-18 -1.6788496834586077e-17 8.068094053620356 1.6634455206828052e-17 -2.654045609411134e-17 -6.832089622168243e-17 8.06809405362036" Properties=species:S:1:pos:R:3:u_disp:R:3 system=batio3_cubic base_model=mace_mp0 role=train_pool T=100.0 draw=11 n_tries=13 rms_disp_A=0.09707429899422464 min_pair_ratio=0.9164370799658261 nearest_heldout_A=0.0924698939391345 site_map_ok=1 nearest_heldout_src=batio3_cubic_chgnet_q1d2-0-0-b1.extxyz#2 pbc="T T T"
Ba       0.03152565       0.00899543       0.01276960       0.03152565       0.00899543       0.01276960
Ba       4.06629536       0.01346177      -0.02886917       0.03224833       0.01346177      -0.02886917
Ba       0.05148890       4.08850482      -0.02216333       0.05148890       0.05445779      -0.02216333
Ba       3.99568676       4.05346346      -0.00752292      -0.03836026       0.01941643      -0.00752292
Ba       0.03162356      -0.01990165       4.00185122       0.03162356      -0.01990165      -0.03219581
Ba       4.01332997      -0.01877204       4.09573041      -0.02071705      -0.01877204       0.06168338
Ba       0.01481995       3.99439014       4.00106235       0.01481995      -0.03965689      -0.03298467
Ba       4.05227812       4.00022523       3.97198396       0.01823110      -0.03382180      -0.06206307
Ti       1.96939631       2.02262987       2.00921229      -0.04762721       0.00560636      -0.00781122
Ti       6.01532147       2.02935930       2.02446887      -0.03574907       0.01233579       0.00744536
Ti       2.02683553       6.08963534       2.09767463       0.00981202       0.03856480       0.08065112
Ti       5.99729565       6.00220001       2.01935264      -0.05377490      -0.04887054       0.00232913
Ti       1.99904192       1.97689140       6.07645383      -0.01798159      -0.04013211       0.02538329
Ti       6.05129163       2.06919618       6.06034141       0.00022109       0.05217267       0.00927087
Ti       2.01467842       6.01325728       6.08832216      -0.00234509      -0.03781326       0.03725162
Ti       6.01622289       6.06631798       6.06992514      -0.03484765       0.01524744       0.01885460
O        0.04901248       2.19509320       2.10499219       0.04901248       0.17806968       0.08796867
O        4.06707031       2.00586673       1.94695953       0.03302329      -0.01115679      -0.07006399
O       -0.00717723       6.07176184       2.03902618      -0.00717723       0.02069130       0.02200267
O        4.08942956       6.13200066       2.05106961       0.05538253       0.08093012       0.03404610
O       -0.04257986       1.94596520       5.96824654      -0.04257986      -0.07105831      -0.08282400
O        3.97837821       2.01248571       6.11224765      -0.05566881      -0.00453781       0.06117711
O        0.03210665       6.07172529       6.07534253       0.03210665       0.02065475       0.02427199
O        4.04420897       6.06710227       6.12651369       0.01016194       0.01603173       0.07544315
O        1.97025373       0.12093169       2.03284383      -0.04676979       0.12093169       0.01582032
O        6.06067709      -0.05162536       1.97874009       0.00960655      -0.05162536      -0.03828343
O        2.18003105       4.07986428       2.01328633       0.16300754       0.04581725      -0.00373718
O        5.99901322       4.05773118       2.10816355      -0.05205732       0.02368415       0.09114003
O        1.98471094      -0.01150139       6.03892063      -0.03231257      -0.01150139      -0.01214991
O        5.91016440      -0.04801375       6.17489787      -0.14090614      -0.04801375       0.12382733
O        1.87236436       3.99254653       6.02389689      -0.14465916      -0.04150050      -0.02717365
O        5.87375690       4.00419944       5.93460654      -0.17731364      -0.02984758      -0.11646400
O        1.93735647       2.06447776       0.07011375      -0.07966704       0.04745425       0.07011375
O        6.00838319       1.96907518       0.05701266      -0.04268735      -0.04794834       0.05701266
O        2.00107215       6.07096277      -0.01485352      -0.01595137       0.01989223      -0.01485352
O        5.96586436       6.01117622       0.03206413      -0.08520618      -0.03989432       0.03206413
O        1.97579180       2.07692059       4.06810103      -0.04123171       0.05989708       0.03405401
O        6.09925276       1.96769219       4.02953340       0.04818222      -0.04933132      -0.00451363
O        2.11247776       6.06445670       4.06896466       0.09545425       0.01338616       0.03491763
O        6.02732948       5.95448384       4.07725978      -0.02374106      -0.09658670       0.04321275
40
Lattice="8.068094053620356 -4.38423541214265e-18 -5.299365615194938e-18 -1.6788496834586077e-17 8.068094053620356 1.6634455206828052e-17 -2.654045609411134e-17 -6.832089622168243e-17 8.06809405362036" Properties=species:S:1:pos:R:3:u_disp:R:3 system=batio3_cubic base_model=mace_mp0 role=train_pool T=100.0 draw=12 n_tries=13 rms_disp_A=0.08806216300302186 min_pair_ratio=0.9262366889507445 nearest_heldout_A=0.08539117939037626 site_map_ok=1 nearest_heldout_src=batio3_cubic_orb_v2_q0-1d2-1d2-b0.extxyz#2 pbc="T T T"
Ba       0.00856380       0.05599709      -0.02204696       0.00856380       0.05599709      -0.02204696
Ba       4.07880579      -0.03936771       0.00449487       0.04475876      -0.03936771       0.00449487
Ba      -0.01657199       4.06792152      -0.02927105      -0.01657199       0.03387449      -0.02927105
Ba       4.04430883       3.99384375       0.02267390       0.01026181      -0.04020327       0.02267390
Ba      -0.06365701      -0.03109744       4.10479782      -0.06365701      -0.03109744       0.07075079
Ba       4.04998242       0.01515432       4.08220920       0.01593539       0.01515432       0.04816217
Ba      -0.04837910       4.05030587       3.99053556      -0.04837910       0.01625884      -0.04351147
Ba       4.00460277       4.07055531       4.04848019      -0.02944425       0.03650828       0.01443316
Ti       2.06170399       1.96076999       2.00725664       0.04468047      -0.05625352      -0.00976687
Ti       6.03444175       2.03625981       2.03123628      -0.01662879       0.01923630       0.01421276
Ti       2.07547549       6.08174676       2.03996791       0.05845198       0.03067622       0.02294440
Ti       6.05748665       6.02516176       2.07186212       0.00641611      -0.02590878       0.05483861
Ti       2.02242908       2.02745086       6.08616249       0.00540557       0.01042735       0.03509195
Ti       6.15790087       1.98468511       6.00647322       0.10683033      -0.03233840      -0.04459732
Ti       1.96220501       5.97148810       6.04458984      -0.05481850      -0.07958244      -0.00648070
Ti       6.02882338       6.04232874       6.04231733      -0.02224716      -0.00874180      -0.00875321
O        0.00107296       2.03271123       2.02063116       0.00107296       0.01568772       0.00360764
O        4.01475247       2.02930892       2.04279981      -0.01929456       0.01228540       0.02577629
O       -0.06863884       6.09367038       1.94114087      -0.06863884       0.04259984      -0.07588264
O        4.03361152       6.09491605       1.91481766      -0.00043550       0.04384551      -0.10220586
O       -0.00118839       2.10240675       6.04189806      -0.00118839       0.08538324      -0.00917248
O        4.08251326       2.01292715       6.05151899       0.04846623      -0.00409636       0.00044845
O        0.09740596       6.04973563       5.96257194       0.09740596      -0.00133491      -0.08849860
O        4.07431973       5.92354827       5.93639115       0.04027271      -0.12752227      -0.11467939
O        2.02386237       0.05399623       1.88247251       0.00683885       0.05399623      -0.13455100
O        6.06142967      -0.02431262       2.04726844       0.01035913      -0.02431262       0.03024493
O        2.05572359       3.98840038       1.90825511       0.03870007      -0.04564665      -0.10876841
O        6.02163410       3.94757329       1.96371420      -0.02943644      -0.08647373      -0.05330931
O        2.19092272      -0.03014180       5.98680452       0.17389920      -0.03014180      -0.06426602
O        6.10317795      -0.05751236       6.06066950       0.05210741      -0.05751236       0.00959896
O        2.01559977       4.05803904       5.96070757      -0.00142374       0.02399201      -0.09036297
O        6.14280542       4.05642327       6.10279304       0.09173488       0.02237624       0.05172250
O        1.96810406       1.99552288       0.01205366      -0.04891946      -0.02150063       0.01205366
O        6.12346824       2.07907068       0.01589568       0.07239770       0.06204717       0.01589568
O        1.97311750       6.00831094      -0.03493075      -0.04390601      -0.04275960      -0.03493075
O        6.06713248       6.10438821      -0.03517609       0.01606194       0.05331767      -0.03517609
O        1.99264615       1.99963691       4.05564061      -0.02437737      -0.01738660       0.02159358
O        5.99620539       2.09224096       4.02496450      -0.05486515       0.07521745      -0.00908252
O        2.03644287       6.07773964       4.01560340       0.01941935       0.02666910      -0.01844362
O        5.96566558       6.01414475       4.06664273      -0.08540496      -0.03692579       0.03259570
40
Lattice="8.068094053620356 -4.38423541214265e-18 -5.299365615194938e-18 -1.6788496834586077e-17 8.068094053620356 1.6634455206828052e-17 -2.654045609411134e-17 -6.832089622168243e-17 8.06809405362036" Properties=species:S:1:pos:R:3:u_disp:R:3 system=batio3_cubic base_model=mace_mp0 role=train_pool T=300.0 draw=0 n_tries=13 rms_disp_A=0.10228929490436695 min_pair_ratio=0.9018240674517657 nearest_heldout_A=0.09861717785622828 site_map_ok=1 nearest_heldout_src=batio3_cubic_orb_v2_q1d2-0-0-b0.extxyz#3 pbc="T T T"
Ba      -0.06813592       0.00545433       0.07694230      -0.06813592       0.00545433       0.07694230
Ba       4.08465385       0.02351273      -0.00577142       0.05060682       0.02351273      -0.00577142
Ba       0.06843398       4.05378991       0.02040920       0.06843398       0.01974288       0.02040920
Ba       4.07733271       4.04510756      -0.05343756       0.04328568       0.01106053      -0.05343756
Ba       0.00067728      -0.01702147       3.95963958       0.00067728      -0.01702147      -0.07440745
Ba       3.91442282       0.09384414       4.02899680      -0.11962421       0.09384414      -0.00505023
Ba       0.03490333       4.02361992       4.02240076       0.03490333      -0.01042711      -0.01164626
Ba       4.05685548       4.03217369       4.10280037       0.02280845      -0.00187333       0.06875334
Ti       2.04149690       1.95787449       2.14276008       0.02447339      -0.05914902       0.12573657
Ti       6.08670214       2.03897533       1.96140648       0.03563160       0.02195182      -0.05561704
Ti       2.05506436       6.03574698       2.02353526       0.03804085      -0.01532356       0.00651175
Ti       5.98846565       6.03863956       1.99188287      -0.06260489      -0.01243098      -0.02514064
Ti       1.98149140       1.93099771       6.15157711      -0.03553211      -0.08602581       0.10050657
Ti       6.11883574       1.93256355       5.97287338       0.06776520      -0.08445997      -0.07819716
Ti       1.98577714       6.06970337       6.11628464      -0.03124638       0.01863283       0.06521410
Ti       6.06442912       6.03809732       6.07505626       0.01335858      -0.01297322       0.02398572
O        0.05155262       1.99532176       2.01644765       0.05155262      -0.02170175      -0.00057586
O        4.06275248       2.10206993       2.13213087       0.02870546       0.08504642       0.11510736
O        0.04184539       6.00276694       1.92099445       0.04184539      -0.04830360      -0.09602907
O        4.00576471       6.02424788       1.90980028      -0.02828231      -0.02682266      -0.10722324
O       -0.08709487       1.97199377       6.01188789      -0.08709487      -0.04502974      -0.03918265
O        3.92681673       2.02966378       5.94899184      -0.10723030       0.01264026      -0.10207870
O        0.00900151       6.10665917       6.03160226       0.00900151       0.05558863      -0.01946828
O        3.97738234       6.04098833       6.09318426      -0.05666469      -0.01008221       0.04211372
O        2.02909515       0.00270859       1.96666103       0.01207164       0.00270859      -0.05036249
O        6.07906018      -0.04593028       1.96923723       0.02798964      -0.04593028      -0.04778628
O        2.04259607       4.11578643       2.05111587       0.02557256       0.08173941       0.03409235
O        6.07375855       4.06705559       1.97966935       0.02268801       0.03300857      -0.03735416
O        1.97525234      -0.05966130       6.01860813      -0.04177118      -0.05966130      -0.03246241
O        5.90769877       0.04893395       6.06645932      -0.14337177       0.04893395       0.01538878
O        2.01771612       3.92561580       6.00898125       0.00069260      -0.10843123      -0.04208929
O        6.00995017       4.04002261       6.07113110      -0.04112037       0.00597558       0.02006056
O        1.98442356       2.03055870       0.01099744      -0.03259995       0.01353519       0.01099744
O        5.98651352       1.84775056      -0.06582432      -0.06455702      -0.16927296      -0.06582432
O        2.04139531       5.97716945      -0.12553714       0.02437180      -0.07390109      -0.12553714
O        6.10576024       6.12883246      -0.04334502       0.05468970       0.07776192      -0.04334502
O        1.86799085       2.02762709       3.95212254      -0.14903266       0.01060358      -0.08192449
O        6.09627034       1.94596858       4.11410031       0.04519980      -0.07105493       0.08005328
O        2.03271856       6.02050709       4.01902670       0.01569505      -0.03056345      -0.01502033
O        6.01060526       5.95489670       3.99928820      -0.04046528      -0.09617384      -0.03475883
40
Lattice="8.068094053620356 -4.38423541214265e-18 -5.299365615194938e-18 -1.6788496834586077e-17 8.068094053620356 1.6634455206828052e-17 -2.654045609411134e-17 -6.832089622168243e-17 8.06809405362036" Properties=species:S:1:pos:R:3:u_disp:R:3 system=batio3_cubic base_model=mace_mp0 role=train_pool T=300.0 draw=1 n_tries=13 rms_disp_A=0.13648055009280832 min_pair_ratio=0.902195323672054 nearest_heldout_A=0.1339340140845624 site_map_ok=1 nearest_heldout_src=batio3_cubic_orb_v2_q0-1d2-0-b0.extxyz#3 pbc="T T T"
Ba       0.09684996      -0.06592667       0.12036843       0.09684996      -0.06592667       0.12036843
Ba       3.94996623       0.12867347      -0.02977191      -0.08408079       0.12867347      -0.02977191
Ba       0.04460246       4.04379986      -0.00949570       0.04460246       0.00975283      -0.00949570
Ba       4.12196885       4.11311008      -0.11981836       0.08792183       0.07906305      -0.11981836
Ba      -0.12818511      -0.07497732       3.98524617      -0.12818511      -0.07497732      -0.04880086
Ba       3.92916946      -0.02591145       4.15370615      -0.10487757      -0.02591145       0.11965912
Ba       0.03236225       4.09000228       3.96870802       0.03236225       0.05595525      -0.06533901
Ba       4.11575158       3.99258319       4.03505238       0.08170456      -0.04146384       0.00100535
Ti       1.91797938       2.04492991       2.02152036      -0.09904413       0.02790640       0.00449685
Ti       6.04200088       2.02756529       1.94356414      -0.00906966       0.01054177      -0.07345938
Ti       2.05221046       5.97619302       2.11660693       0.03518695      -0.07487752       0.09958341
Ti       5.93292498       6.11219078       2.08699035      -0.11814556       0.06112024       0.06996684
Ti       1.93892104       1.99561605       5.97570086      -0.07810247      -0.02140746      -0.07536968
Ti       6.12650960       2.00659235       6.01307126       0.07543906      -0.01043117      -0.03799928
Ti       2.00561833       6.02684430       6.12291326      -0.01140519      -0.02422624       0.07184272
Ti       6.11054718       5.99520719       6.07844979       0.05947664      -0.05586335       0.02737925
O        0.08636365       1.99708105       1.99139071       0.08636365      -0.01994247      -0.02563280
O        4.08114277       2.15881496       1.86123543       0.04709574       0.14179145      -0.15578808
O        0.11156208       5.98590815       2.07047118       0.11156208      -0.06516239       0.05344766
O        4.11384427       6.06440483       2.07478559       0.07979724       0.01333429       0.05776208
O        0.08287741       1.97434681       5.82810281       0.08287741      -0.04267671      -0.22296773
O        4.10444951       2.04716289       6.10018928       0.07040248       0.03013937       0.04911874
O       -0.05521103       5.83303821       5.98803800      -0.05521103      -0.21803233      -0.06303254
O        3.99843707       5.94041665       6.05140009      -0.03560995      -0.11065389       0.00032955
O        1.97596213       0.05498363       2.17412812      -0.04106138       0.05498363       0.15710461
O        6.08151828      -0.00028356       1.96295959       0.03044774      -0.00028356      -0.05406392
O        2.08206480       4.09722314       1.99724208       0.06504129       0.06317611      -0.01978144
O        6.04879966       4.09524208       2.05134519      -0.00227088       0.06119505       0.03432167
O        1.91168744      -0.04479097       6.01966976      -0.10533607      -0.04479097      -0.03140078
O        6.08323901      -0.05663632       6.11868221       0.03216847      -0.05663632       0.06761167
O        1.93864360       4.03265368       6.18642529      -0.07837991      -0.00139335       0.13535475
O        6.08731262       4.05757320       5.94166731       0.03624208       0.02352618      -0.10940323
O        1.94552980       1.88261656       0.09915982      -0.07149371      -0.13440695       0.09915982
O        6.11577644       1.99876045       0.06997195       0.06470590      -0.01826307       0.06997195
O        2.04602697       6.04528895       0.06459219       0.02900345      -0.00578159       0.06459219
O        5.99843046       5.87776443      -0.04070004      -0.05264008      -0.17330611      -0.04070004
O        1.94973419       2.21787516       4.00820571      -0.06728932       0.20085165      -0.02584132
O        6.03769346       1.92061535       4.10374506      -0.01337708      -0.09640817       0.06969804
O        2.01344166       6.01996491       4.07355619      -0.00358186      -0.03110563       0.03950916
O        6.05169394       6.18258207       3.90238404       0.00062340       0.13151153      -0.13166299
40
Lattice="8.068094053620356 -4.38423541214265e-18 -5.299365615194938e-18 -1.6788496834586077e-17 8.068094053620356 1.6634455206828052e-17 -2.654045609411134e-17 -6.832089622168243e-17 8.06809405362036" Properties=species:S:1:pos:R:3:u_disp:R:3 system=batio3_cubic base_model=mace_mp0 role=train_pool T=300.0 draw=2 n_tries=13 rms_disp_A=0.1417294888717415 min_pair_ratio=0.8776859840275045 nearest_heldout_A=0.1303922053502381 site_map_ok=1 nearest_heldout_src=batio3_cubic_chgnet_q1d2-0-0-b1.extxyz#3 pbc="T T T"
Ba      -0.07996840       0.11035675       0.01971604      -0.07996840       0.11035675       0.01971604
Ba       4.06507553       0.02999435       0.07452304       0.03102851       0.02999435       0.07452304
Ba      -0.05599553       4.15306221      -0.09909449      -0.05599553       0.11901518      -0.09909449
Ba       4.01599810       3.97739891      -0.02875902      -0.01804893      -0.05664811      -0.02875902
Ba      -0.07434446       0.03316751       3.95141180      -0.07434446       0.03316751      -0.08263523
Ba       4.12732344      -0.03320764       3.98025553       0.09327641      -0.03320764      -0.05379150
Ba      -0.06837796       3.99904285       4.08220931      -0.06837796      -0.03500418       0.04816228
Ba       3.86587311       3.93122052       4.10068419      -0.16817391      -0.10282651       0.06663716
Ti       2.00930183       1.96225864       2.00057392      -0.00772169      -0.05476487      -0.01644959
Ti       6.10648527       2.15416513       2.07907147       0.05541473       0.13714162       0.06204796
Ti       2.05146231       6.01587461       2.04500987       0.03443880      -0.03519593       0.02798635
Ti       6.15203736       6.04430235       2.04316463       0.10096682      -0.00676819       0.02614112
Ti       2.11494579       1.98332805       5.98804637       0.09792228      -0.03369546      -0.06302417
Ti       6.13217059       1.96048521       6.04792276       0.08110005      -0.05653830      -0.00314778
Ti       2.03028897       6.01986599       5.99861533       0.01326546      -0.03120455      -0.05245521
Ti       6.03831136       5.97550529       6.07672837      -0.01275918      -0.07556525       0.02565783
O        0.16276567       1.95714382       1.93014848       0.16276567      -0.05987969      -0.08687504
O        4.20895013       2.06364197       2.05032517       0.17490310       0.04661846       0.03330166
O        0.12525918       6.04323218       2.01307395       0.12525918      -0.00783836      -0.00394956
O        4.24365329       6.06272517       2.08278366       0.20960626       0.01165463       0.06576015
O        0.13590031       1.96902850       6.09676059       0.13590031      -0.04799502       0.04569005
O        4.02774663       1.92776466       6.04303936      -0.00630040      -0.08925885      -0.00803118
O        0.06281531       6.09841253       6.10879901       0.06281531       0.04734199       0.05772847
O        4.01693669       6.02795490       6.14962497      -0.01711034      -0.02311564       0.09855443
O        2.12830563       0.19746401       2.07369747       0.11128212       0.19746401       0.05667396
O        5.93837184       0.06080862       2.12360491      -0.11269870       0.06080862       0.10658140
O        2.07531502       4.15035101       1.96829990       0.05829150       0.11630398      -0.04872361
O        6.09621260       4.05810134       1.96189890       0.04514206       0.02405432      -0.05512462
O        1.96885717      -0.03654080       6.13016445      -0.04816634      -0.03654080       0.07909390
O        6.18146010      -0.06238190       6.00209543       0.13038956      -0.06238190      -0.04897511
O        2.09947781       3.91736497       6.03659631       0.08245429      -0.11668206      -0.01447423
O        6.07693921       3.92890939       6.20965897       0.02586867      -0.10513764       0.15858843
O        2.15095286       2.10022182      -0.03722156       0.13392934       0.08319830      -0.03722156
O        6.11100150       1.90659015      -0.05614264       0.05993096      -0.11043336      -0.05614264
O        2.02254502       6.04899342       0.00882563       0.00552150      -0.00207712       0.00882563
O        6.18146896       6.17578867       0.05434469       0.13039842       0.12471813       0.05434469
O        2.08465502       2.07434712       4.05180279       0.06763151       0.05732360       0.01775576
O        6.12172792       2.13672105       3.97383141       0.07065738       0.11969754      -0.06021562
O        2.10926634       5.96358247       4.04951914       0.09224283      -0.08748807       0.01547211
O        6.18894303       5.82260255       4.10934940       0.13787249      -0.22846799       0.07530237
40
Lattice="8.068094053620356 -4.38423541214265e-18 -5.299365615194938e-18 -1.6788496834586077e-17 8.068094053620356 1.6634455206828052e-17 -2.654045609411134e-17 -6.832089622168243e-17 8.06809405362036" Properties=species:S:1:pos:R:3:u_disp:R:3 system=batio3_cubic base_model=mace_mp0 role=train_pool T=300.0 draw=3 n_tries=13 rms_disp_A=0.13856583145073206 min_pair_ratio=0.8996436005023898 nearest_heldout_A=0.13428436355279208 site_map_ok=1 nearest_heldout_src=batio3_cubic_orb_v2_q1d2-0-0-b1.extxyz#2 pbc="T T T"
Ba       0.01510786      -0.10220415       0.09127415       0.01510786      -0.10220415       0.09127415
Ba       3.91084690      -0.05468339       0.02376629      -0.12320012      -0.05468339       0.02376629
Ba       0.10645425       4.07717718      -0.01422998       0.10645425       0.04313015      -0.01422998
Ba       4.03501988       4.06877042       0.09915499       0.00097286       0.03472339       0.09915499
Ba      -0.05592194       0.10873512       3.97330199      -0.05592194       0.10873512      -0.06074504
Ba       4.23301408      -0.05508165       3.97034607       0.19896706      -0.05508165      -0.06370096
Ba       0.02566033       3.94028259       4.00366814       0.02566033      -0.09376444      -0.03037889
Ba       4.00994136       4.05771644       4.07329748      -0.02410567       0.02366942       0.03925045
Ti       2.01119860       2.07775605       2.01076250      -0.00582491       0.06073254      -0.00626101
Ti       5.99051502       2.00503457       1.95775567      -0.06055552      -0.01198894      -0.05926784
Ti       1.98856009       6.16082398       2.00825905      -0.02846342       0.10975344      -0.00876446
Ti       6.00018337       5.99412542       2.04482942      -0.05088717      -0.05694512       0.02780590
Ti       2.02564702       1.92705427       6.03778840       0.00862351      -0.08996924      -0.01328214
Ti       6.03228124       1.95230505       6.12004005      -0.01878930      -0.06471846       0.06896951
Ti       1.95951917       6.07688725       6.00739480      -0.05750435       0.02581671      -0.04367574
Ti       6.07247332       6.05832771       6.09328837       0.02140278       0.00725717       0.04221783
O       -0.13035402       1.90211440       2.01494274      -0.13035402      -0.11490911      -0.00208077
O        3.96121840       2.09118765       2.09771613      -0.07282862       0.07416414       0.08069261
O       -0.10941491       6.15475735       1.97446356      -0.10941491       0.10368681      -0.04255995
O        4.02969429       6.03913866       1.92264046      -0.00435274      -0.01193188      -0.09438305
O        0.03272547       2.22793203       6.06098759       0.03272547       0.21090852       0.00991705
O        4.05388754       2.00915357       6.10025040       0.01984051      -0.00786994       0.04917986
O        0.01692065       6.08487248       6.16073213       0.01692065       0.03380194       0.10966159
O        4.15621565       6.22134963       5.85245563       0.12216862       0.17027909      -0.19861491
O        1.96672594      -0.03393914       2.02351151      -0.05029757      -0.03393914       0.00648800
O        5.97557459       0.00225553       1.94878817      -0.07549595       0.00225553      -0.06823534
O        1.95209602       4.02559433       1.86338164      -0.06492750      -0.00845269      -0.15364188
O        6.10704499       4.05411881       1.95160654       0.05597445       0.02007178      -0.06541697
O        2.11018184       0.05824126       6.03602906       0.09315833       0.05824126      -0.01504148
O        6.21696781       0.10170870       6.06552702       0.16589727       0.10170870       0.01445648
O        2.04491932       4.14494789       5.94844260       0.02789580       0.11090087      -0.10262794
O        6.00024963       4.08996272       6.03255600      -0.05082091       0.05591570      -0.01851454
O        1.99516830       1.97443192      -0.05183156      -0.02185522      -0.04259160      -0.05183156
O        6.04921641       1.90922437       0.09562513      -0.00185413      -0.10779914       0.09562513
O        1.97260298       6.16874052      -0.07352969      -0.04442053       0.11766998      -0.07352969
O        5.82243775       6.02812418      -0.02412423      -0.22863279      -0.02294636      -0.02412423
O        2.07313307       2.04970113       4.00112027       0.05610955       0.03267761      -0.03292675
O        6.04254720       2.07824789       4.02766188      -0.00852334       0.06122438      -0.00638515
O        1.74079888       6.08218498       3.95648540      -0.27622464       0.03111444      -0.07756163
O        5.93937537       6.09640229       3.94798951      -0.11169517       0.04533175      -0.08605752
40
Lattice="8.068094053620356 -4.38423541214265e-18 -5.299365615194938e-18 -1.6788496834586077e-17 8.068094053620356 1.6634455206828052e-17 -2.654045609411134e-17 -6.832089622168243e-17 8.06809405362036" Properties=species:S:1:pos:R:3:u_disp:R:3 system=batio3_cubic base_model=mace_mp0 role=train_pool T=300.0 draw=4 n_tries=13 rms_disp_A=0.1336185885874584 min_pair_ratio=0.8795023751017591 nearest_heldout_A=0.12685882438097243 site_map_ok=1 nearest_heldout_src=batio3_cubic_chgnet_q1d2-0-0-b1.extxyz#3 pbc="T T T"
Ba      -0.01117231      -0.04749291       0.00565432      -0.01117231      -0.04749291       0.00565432
Ba       4.08906052      -0.06054645      -0.05562778       0.05501350      -0.06054645      -0.05562778
Ba       0.01640009       3.98919694      -0.02990836       0.01640009      -0.04485009      -0.02990836
Ba       3.89725393       4.05301330       0.01903490      -0.13679309       0.01896627       0.01903490
Ba      -0.00193076       0.12500847       4.13568846      -0.00193076       0.12500847       0.10164143
Ba       4.04637709       0.02531384       4.14234107       0.01233006       0.02531384       0.10829405
Ba      -0.00005514       4.08042922       3.91477121      -0.00005514       0.04638219      -0.11927582
Ba       4.01513309       3.97003812       4.03100335      -0.01891394      -0.06400891      -0.00304367
Ti       2.04804104       1.85980141       2.04560524       0.03101752      -0.15722210       0.02858173
Ti       6.12904833       2.03756859       2.03670008       0.07797779       0.02054508       0.01967656
Ti       1.97634253       6.11958366       2.09147411      -0.04068098       0.06851312       0.07445059
Ti       6.08591833       6.05264329       1.92546831       0.03484779       0.00157275      -0.09155521
Ti       2.03203565       2.05546015       6.04381521       0.01501213       0.03843663      -0.00725533
Ti       6.06603392       2.12555563       6.00057465       0.01496338       0.10853211      -0.05049589
Ti       2.06667960       6.04802613       6.13155806       0.04965609      -0.00304441       0.08048752
Ti       6.15075176       6.10752459       6.06060320       0.09968122       0.05645405       0.00953266
O        0.04839030       2.20608010       1.97829552       0.04839030       0.18905659      -0.03872799
O        4.14218344       2.03771942       2.04193781       0.10813642       0.02069591       0.02491430
O       -0.03146483       6.19923253       2.02191584      -0.03146483       0.14816199       0.00489232
O        4.00531192       6.16938601       2.04814174      -0.02873511       0.11831547       0.03111823
O        0.04623801       1.88404602       5.94381910       0.04623801      -0.13297750      -0.10725144
O        4.02020090       2.04875277       6.01941518      -0.01384613       0.03172926      -0.03165536
O       -0.05059139       5.95331870       6.07601188      -0.05059139      -0.09775184       0.02494134
O        3.99739099       6.02941349       6.13686287      -0.03665604      -0.02165705       0.08579233
O        2.20050428       0.00256870       2.05610652       0.18348077       0.00256870       0.03908300
O        6.13566491       0.00607080       2.00574452       0.08459437       0.00607080      -0.01127899
O        1.98955007       4.11439887       1.93053673      -0.02747344       0.08035184      -0.08648679
O        6.07641415       4.08172429       2.08546116       0.02534361       0.04767727       0.06843765
O        1.96779928      -0.10778850       5.96515734      -0.04922423      -0.10778850      -0.08591320
O        6.13240771      -0.08407898       6.13493522       0.08133717      -0.08407898       0.08386468
O        1.97634701       3.86762449       5.94981751      -0.04067650      -0.16642254      -0.10125303
O        6.05255034       3.90118540       6.04464890       0.00147980      -0.13286163      -0.00642164
O        1.89150631       1.98184391      -0.14291846      -0.12551720      -0.03517960      -0.14291846
O        6.12450337       2.03479383      -0.13039924       0.07343283       0.01777032      -0.13039924
O        1.92362760       6.06572907      -0.01662651      -0.09339591       0.01465853      -0.01662651
O        5.92877082       5.93335989       0.09729655      -0.12229972      -0.11771065       0.09729655
O        1.97562131       1.90850256       3.81743420      -0.04140220      -0.10852096      -0.21661282
O        6.08787663       2.05957969       3.96256353       0.03680609       0.04255618      -0.07148350
O        1.93375596       5.99676246       4.04791170      -0.08326755      -0.05430808       0.01386467
O        5.99189370       6.00098712       4.18735740      -0.05917684      -0.05008342       0.15331037
40
Lattice="8.068094053620356 -4.38423541214265e-18 -5.299365615194938e-18 -1.6788496834586077e-17 8.068094053620356 1.6634455206828052e-17 -2.654045609411134e-17 -6.832089622168243e-17 8.06809405362036" Properties=species:S:1:pos:R:3:u_disp:R:3 system=batio3_cubic base_model=mace_mp0 role=train_pool T=300.0 draw=5 n_tries=13 rms_disp_A=0.12373147511267217 min_pair_ratio=0.8515347669533498 nearest_heldout_A=0.12044169129815041 site_map_ok=1 nearest_heldout_src=batio3_cubic_chgnet_q0-0-0-b0.extxyz#3 pbc="T T T"
Ba       0.03239617       0.02649531      -0.10439710       0.03239617       0.02649531      -0.10439710
Ba       3.89310221       0.02998859       0.10355380      -0.14094481       0.02998859       0.10355380
Ba       0.01748944       3.98324067      -0.00418991       0.01748944      -0.05080635      -0.00418991
Ba       4.05194135       3.97653082      -0.00321153       0.01789432      -0.05751621      -0.00321153
Ba       0.00782509       0.04872272       4.00610366       0.00782509       0.04872272      -0.02794336
Ba       3.99468719      -0.05419258       3.96758716      -0.03935984      -0.05419258      -0.06645987
Ba       0.06166506       4.10128544       4.10980645       0.06166506       0.06723841       0.07575942
Ba       4.12899888       4.11892441       3.99562803       0.09495185       0.08487738      -0.03841900
Ti       1.98837222       2.06915516       2.01653764      -0.02865129       0.05213165      -0.00048587
Ti       6.03008930       1.97329536       2.02951951      -0.02098124      -0.04372816       0.01249600
Ti       2.03293050       6.04884161       2.01257421       0.01590699      -0.00222893      -0.00444930
Ti       6.10817309       6.05175726       1.97588988       0.05710255       0.00068672      -0.04113363
Ti       2.01410254       2.01288203       6.07091680      -0.00292097      -0.00414149       0.01984626
Ti       5.99554752       1.95222909       5.96011122      -0.05552302      -0.06479442      -0.09095932
Ti       1.96032153       6.02720318       6.03995463      -0.05670199      -0.02386736      -0.01111591
Ti       5.98056893       6.02486616       6.07671421      -0.07050161      -0.02620438       0.02564367
O        0.04878831       2.16487434       2.09446958       0.04878831       0.14785083       0.07744606
O        4.13082765       1.97992710       2.13101470       0.09678063      -0.03709641       0.11399118
O        0.00887038       5.95468367       2.16942149       0.00887038      -0.09638687       0.15239798
O        3.96232890       6.14424938       2.05624794      -0.07171813       0.09317884       0.03922443
O       -0.11280009       2.02961381       6.02928408      -0.11280009       0.01259029      -0.02178646
O        3.84939990       2.04284745       6.05005462      -0.18464713       0.02582394      -0.00101592
O        0.13537760       5.96741170       6.03709873       0.13537760      -0.08365884      -0.01397181
O        4.11953779       5.91814735       6.08478671       0.08549076      -0.13292319       0.03371617
O        2.07847869      -0.06995484       2.07139115       0.06145518      -0.06995484       0.05436764
O        5.99997254       0.07126961       1.95345435      -0.05109800       0.07126961      -0.06356916
O        1.99286685       3.89856351       2.00107601      -0.02415666      -0.13548351      -0.01594751
O        6.17157929       3.99247575       2.11753177       0.12050875      -0.04157128       0.10050826
O        1.99982095      -0.01748359       6.12600925      -0.01720256      -0.01748359       0.07493871
O        6.04799824       0.08964246       6.17243769      -0.00307230       0.08964246       0.12136715
O        2.03461859       4.06312450       6.02584292       0.01759507       0.02907747      -0.02522762
O        5.98054093       4.14368387       5.93377648      -0.07052961       0.10963684      -0.11729406
O        2.05545032       1.98243242       0.00329450       0.03842681      -0.03459109       0.00329450
O        5.95324809       2.01549274       0.01747753      -0.09782245      -0.00153078       0.01747753
O        2.04010466       5.95658263      -0.00460453       0.02308114      -0.09448791      -0.00460453
O        6.23431283       5.97700653       0.05985600       0.18324229      -0.07406401       0.05985600
O        1.89914366       1.95632547       4.06477547      -0.11787986      -0.06069804       0.03072844
O        5.99859021       1.97461913       4.24269422      -0.05248033      -0.04240438       0.20864719
O        2.08974896       5.98322747       4.04376198       0.07272545      -0.06784307       0.00971495
O        6.00199683       5.98394218       4.03007450      -0.04907371      -0.06712836      -0.00397253
40
Lattice="8.068094053620356 -4.38423541214265e-18 -5.299365615194938e-18 -1.6788496834586077e-17 8.068094053620356 1.6634455206828052e-17 -2.654045609411134e-17 -6.832089622168243e-17 8.06809405362036" Properties=species:S:1:pos:R:3:u_disp:R:3 system=batio3_cubic base_model=mace_mp0 role=train_pool T=300.0 draw=6 n_tries=13 rms_disp_A=0.12272729084668378 min_pair_ratio=0.8837194682188829 nearest_heldout_A=0.11992251427799724 site_map_ok=1 nearest_heldout_src=batio3_cubic_orb_v2_q0-1d2-1d2-b0.extxyz#3 pbc="T T T"
Ba       0.08793088      -0.13462770       0.01871126       0.08793088      -0.13462770       0.01871126
Ba       4.01665568       0.15704945      -0.03131362      -0.01739135       0.15704945      -0.03131362
Ba      -0.03858804       4.02401877       0.00398035      -0.03858804      -0.01002825       0.00398035
Ba       4.06025691       4.05483899      -0.05882873       0.02620989       0.02079196      -0.05882873
Ba      -0.03510786      -0.08268540       4.13194566      -0.03510786      -0.08268540       0.09789863
Ba       4.02834580       0.01348981       3.98072782      -0.00570122       0.01348981      -0.05331921
Ba       0.08278812       4.01857210       3.98404552       0.08278812      -0.01547493      -0.05000151
Ba       3.98112858       4.10012978       4.09381284      -0.05291845       0.06608276       0.05976581
Ti       1.94584453       1.94714934       2.06191330      -0.07117898      -0.06987417       0.04488979
Ti       5.99357567       2.15113642       2.00738239      -0.05749487       0.13411291      -0.00964112
Ti       2.11361629       5.99139901       1.99092124       0.09659278      -0.05967153      -0.02610227
Ti       6.01796394       5.96277801       2.02818530      -0.03310660      -0.08829253       0.01116178
Ti       2.06782697       1.95117990       6.03707006       0.05080346      -0.06584361      -0.01400048
Ti       6.13884934       2.06715358       5.98486164       0.08777880       0.05013006      -0.06620890
Ti       1.99382852       6.00369462       6.00191611      -0.02319499      -0.04737592      -0.04915443
Ti       5.97809758       6.09720750       6.11659641      -0.07297296       0.04613696       0.06552587
O        0.01475851       2.01034596       2.05668986       0.01475851      -0.00667755       0.03966634
O        4.12938918       2.02005755       1.98782212       0.09534215       0.00303403      -0.02920139
O       -0.04404766       6.05629122       1.98378051      -0.04404766       0.00522068      -0.03324301
O        3.90991418       5.94176549       1.91133479      -0.12413284      -0.10930505      -0.10568873
O       -0.01267753       2.10468294       5.99497405      -0.01267753       0.08765943      -0.05609649
O        4.02426379       2.00499932       5.99446141      -0.00978324      -0.01202420      -0.05660913
O        0.07351018       5.98460611       6.00854051       0.07351018      -0.06646443      -0.04253003
O        4.03174808       6.15580510       6.06448002      -0.00229894       0.10473456       0.01340948
O        2.00675651      -0.06535407       2.01404299      -0.01026700      -0.06535407      -0.00298052
O        5.99197721       0.04070474       2.14568853      -0.05909333       0.04070474       0.12866502
O        1.82722187       4.00576814       2.16435382      -0.18980164      -0.02827889       0.14733031
O        5.98821978       4.06542782       2.08890441      -0.06285076       0.03138079       0.07188090
O        1.94647283       0.06482840       6.13714417      -0.07055068       0.06482840       0.08607363
O        6.06731064      -0.02959703       5.99008102       0.01624010      -0.02959703      -0.06098952
O        2.22872066       4.15304641       6.13905381       0.21169714       0.11899938       0.08798327
O        5.92592189       4.05153847       6.14117501      -0.12514865       0.01749144       0.09010447
O        2.10679723       2.06835292      -0.04358369       0.08977371       0.05132941      -0.04358369
O        6.01215706       2.08580787       0.01948679      -0.03891348       0.06878436       0.01948679
O        1.88707448       5.91536068       0.01786658      -0.12994904      -0.13570986       0.01786658
O        6.06786914       6.07889109      -0.02181591       0.01679860       0.02782055      -0.02181591
O        2.14581697       2.04496664       4.08452180       0.12879346       0.02794313       0.05047477
O        6.00180721       2.08300096       4.07622496      -0.04926333       0.06597745       0.04217793
O        1.97001038       5.92514762       3.95758607      -0.04701314      -0.12592292      -0.07646096
O        6.04276294       6.09040822       4.01086018      -0.00830760       0.03933768      -0.02318685
40
Lattice="8.068094053620356 -4.38423541214265e-18 -5.299365615194938e-18 -1.6788496834586077e-17 8.068094053620356 1.6634455206828052e-17 -2.654045609411134e-17 -6.832089622168243e-17 8.06809405362036" Properties=species:S:1:pos:R:3:u_disp:R:3 system=batio3_cubic base_model=mace_mp0 role=train_pool T=300.0 draw=7 n_tries=13 rms_disp_A=0.12183762566702788 min_pair_ratio=0.8928585466942859 nearest_heldout_A=0.11286416475823301 site_map_ok=1 nearest_heldout_src=batio3_cubic_mattersim_q1d2-0-1d2-b0.extxyz#3 pbc="T T T"
Ba      -0.04852458      -0.03843164       0.01031912      -0.04852458      -0.03843164       0.01031912
Ba       4.12951016      -0.07318040      -0.01561385       0.09546313      -0.07318040      -0.01561385
Ba      -0.00173188       3.98585730      -0.02894345      -0.00173188      -0.04818973      -0.02894345
Ba       4.01183331       4.02623239       0.00511789      -0.02221372      -0.00781464       0.00511789
Ba       0.00812747       0.03016646       4.05078380       0.00812747       0.03016646       0.01673677
Ba       3.97836267       0.04653490       4.01722984      -0.05568435       0.04653490      -0.01681719
Ba      -0.07624839       4.08583815       4.04973841      -0.07624839       0.05179113       0.01569139
Ba       3.90485719       3.99909479       4.09844120      -0.12918983      -0.03495224       0.06439418
Ti       2.13161499       1.99431827       1.98040587       0.11459148      -0.02270525      -0.03661764
Ti       6.11630441       1.96722652       2.02024111       0.06523387      -0.04979699       0.00321760
Ti       2.04000503       5.99283298       2.06810827       0.02298151      -0.05823756       0.05108476
Ti       5.99823505       6.03613458       1.99325894      -0.05283549      -0.01493596      -0.02376457
Ti       2.06571296       1.96317177       6.01755962       0.04868945      -0.05385174      -0.03351092
Ti       6.14614444       2.14798151       6.12635684       0.09507390       0.13095800       0.07528630
Ti       2.07578155       5.99067930       6.02935363       0.05875804      -0.06039124      -0.02171691
Ti       5.95431178       6.11845384       5.95784135      -0.09675876       0.06738330      -0.09322919
O        0.00585868       2.07496308       1.99252998       0.00585868       0.05793957      -0.02449353
O        4.08974917       1.92542660       2.05528863       0.05570215      -0.09159691       0.03826512
O       -0.04815818       6.13386519       2.11870252      -0.04815818       0.08279465       0.10167900
O        4.01468963       6.00278218       1.98713326      -0.01935739      -0.04828836      -0.02989025
O        0.03284620       2.05754371       6.04623607       0.03284620       0.04052020      -0.00483447
O        4.02762878       2.16163196       5.97893726      -0.00641824       0.14460845      -0.07213328
O        0.06281020       6.07710045       5.97357636       0.06281020       0.02602991      -0.07749418
O        4.15588069       6.07038366       6.07367445       0.12183366       0.01931312       0.02260391
O        2.04091871       0.01781782       1.99822603       0.02389519       0.01781782      -0.01879748
O        6.15262937       0.06919218       2.01347204       0.10155883       0.06919218      -0.00355148
O        2.07266215       4.05436758       2.07159827       0.05563864       0.02032055       0.05457475
O        6.00735589       4.15458152       2.10870626      -0.04371465       0.12053450       0.09168275
O        2.10381306       0.16290501       6.04737340       0.08678955       0.16290501      -0.00369714
O        6.08452360      -0.09574205       5.94162405       0.03345306      -0.09574205      -0.10944649
O        1.98068179       4.03658074       6.05437223      -0.03634173       0.00253371       0.00330169
O        6.07306479       4.00201375       5.97162179       0.02199425      -0.03203328      -0.07944875
O        2.15926456       2.01506991       0.04545815       0.14224105      -0.00195361       0.04545815
O        6.10277105       2.03114787      -0.10365678       0.05170051       0.01412436      -0.10365678
O        2.18899684       6.22204289      -0.03561953       0.17197333       0.17097234      -0.03561953
O        6.02526908       6.14186789      -0.07404877      -0.02580146       0.09079735      -0.07404877
O        2.11161164       2.10199980       4.08109110       0.09458812       0.08497629       0.04704407
O        6.12139580       1.92574425       3.95079021       0.07032526      -0.09127927      -0.08325682
O        2.11458403       5.95741570       4.13535427       0.09756052      -0.09365484       0.10130725
O        6.20915625       6.20028104       4.04884320       0.15808571       0.14921050       0.01479618
40
Lattice="8.068094053620356 -4.38423541214265e-18 -5.299365615194938e-18 -1.6788496834586077e-17 8.068094053620356 1.6634455206828052e-17 -2.654045609411134e-17 -6.832089622168243e-17 8.06809405362036" Properties=species:S:1:pos:R:3:u_disp:R:3 system=batio3_cubic base_model=mace_mp0 role=train_pool T=300.0 draw=8 n_tries=13 rms_disp_A=0.11639548942233968 min_pair_ratio=0.892718618895322 nearest_heldout_A=0.11359491620841475 site_map_ok=1 nearest_heldout_src=batio3_cubic_orb_v2_q0-0-1d2-b1.extxyz#3 pbc="T T T"
Ba      -0.04557055       0.01605276      -0.05855002      -0.04557055       0.01605276      -0.05855002
Ba       4.06957558      -0.13767517      -0.03376431       0.03552855      -0.13767517      -0.03376431
Ba       0.09216042       4.09905186       0.01052946       0.09216042       0.06500484       0.01052946
Ba       4.01847786       4.00869939       0.01964230      -0.01556916      -0.02534763       0.01964230
Ba       0.00757680       0.03625042       3.83918911       0.00757680       0.03625042      -0.19485792
Ba       4.02189432       0.11062665       4.08408737      -0.01215271       0.11062665       0.05004034
Ba      -0.00645174       3.92620284       4.10858006      -0.00645174      -0.10784419       0.07453303
Ba       4.00290006       4.11874452       4.13357458      -0.03114697       0.08469749       0.09952756
Ti       1.99808616       2.01588320       2.07283678      -0.01893735      -0.00114031       0.05581327
Ti       5.97141645       2.06706174       2.03346681      -0.07965409       0.05003822       0.01644330
Ti       1.95501987       6.10682105       2.00807653      -0.06200365       0.05575051      -0.00894699
Ti       6.07577801       6.06048356       2.05385749       0.02470747       0.00941302       0.03683398
Ti       2.08682472       1.88587421       6.10757893       0.06980121      -0.13114931       0.05650839
Ti       6.19481721       1.94450487       6.06459295       0.14374667      -0.07251865       0.01352241
Ti       2.03049288       5.99971630       5.97298792       0.01346936      -0.05135424      -0.07808262
Ti       6.07740210       6.04306168       6.01898853       0.02633156      -0.00800886      -0.03208201
O        0.03541119       1.93866434       2.02859721       0.03541119      -0.07835918       0.01157370
O        4.03671042       2.08818252       2.00392117       0.00266340       0.07115901      -0.01310234
O       -0.01068333       6.11395098       1.95753160      -0.01068333       0.06288044      -0.05949192
O        4.07512739       6.09219298       2.14908230       0.04108036       0.04112244       0.13205878
O       -0.07483039       2.01518007       6.01092956      -0.07483039      -0.00184344      -0.04014098
O        3.94443938       2.04819156       6.01875369      -0.08960764       0.03116804      -0.03231685
O        0.02824857       6.09024443       6.10214285       0.02824857       0.03917389       0.05107231
O        4.07546365       6.07866425       6.01547705       0.04141663       0.02759371      -0.03559349
O        2.05276968      -0.09919742       2.04075128       0.03574617      -0.09919742       0.02372777
O        6.03120788       0.01800434       1.95358934      -0.01986266       0.01800434      -0.06343417
O        1.97328069       4.00848902       2.09473145      -0.04374283      -0.02555801       0.07770793
O        6.02765577       4.03077782       2.11511918      -0.02341477      -0.00326921       0.09809567
O        1.98125542      -0.06935944       6.06043765      -0.03576809      -0.06935944       0.00936711
O        5.97109142       0.13493116       6.04369941      -0.07997912       0.13493116      -0.00737113
O        2.02086951       4.08292357       6.11430008       0.00384600       0.04887655       0.06322954
O        6.06606544       4.11162485       5.94011631       0.01499490       0.07757783      -0.11095423
O        1.90963593       2.07516546      -0.07070177      -0.10738758       0.05814195      -0.07070177
O        5.88332418       2.05026204      -0.08020570      -0.16774636       0.03323853      -0.08020570
O        2.14741934       5.99886869       0.06300664       0.13039583      -0.05220185       0.06300664
O        5.95205816       5.93013571      -0.06721645      -0.09901238      -0.12093483      -0.06721645
O        2.00309688       1.92700324       4.12728686      -0.01392664      -0.09002027       0.09323984
O        5.97013242       2.06299963       3.94200252      -0.08093812       0.04597612      -0.09204451
O        1.91982658       6.04304367       4.12517518      -0.09719693      -0.00802687       0.09112816
O        6.10073028       5.99720298       4.09526144       0.04965974      -0.05386756       0.06121442
40
Lattice="8.068094053620356 -4.38423541214265e-18 -5.299365615194938e-18 -1.6788496834586077e-17 8.068094053620356 1.6634455206828052e-17 -2.654045609411134e-17 -6.832089622168243e-17 8.06809405362036" Properties=species:S:1:pos:R:3:u_disp:R:3 system=batio3_cubic base_model=mace_mp0 role=train_pool T=300.0 draw=9 n_tries=13 rms_disp_A=0.12376323933247847 min_pair_ratio=0.8804390571447067 nearest_heldout_A=0.1201692418611665 site_map_ok=1 nearest_heldout_src=batio3_cubic_sevennet0_q1d2-0-1d2-b0.extxyz#3 pbc="T T T"
Ba       0.01539424      -0.04400050      -0.09373543       0.01539424      -0.04400050      -0.09373543
Ba       4.02237532       0.03843840      -0.01075637      -0.01167171       0.03843840      -0.01075637
Ba       0.13097085       3.95832539       0.09254699       0.13097085      -0.07572164       0.09254699
Ba       4.01488809       4.06518522      -0.01626170      -0.01915893       0.03113819      -0.01626170
Ba      -0.05873104       0.03648359       3.97493801      -0.05873104       0.03648359      -0.05910901
Ba       4.04603000      -0.01728542       3.96477032       0.01198297      -0.01728542      -0.06927671
Ba      -0.06507077       4.00150762       4.03965529      -0.06507077      -0.03253941       0.00560826
Ba       4.08208956       4.06807856       4.12673651       0.04804253       0.03403153       0.09268949
Ti       1.98781322       2.08252096       2.06555400      -0.02921029       0.06549745       0.04853049
Ti       6.02433073       2.06903144       2.00014943      -0.02673981       0.05200792      -0.01687409
Ti       2.04393653       6.07607066       2.08503295       0.02691301       0.02500012       0.06800944
Ti       5.99437119       6.09471343       2.04728009      -0.05669935       0.04364289       0.03025658
Ti       2.07261744       2.05805985       5.95931077       0.05559393       0.04103634      -0.09175977
Ti       6.09486164       1.93631671       6.04823591       0.04379110      -0.08070680      -0.00283463
Ti       2.01546021       6.14521321       6.02902546      -0.00156331       0.09414267      -0.02204508
Ti       6.04457899       6.04350401       6.07913374      -0.00649155      -0.00756653       0.02806320
O        0.02086120       1.85324056       2.11196259       0.02086120      -0.16378295       0.09493908
O        3.99261687       1.95125314       1.94378441      -0.04143016      -0.06577037      -0.07323910
O       -0.08965363       5.96882938       1.99793707      -0.08965363      -0.08224116      -0.01908645
O        4.03233882       6.15202253       1.92710079      -0.00170821       0.10095199      -0.08992273
O        0.05125100       1.93074980       6.02401084       0.05125100      -0.08627372      -0.02705970
O        4.02869746       1.97271858       5.99966648      -0.00534957      -0.04430493      -0.05140406
O       -0.01639469       6.01685673       6.07251683      -0.01639469      -0.03421381       0.02144629
O        3.94519401       5.98991848       5.99683542      -0.08885302      -0.06115206      -0.05423512
O        1.96536039      -0.02191073       2.04064289      -0.05166312      -0.02191073       0.02361938
O        5.98625352      -0.08690416       2.03302933      -0.06481702      -0.08690416       0.01600581
O        2.02398208       4.02550310       2.05422065       0.00695857      -0.00854393       0.03719713
O        5.83886360       4.02790788       2.06829977      -0.21220694      -0.00613915       0.05127625
O        1.96017424      -0.05668122       6.01177417      -0.05684928      -0.05668122      -0.03929637
O        6.04786180       0.15515464       5.95496696      -0.00320874       0.15515464      -0.09610359
O        1.85763202       3.94182758       6.24401437      -0.15939149      -0.09221945       0.19294383
O        6.13563277       4.10404110       6.00902785       0.08456223       0.06999407      -0.04204269
O        2.02937473       1.98193020       0.10782873       0.01235122      -0.03509332       0.10782873
O        6.17762969       1.98693928       0.08496486       0.12655915      -0.03008424       0.08496486
O        2.17730411       6.01591263       0.01636804       0.16028060      -0.03515791       0.01636804
O        5.91007466       6.05966011       0.07476117      -0.14099588       0.00858957       0.07476117
O        2.19150403       2.08525093       4.18763708       0.17448052       0.06822742       0.15359005
O        6.07495776       2.03635701       4.02611383       0.02388722       0.01933350      -0.00793320
O        1.88737675       6.02475111       4.01115258      -0.12964676      -0.02631943      -0.02289445
O        5.99105839       6.12118296       4.05898116      -0.06001215       0.07011242       0.02493414
40
Lattice="8.068094053620356 -4.38423541214265e-18 -5.299365615194938e-18 -1.6788496834586077e-17 8.068094053620356 1.6634455206828052e-17 -2.654045609411134e-17 -6.832089622168243e-17 8.06809405362036" Properties=species:S:1:pos:R:3:u_disp:R:3 system=batio3_cubic base_model=mace_mp0 role=train_pool T=300.0 draw=10 n_tries=13 rms_disp_A=0.11049598864912398 min_pair_ratio=0.904330448428141 nearest_heldout_A=0.10819428614841638 site_map_ok=1 nearest_heldout_src=batio3_cubic_orb_v2_q1d2-0-0-b0.extxyz#2 pbc="T T T"
Ba      -0.01845533       0.03781095      -0.01486944      -0.01845533       0.03781095      -0.01486944
Ba       4.06511080      -0.03480320      -0.01882627       0.03106377      -0.03480320      -0.01882627
Ba       0.09082606       4.02609028      -0.02423601       0.09082606      -0.00795674      -0.02423601
Ba       4.17827121       4.03233285      -0.02194489       0.14422418      -0.00171418      -0.02194489
Ba       0.01702818       0.02316098       4.09154887       0.01702818       0.02316098       0.05750185
Ba       3.95141221       0.05174115       3.94573625      -0.08263482       0.05174115      -0.08831078
Ba      -0.10452835       3.90261730       4.03042070      -0.10452835      -0.13142972      -0.00362633
Ba       4.01855311       4.01953381       3.97352520      -0.01549392      -0.01451322      -0.06052183
Ti       2.03640786       2.12753221       2.02470774       0.01938435       0.11050869       0.00768422
Ti       6.06811631       2.02109082       2.00296444       0.01704577       0.00406730      -0.01405908
Ti       1.93254871       6.05432162       2.14710040      -0.08447480       0.00325108       0.13007688
Ti       5.96354880       5.99846900       2.10441522      -0.08752174      -0.05260154       0.08739171
Ti       2.04019478       2.07569594       6.14345378       0.02317126       0.05867243       0.09238324
Ti       6.05117092       1.99329549       6.06668071       0.00010038      -0.02372802       0.01561017
Ti       1.98521813       6.02850316       6.10981901      -0.03180539      -0.02256738       0.05874847
Ti       6.05161989       6.04477426       6.07917856       0.00054935      -0.00629628       0.02810802
O        0.00915680       2.01233907       1.92858988       0.00915680      -0.00468444      -0.08843363
O        4.03886529       2.20893596       1.90697302       0.00481826       0.19191245      -0.11005049
O        0.08159703       6.02774102       2.02907273       0.08159703      -0.02332952       0.01204922
O        4.08422517       6.13943852       2.12578129       0.05017815       0.08836798       0.10875778
O       -0.02300912       2.06766923       6.15438490      -0.02300912       0.05064572       0.10331436
O        4.05416760       2.04546330       6.04914342       0.02012057       0.02843979      -0.00192712
O        0.03553951       6.06930098       6.12576027       0.03553951       0.01823044       0.07468973
O        4.01943228       6.02092704       6.19650572      -0.01461474      -0.03014350       0.14543518
O        1.99935464      -0.03761022       2.06144089      -0.01766888      -0.03761022       0.04441738
O        6.07385604      -0.00011498       2.02607295       0.02278550      -0.00011498       0.00904943
O        2.08278167       4.11399199       2.06380514       0.06575816       0.07994497       0.04678163
O        5.95684548       4.02909413       2.07596240      -0.09422506      -0.00495289       0.05893889
O        2.06855453       0.03565071       6.10919644       0.05153101       0.03565071       0.05812590
O        6.10217178      -0.03764600       5.98844370       0.05110124      -0.03764600      -0.06262684
O        1.95587291       3.93834697       6.02675139      -0.06115061      -0.09570006      -0.02431915
O        6.05387516       4.04331573       6.10319855       0.00280462       0.00926870       0.05212801
O        1.91448223       1.99886393       0.00164801      -0.10254128      -0.01815958       0.00164801
O        6.09112964       2.05613050      -0.12787330       0.04005910       0.03910699      -0.12787330
O        1.98457336       5.95028630      -0.05172787      -0.03245016      -0.10078424      -0.05172787
O        5.99187350       5.98889711       0.01928890      -0.05919704      -0.06217343       0.01928890
O        1.95301116       2.13615943       4.05732264      -0.06401236       0.11913592       0.02327562
O        6.13406827       2.05399161       4.02148153       0.08299773       0.03696810      -0.01256550
O        2.01208111       6.09313457       4.12170097      -0.00494240       0.04206403       0.08765395
O        5.90349210       6.18025288       3.95415790      -0.14757844       0.12918234      -0.07988913
40
Lattice="8.068094053620356 -4.38423541214265e-18 -5.299365615194938e-18 -1.6788496834586077e-17 8.068094053620356 1.6634455206828052e-17 -2.654045609411134e-17 -6.832089622168243e-17 8.06809405362036" Properties=species:S:1:pos:R:3:u_disp:R:3 system=batio3_cubic base_model=mace_mp0 role=train_pool T=300.0 draw=11 n_tries=13 rms_disp_A=0.11611330845652036 min_pair_ratio=0.8824566762438624 nearest_heldout_A=0.11304354095346567 site_map_ok=1 nearest_heldout_src=batio3_cubic_chgnet_q0-0-0-b1.extxyz#2 pbc="T T T"
Ba       0.13970008       0.02266757       0.06395387       0.13970008       0.02266757       0.06395387
Ba       3.97197672      -0.02656799       0.06315723      -0.06207031      -0.02656799       0.06315723
Ba      -0.04616818       3.91408969      -0.02016146      -0.04616818      -0.11995734      -0.02016146
Ba       4.01625789       4.06611229       0.01071206      -0.01778914       0.03206527       0.01071206
Ba       0.02272083      -0.03859440       4.01979617       0.02272083      -0.03859440      -0.01425086
Ba       4.02173469       0.03776728       4.10319811      -0.01231233       0.03776728       0.06915109
Ba      -0.04107759       4.05279229       4.04093169      -0.04107759       0.01874527       0.00688466
Ba       3.98449755       4.11204664       3.95612098      -0.04954948       0.07799961      -0.07792605
Ti       2.06102394       2.06722764       2.09328215       0.04400043       0.05020413       0.07625864
Ti       6.06869078       2.00011732       1.98491230       0.01762024      -0.01690619      -0.03211121
Ti       1.99214029       5.94458653       2.00533562      -0.02488322      -0.10648401      -0.01168789
Ti       6.12014467       5.98660117       1.92198608       0.06907413      -0.06446937      -0.09503743
Ti       2.00359748       1.99168274       5.97758830      -0.01342604      -0.02534077      -0.07348224
Ti       6.01697149       1.91609660       6.06698863      -0.03409905      -0.10092692       0.01591809
Ti       2.01016673       6.04928005       6.00781396      -0.00685678      -0.00179049      -0.04325658
Ti       6.16320362       6.02533726       6.01372309       0.11213308      -0.02573328      -0.03734745
O        0.00293042       2.07858341       2.11918128       0.00293042       0.06155989       0.10215777
O        3.95518421       2.13133084       1.99476440      -0.07886282       0.11430733      -0.02225911
O        0.03459709       5.96880393       1.81147414       0.03459709      -0.08226661      -0.20554937
O        4.01826360       6.07569850       1.93034271      -0.01578343       0.02462796      -0.08668080
O        0.02972502       1.93939707       6.00306730       0.02972502      -0.07762644      -0.04800324
O        3.98944306       1.98355116       6.19371941      -0.04460397      -0.03347235       0.14264887
O        0.01319359       6.11248885       6.00079272       0.01319359       0.06141831      -0.05027782
O        4.11182357       6.18682469       6.02778684       0.07777654       0.13575415      -0.02328370
O        2.06607889       0.02092751       2.07537045       0.04905538       0.02092751       0.05834693
O        6.03993360       0.09529568       2.00490638      -0.01113694       0.09529568      -0.01211713
O        1.95544463       4.10802801       2.00102749      -0.06157888       0.07398099      -0.01599602
O        6.16369397       4.18596017       2.01580547       0.11262343       0.15191314      -0.00121804
O        2.07311192      -0.04246646       5.91757393       0.05608841      -0.04246646      -0.13349661
O        6.12085181       0.14005345       6.01175002       0.06978127       0.14005345      -0.03932052
O        2.00027570       4.05071954       6.06117058      -0.01674781       0.01667251       0.01010004
O        5.93762077       4.12457119       6.07018478      -0.11344977       0.09052416       0.01911424
O        1.98703324       2.06436018       0.07571955      -0.02999027       0.04733667       0.07571955
O        6.15170560       1.94233027       0.08257154       0.10063506      -0.07469325       0.08257154
O        1.97295644       6.00439565      -0.04948421      -0.04406708      -0.04667489      -0.04948421
O        5.94766705       6.07041668      -0.02027044      -0.10340349       0.01934614      -0.02027044
O        2.09073241       2.09302596       4.05979213       0.07370889       0.07600245       0.02574511
O        5.98570777       2.03998460       4.04722391      -0.06536277       0.02296108       0.01317688
O        2.01641509       6.00080073       3.90290411      -0.00060842      -0.05026981      -0.13114291
O        6.09838659       6.14240143       4.07278106       0.04731605       0.09133089       0.03873403
40
Lattice="8.068094053620356 -4.38423541214265e-18 -5.299365615194938e-18 -1.6788496834586077e-17 8.068094053620356 1.6634455206828052e-17 -2.654045609411134e-17 -6.832089622168243e-17 8.06809405362036" Properties=species:S:1:pos:R:3:u_disp:R:3 system=batio3_cubic base_model=mace_mp0 role=train_pool T=300.0 draw=12 n_tries=13 rms_disp_A=0.11630597896645184 min_pair_ratio=0.9079786051212714 nearest_heldout_A=0.11496048508594381 site_map_ok=1 nearest_heldout_src=batio3_cubic_sevennet0_q1d2-0-0-b0.extxyz#2 pbc="T T T"
Ba      -0.00181146       0.02334511       0.08315694      -0.00181146       0.02334511       0.08315694
Ba       4.13537503       0.03240467       0.01718913       0.10132800       0.03240467       0.01718913
Ba       0.05135191       4.04187366       0.04505738       0.05135191       0.00782664       0.04505738
Ba       3.89299987       4.01672240      -0.06783986      -0.14104716      -0.01732463      -0.06783986
Ba      -0.13831842      -0.05240024       3.98510894      -0.13831842      -0.05240024      -0.04893808
Ba       4.02216325      -0.12408841       4.10779577      -0.01188378      -0.12408841       0.07374875
Ba       0.02540739       4.09740933       4.11883347       0.02540739       0.06336230       0.08478645
Ba       4.14046567       4.07198583       3.90026471       0.10641864       0.03793881      -0.13378232
Ti       1.97166683       1.96888637       2.03509530      -0.04535669      -0.04813714       0.01807179
Ti       6.01458454       1.97061479       1.96730427      -0.03648600      -0.04640872      -0.04971924
Ti       2.03478901       6.00722317       1.98222721       0.01776550      -0.04384737      -0.03479630
Ti       6.00789531       6.03030620       1.97771421      -0.04317523      -0.02076434      -0.03930930
Ti       2.02066431       1.95922016       6.03206855       0.00364079      -0.05780336      -0.01900199
Ti       6.11585065       2.09253497       6.00144214       0.06478011       0.07551146      -0.04962840
Ti       1.99756922       6.08748106       6.08949469      -0.01945430       0.03641052       0.03842415
Ti       6.05931029       6.09455745       6.08013428       0.00823975       0.04348691       0.02906374
O        0.01674701       2.04350288       1.99172458       0.01674701       0.02647936      -0.02529893
O        3.97784924       1.98466632       1.93652298      -0.05619779      -0.03235719      -0.08050054
O        0.00888959       6.04092270       1.94794028       0.00888959      -0.01014784      -0.06908323
O        4.07589173       6.02880201       2.06705031       0.04184470      -0.02226853       0.05002680
O       -0.02462054       2.06765139       5.98448477      -0.02462054       0.05062788      -0.06658577
O        4.12757807       2.06034366       5.85415247       0.09353104       0.04332015      -0.19691807
O        0.01124193       6.12496018       5.99132426       0.01124193       0.07388964      -0.05974628
O        4.01775621       6.11074951       5.93736087      -0.01629081       0.05967897      -0.11370967
O        1.99658589       0.01380866       2.14014379      -0.02043762       0.01380866       0.12312028
O        6.06135205      -0.09858495       1.92651120       0.01028151      -0.09858495      -0.09051231
O        1.94344343       4.16406079       2.13057702      -0.07358008       0.13001376       0.11355350
O        6.07116189       4.05102228       2.04572816       0.02009135       0.01697526       0.02870465
O        1.93617060      -0.02966702       6.09988797      -0.08085291      -0.02966702       0.04881743
O        6.05720478       0.02087705       6.17651390       0.00613424       0.02087705       0.12544336
O        2.04858296       4.13240143       6.07839661       0.03155945       0.09835440       0.02732607
O        6.02897131       4.09045508       6.00597273      -0.02209923       0.05640805      -0.04509781
O        2.00749664       1.99357907       0.04135145      -0.00952687      -0.02344445       0.04135145
O        6.16914976       2.09851013      -0.02588642       0.11807922       0.08148662      -0.02588642
O        2.06751595       6.15452947       0.11511879       0.05049244       0.10345893       0.11511879
O        6.09492880       6.09555511       0.07580249       0.04385826       0.04448457       0.07580249
O        2.06303867       2.05873729       4.08809543       0.04601516       0.04171378       0.05404841
O        6.06078184       1.89156159       3.94191332       0.00971130      -0.12546192      -0.09213371
O        1.88974258       5.97016559       4.06077626      -0.12728093      -0.08090495       0.02672923
O        6.19663665       6.04484484       3.93112688       0.14556611      -0.00622570      -0.10292015
40
Lattice="8.068094053620356 -4.38423541214265e-18 -5.299365615194938e-18 -1.6788496834586077e-17 8.068094053620356 1.6634455206828052e-17 -2.654045609411134e-17 -6.832089622168243e-17 8.06809405362036" Properties=species:S:1:pos:R:3:u_disp:R:3 system=batio3_cubic base_model=mace_mp0 role=train_pool T=600.0 draw=0 n_tries=14 rms_disp_A=0.17273091394526308 min_pair_ratio=0.8660565897787003 nearest_heldout_A=0.16065845037313792 site_map_ok=1 nearest_heldout_src=batio3_cubic_mace_mp0_T100.extxyz#2 pbc="T T T"
Ba      -0.01632483      -0.06185214       0.08588034      -0.01632483      -0.06185214       0.08588034
Ba       4.02931322      -0.16437049       0.03946582      -0.00473381      -0.16437049       0.03946582
Ba       0.09812507       3.96030150       0.07519844       0.09812507      -0.07374553       0.07519844
Ba       4.04835844       4.17177095      -0.10601595       0.01431142       0.13772392      -0.10601595
Ba       0.01868003       0.09578568       4.00240895       0.01868003       0.09578568      -0.03163808
Ba       4.02029660      -0.08893426       3.98491975      -0.01375043      -0.08893426      -0.04912728
Ba      -0.10821236       4.01620173       4.10518289      -0.10821236      -0.01784530       0.07113586
Ba       4.13224275       4.16569218       4.13054647       0.09819573       0.13164515       0.09649944
Ti       2.10518209       2.13122134       2.09866301       0.08815857       0.11419782       0.08163949
Ti       5.94213685       2.03724117       1.91695228      -0.10893369       0.02021765      -0.10007123
Ti       2.05097801       6.04308534       1.97958068       0.03395450      -0.00798520      -0.03744284
Ti       6.20112779       5.98785404       1.92662735       0.15005725      -0.06321650      -0.09039616
Ti       1.92285525       1.99368584       6.08881020      -0.09416826      -0.02333767       0.03773966
Ti       5.93272937       1.95018276       6.08159924      -0.11834117      -0.06684076       0.03052870
Ti       1.94897586       5.98494668       6.04916103      -0.06804765      -0.06612386      -0.00190951
Ti       5.96406600       6.02324531       5.97929091      -0.08700454      -0.02782523      -0.07177963
O        0.04195371       1.91505316       1.89196980       0.04195371      -0.10197036      -0.12505372
O        4.10860947       2.03863433       1.91488104       0.07456244       0.02161081      -0.10214247
O        0.12548409       6.05727857       2.05538851       0.12548409       0.00620803       0.03836499
O        4.13381750       5.89437872       2.00920568       0.09977047      -0.15669182      -0.00781783
O       -0.13598534       2.04967708       5.89772794      -0.13598534       0.03265357      -0.15334260
O        3.94895217       2.12574848       6.21142315      -0.08509485       0.10872497       0.16035261
O       -0.09766075       6.00888873       5.92376109      -0.09766075      -0.04218181      -0.12730945
O        4.05621522       6.22566222       6.21742147       0.02216820       0.17459168       0.16635093
O        2.14089327       0.09610379       1.95577591       0.12386975       0.09610379      -0.06124761
O        5.98057871      -0.07933201       1.96253411      -0.07049183      -0.07933201      -0.05448940
O        2.15970474       4.20265229       2.06156640       0.14268123       0.16860526       0.04454289
O        6.29762519       4.02888935       1.83574477       0.24655465      -0.00515768      -0.18127875
O        1.95605941      -0.00346102       5.88367283      -0.06096411      -0.00346102      -0.16739771
O        5.96340518       0.04208644       6.04844423      -0.08766536       0.04208644      -0.00262631
O        1.94112997       4.16569850       5.89339529      -0.07589355       0.13165147      -0.15767525
O        5.93812813       4.02877059       5.96944200      -0.11294241      -0.00527644      -0.08162854
O        1.80562324       2.18178075      -0.08078001      -0.21140027       0.16475724      -0.08078001
O        6.06797631       1.87999205       0.02300726       0.01690577      -0.13703146       0.02300726
O        2.05567052       6.05901983      -0.04029815       0.03864701       0.00794929      -0.04029815
O        6.20635142       6.08101993      -0.02455336       0.15528088       0.02994939      -0.02455336
O        2.02145202       2.16715489       3.86094162       0.00442851       0.15013137      -0.17310541
O        5.72225404       1.98755247       4.01802351      -0.32881650      -0.02947104      -0.01602352
O        2.09680356       6.19165379       4.10030977       0.07978004       0.14058325       0.06626274
O        6.01654170       6.05479040       3.98877508      -0.03452884       0.00371986      -0.04527195
40
Lattice="8.068094053620356 -4.38423541214265e-18 -5.299365615194938e-18 -1.6788496834586077e-17 8.068094053620356 1.6634455206828052e-17 -2.654045609411134e-17 -6.832089622168243e-17 8.06809405362036" Properties=species:S:1:pos:R:3:u_disp:R:3 system=batio3_cubic base_model=mace_mp0 role=train_pool T=600.0 draw=1 n_tries=14 rms_disp_A=0.1731617187955526 min_pair_ratio=0.8693860557806552 nearest_heldout_A=0.16910030978287274 site_map_ok=1 nearest_heldout_src=batio3_cubic_chgnet_q0-1d2-0-b1.extxyz#3 pbc="T T T"
Ba      -0.07017226      -0.01016659       0.13388545      -0.07017226      -0.01016659       0.13388545
Ba       4.06967383      -0.02479370       0.16889051       0.03562680      -0.02479370       0.16889051
Ba      -0.08078419       4.05676126      -0.12144411      -0.08078419       0.02271423      -0.12144411
Ba       4.10161781       4.15793430      -0.05432396       0.06757078       0.12388727      -0.05432396
Ba       0.02143426      -0.10888595       3.87356675       0.02143426      -0.10888595      -0.16048028
Ba       3.86988119       0.01491611       4.03566140      -0.16416583       0.01491611       0.00161437
Ba       0.06682128       3.93513830       4.00559009       0.06682128      -0.09890873      -0.02845694
Ba       4.10938619       3.90762033       4.12879442       0.07533916      -0.12642670       0.09474739
Ti       2.04536019       1.93340307       1.89748981       0.02833668      -0.08362045      -0.11953370
Ti       6.13821583       2.16127981       1.92626551       0.08714529       0.14425630      -0.09075801
Ti       2.06215370       5.95269681       2.14904803       0.04513019      -0.09837373       0.13202452
Ti       6.07435814       6.06453014       2.00632993       0.02328760       0.01345960      -0.01069359
Ti       1.98454946       1.89042146       6.10654749      -0.03247405      -0.12660206       0.05547695
Ti       6.12200551       2.18107931       6.00076324       0.07093497       0.16405580      -0.05030730
Ti       2.02875747       6.07334811       6.16000630       0.01173395       0.02227757       0.10893576
Ti       5.99327635       6.31962317       6.00947853      -0.05779419       0.26855263      -0.04159201
O       -0.01829873       2.00769352       2.14880007      -0.01829873      -0.00932999       0.13177656
O        3.88441186       2.01307888       1.89418737      -0.14963517      -0.00394463      -0.12283614
O        0.01614789       5.91411452       1.91192552       0.01614789      -0.13695602      -0.10509800
O        4.07053855       5.89885542       1.97018664       0.03649153      -0.15221512      -0.04683687
O       -0.03662853       2.18430463       6.14982233      -0.03662853       0.16728112       0.09875179
O        3.90365378       1.99881785       6.00020774      -0.13039324      -0.01820567      -0.05086280
O        0.14540078       6.10290613       6.03890453       0.14540078       0.05183559      -0.01216601
O        4.00506883       6.20245674       5.99429638      -0.02897820       0.15138620      -0.05677416
O        1.94835575      -0.06973619       1.96331025      -0.06866776      -0.06973619      -0.05371327
O        6.07700255      -0.00560303       2.05458896       0.02593201      -0.00560303       0.03756544
O        1.97435602       3.89574967       2.02753184      -0.04266749      -0.13829736       0.01050833
O        6.05591845       4.09421832       2.02697352       0.00484791       0.06017129       0.00995001
O        1.89639762       0.11725500       6.03964312      -0.12062589       0.11725500      -0.01142742
O        6.00662258       0.04002178       6.04514419      -0.04444796       0.04002178      -0.00592635
O        2.12500680       4.16876542       5.89872915       0.10798328       0.13471839      -0.15234139
O        6.07691869       4.03264036       6.17728930       0.02584815      -0.00140667       0.12621876
O        1.90374727       1.96702918       0.10286103      -0.11327624      -0.04999434       0.10286103
O        6.20336170       2.17413251       0.02986688       0.15229116       0.15710900       0.02986688
O        2.14871147       6.05474652      -0.06827402       0.13168796       0.00367598      -0.06827402
O        6.11202271       6.31776384      -0.06169810       0.06095217       0.26669330      -0.06169810
O        2.08416440       1.82264744       4.13375570       0.06714088      -0.19437607       0.09970867
O        5.94235989       2.23163283       4.05773402      -0.10871065       0.21460932       0.02368699
O        1.92116366       6.06879286       3.89308320      -0.09585985       0.01772232      -0.14096382
O        6.12190987       6.32156667       4.00573558       0.07083933       0.27049613      -0.02831145
40
Lattice="8.068094053620356 -4.38423541214265e-18 -5.299365615194938e-18 -1.6788496834586077e-17 8.068094053620356 1.6634455206828052e-17 -2.654045609411134e-17 -6.832089622168243e-17 8.06809405362036" Properties=species:S:1:pos:R:3:u_disp:R:3 system=batio3_cubic base_model=mace_mp0 role=train_pool T=600.0 draw=2 n_tries=14 rms_disp_A=0.16714718202815332 min_pair_ratio=0.8486171123266912 nearest_heldout_A=0.16213928871315478 site_map_ok=1 nearest_heldout_src=batio3_cubic_mace_mp0_q1d2-0-0-b0.extxyz#3 pbc="T T T"
Ba       0.05494741      -0.09491851       0.04763553       0.05494741      -0.09491851       0.04763553
Ba       4.23007193      -0.07928899       0.04874797       0.19602490      -0.07928899       0.04874797
Ba      -0.04253643       4.14912751      -0.09458281      -0.04253643       0.11508048      -0.09458281
Ba       3.96829072       4.08639970      -0.04974995      -0.06575630       0.05235267      -0.04974995
Ba       0.10005985       0.08406989       4.00400598       0.10005985       0.08406989      -0.03004105
Ba       3.75427517       0.08978389       4.04207609      -0.27977186       0.08978389       0.00802907
Ba       0.02539656       4.02080275       4.17090300       0.02539656      -0.01324428       0.13685598
Ba       4.08211440       3.93276246       4.04079382       0.04806737      -0.10128456       0.00674679
Ti       1.95690778       2.09054303       1.89262938      -0.06011574       0.07351952      -0.12439413
Ti       5.96811832       1.87468720       1.97789897      -0.08295222      -0.14233631      -0.03912454
Ti       2.03219040       6.08889365       1.96687490       0.01516689       0.03782311      -0.05014861
Ti       6.10912698       5.94530391       1.98063339       0.05805644      -0.10576663      -0.03639013
Ti       2.02083644       2.00750011       6.07768727       0.00381293      -0.00952340       0.02661673
Ti       6.09567206       1.86135098       6.19098205       0.04460152      -0.15567253       0.13991151
Ti       1.92285663       6.11506748       5.88120723      -0.09416688       0.06399694      -0.16986331
Ti       5.88807431       6.03662485       5.98690779      -0.16299623      -0.01444569      -0.06416275
O        0.13455079       1.91156157       2.02969473       0.13455079      -0.10546194       0.01267122
O        4.19260895       1.93526838       1.87211318       0.15856193      -0.08175513      -0.14491033
O       -0.05250642       6.06027397       1.89864970      -0.05250642       0.00920343      -0.11837382
O        4.11255710       5.95148568       2.19270379       0.07851007      -0.09958486       0.17568028
O        0.05633703       2.09926213       6.19790026       0.05633703       0.08223862       0.14682972
O        4.04426874       2.02856012       6.04240220       0.01022171       0.01153660      -0.00866834
O        0.21348063       6.04279317       5.93279043       0.21348063      -0.00827737      -0.11828011
O        4.07077105       6.08343786       5.92286931       0.03672402       0.03236732      -0.12820123
O        1.87518840      -0.07258072       2.04940550      -0.14183511      -0.07258072       0.03238198
O        6.09511675       0.07303749       2.13585803       0.04404620       0.07303749       0.11883451
O        1.91388800       4.09576328       1.99169294      -0.10313552       0.06171625      -0.02533057
O        6.17091257       4.07844621       1.93330477       0.11984203       0.04439918      -0.08371874
O        1.95572866       0.12477606       6.08916349      -0.06129486       0.12477606       0.03809295
O        6.04714247       0.09889282       6.02481248      -0.00392807       0.09889282      -0.02625806
O        2.18625516       3.98206926       6.31279647       0.16923164      -0.05197777       0.26172593
O        6.02704318       4.09924615       6.02545223      -0.02402736       0.06519912      -0.02561831
O        2.01063695       1.93013610       0.16061015      -0.00638657      -0.08688741       0.16061015
O        6.08598742       1.94025314      -0.06419563       0.03491688      -0.07677037      -0.06419563
O        2.10576413       6.00693469       0.06489198       0.08874062      -0.04413585       0.06489198
O        6.00926696       6.06844712      -0.02309316      -0.04180358       0.01737658      -0.02309316
O        1.92765197       2.27123559       4.04796349      -0.08937154       0.25421207       0.01391646
O        5.89956278       2.10537700       4.00847058      -0.15150776       0.08835349      -0.02557645
O        1.89604336       6.04086503       4.06182659      -0.12098015      -0.01020551       0.02777956
O        6.22347814       6.02948828       4.09083446       0.17240760      -0.02158226       0.05678744
40
Lattice="8.068094053620356 -4.38423541214265e-18 -5.299365615194938e-18 -1.6788496834586077e-17 8.068094053620356 1.6634455206828052e-17 -2.654045609411134e-17 -6.832089622168243e-17 8.06809405362036" Properties=species:S:1:pos:R:3:u_disp:R:3 system=batio3_cubic base_model=mace_mp0 role=train_pool T=600.0 draw=3 n_tries=14 rms_disp_A=0.16712879643030742 min_pair_ratio=0.8353201920317584 nearest_heldout_A=0.16033213507646624 site_map_ok=1 nearest_heldout_src=batio3_cubic_mace_mp0_T100.extxyz#10 pbc="T T T"
Ba       0.02504986       0.02005396       0.01057513       0.02504986       0.02005396       0.01057513
Ba       3.97941244      -0.02663804       0.05120438      -0.05463459      -0.02663804       0.05120438
Ba       0.15454698       4.10313662      -0.06850109       0.15454698       0.06908960      -0.06850109
Ba       4.07255223       4.07682587      -0.01352183       0.03850520       0.04277884      -0.01352183
Ba      -0.05131177       0.07371443       3.96535496      -0.05131177       0.07371443      -0.06869207
Ba       4.09679544      -0.05952715       4.24746809       0.06274842      -0.05952715       0.21342107
Ba      -0.03647534       3.94917983       4.07007934      -0.03647534      -0.08486720       0.03603232
Ba       3.99124285       4.06731455       4.07302063      -0.04280417       0.03326752       0.03897361
Ti       2.00857818       1.96397177       2.04626831      -0.00844533      -0.05305174       0.02924479
Ti       5.91913253       1.96008029       1.86711163      -0.13193801      -0.05694322      -0.14991188
Ti       2.03343766       6.10198782       1.99610798       0.01641415       0.05091728      -0.02091553
Ti       6.12281678       6.01606309       2.05026895       0.07174624      -0.03500745       0.03324543
Ti       2.05061777       1.92908564       5.93242258       0.03359426      -0.08793788      -0.11864796
Ti       6.05517806       1.88632905       5.95357165       0.00410752      -0.13069447      -0.09749889
Ti       2.04216496       6.00722451       5.91466340       0.02514144      -0.04384603      -0.13640714
Ti       6.06479973       5.96078255       6.16551275       0.01372919      -0.09028799       0.11444221
O       -0.08414614       1.98888446       1.91791330      -0.08414614      -0.02813906      -0.09911021
O        3.88028635       2.12968886       1.97527067      -0.15376068       0.11266535      -0.04175285
O        0.04128631       6.32092119       1.88294696       0.04128631       0.26985065      -0.13407656
O        4.06330776       6.16269134       1.94023693       0.02926073       0.11162080      -0.07678658
O       -0.19423842       2.24773781       5.93778468      -0.19423842       0.23071430      -0.11328587
O        3.86857580       1.98763608       5.93030176      -0.16547123      -0.02938743      -0.12076878
O        0.13995652       6.03931322       5.99632247       0.13995652      -0.01175732      -0.05474807
O        4.01069304       5.97153908       6.10876721      -0.02335399      -0.07953146       0.05769667
O        2.04163741      -0.20798915       2.01920582       0.02461390      -0.20798915       0.00218230
O        6.19291915       0.00380634       1.96415285       0.14184861       0.00380634      -0.05287066
O        1.95176831       3.98275294       2.03936747      -0.06525520      -0.05129409       0.02234396
O        6.04745473       4.09539926       2.10781256      -0.00361581       0.06135224       0.09078904
O        1.96841484      -0.05125288       6.01111944      -0.04860867      -0.05125288      -0.03995110
O        5.99416984       0.11316747       6.18978803      -0.05690070       0.11316747       0.13871749
O        1.99631040       3.96896347       5.72499240      -0.02071311      -0.06508356      -0.32607814
O        6.17058523       4.12930999       6.08626544       0.11951469       0.09526296       0.03519490
O        2.04108366       2.08172438      -0.02687065       0.02406014       0.06470086      -0.02687065
O        5.92380492       2.04074008       0.18418948      -0.12726562       0.02371657       0.18418948
O        1.98456242       5.96676611      -0.04604672      -0.03246109      -0.08430443      -0.04604672
O        5.95096650       6.20524889      -0.08415725      -0.10010404       0.15417835      -0.08415725
O        1.88411981       1.91279110       3.93025431      -0.13290370      -0.10423241      -0.10379272
O        5.96002176       1.92052171       4.09643450      -0.09104878      -0.09650181       0.06238748
O        1.93495834       6.22614488       4.02263912      -0.08206518       0.17507434      -0.01140791
O        6.01882272       6.19876148       4.09646817      -0.03224782       0.14769094       0.06242115
40
Lattice="8.068094053620356 -4.38423541214265e-18 -5.299365615194938e-18 -1.6788496834586077e-17 8.068094053620356 1.6634455206828052e-17 -2.654045609411134e-17 -6.832089622168243e-17 8.06809405362036" Properties=species:S:1:pos:R:3:u_disp:R:3 system=batio3_cubic base_model=mace_mp0 role=train_pool T=600.0 draw=4 n_tries=14 rms_disp_A=0.1609511622252675 min_pair_ratio=0.8536309864133214 nearest_heldout_A=0.15175878326336048 site_map_ok=1 nearest_heldout_src=batio3_cubic_sevennet0_q1d2-0-0-b0.extxyz#4 pbc="T T T"
Ba       0.11694459      -0.00859162      -0.04761660       0.11694459      -0.00859162      -0.04761660
Ba       4.20308230      -0.12531965      -0.03835574       0.16903527      -0.12531965      -0.03835574
Ba      -0.11448990       4.01866066       0.07807025      -0.11448990      -0.01538637       0.07807025
Ba       3.97811063       3.88021149      -0.05380200      -0.05593640      -0.15383554      -0.05380200
Ba      -0.17294972       0.06204046       4.13058412      -0.17294972       0.06204046       0.09653709
Ba       3.95801055       0.07865794       3.96020881      -0.07603648       0.07865794      -0.07383821
Ba       0.18011097       4.11237954       4.17859788       0.18011097       0.07833252       0.14455085
Ba       4.03299473       4.06590563       4.10658489      -0.00105230       0.03185860       0.07253787
Ti       2.02350636       1.99297835       1.93989365       0.00648285      -0.02404516      -0.07712986
Ti       6.15457650       2.00907538       2.02183032       0.10350596      -0.00794813       0.00480681
Ti       1.99364527       5.96172413       1.87122937      -0.02337824      -0.08934641      -0.14579415
Ti       6.04004403       6.14174074       2.02730106      -0.01102651       0.09067020       0.01027754
Ti       1.92840071       2.04437172       6.06158147      -0.08862281       0.02734820       0.01051093
Ti       6.04582588       2.01957681       6.08157815      -0.00524466       0.00255330       0.03050761
Ti       1.98252161       6.05732212       5.96402824      -0.03450191       0.00625158      -0.08704230
Ti       6.03687788       6.07183866       5.99643192      -0.01419266       0.02076812      -0.05463862
O       -0.08295841       2.05019602       1.88885447      -0.08295841       0.03317250      -0.12816904
O        4.02402616       1.84438872       1.87547227      -0.01002086      -0.17263479      -0.14155125
O       -0.11788484       5.85727645       2.12746894      -0.11788484      -0.19379409       0.11044543
O        4.10451560       6.03113078       2.02225613       0.07046857      -0.01993976       0.00523262
O        0.08000957       2.05379444       5.97993095       0.08000957       0.03677092      -0.07113959
O        4.01174629       2.01948323       6.14251453      -0.02230073       0.00245971       0.09144399
O        0.03551124       6.12699868       5.96024592       0.03551124       0.07592814      -0.09082462
O        4.01604273       6.21033215       6.13698949      -0.01800429       0.15926161       0.08591895
O        1.95931236       0.06901441       2.04172765      -0.05771115       0.06901441       0.02470414
O        6.04428645      -0.20625842       2.10365110      -0.00678410      -0.20625842       0.08662759
O        1.98281942       4.06799698       1.95648703      -0.03420410       0.03394996      -0.06053648
O        5.91845914       3.87282706       2.02702702      -0.13261140      -0.16121997       0.01000351
O        1.85370484       0.09095560       6.06645436      -0.16331868       0.09095560       0.01538382
O        6.15390693      -0.09574915       6.10261548       0.10283639      -0.09574915       0.05154494
O        2.10793512       4.20513391       6.04692761       0.09091160       0.17108689      -0.00414293
O        6.12565093       4.00668444       5.85931976       0.07458039      -0.02736259      -0.19175078
O        1.81559353       2.06707580      -0.10483591      -0.20142999       0.05005228      -0.10483591
O        6.05049429       2.00384278      -0.10046488      -0.00057625      -0.01318073      -0.10046488
O        2.08013146       6.21976376       0.02335831       0.06310795       0.16869322       0.02335831
O        6.07620724       5.99936628      -0.04895483       0.02513670      -0.05170426      -0.04895483
O        2.03892846       2.27699992       3.91008913       0.02190495       0.25997640      -0.12395789
O        6.23846892       1.96553864       3.99512518       0.18739838      -0.05148487      -0.03892184
O        2.00570355       6.10972359       4.05815275      -0.01131996       0.05865305       0.02410573
O        5.96709421       6.20430554       4.00496740      -0.08397633       0.15323500      -0.02907963
40
Lattice="8.068094053620356 -4.38423541214265e-18 -5.299365615194938e-18 -1.6788496834586077e-17 8.068094053620356 1.6634455206828052e-17 -2.654045609411134e-17 -6.832089622168243e-17 8.06809405362036" Properties=species:S:1:pos:R:3:u_disp:R:3 system=batio3_cubic base_model=mace_mp0 role=train_pool T=600.0 draw=5 n_tries=14 rms_disp_A=0.14617933616348247 min_pair_ratio=0.8773257331463566 nearest_heldout_A=0.14109579340902162 site_map_ok=1 nearest_heldout_src=batio3_cubic_chgnet_q1d2-1d2-0-b0.extxyz#3 pbc="T T T"
Ba       0.00541794       0.17715474       0.03229742       0.00541794       0.17715474       0.03229742
Ba       3.97837935       0.02416715      -0.18730612      -0.05566768       0.02416715      -0.18730612
Ba       0.06992567       3.98247715       0.05780899       0.06992567      -0.05156988       0.05780899
Ba       4.04141122       4.04171547       0.06937837       0.00736419       0.00766845       0.06937837
Ba      -0.07006907      -0.10108103       4.01894139      -0.07006907      -0.10108103      -0.01510563
Ba       4.02241046       0.00603281       4.12526809      -0.01163657       0.00603281       0.09122106
Ba       0.10026580       4.09166963       4.01349121       0.10026580       0.05762260      -0.02055582
Ba       4.09930876       4.00144566       4.14927215       0.06526174      -0.03260136       0.11522513
Ti       1.99005478       2.00111557       1.95563376      -0.02696874      -0.01590794      -0.06138975
Ti       5.90571246       1.90448193       2.07785415      -0.14535808      -0.11254158       0.06083064
Ti       2.04223878       6.02407679       1.92474088       0.02521527      -0.02699375      -0.09228264
Ti       5.96115467       6.07531094       1.99377424      -0.08991587       0.02424040      -0.02324927
Ti       1.87510576       2.03553982       6.05065890      -0.14191775       0.01851630      -0.00041164
Ti       5.97183468       2.01031506       6.04215635      -0.07923586      -0.00670846      -0.00891419
Ti       2.04897000       6.08655678       6.13333933       0.03194648       0.03548624       0.08226879
Ti       6.07448044       6.11134817       6.07575535       0.02340990       0.06027763       0.02468481
O       -0.07093404       2.03173679       1.94753021      -0.07093404       0.01471327      -0.06949331
O        3.84617714       1.88301547       2.00939486      -0.18786989      -0.13400804      -0.00762866
O        0.16178402       5.90064374       1.98311818       0.16178402      -0.15042680      -0.03390533
O        4.18200440       6.03822023       2.02442582       0.14795737      -0.01285031       0.00740231
O        0.00802623       1.93157719       5.94367333       0.00802623      -0.08544633      -0.10739721
O        3.98615775       1.91037230       5.91958785      -0.04788927      -0.10665121      -0.13148269
O        0.04504995       6.16062578       6.06297803       0.04504995       0.10955524       0.01190749
O        4.06652006       6.09752423       6.06351922       0.03247304       0.04645369       0.01244868
O        1.91703810      -0.11488668       1.87982989      -0.09998542      -0.11488668      -0.13719362
O        6.14254977       0.08386770       2.03295539       0.09147923       0.08386770       0.01593187
O        2.13663235       3.99696703       1.80643706       0.11960884      -0.03708000      -0.21058645
O        6.07864077       3.91373966       2.01899961       0.02757023      -0.12030736       0.00197609
O        1.96630591      -0.07905344       6.14361054      -0.05071760      -0.07905344       0.09254000
O        5.99583294      -0.08374617       5.97579156      -0.05523760      -0.08374617      -0.07527898
O        1.98657044       4.10996660       6.20768159      -0.03045308       0.07591958       0.15661105
O        6.13792361       3.99355542       5.87962081       0.08685307      -0.04049161      -0.17144973
O        2.11539654       2.01124690      -0.08189248       0.09837302      -0.00577661      -0.08189248
O        6.02321420       1.89061900      -0.07464843      -0.02785634      -0.12640452      -0.07464843
O        1.98456981       6.10107987      -0.16639997      -0.03245370       0.05000933      -0.16639997
O        6.13946200       6.11041574      -0.03359649       0.08839146       0.05934520      -0.03359649
O        1.97543485       1.96728270       4.03002291      -0.04158866      -0.04974081      -0.00402411
O        6.01588847       2.14155905       4.10858502      -0.03518207       0.12453554       0.07453800
O        1.95787165       5.95474397       3.83394913      -0.05915186      -0.09632657      -0.20009790
O        6.13643686       6.05044623       3.99391327       0.08536632      -0.00062431      -0.04013375
40
Lattice="8.068094053620356 -4.38423541214265e-18 -5.299365615194938e-18 -1.6788496834586077e-17 8.068094053620356 1.6634455206828052e-17 -2.654045609411134e-17 -6.832089622168243e-17 8.06809405362036" Properties=species:S:1:pos:R:3:u_disp:R:3 system=batio3_cubic base_model=mace_mp0 role=train_pool T=600.0 draw=6 n_tries=14 rms_disp_A=0.15437233846159715 min_pair_ratio=0.8829847942533733 nearest_heldout_A=0.14756630951323135 site_map_ok=1 nearest_heldout_src=batio3_cubic_chgnet_q0-1d2-0-b0.extxyz#3 pbc="T T T"
Ba       0.11069381       0.06359326       0.00650450       0.11069381       0.06359326       0.00650450
Ba       4.19079877      -0.04644270       0.06273980       0.15675174      -0.04644270       0.06273980
Ba      -0.13220544       4.05009655      -0.01117827      -0.13220544       0.01604952      -0.01117827
Ba       3.99920932       4.13978630       0.17381470      -0.03483770       0.10573928       0.17381470
Ba       0.00157864       0.10097572       4.12038423       0.00157864       0.10097572       0.08633720
Ba       4.02603823      -0.00324589       3.99007668      -0.00800880      -0.00324589      -0.04397034
Ba       0.05310527       3.93423797       3.89904539       0.05310527      -0.09980906      -0.13500164
Ba       3.97495001       4.04231448       4.13820066      -0.05909702       0.00826745       0.10415363
Ti       2.00485897       1.88359304       1.97977469      -0.01216454      -0.13343047      -0.03724882
Ti       5.93684184       1.93314755       1.88197800      -0.11422870      -0.08387597      -0.13504551
Ti       2.07036478       5.98729742       1.97959469       0.05334127      -0.06377312      -0.03742882
Ti       6.23574475       5.94892345       1.99775737       0.18467421      -0.10214709      -0.01926614
Ti       1.94132489       2.05849194       6.07785176      -0.07569863       0.04146842       0.02678122
Ti       5.88229891       2.05340209       6.09602425      -0.16877163       0.03637857       0.04495371
Ti       1.96262266       6.02605588       5.95040046      -0.05440085      -0.02501466      -0.10067008
Ti       6.00565493       6.11497892       5.95626117      -0.04541561       0.06390838      -0.09480937
O        0.00342948       1.97078731       2.12405966       0.00342948      -0.04623621       0.10703615
O        3.99208863       1.87345997       1.94695587      -0.04195840      -0.14356354      -0.07006765
O        0.05657157       5.83427730       2.05758042       0.05657157      -0.21679324       0.04055691
O        4.01676745       6.09876133       1.92582450      -0.01727958       0.04769079      -0.09119901
O        0.13144835       2.17889738       5.99340147       0.13144835       0.16187387      -0.05766907
O        4.11260215       1.91993677       6.24544065       0.07855512      -0.09708674       0.19437011
O        0.05039663       5.96912382       5.95216569       0.05039663      -0.08194672      -0.09890485
O        3.98305832       6.10589768       5.97839701      -0.05098871       0.05482714      -0.07267353
O        1.91396475       0.03337113       2.04527822      -0.10305876       0.03337113       0.02825471
O        6.08617146       0.02545178       1.75876692       0.03510092       0.02545178      -0.25825660
O        2.05247391       4.08488637       2.03680680       0.03545040       0.05083934       0.01978329
O        6.05007521       4.01259584       1.91887183      -0.00099533      -0.02145119      -0.09815168
O        2.00156135       0.05856043       6.14244062      -0.01546216       0.05856043       0.09137008
O        5.96254965      -0.02421326       5.99422774      -0.08852089      -0.02421326      -0.05684280
O        2.02077760       3.92494801       6.02594008       0.00375409      -0.10909902      -0.02513046
O        6.04711846       4.11545973       5.81001145      -0.00395208       0.08141270      -0.24105909
O        1.90331541       1.93779625       0.00370909      -0.11370810      -0.07922726       0.00370909
O        6.09938951       2.08465000       0.05068847       0.04831897       0.06762649       0.05068847
O        1.94792031       5.97316374      -0.05074564      -0.06910320      -0.07790680      -0.05074564
O        6.10838581       5.96565070      -0.15178841       0.05731527      -0.08541984      -0.15178841
O        2.05622959       2.01849463       3.95878462       0.03920608       0.00147111      -0.07526241
O        6.14715045       1.97487279       4.12346392       0.09607991      -0.04215072       0.08941689
O        1.92760833       6.03347258       3.90951445      -0.08941518      -0.01759796      -0.12453258
O        5.95081219       6.06224310       3.84729226      -0.10025835       0.01117256      -0.18675477
40
Lattice="8.068094053620356 -4.38423541214265e-18 -5.299365615194938e-18 -1.6788496834586077e-17 8.068094053620356 1.6634455206828052e-17 -2.654045609411134e-17 -6.832089622168243e-17 8.06809405362036" Properties=species:S:1:pos:R:3:u_disp:R:3 system=batio3_cubic base_model=mace_mp0 role=train_pool T=600.0 draw=7 n_tries=14 rms_disp_A=0.15649819778447355 min_pair_ratio=0.855397053930918 nearest_heldout_A=0.1537661630828154 site_map_ok=1 nearest_heldout_src=batio3_cubic_orb_v2_q1d2-0-1d2-b0.extxyz#3 pbc="T T T"
Ba      -0.21864864       0.11092609       0.00905644      -0.21864864       0.11092609       0.00905644
Ba       4.07754747      -0.10649295       0.06037651       0.04350045      -0.10649295       0.06037651
Ba       0.20059462       4.03042006       0.14662786       0.20059462      -0.00362697       0.14662786
Ba       3.98902353       3.95229207      -0.17731226      -0.04502350      -0.08175496      -0.17731226
Ba      -0.05109615      -0.10981579       3.88334249      -0.05109615      -0.10981579      -0.15070454
Ba       3.93653353       0.15100086       4.13493200      -0.09751349       0.15100086       0.10088497
Ba       0.11379346       4.16360122       4.00282993       0.11379346       0.12955419      -0.03121709
Ba       3.91208735       4.00103517       4.10905106      -0.12195967      -0.03301186       0.07500403
Ti       2.18478609       1.97131133       1.99225425       0.16776258      -0.04571218      -0.02476926
Ti       6.17264118       2.13615706       2.05206999       0.12157064       0.11913355       0.03504648
Ti       2.22859385       6.00242420       1.88593579       0.21157034      -0.04864634      -0.13108772
Ti       5.98073296       6.11650310       2.03911841      -0.07033758       0.06543256       0.02209490
Ti       1.97659077       1.99622582       6.09885640      -0.04043274      -0.02079770       0.04778586
Ti       6.03275736       1.96315150       6.06155663      -0.01831318      -0.05387202       0.01048609
Ti       2.01140330       6.09401464       6.02059265      -0.00562021       0.04294410      -0.03047789
Ti       6.07477645       5.98782707       6.03653391       0.02370591      -0.06324347      -0.01453663
O       -0.08013702       2.07972139       1.92976883      -0.08013702       0.06269788      -0.08725469
O        4.03158152       1.95259753       2.08976597      -0.00246550      -0.06442598       0.07274246
O        0.06869589       6.00742406       2.06508354       0.06869589      -0.04364648       0.04806002
O        3.96929244       6.14121565       1.92976569      -0.06475459       0.09014511      -0.08725782
O        0.02304800       2.07312510       6.06937043       0.02304800       0.05610158       0.01829989
O        4.24583348       1.90303311       6.00758734       0.21178646      -0.11399041      -0.04348320
O        0.05524349       5.83921006       5.92803986       0.05524349      -0.21186048      -0.12303068
O        4.12505966       5.94803322       6.12517756       0.09101263      -0.10303732       0.07410702
O        1.98224507       0.15242227       2.15834717      -0.03477844       0.15242227       0.14132366
O        6.13934070      -0.05202598       1.99166656       0.08827016      -0.05202598      -0.02535696
O        2.05078086       3.88931417       1.98367679       0.03375734      -0.14473285      -0.03334672
O        6.01779436       4.03833227       2.02718641      -0.03327618       0.00428524       0.01016289
O        1.98544231       0.05599821       6.03057446      -0.03158120       0.05599821      -0.02049608
O        5.99146349      -0.04797039       6.09086315      -0.05960705      -0.04797039       0.03979261
O        2.21737250       3.99521127       6.04868748       0.20034899      -0.03883576      -0.00238306
O        6.01566397       4.04788922       6.11409730      -0.03540657       0.01384220       0.06302676
O        1.98671366       2.07018831      -0.08632435      -0.03030985       0.05316479      -0.08632435
O        6.09232793       1.97976002       0.00665345       0.04125739      -0.03726349       0.00665345
O        2.00169053       6.05064090       0.11084763      -0.01533298      -0.00042964       0.11084763
O        6.14453602       6.04980229      -0.02021357       0.09346548      -0.00126825      -0.02021357
O        2.12165640       2.13031206       4.01114588       0.10463289       0.11328854      -0.02290115
O        6.08506440       2.05698908       3.94599211       0.03399386       0.03996556      -0.08805492
O        1.85988847       5.86341099       4.12735065      -0.15713504      -0.18765955       0.09330362
O        5.89750546       5.98320559       3.97069469      -0.15356508      -0.06786495      -0.06335234
40
Lattice="8.068094053620356 -4.38423541214265e-18 -5.299365615194938e-18 -1.6788496834586077e-17 8.068094053620356 1.6634455206828052e-17 -2.654045609411134e-17 -6.832089622168243e-17 8.06809405362036" Properties=species:S:1:pos:R:3:u_disp:R:3 system=batio3_cubic base_model=mace_mp0 role=train_pool T=600.0 draw=8 n_tries=14 rms_disp_A=0.1567480808122934 min_pair_ratio=0.8267747803647287 nearest_heldout_A=0.15142399380320304 site_map_ok=1 nearest_heldout_src=batio3_cubic_chgnet_q0-1d2-0-b0.extxyz#3 pbc="T T T"
Ba       0.02245480       0.09969669      -0.11000346       0.02245480       0.09969669      -0.11000346
Ba       3.89074031       0.13592441       0.00599292      -0.14330672       0.13592441       0.00599292
Ba       0.05682699       3.99973551       0.05254486       0.05682699      -0.03431152       0.05254486
Ba       4.05870356       3.95078811      -0.00003801       0.02465653      -0.08325891      -0.00003801
Ba      -0.04956322      -0.09118166       4.08353104      -0.04956322      -0.09118166       0.04948401
Ba       4.11348486      -0.01368715       4.06840676       0.07943784      -0.01368715       0.03435973
Ba       0.02878069       3.95923946       3.96196756       0.02878069      -0.07480757      -0.07207946
Ba       3.93756431       4.07219694       4.03127774      -0.09648271       0.03814992      -0.00276929
Ti       2.04554716       1.86098973       1.94138520       0.02852365      -0.15603378      -0.07563832
Ti       5.98814214       1.94920966       1.95748587      -0.06292840      -0.06781385      -0.05953764
Ti       1.96869078       6.06002821       2.11768210      -0.04833274       0.00895767       0.10065859
Ti       6.01694261       6.08324286       1.91939904      -0.03412793       0.03217232      -0.09762448
Ti       2.00646469       1.98204911       5.97472665      -0.01055882      -0.03497440      -0.07634389
Ti       6.04739609       2.14447626       6.03006050      -0.00367445       0.12745275      -0.02101004
Ti       2.16117723       5.94591375       6.16004002       0.14415372      -0.10515679       0.10896948
Ti       6.01194445       6.14178858       6.08094974      -0.03912609       0.09071804       0.02987920
O        0.16634463       2.01988750       1.82727753       0.16634463       0.00286398      -0.18974598
O        4.32760206       1.89065481       2.09943074       0.29355503      -0.12636871       0.08240722
O       -0.05254005       6.16522080       2.05348882      -0.05254005       0.11415026       0.03646531
O        3.80518984       6.09045013       2.08818438      -0.22885719       0.03937959       0.07116086
O        0.02400353       2.15686369       6.18519685       0.02400353       0.13984018       0.13412631
O        4.08052057       1.99545017       6.04136879       0.04647354      -0.02157334      -0.00970175
O       -0.07450392       5.97721580       6.01492561      -0.07450392      -0.07385474      -0.03614493
O        4.05684264       6.04523710       6.19649197       0.02279561      -0.00583344       0.14542143
O        2.05297690       0.01092081       2.02243781       0.03595338       0.01092081       0.00541430
O        6.18685572       0.08860960       2.03831888       0.13578517       0.08860960       0.02129537
O        2.01538229       3.97603664       2.02715493      -0.00164123      -0.05801039       0.01013141
O        6.01714200       4.13092401       2.10497442      -0.03392854       0.09687698       0.08795090
O        1.91386795       0.01599276       6.01837432      -0.10315556       0.01599276      -0.03269623
O        6.01925379       0.01961621       6.07150647      -0.03181675       0.01961621       0.02043593
O        2.12686918       4.00999041       6.03904133       0.10984566      -0.02405662      -0.01202921
O        5.98502352       4.01611604       6.06487282      -0.06604702      -0.01793099       0.01380228
O        2.23462295       1.99873389       0.00394186       0.21759944      -0.01828963       0.00394186
O        6.25767427       2.05058863      -0.03390801       0.20660373       0.03356512      -0.03390801
O        1.99778665       6.01588283      -0.00099234      -0.01923687      -0.03518771      -0.00099234
O        5.97045204       6.14805716       0.11049505      -0.08061850       0.09698662       0.11049505
O        2.08682568       1.84621851       3.93963241       0.06980216      -0.17080500      -0.09441461
O        6.24802074       2.16513022       4.05923911       0.19695020       0.14810671       0.02519208
O        2.03693541       6.16858957       4.18786167       0.01991190       0.11751903       0.15381465
O        5.93838317       6.19322782       4.15768634      -0.11268737       0.14215728       0.12363931
40
Lattice="8.068094053620356 -4.38423541214265e-18 -5.299365615194938e-18 -1.6788496834586077e-17 8.068094053620356 1.6634455206828052e-17 -2.654045609411134e-17 -6.832089622168243e-17 8.06809405362036" Properties=species:S:1:pos:R:3:u_disp:R:3 system=batio3_cubic base_model=mace_mp0 role=train_pool T=600.0 draw=9 n_tries=14 rms_disp_A=0.1770731343304959 min_pair_ratio=0.8490806566852694 nearest_heldout_A=0.16594193409592295 site_map_ok=1 nearest_heldout_src=batio3_cubic_chgnet_q0-0-0-b0.extxyz#4 pbc="T T T"
Ba       0.12032190       0.00125856      -0.05968882       0.12032190       0.00125856      -0.05968882
Ba       4.04643499      -0.11796453      -0.01349125       0.01238797      -0.11796453      -0.01349125
Ba       0.09237270       3.91633327      -0.15164020       0.09237270      -0.11771376      -0.15164020
Ba       3.94469094       4.14036774       0.01292001      -0.08935609       0.10632072       0.01292001
Ba      -0.05072410       0.22578580       4.15004086      -0.05072410       0.22578580       0.11599383
Ba       4.08911262      -0.07742375       3.93765728       0.05506559      -0.07742375      -0.09638975
Ba      -0.05040339       4.04890091       4.03558360      -0.05040339       0.01485388       0.00153658
Ba       3.93211022       4.07950750       3.94674853      -0.10193681       0.04546047      -0.08729850
Ti       2.04788925       2.02306176       1.94964587       0.03086574       0.00603825      -0.06737764
Ti       6.07568092       2.03592806       2.05370059       0.02461038       0.01890455       0.03667708
Ti       2.02503668       6.09155942       2.04664600       0.00801317       0.04048888       0.02962249
Ti       6.22974675       6.20843566       2.06942336       0.17867621       0.15736512       0.05239984
Ti       2.05326219       2.03100690       6.11171468       0.03623868       0.01398339       0.06064414
Ti       6.00127784       1.98253212       6.18102193      -0.04979270      -0.03449139       0.12995139
Ti       1.93752520       6.03488810       5.89576517      -0.07949832      -0.01618244      -0.15530537
Ti       6.00341791       5.88902899       6.10159213      -0.04765264      -0.16204155       0.05052159
O       -0.00528359       1.88750145       1.92401469      -0.00528359      -0.12952207      -0.09300882
O        3.93688080       2.04926903       2.10721087      -0.09716623       0.03224552       0.09018735
O       -0.07568437       6.11501778       1.89577053      -0.07568437       0.06394724      -0.12125298
O        4.05014018       6.16646487       1.99689832       0.01609315       0.11539433      -0.02012519
O       -0.00849497       2.00750236       6.17145967      -0.00849497      -0.00952115       0.12038913
O        4.05667839       1.83638623       6.19678161       0.02263136      -0.18063729       0.14571107
O        0.09228252       5.89544085       6.22290543       0.09228252      -0.15562969       0.17183489
O        4.02781062       6.11640754       5.99976658      -0.00623640       0.06533700      -0.05130396
O        1.99705986      -0.04780274       2.15206701      -0.01996365      -0.04780274       0.13504349
O        6.11892598      -0.10805453       2.34260955       0.06785544      -0.10805453       0.32558603
O        2.01595203       4.05339249       1.92199279      -0.00107149       0.01934546      -0.09503072
O        6.01500539       3.93758246       2.23526905      -0.03606515      -0.09646456       0.21824553
O        2.05781460      -0.02713949       6.26292610       0.04079108      -0.02713949       0.21185556
O        5.93297042      -0.01177609       6.03163624      -0.11810012      -0.01177609      -0.01943430
O        2.06400573       3.99114310       5.93071392       0.04698222      -0.04290393      -0.12035662
O        5.85758880       4.16792294       6.27969653      -0.19348174       0.13387592       0.22862599
O        2.01816125       1.92018485       0.10068310       0.00113773      -0.09683866       0.10068310
O        6.08987431       1.95878014       0.05988571       0.03880377      -0.05824338       0.05988571
O        2.15878054       5.85107930       0.15514871       0.14175703      -0.19999124       0.15514871
O        6.12961703       6.03158947       0.05356848       0.07854649      -0.01948107       0.05356848
O        1.96658442       2.03961195       4.18589310      -0.05043909       0.02258844       0.15184607
O        5.99369986       2.05385105       4.27595405      -0.05737068       0.03682753       0.24190702
O        1.85955670       6.02869193       4.18493646      -0.15746682      -0.02237861       0.15088943
O        6.13280023       6.00427985       3.96952084       0.08172969      -0.04679069      -0.06452618
40
Lattice="8.068094053620356 -4.38423541214265e-18 -5.299365615194938e-18 -1.6788496834586077e-17 8.068094053620356 1.6634455206828052e-17 -2.654045609411134e-17 -6.832089622168243e-17 8.06809405362036" Properties=species:S:1:pos:R:3:u_disp:R:3 system=batio3_cubic base_model=mace_mp0 role=train_pool T=600.0 draw=10 n_tries=14 rms_disp_A=0.17952401789757216 min_pair_ratio=0.8705005236634097 nearest_heldout_A=0.17445200001591257 site_map_ok=1 nearest_heldout_src=batio3_cubic_chgnet_q0-1d2-0-b0.extxyz#3 pbc="T T T"
Ba       0.14669156      -0.06700516      -0.06407958       0.14669156      -0.06700516      -0.06407958
Ba       4.11753754       0.05343381      -0.09804191       0.08349051       0.05343381      -0.09804191
Ba      -0.18405452       4.09172773       0.22825035      -0.18405452       0.05768070       0.22825035
Ba       3.97822371       4.01469594      -0.11274341      -0.05582332      -0.01935108      -0.11274341
Ba      -0.02568565      -0.09536935       4.02160769      -0.02568565      -0.09536935      -0.01243933
Ba       4.06716762      -0.00224634       3.98038177       0.03312059      -0.00224634      -0.05366526
Ba      -0.16584428       4.07871510       4.07912262      -0.16584428       0.04466808       0.04507560
Ba       4.00082950       4.12014095       4.02533481      -0.03321753       0.08609392      -0.00871222
Ti       2.06692850       2.02860224       1.98259036       0.04990499       0.01157873      -0.03443315
Ti       6.07415945       1.96331316       2.02868852       0.02308891      -0.05371035       0.01166500
Ti       2.09231765       6.02445051       2.07451063       0.07529414      -0.02662003       0.05748711
Ti       6.07856032       6.04209685       2.02051181       0.02748978      -0.00897369       0.00348830
Ti       1.93954838       2.10788508       5.96888414      -0.07747513       0.09086156      -0.08218640
Ti       5.96444164       1.98087266       6.07866714      -0.08662890      -0.03615086       0.02759660
Ti       2.18327077       6.10988949       6.18178256       0.16624725       0.05881895       0.13071202
Ti       6.12317970       5.99306274       6.21382350       0.07210916      -0.05800780       0.16275296
O        0.06003491       2.08874514       2.04134390       0.06003491       0.07172163       0.02432039
O        4.00859757       1.72374846       1.98967623      -0.02544946      -0.29327505      -0.02734728
O       -0.06236463       5.94274912       2.10308764      -0.06236463      -0.10832142       0.08606413
O        3.93656322       6.13171983       1.95387138      -0.09748381       0.08064929      -0.06315213
O        0.13666213       2.06132317       5.98538664       0.13666213       0.04429966      -0.06568390
O        4.19157405       2.20244161       6.03524047       0.15752703       0.18541809      -0.01583007
O        0.04636047       6.25658705       6.08885838       0.04636047       0.20551651       0.03778784
O        4.22725182       5.93918621       6.16763899       0.19320479      -0.11188433       0.11656845
O        1.84607361      -0.00917427       2.00891498      -0.17094991      -0.00917427      -0.00810853
O        6.15580939      -0.04527350       2.01980818       0.10473885      -0.04527350       0.00278467
O        2.05928419       4.16721259       2.01544256       0.04226068       0.13316556      -0.00158095
O        5.90892821       3.86686856       1.90886139      -0.14214233      -0.16717847      -0.10816213
O        2.17373819       0.01032898       6.13811606       0.15671468       0.01032898       0.08704552
O        5.98962709      -0.15708889       5.88312584      -0.06144345      -0.15708889      -0.16794470
O        2.03003086       4.22259631       6.03192620       0.01300734       0.18854928      -0.01914434
O        6.23504493       3.93157819       6.10312779       0.18397439      -0.10246884       0.05205725
O        2.14436706       1.97062768       0.08433407       0.12734354      -0.04639583       0.08433407
O        6.13282314       1.89500947      -0.07846091       0.08175260      -0.12201405      -0.07846091
O        2.16295946       5.84785231      -0.03733108       0.14593595      -0.20321823      -0.03733108
O        6.24900914       6.04634546      -0.06398141       0.19793860      -0.00472508      -0.06398141
O        1.95554682       2.14391144       4.21350665      -0.06147669       0.12688793       0.17945963
O        5.94589343       2.07060641       4.06982244      -0.10517711       0.05358289       0.03577541
O        2.12638515       6.07120431       4.02552922       0.10936164       0.02013377      -0.00851781
O        6.00070435       5.87125329       3.81950108      -0.05036619      -0.17981725      -0.21454594
40
Lattice="8.068094053620356 -4.38423541214265e-18 -5.299365615194938e-18 -1.6788496834586077e-17 8.068094053620356 1.6634455206828052e-17 -2.654045609411134e-17 -6.832089622168243e-17 8.06809405362036" Properties=species:S:1:pos:R:3:u_disp:R:3 system=batio3_cubic base_model=mace_mp0 role=train_pool T=600.0 draw=11 n_tries=14 rms_disp_A=0.15371457217195347 min_pair_ratio=0.850844588958116 nearest_heldout_A=0.14655116618970948 site_map_ok=1 nearest_heldout_src=batio3_cubic_chgnet_q1d2-1d2-0-b0.extxyz#3 pbc="T T T"
Ba      -0.12750753      -0.05417734       0.12135711      -0.12750753      -0.05417734       0.12135711
Ba       4.00255826      -0.00825512      -0.08992415      -0.03148876      -0.00825512      -0.08992415
Ba      -0.16771296       4.08014972      -0.07207637      -0.16771296       0.04610269      -0.07207637
Ba       3.99275969       4.01445339      -0.00513864      -0.04128734      -0.01959364      -0.00513864
Ba       0.03242741       0.06303786       4.19744433       0.03242741       0.06303786       0.16339730
Ba       4.11100493       0.03444869       4.08732316       0.07695790       0.03444869       0.05327613
Ba       0.07584627       4.16699294       3.99346335       0.07584627       0.13294591      -0.04058368
Ba       4.06092369       3.89607001       3.89696956       0.02687667      -0.13797701      -0.13707747
Ti       2.10171329       2.04504720       1.99863907       0.08468978       0.02802369      -0.01838445
Ti       6.10894997       2.01590775       2.10386677       0.05787943      -0.00111576       0.08684326
Ti       2.01388874       6.04024682       2.12815204      -0.00313477      -0.01082372       0.11112853
Ti       6.04537651       6.07466799       1.92103395      -0.00569403       0.02359745      -0.09598956
Ti       1.91646120       1.98147719       6.05560090      -0.10056232      -0.03554632       0.00453036
Ti       5.97591806       1.96303459       5.98626054      -0.07515248      -0.05398893      -0.06481000
Ti       2.10666339       6.05185096       6.04181405       0.08963988       0.00078042      -0.00925649
Ti       6.03557961       5.97839483       5.99567944      -0.01549093      -0.07267571      -0.05539110
O       -0.11304717       2.17764622       2.01845502      -0.11304717       0.16062270       0.00143150
O        3.87397509       2.10758723       2.00982533      -0.16007194       0.09056372      -0.00719818
O        0.08675891       5.89813022       2.01671982       0.08675891      -0.15294032      -0.00030369
O        4.05471128       5.83516493       2.01974576       0.02066425      -0.21590561       0.00272225
O        0.20083657       2.01918150       6.03410302       0.20083657       0.00215799      -0.01696752
O        4.14409689       1.90173078       6.11508417       0.11004986      -0.11529273       0.06401363
O        0.02073909       5.93677744       6.12875487       0.02073909      -0.11429310       0.07768433
O        4.15792770       6.11185714       5.96568712       0.12388067       0.06078660      -0.08538342
O        1.96734633      -0.11802155       2.16464375      -0.04967718      -0.11802155       0.14762024
O        5.98229379      -0.05635350       2.16476691      -0.06877675      -0.05635350       0.14774340
O        2.03784331       3.96728338       1.97717770       0.02081979      -0.06676364      -0.03984582
O        6.18751901       4.07577183       1.88248845       0.13644847       0.04172480      -0.13453506
O        2.18396933       0.01825004       5.99785577       0.16694582       0.01825004      -0.05321477
O        6.06040263       0.08998023       5.99857758       0.00933209       0.08998023      -0.05249296
O        2.19455446       4.13607935       5.98224153       0.17753095       0.10203233      -0.06882901
O        6.01999274       4.02261722       6.20480556      -0.03107780      -0.01142981       0.15373502
O        2.16136248       1.90096215       0.11094201       0.14433897      -0.11606136       0.11094201
O        6.05870962       2.00781538      -0.03982470       0.00763908      -0.00920814      -0.03982470
O        2.07010350       6.13799364      -0.18690730       0.05307998       0.08692310      -0.18690730
O        6.03196673       6.14981492       0.12401064      -0.01910381       0.09874438       0.12401064
O        2.11357751       2.13545527       4.06727817       0.09655400       0.11843175       0.03323114
O        6.13303283       2.06554031       4.05362041       0.08196229       0.04851680       0.01957338
O        2.09402821       6.01508502       4.04734440       0.07700469      -0.03598552       0.01329738
O        6.20000987       6.02361050       4.00530049       0.14893933      -0.02746004      -0.02874653
40
Lattice="8.068094053620356 -4.38423541214265e-18 -5.299365615194938e-18 -1.6788496834586077e-17 8.068094053620356 1.6634455206828052e-17 -2.654045609411134e-17 -6.832089622168243e-17 8.06809405362036" Properties=species:S:1:pos:R:3:u_disp:R:3 system=batio3_cubic base_model=mace_mp0 role=train_pool T=600.0 draw=12 n_tries=14 rms_disp_A=0.1743980549728542 min_pair_ratio=0.8434674396828779 nearest_heldout_A=0.1671033812886595 site_map_ok=1 nearest_heldout_src=batio3_cubic_sevennet0_q1d2-0-0-b0.extxyz#4 pbc="T T T"
Ba      -0.03726393       0.09105011       0.01584998      -0.03726393       0.09105011       0.01584998
Ba       4.00605711      -0.08229009       0.03207741      -0.02798992      -0.08229009       0.03207741
Ba      -0.02248039       4.04696491       0.00021969      -0.02248039       0.01291789       0.00021969
Ba       3.96562070       4.05446951       0.03748310      -0.06842632       0.02042248       0.03748310
Ba      -0.03354143      -0.09991894       3.99400362      -0.03354143      -0.09991894      -0.04004341
Ba       4.08929352       0.02937563       4.09279011       0.05524650       0.02937563       0.05874308
Ba       0.07003049       4.05192469       4.14212003       0.07003049       0.01787766       0.10807300
Ba       4.04458089       4.00997963       4.01298107       0.01053387      -0.02406739      -0.02106595
Ti       2.05712151       1.96854345       2.13109471       0.04009800      -0.04848007       0.11407120
Ti       6.13099721       2.10284085       2.04488766       0.07992667       0.08581733       0.02786415
Ti       2.05832378       6.05818070       1.86440677       0.04130027       0.00711016      -0.15261675
Ti       6.04614737       6.11749995       1.86047539      -0.00492317       0.06642941      -0.15654812
Ti       2.03596202       1.97947660       6.09419558       0.01893850      -0.03754691       0.04312504
Ti       5.98777750       2.03426997       5.97644418      -0.06329304       0.01724646      -0.07462636
Ti       2.05508388       6.08531963       6.05543046       0.03806036       0.03424909       0.00435992
Ti       6.02557866       6.05582059       5.92290067      -0.02549188       0.00475005      -0.12816987
O        0.02023557       1.80745657       1.90242821       0.02023557      -0.20956694      -0.11459530
O        3.99556590       2.08875843       2.07733395      -0.03848113       0.07173492       0.06031043
O       -0.04307715       6.02707764       1.97158975      -0.04307715      -0.02399290      -0.04543376
O        4.04248118       6.05159741       1.70349607       0.00843415       0.00052687      -0.31352744
O        0.06963549       1.81978255       6.09834186       0.06963549      -0.19724097       0.04727132
O        4.06476439       1.81933562       6.15082083       0.03071736      -0.19768789       0.09975029
O       -0.06350888       6.11116360       5.94930631      -0.06350888       0.06009306      -0.10176423
O        3.84675979       5.87504347       6.03624439      -0.18728723      -0.17602707      -0.01482615
O        2.08169343       0.14818732       2.22712832       0.06466992       0.14818732       0.21010481
O        6.09846114      -0.11656605       1.97803246       0.04739060      -0.11656605      -0.03899105
O        2.09665373       4.36013270       1.96220200       0.07963022       0.32608567      -0.05482151
O        6.05585804       3.96469848       1.90291768       0.00478750      -0.06934855      -0.11410584
O        2.10561740       0.04621659       6.23259388       0.08859388       0.04621659       0.18152334
O        6.17073573      -0.06322953       6.01096872       0.11966519      -0.06322953      -0.04010182
O        1.99335294       3.97925804       6.05614957      -0.02367057      -0.05478898       0.00507903
O        6.24307374       3.89030022       5.92001109       0.19200320      -0.14374681      -0.13105945
O        2.03340063       2.14232823       0.04395884       0.01637712       0.12530472       0.04395884
O        5.89756763       2.11075108      -0.13431248      -0.15350291       0.09372757      -0.13431248
O        2.02444261       6.23304907       0.02907426       0.00741909       0.18197853       0.02907426
O        6.15486137       6.03839545      -0.29069733       0.10379083      -0.01267509      -0.29069733
O        2.18472830       2.05028151       4.09915458       0.16770478       0.03325800       0.06510755
O        5.94042936       2.08836194       3.96351706      -0.11064118       0.07133843      -0.07052997
O        1.86712060       6.12167733       4.12706524      -0.14990291       0.07060679       0.09301821
O        5.88982409       5.99647981       3.98629860      -0.16124645      -0.05459073      -0.04774843
40
Lattice="8.068094053620356 -4.38423541214265e-18 -5.299365615194938e-18 -1.6788496834586077e-17 8.068094053620356 1.6634455206828052e-17 -2.654045609411134e-17 -6.832089622168243e-17 8.06809405362036" Properties=species:S:1:pos:R:3:u_disp:R:3 system=batio3_cubic base_model=mace_mp0 role=train_pool T=600.0 draw=13 n_tries=14 rms_disp_A=0.18177944373911317 min_pair_ratio=0.8641906994570168 nearest_heldout_A=0.17088458885809296 site_map_ok=1 nearest_heldout_src=batio3_cubic_sevennet0_q1d2-0-0-b0.extxyz#4 pbc="T T T"
Ba       0.00071910      -0.16304527       0.04359717       0.00071910      -0.16304527       0.04359717
Ba       3.92549221      -0.00694099       0.03920758      -0.10855481      -0.00694099       0.03920758
Ba       0.10185629       3.95121585      -0.10270034       0.10185629      -0.08283118      -0.10270034
Ba       3.78939821       4.00511145      -0.01020478      -0.24464881      -0.02893558      -0.01020478
Ba       0.11394678       0.15512858       4.04371060       0.11394678       0.15512858       0.00966357
Ba       4.12298992       0.00430242       4.06825224       0.08894290       0.00430242       0.03420521
Ba      -0.05631629       4.13878254       4.02650815      -0.05631629       0.10473551      -0.00753888
Ba       4.00798572       4.03248659       4.00718785      -0.02606131      -0.00156044      -0.02685917
Ti       1.97725404       2.05225129       2.00243839      -0.03976947       0.03522777      -0.01458513
Ti       6.04893219       2.08509827       2.02785725      -0.00213835       0.06807476       0.01083373
Ti       2.06551558       6.15526911       2.16871016       0.04849207       0.10419857       0.15168665
Ti       5.98768900       6.08095222       1.91044347      -0.06338154       0.02988168      -0.10658005
Ti       2.11347113       1.90318347       6.00264066       0.09644762      -0.11384005      -0.04842988
Ti       6.04262127       2.04068624       6.07414520      -0.00844927       0.02366273       0.02307466
Ti       1.87482540       6.00107767       6.02900464      -0.14219811      -0.04999287      -0.02206590
Ti       5.89476094       6.09602628       6.00019181      -0.15630960       0.04495574      -0.05087873
O        0.23888621       2.17735326       1.97415674       0.23888621       0.16032974      -0.04286678
O        4.13498665       1.87578992       2.21591496       0.10093963      -0.14123359       0.19889145
O       -0.01457697       5.96895305       2.01617713      -0.01457697      -0.08211749      -0.00084638
O        3.92403595       5.97036646       1.93670502      -0.11001108      -0.08070408      -0.08031850
O        0.21105425       2.05889745       6.05437871       0.21105425       0.04187393       0.00330817
O        4.13056150       1.99136261       6.06040044       0.09651448      -0.02566090       0.00932990
O        0.04057620       5.88223500       5.94161319       0.04057620      -0.16883554      -0.10945735
O        4.08809821       5.95873662       5.99155056       0.05405119      -0.09233392      -0.05951998
O        2.02433580      -0.02391169       2.10412151       0.00731229      -0.02391169       0.08709799
O        6.05269188      -0.18533180       1.97400085       0.00162134      -0.18533180      -0.04302267
O        2.21117686       4.05369455       2.07231426       0.19415334       0.01964752       0.05529074
O        6.13864998       3.85538457       2.07560262       0.08757944      -0.17866245       0.05857910
O        2.10749554       0.05323342       6.01600340       0.09047203       0.05323342      -0.03506714
O        6.12670025      -0.06498755       6.08984909       0.07562971      -0.06498755       0.03877855
O        2.21150311       4.08863597       6.02211549       0.19447960       0.05458894      -0.02895505
O        5.89644141       3.95483063       6.20525837      -0.15462913      -0.07921639       0.15418783
O        2.22383423       2.06638145       0.09536411       0.20681071       0.04935794       0.09536411
O        6.08030338       1.97771685       0.02926331       0.02923284      -0.03930666       0.02926331
O        2.11316557       6.23787726      -0.15581105       0.09614206       0.18680672      -0.15581105
O        5.92123288       6.05456361       0.08346200      -0.12983766       0.00349307       0.08346200
O        2.31278305       2.19897304       4.14908089       0.29575954       0.18194952       0.11503386
O        6.22942463       1.88697601       4.05107747       0.17835409      -0.13004751       0.01703044
O        2.04931373       6.36488363       3.99687022       0.03229022       0.31381309      -0.03717681
O        6.14481482       6.01733025       4.02890777       0.09374428      -0.03374029      -0.00513926
