40
Lattice="8.07229364156986 2.904777715589395e-07 3.5974003450358844e-07 2.9047805627122115e-07 8.072288850344885 -1.5906224019387422e-06 3.5973984946264966e-07 -1.5906229804257139e-06 8.072291048783132" Properties=species:S:1:pos:R:3:u_disp:R:3 system=batio3_cubic base_model=chgnet role=train_pool T=100.0 draw=0 n_tries=13 rms_disp_A=0.09382251701054947 min_pair_ratio=0.9137720287632994 nearest_heldout_A=0.09166492763883796 site_map_ok=1 nearest_heldout_src=batio3_cubic_mace_mp0_q1d2-0-0-b0.extxyz#2 pbc="T T T"
Ba      -0.06041444       4.06291498       4.01844127      -0.06041635       0.02677269      -0.01770314
Ba       4.07653062       3.87792486       4.07581865       0.04038190      -0.15821757       0.03967406
Ba      -0.01024068       8.09675248       3.99236852      -0.01024272       0.02446576      -0.04377510
Ba       4.05437862       8.06321017       4.08536415       0.01822975      -0.00907669       0.04922035
Ba      -0.02848896       4.07234563       8.09929323      -0.02849104       0.03620414       0.02700329
Ba       4.07259613       4.03043688       8.04947543       0.03644723      -0.00570476      -0.02281469
Ba       0.03793124       8.13224985       8.11429412       0.03792901       0.05996394       0.04200498
Ba       4.01095298       8.00804220       8.06270025      -0.02519606      -0.06424386      -0.00958907
Ti       2.06287927       2.06201953       1.97356818       0.04480434       0.04394648      -0.04450482
Ti       6.11180373       1.93344868       2.02321472       0.05758199      -0.08462452       0.00514154
Ti       2.05153239       6.10508700       2.03226559       0.03345732       0.05086952       0.01419339
Ti       6.02946844       6.11786408       2.03806110      -0.02475345       0.06364646       0.01998872
Ti       1.92480417       2.06743859       5.98445671      -0.09327093       0.04936633      -0.06976181
Ti       5.98952730       2.00940068       6.00927713      -0.06469462      -0.00867172      -0.04494157
Ti       2.00011259       6.07908494       6.00679187      -0.01796266       0.02486826      -0.04742585
Ti       6.09934461       6.00800824       6.05437156       0.04512255      -0.04620859       0.00015365
O        4.09751995       2.07404898       1.95242762       0.06137528       0.05597586      -0.06564521
O        8.18669068       2.07156350       1.99057583       0.11439918       0.05349024      -0.02749718
O        3.99515688       6.08091153       2.02657502      -0.04098794       0.02669400       0.00850298
O        7.91542970       6.10373797       2.10605842      -0.15686194       0.04952029       0.08798620
O        4.00524758       2.03585936       5.92048706      -0.03089727       0.01778705      -0.13373130
O        8.12394721       2.05295240       6.03317742       0.05165554       0.03487994      -0.02104112
O        4.05492814       5.93495793       6.02136010       0.01878315      -0.11925881      -0.03285746
O        8.04399878       6.09142544       6.06686618      -0.02829304       0.03720855       0.01264843
O        2.03083004       4.06312209       2.11209737       0.01275671       0.02697975       0.09402574
O        6.07369611       4.05666035       2.07055849       0.01947595       0.02051787       0.05248668
O        2.02660229       8.06717051       2.00180201       0.00852881      -0.00511625      -0.01626882
O        6.05082012       8.13309097       2.08564135      -0.00340017       0.06080406       0.06757034
O        1.95693929       4.09527176       6.04999749      -0.06113422       0.05913023      -0.00421967
O        6.10758416       3.99093762       6.07985078       0.05336383      -0.04520406       0.02563344
O        1.97401735       8.00803855       5.99296249      -0.04405630      -0.06424741      -0.06125387
O        5.97414450       8.06051697       6.00706330      -0.08007598      -0.01176914      -0.04715324
O        2.08373887       2.06540610       0.00857459       0.06566567       0.04733301       0.00857480
O        5.98414999       1.95038775      -0.06171035      -0.07007004      -0.06768549      -0.06171032
O        1.93119356       6.10184133       0.07474513      -0.08687979       0.04762381       0.07474613
O        6.12721128       6.08988759      -0.02972825       0.07299110       0.03566993      -0.02972742
O        2.05638300       2.03880983       4.10957057       0.03830961       0.02073753       0.07342525
O        6.12767989       2.09935140       4.02776905       0.07345968       0.08127895      -0.00837644
O        2.03757203       6.05212419       3.99360276       0.01949850      -0.00209253      -0.04254176
O        6.03142461       6.18623580       4.03316188      -0.02279574       0.13201893      -0.00298282
40
Lattice="8.07229364156986 2.904777715589395e-07 3.5974003450358844e-07 2.9047805627122115e-07 8.072288850344885 -1.5906224019387422e-06 3.5973984946264966e-07 -1.5906229804257139e-06 8.072291048783132" Properties=species:S:1:pos:R:3:u_disp:R:3 system=batio3_cubic base_model=chgnet role=train_pool T=100.0 draw=1 n_tries=13 rms_disp_A=0.10225955052693153 min_pair_ratio=0.9159167662999708 nearest_heldout_A=0.09944143661953726 site_map_ok=1 nearest_heldout_src=batio3_cubic_chgnet_q0-0-0-b2.extxyz#3 pbc="T T T"
Ba       0.09910566       4.02336794       4.10227288       0.09910376      -0.01277435       0.06612846
Ba       4.04676625       4.05673941       3.97334172       0.01061753       0.02059697      -0.06280288
Ba       0.06072841       8.01401368       4.07264065       0.06072636      -0.05827303       0.03649704
Ba       4.02372111       8.03031625       4.03440421      -0.01242775      -0.04197061      -0.00173958
Ba      -0.12105215       4.06639313       8.05640300      -0.12105423       0.03025164      -0.01588694
Ba       4.05471672       4.06702805       8.07520004       0.01856782       0.03088641       0.00290992
Ba      -0.06663408       8.12019803       8.09814170      -0.06663630       0.04791211       0.02585256
Ba       4.06446187       8.11581391       7.97481378       0.02831282       0.04352785      -0.09747554
Ti       1.98409790       2.04041576       2.02705714      -0.03397702       0.02234271       0.00898414
Ti       6.02426980       2.06256032       2.04885746      -0.02995195       0.04448712       0.03078429
Ti       2.03023285       6.08438657       1.95909438       0.01215778       0.03016909      -0.05897782
Ti       6.03242236       5.99839930       2.00024255      -0.02179953      -0.05581833      -0.01782983
Ti       2.02420053       2.04503284       6.11728649       0.00612543       0.02696058       0.06306797
Ti       6.07486954       1.97565397       6.05582638       0.02064761      -0.04241844       0.00160769
Ti       1.99803194       6.02841112       6.08712101      -0.02004331      -0.02580557       0.03290329
Ti       6.07983007       6.08376507       6.02348376       0.02560800       0.02954825      -0.03073414
O        4.02577647       1.96319293       2.06904622      -0.01036821      -0.05488019       0.05097339
O        8.12413741       1.99316660       1.80920487       0.05184592      -0.02490666      -0.20886814
O        4.10791972       6.03941814       1.91043875       0.07177491      -0.01479939      -0.10763329
O        8.11940214       6.00339940       2.07490653       0.04711050      -0.05081829       0.05683431
O        3.96942228       2.12705470       6.05905867      -0.06672258       0.10898238       0.00484031
O        8.04958215       2.06232687       6.13429002      -0.02270953       0.04425441       0.08007148
O        4.08439114       6.08826529       6.06666626       0.04824614       0.03404855       0.01244870
O        8.11217627       6.07586335       6.09278720       0.03988445       0.02164646       0.03856946
O        2.02230864       3.88838784       2.03484478       0.00423531      -0.14775449       0.01677315
O        6.09071336       3.98719671       2.13269480       0.03649321      -0.04894577       0.11462299
O        1.98981558       7.97193421       2.07089943      -0.02825789      -0.10035255       0.05282860
O        6.05175647       8.05923427       2.04077372      -0.00246382      -0.01305263       0.02270271
O        1.95927365       4.00050768       6.14099176      -0.05879986      -0.03563386       0.08677461
O        6.10543951       4.07329711       6.03198691       0.05121918       0.03715543      -0.02223043
O        1.95729399       7.95390681       6.05401705      -0.06077966      -0.11837915      -0.00019931
O        6.04507499       8.08231534       6.03532171      -0.00914549       0.01002923      -0.01889483
O        2.07295725       1.87799688       0.08849482       0.05488404      -0.14007622       0.08849503
O        5.98267997       1.99971650      -0.07479010      -0.07154006      -0.01835674      -0.07479007
O        2.08853097       6.06089164      -0.00516037       0.07045762       0.00667412      -0.00515937
O        5.97049946       5.92003665       0.00064248      -0.08372071      -0.13418102       0.00064331
O        1.99775200       2.07947583       4.04826655      -0.02032139       0.06140353       0.01212124
O        6.08949026       2.14919868       4.07917181       0.03527005       0.13112623       0.04302631
O        2.02070674       6.02138559       4.10518886       0.00263320      -0.03283113       0.06904434
O        5.95063792       5.92936693       4.03324507      -0.10358243      -0.12484994      -0.00289963
40
Lattice="8.07229364156986 2.904777715589395e-07 3.5974003450358844e-07 2.9047805627122115e-07 8.072288850344885 -1.5906224019387422e-06 3.5973984946264966e-07 -1.5906229804257139e-06 8.072291048783132" Properties=species:S:1:pos:R:3:u_disp:R:3 system=batio3_cubic base_model=chgnet role=train_pool T=100.0 draw=2 n_tries=13 rms_disp_A=0.08572225107589253 min_pair_ratio=0.9397672979539979 nearest_heldout_A=0.08189472579629496 site_map_ok=1 nearest_heldout_src=batio3_cubic_chgnet_q0-0-0-b2.extxyz#2 pbc="T T T"
Ba      -0.03286480       3.94902349       4.00910418      -0.03286670      -0.08711880      -0.02704023
Ba       3.99493054       4.11045170       4.05799027      -0.04121818       0.07430927       0.02184568
Ba      -0.02427411       8.01184220       4.01878944      -0.02427615      -0.06044451      -0.01735418
Ba       3.98820946       8.06778847       4.00161842      -0.04793941      -0.00449838      -0.03452538
Ba       0.02427235       3.99044516       8.11800199       0.02427027      -0.04569633       0.04571205
Ba       3.99950813       4.05919360       8.01484311      -0.03664078       0.02305196      -0.05744701
Ba       0.03445484       8.08310638       8.07025774       0.03445261       0.01082046      -0.00203140
Ba       4.05044813       8.13173588       8.14849130       0.01429908       0.05944981       0.07620198
Ti       2.04837745       2.01109605       2.00778329       0.03030253      -0.00697700      -0.01028970
Ti       6.03357400       2.07119381       2.02828282      -0.02064774       0.05312061       0.01020965
Ti       1.99098287       6.03985097       2.03100063      -0.02709219      -0.01436651       0.01292843
Ti       6.10700212       6.07456697       1.97775773       0.05278024       0.02034935      -0.04031465
Ti       2.04821680       2.05511964       6.08502616       0.03014170       0.03704738       0.03080764
Ti       6.01895825       2.05483755       6.12867037      -0.03526367       0.03676515       0.07445167
Ti       1.98442650       6.09293551       6.03379868      -0.03364875       0.03871883      -0.02041904
Ti       6.08901720       6.08529446       6.05182405       0.03479514       0.03107763      -0.00239386
O        4.05048655       1.99853884       1.95080926       0.01434187      -0.01953427      -0.06726358
O        8.09062957       2.08152875       1.96685901       0.01833808       0.06345549      -0.05121401
O        4.14298384       6.09253004       2.03456052       0.10683902       0.03831250       0.01648848
O        8.15766767       6.04208763       2.01365876       0.08537603      -0.01213005      -0.00441346
O        4.01210021       1.95949478       6.05328436      -0.02404464      -0.05857754      -0.00093400
O        8.09363926       1.95896050       6.10636183       0.02134759      -0.05911196       0.05214329
O        4.03804725       6.05066149       6.02551323       0.00190225      -0.00355525      -0.02870434
O        8.03958956       6.04064737       6.02921246      -0.03270226      -0.01356951      -0.02500528
O        2.12337310       4.00485796       2.01361796       0.10529977      -0.03128437      -0.00445367
O        6.08518174       4.05680855       1.98524302       0.03096159       0.02066608      -0.03282879
O        2.05482066       8.03841786       2.14293709       0.03674718      -0.03386889       0.12486626
O        6.12308847       8.04581088       1.94769579       0.06886817      -0.02647603      -0.07037522
O        2.01919179       4.00974932       6.13668686       0.00111828      -0.02639222       0.08246970
O        6.15557923       3.98454445       6.06009830       0.10135889      -0.05159723       0.00588097
O        2.03927677       8.10567921       6.05163123       0.02120311       0.03339325      -0.00258513
O        5.92082216       7.98990507       6.07503757      -0.13339831      -0.08238104       0.02082104
O        2.00807302       1.98235135      -0.06927622      -0.01000019      -0.03572174      -0.06927601
O        6.10558927       2.11176718       0.05128853       0.05136924       0.09369394       0.05128856
O        2.10721591       6.10229007       0.02666754       0.08914255       0.04807255       0.02666854
O        6.08549534       6.04022864      -0.03667539       0.03127516      -0.01398903      -0.03667457
O        2.13686464       2.02098420       3.95864063       0.11879125       0.00291190      -0.07750468
O        6.08375128       1.95619021       3.92401502       0.02953107      -0.06188223      -0.11213048
O        2.06561658       5.97756528       4.04707275       0.04754305      -0.07665145       0.01092823
O        6.12263263       6.03341644       4.01744391       0.06841228      -0.02080043      -0.01870079
40
Lattice="8.07229364156986 2.904777715589395e-07 3.5974003450358844e-07 2.9047805627122115e-07 8.072288850344885 -1.5906224019387422e-06 3.5973984946264966e-07 -1.5906229804257139e-06 8.072291048783132" Properties=species:S:1:pos:R:3:u_disp:R:3 system=batio3_cubic base_model=chgnet role=train_pool T=100.0 draw=3 n_tries=13 rms_disp_A=0.10519777786207066 min_pair_ratio=0.9109442674391343 nearest_heldout_A=0.1035249749843655 site_map_ok=1 nearest_heldout_src=batio3_cubic_chgnet_q0-1d2-0-b1.extxyz#2 pbc="T T T"
Ba      -0.01957037       3.96137191       4.00927773      -0.01957227      -0.07477038      -0.02686668
Ba       4.12786946       4.02563798       4.06067280       0.09172074      -0.01050446       0.02452820
Ba       0.02069367       8.04296393       4.03898028       0.02069163      -0.02932278       0.00283666
Ba       3.99754757       8.11918248       4.08244172      -0.03860130       0.04689562       0.04629792
Ba       0.01222569       4.02462426       8.06235313       0.01222361      -0.01151724      -0.00993681
Ba       4.07008472       4.02946118       8.06026029       0.03393582      -0.00668046      -0.01202983
Ba      -0.04004789       8.09825581       8.09429121      -0.04005012       0.02596989       0.02200207
Ba       3.98411189       8.08368086       8.05592941      -0.05203716       0.01139479      -0.01635991
Ti       2.07216567       1.96755969       1.96720107       0.05409074      -0.05051336      -0.05087193
Ti       6.04495267       1.99805415       1.96390556      -0.00926907      -0.02001905      -0.05416761
Ti       2.02567465       6.10554854       1.99752057       0.00759959       0.05133106      -0.02055163
Ti       6.05985141       6.02242700       2.04570657       0.00562952      -0.03179062       0.02763419
Ti       2.01583765       2.03408774       6.04003793      -0.00223745       0.01601548      -0.01418059
Ti       6.10427471       2.01829469       6.04778637       0.05005279       0.00022229      -0.00643233
Ti       1.98983519       6.06493490       6.07363368      -0.02824006       0.01071822       0.01941595
Ti       5.99688435       6.01590521       6.08532301      -0.05733772      -0.03831162       0.03110511
O        4.02278255       1.95076155       2.01311285      -0.01336212      -0.06731157      -0.00495999
O        8.02428861       2.03534244       2.05685960      -0.04800289       0.01726918       0.03878658
O        4.05283403       6.21163488       1.95289452       0.01668921       0.15741734      -0.06517752
O        8.09121412       6.05788299       2.01939706       0.01892248       0.00366530       0.00132484
O        3.99903281       2.01312838       6.03248558      -0.03711204      -0.00494393      -0.02173278
O        8.03792556       2.08370277       6.02891882      -0.03436611       0.06563031      -0.02529972
O        4.03429968       5.95157115       5.91198224      -0.00184532      -0.10264559      -0.14223533
O        8.07267663       6.19613975       6.12100559       0.00038481       0.14192286       0.06678785
O        2.03573103       4.18938762       1.95874593       0.01765770       0.15324529      -0.05932570
O        5.96668038       4.02181791       2.18354237      -0.08753977      -0.01432456       0.16547056
O        2.02153571       8.15339527       2.03658761       0.00346223       0.08110851       0.01851677
O        6.13389716       8.09828994       2.03753692       0.07967686       0.02600304       0.01946591
O        2.04875511       3.98158810       6.07403410       0.03068160      -0.05455344       0.01981695
O        5.89682060       4.11283073       5.96389880      -0.15739973       0.07668905      -0.09031854
O        2.01735568       8.16646136       6.06675432      -0.00071797       0.09417540       0.01253796
O        6.03978017       8.09865344       6.11374507      -0.01444030       0.02636733       0.05952853
O        1.82645862       2.10688546      -0.02211770      -0.19161459       0.08881236      -0.02211749
O        6.12626143       2.21512666      -0.01512649       0.07204140       0.19705342      -0.01512646
O        2.04152058       5.95302041       0.02583737       0.02344722      -0.10119711       0.02583838
O        6.09314382       5.99667330      -0.02824574       0.03892365      -0.05754437      -0.02824492
O        2.02867567       1.92037913       4.05591991       0.01060228      -0.09769317       0.01977459
O        6.17349451       1.98339464       4.02855088       0.11927430      -0.03467781      -0.00759461
O        1.96039725       6.00562195       3.98789764      -0.05767629      -0.04859477      -0.04824688
O        6.13450007       6.11146372       4.06071830       0.08027972       0.05724685       0.02457360
40
Lattice="8.07229364156986 2.904777715589395e-07 3.5974003450358844e-07 2.9047805627122115e-07 8.072288850344885 -1.5906224019387422e-06 3.5973984946264966e-07 -1.5906229804257139e-06 8.072291048783132" Properties=species:S:1:pos:R:3:u_disp:R:3 system=batio3_cubic base_model=chgnet role=train_pool T=100.0 draw=4 n_tries=13 rms_disp_A=0.09124884633232479 min_pair_ratio=0.896775269200652 nearest_heldout_A=0.08783990914086408 site_map_ok=1 nearest_heldout_src=batio3_cubic_chgnet_q0-1d2-1d2-b0.extxyz#2 pbc="T T T"
Ba       0.00605527       4.03368727       3.95309885       0.00605337      -0.00245502      -0.08304557
Ba       4.00228482       4.03385657       4.09526771      -0.03386390      -0.00228587       0.05912311
Ba       0.00485425       8.01509362       4.01344262       0.00485220      -0.05719309      -0.02270099
Ba       4.09595197       8.04949273       4.08224433       0.05980311      -0.02279413       0.04610054
Ba      -0.03509388       4.03296242       8.04321423      -0.03509596      -0.00317908      -0.02907571
Ba       4.01232234       4.05480951       8.06795851      -0.02382656       0.01866787      -0.00433161
Ba      -0.05013154       8.10231879       8.07165314      -0.05013376       0.03003287      -0.00063601
Ba       3.97605701       8.04043107       8.05743372      -0.06009204      -0.03185499      -0.01485560
Ti       2.01578070       2.02408141       2.07165997      -0.00229423       0.00600835       0.05358697
Ti       6.06066996       2.03457252       1.99243655       0.00644822       0.01649932      -0.02563662
Ti       2.08346517       6.07916642       1.99028387       0.06539010       0.02494895      -0.02778833
Ti       6.11655003       6.06419360       2.08064454       0.06232814       0.00997598       0.06257216
Ti       2.00450128       2.05908022       6.06258757      -0.01357382       0.04100796       0.00836905
Ti       6.03303743       2.09112019       6.06012302      -0.02118449       0.07304779       0.00590432
Ti       2.08922739       6.06543018       5.99773709       0.07115215       0.01121350      -0.05648064
Ti       6.08299048       6.10841854       6.11245573       0.02876841       0.05420172       0.05823782
O        4.03196611       1.98579409       2.05611475      -0.00417856      -0.03227902       0.03804191
O        8.08199360       2.03565737       2.05580204       0.00970210       0.01758411       0.03772903
O        3.95327557       5.95762692       2.07946653      -0.08286925      -0.09659062       0.06139449
O        8.14190848       6.11456773       1.95955099       0.06961685       0.06035005      -0.05852123
O        4.22370349       2.08794281       6.09901237       0.18755864       0.06987049       0.04479401
O        8.03331157       1.99262421       5.97147511      -0.03898010      -0.02544825      -0.08274343
O        4.09404809       6.02139653       6.09371803       0.05790309      -0.03282022       0.03950046
O        8.15135597       6.08807297       6.03251416       0.07906415       0.03385608      -0.02170358
O        1.93322937       4.05755658       2.08113804      -0.08484396       0.02141424       0.06306641
O        6.07008107       4.05707980       2.09015989       0.01586091       0.02093732       0.07208808
O        1.96877129       8.01921592       2.00833795      -0.04930218      -0.05307084      -0.00973289
O        6.06554684       8.09385690       1.94764995       0.01132654       0.02157000      -0.07042107
O        1.96991039       3.97649843       5.99030663      -0.04816312      -0.05964311      -0.06391052
O        6.02217253       4.05370648       6.09247371      -0.03204780       0.01756480       0.03825638
O        2.10126297       8.08515243       6.08124520       0.08318931       0.01286647       0.02702884
O        6.12391936       7.96322704       6.12474300       0.06969889      -0.10905907       0.07052646
O        2.00936943       2.00842661      -0.10261191      -0.00870378      -0.00964649      -0.10261170
O        6.10234965       2.01938848       0.00853429       0.04812962       0.00131524       0.00853432
O        2.16078105       6.03268925       0.08003664       0.14270770      -0.02152827       0.08003765
O        5.93967289       6.02893603      -0.00734277      -0.11454728      -0.02528164      -0.00734195
O        2.04557522       2.07089632       4.06942257       0.02750183       0.05282402       0.03327726
O        6.14990429       1.95742123       4.01060036       0.09568408      -0.06065122      -0.02554513
O        2.08618647       6.13087117       4.07828692       0.06811294       0.07665444       0.04214240
O        6.09790765       6.07459904       4.01081058       0.04368730       0.02038217      -0.02533412
40
Lattice="8.07229364156986 2.904777715589395e-07 3.5974003450358844e-07 2.9047805627122115e-07 8.072288850344885 -1.5906224019387422e-06 3.5973984946264966e-07 -1.5906229804257139e-06 8.072291048783132" Properties=species:S:1:pos:R:3:u_disp:R:3 system=batio3_cubic base_model=chgnet role=train_pool T=100.0 draw=5 n_tries=13 rms_disp_A=0.09863368345504571 min_pair_ratio=0.9299133434780326 nearest_heldout_A=0.09420903932420119 site_map_ok=1 nearest_heldout_src=batio3_cubic_mace_mp0_q1d2-0-0-b0.extxyz#2 pbc="T T T"
Ba       0.01059160       4.01913472       4.03890949       0.01058969      -0.01700756       0.00276508
Ba       3.94533878       4.10153430       4.06314709      -0.09080994       0.06539187       0.02700250
Ba       0.09986628       8.07253464       4.05769489       0.09986423       0.00024792       0.02155127
Ba       3.98018395       8.04773222       3.98707728      -0.05596491      -0.02455464      -0.04906652
Ba       0.03304163       4.06888564       8.12795217       0.03303955       0.03274414       0.05566223
Ba       4.07605995       3.98755202       8.03958141       0.03991105      -0.04858961      -0.03270870
Ba      -0.05895124       8.12815983       8.16158651      -0.05895346       0.05587391       0.08929737
Ba       4.00658403       8.03842339       8.08891537      -0.02956502      -0.03386267       0.01662605
Ti       2.05630462       1.95981052       1.92232985       0.03822970      -0.05826253      -0.09574315
Ti       6.04049210       2.01691599       2.00089240      -0.01372964      -0.00115721      -0.01718077
Ti       2.00621577       5.98890330       1.99078226      -0.01185930      -0.06531418      -0.02728994
Ti       6.02669976       6.08347640       2.05307769      -0.02752213       0.02925877       0.03500531
Ti       1.97482340       2.08825196       6.02084334      -0.04325170       0.07017971      -0.03337518
Ti       6.09891488       1.96291584       6.01315260       0.04469296      -0.05515656      -0.04106610
Ti       1.96282073       6.05865737       6.07102941      -0.05525452       0.00444069       0.01681169
Ti       6.03781155       6.02051297       5.98053473      -0.01641052      -0.03370386      -0.07368317
O        4.07520734       2.01708141       2.09280799       0.03906266      -0.00099170       0.07473515
O        8.10865303       2.08346442       1.99335100       0.03636154       0.06539116      -0.02472201
O        3.89906711       6.09736024       1.94682190      -0.13707771       0.04314271      -0.07125014
O        8.05013907       6.11112826       2.00766931      -0.02215257       0.05691058      -0.01040291
O        4.15424710       1.92361610       6.08209195       0.11810225      -0.09445622       0.02787360
O        8.14503820       2.01199186       6.15320382       0.07274652      -0.00608060       0.09898528
O        4.03412122       6.01727867       5.95303950      -0.00202378      -0.03693807      -0.10117806
O        8.09981448       6.04728652       6.04617662       0.02752266      -0.00693037      -0.00804112
O        2.06133679       3.95646774       1.96627787       0.04326346      -0.07967459      -0.05179376
O        5.97463124       4.12021244       1.97530958      -0.07958891       0.08406997      -0.04276223
O        2.01720161       8.04952648       1.94493868      -0.00087186      -0.02276028      -0.07313216
O        6.06305500       8.13383519       1.94873736       0.00883470       0.06154829      -0.06933365
O        2.02673590       3.99702587       6.11437466       0.00866239      -0.03911566       0.06015751
O        6.19033198       4.15047876       6.01858802       0.13611165       0.11433708      -0.03562932
O        2.09281889       7.96774074       6.06749751       0.07474524      -0.10454522       0.01328115
O        6.07523285       8.12555005       5.97963286       0.02101237       0.05326394      -0.07458368
O        2.08849396       1.96583034       0.03802152       0.07042075      -0.05224276       0.03802173
O        6.12904237       2.02219557       0.01079069       0.07482234       0.00412233       0.01079072
O        2.04397614       5.91691740      -0.00078486       0.02590279      -0.13730012      -0.00078385
O        5.99616445       6.12938778      -0.07704480      -0.05805573       0.07517011      -0.07704397
O        2.01606117       2.00500532       4.06007989      -0.00201222      -0.01306698       0.02393458
O        6.17059448       2.02711437       4.01214454       0.11637427       0.00904192      -0.02400095
O        2.10792232       6.07954431       3.95849670       0.08984879       0.02532759      -0.07764782
O        6.09220143       6.12465292       4.01277855       0.03798107       0.07043605      -0.02336615
40
Lattice="8.07229364156986 2.904777715589395e-07 3.5974003450358844e-07 2.9047805627122115e-07 8.072288850344885 -1.5906224019387422e-06 3.5973984946264966e-07 -1.5906229804257139e-06 8.072291048783132" Properties=species:S:1:pos:R:3:u_disp:R:3 system=batio3_cubic base_model=chgnet role=train_pool T=100.0 draw=6 n_tries=13 rms_disp_A=0.0822918172332123 min_pair_ratio=0.9433914104788822 nearest_heldout_A=0.08026058295155193 site_map_ok=1 nearest_heldout_src=batio3_cubic_orb_v2_q1d2-0-1d2-b0.extxyz#2 pbc="T T T"
Ba      -0.04653385       3.95781852       4.04842081      -0.04653575      -0.07832377       0.01227640
Ba       4.05325134       4.06672023       4.04887779       0.01710262       0.03057780       0.01273320
Ba       0.04799740       7.99792626       4.03706535       0.04799535      -0.07436045       0.00092173
Ba       4.03741700       8.08277093       3.92092702       0.00126813       0.01048407      -0.11521678
Ba       0.05742530       3.99112358       8.04211459       0.05742321      -0.04501791      -0.03017535
Ba       4.02328847       4.05961901       8.13442999      -0.01286043       0.02347737       0.06213987
Ba       0.01869165       8.12623405       8.05143824       0.01868942       0.05394813      -0.02085091
Ba       4.03238499       8.09119226       8.04621977      -0.00376406       0.01890620      -0.02606955
Ti       1.99586420       1.97144416       2.06882201      -0.02221072      -0.04662889       0.05074901
Ti       6.01175377       2.05984845       2.04627497      -0.04246797       0.04177526       0.02820180
Ti       2.01611787       6.03599430       2.00099421      -0.00195720      -0.01822317      -0.01707799
Ti       6.11741492       6.09479367       1.97807426       0.06319303       0.04057604      -0.03999812
Ti       2.01783444       2.04187916       6.04570212      -0.00024066       0.02380690      -0.00851640
Ti       5.96339003       2.10257828       6.10658657      -0.09083190       0.08450588       0.05236787
Ti       2.01191232       6.10463336       6.05470787      -0.00616293       0.05041668       0.00049015
Ti       6.05765173       6.04288307       6.13735845       0.00342966      -0.01133376       0.08314055
O        4.02817828       2.08800097       2.02679456      -0.00796639       0.06992786       0.00872173
O        8.01834795       1.93164753       2.00257777      -0.05394354      -0.08642573      -0.01549524
O        4.01044037       5.99132755       2.02071100      -0.02570445      -0.06288998       0.00263896
O        8.15935099       6.02033113       1.98829829       0.08705935      -0.03388655      -0.02977393
O        4.03057281       2.09916747       5.99475789      -0.00557204       0.08109515      -0.05946047
O        8.08702334       2.06086392       6.05569431       0.01473167       0.04279146       0.00147578
O        3.91521312       5.99281920       6.05523925      -0.12093188      -0.06139754       0.00102169
O        8.08052859       6.03079586       6.15284444       0.00823677      -0.02342103       0.09862669
O        1.96573621       3.97770811       1.99615043      -0.05233712      -0.05843423      -0.02192120
O        6.01335843       4.05173826       2.06557536      -0.04086172       0.01559579       0.04750355
O        1.92359223       8.10481401       2.03495650      -0.09448125       0.03252726       0.01688566
O        6.04848245       8.08612753       1.98336737      -0.00573785       0.01384063      -0.03470365
O        1.95661192       3.99046191       6.11374473      -0.06146159      -0.04567963       0.05952758
O        5.98016433       4.06171028       6.12893965      -0.07405600       0.02556860       0.07472232
O        2.12275909       8.11344158       6.03859935       0.10468543       0.04115562      -0.01561701
O        6.09459926       8.06019559       6.08429727       0.04037879      -0.01209052       0.03008073
O        2.00206790       2.02771456       0.04686842      -0.01600531       0.00964146       0.04686863
O        6.03938541       2.06627545       0.04724289      -0.01483462       0.04820221       0.04724292
O        1.97250099       6.03258762       0.06629619      -0.04557236      -0.02162990       0.06629720
O        6.10875793       5.98475800       0.07049194       0.05453775      -0.06945967       0.07049277
O        2.00387884       2.07662589       4.10751544      -0.01419454       0.05855359       0.07137012
O        5.99808898       2.05044460       4.07459513      -0.05613123       0.03237216       0.03844964
O        2.02780843       6.10770485       3.98166065       0.00973489       0.05348812      -0.05448387
O        6.03478498       6.02908319       4.03355913      -0.01943538      -0.02513368      -0.00258557
40
Lattice="8.07229364156986 2.904777715589395e-07 3.5974003450358844e-07 2.9047805627122115e-07 8.072288850344885 -1.5906224019387422e-06 3.5973984946264966e-07 -1.5906229804257139e-06 8.072291048783132" Properties=species:S:1:pos:R:3:u_disp:R:3 system=batio3_cubic base_model=chgnet role=train_pool T=100.0 draw=7 n_tries=13 rms_disp_A=0.09428157332551171 min_pair_ratio=0.9075935035829511 nearest_heldout_A=0.09193321894868478 site_map_ok=1 nearest_heldout_src=batio3_cubic_mattersim_q0-0-1d2-b0.extxyz#2 pbc="T T T"
Ba      -0.06530164       4.08816901       4.03874903      -0.06530354       0.05202673       0.00260462
Ba       3.94967295       4.02220763       4.01454370      -0.08647577      -0.01393480      -0.02160089
Ba       0.01193903       8.16278454       4.02975328       0.01193698       0.09049782      -0.00639034
Ba       4.01166901       8.01560178       4.08525230      -0.02447986      -0.05668508       0.04910850
Ba       0.00973629       4.02256576       8.07662816       0.00973421      -0.01357573       0.00433822
Ba       4.02181552       4.06234043       8.06986325      -0.01433338       0.02619879      -0.00242687
Ba       0.06097971       8.08972480       7.98685550       0.06097748       0.01743888      -0.08543364
Ba       4.00324830       7.96885087       8.06957022      -0.03290074      -0.10343519      -0.00271910
Ti       2.02733785       1.98075572       2.00880005       0.00926293      -0.03731733      -0.00927294
Ti       6.05837391       2.04743190       2.04451337       0.00415217       0.02935870       0.02644020
Ti       2.04845396       6.01892706       2.03931685       0.03037889      -0.03529042       0.02124465
Ti       6.13335856       6.04855065       2.06274976       0.07913667      -0.00566697       0.04467738
Ti       2.01698857       2.04182990       6.08099925      -0.00108653       0.02375764       0.02678073
Ti       6.07452312       2.06871417       6.12070622       0.02030120       0.05064176       0.06648753
Ti       2.01131948       6.03553670       6.03611703      -0.00675576      -0.01867998      -0.01810070
Ti       6.11363147       6.05760614       6.00188676       0.05940940       0.00338931      -0.05233114
O        4.15604834       2.14140702       1.96101427       0.11990366       0.12333390      -0.05705856
O        8.11895829       1.99750050       2.03905426       0.04666679      -0.02057276       0.02098125
O        3.97875500       6.05485806       2.13258249      -0.05738982       0.00064052       0.11451045
O        8.15628795       6.09206650       2.07847882       0.08399631       0.03784882       0.06040660
O        4.09182958       2.04544227       6.04648199       0.05568473       0.02736995      -0.00773637
O        8.07673032       1.98745383       6.07810108       0.00443865      -0.03061863       0.02388254
O        4.05787173       6.09088211       6.11107939       0.02172673       0.03666537       0.05686182
O        8.13322185       6.09401515       5.99954828       0.06093003       0.03979827      -0.05466947
O        1.98494860       4.04739649       2.04209461      -0.03312473       0.01125416       0.02402298
O        6.08028606       4.09186634       2.00167009       0.02606591       0.05572386      -0.01640172
O        2.09708786       8.10051755       2.07002677       0.07901438       0.02823079       0.05195594
O        6.11602380       8.11165232       2.03467075       0.06180350       0.03936542       0.01659974
O        2.00551779       3.96300928       6.08466584      -0.01255572      -0.07313226       0.03044868
O        6.04248639       4.03522685       6.04380314      -0.01173394      -0.00091483      -0.01041420
O        2.09974351       8.08484106       6.11737311       0.08166986       0.01255510       0.06315675
O        6.16676263       8.06755467       6.08058466       0.11254215      -0.00473144       0.02636812
O        2.13645233       2.01701540      -0.07581499       0.11837912      -0.00105770      -0.07581478
O        6.04485942       1.90493211      -0.12327523      -0.00936061      -0.11314113      -0.12327520
O        2.08242479       5.95409074       0.01446899       0.06435144      -0.10012678       0.01446999
O        6.09326297       5.98513368       0.08913996       0.03904280      -0.06908399       0.08914079
O        1.95267553       2.07230385       4.03707065      -0.06539786       0.05423155       0.00092534
O        5.97402904       1.97315503       3.89749793      -0.08019117      -0.04491741      -0.13864757
O        1.98992227       6.06742620       4.00807379      -0.02815126       0.01320948      -0.02807073
O        6.00201577       6.01439722       4.17421494      -0.05220458      -0.03981965       0.13807024
40
Lattice="8.07229364156986 2.904777715589395e-07 3.5974003450358844e-07 2.9047805627122115e-07 8.072288850344885 -1.5906224019387422e-06 3.5973984946264966e-07 -1.5906229804257139e-06 8.072291048783132" Properties=species:S:1:pos:R:3:u_disp:R:3 system=batio3_cubic base_model=chgnet role=train_pool T=100.0 draw=8 n_tries=13 rms_disp_A=0.10050092517481399 min_pair_ratio=0.9213869697175859 nearest_heldout_A=0.0997952979227623 site_map_ok=1 nearest_heldout_src=batio3_cubic_chgnet_q0-1d2-0-b1.extxyz#1 pbc="T T T"
Ba      -0.01907609       4.09376622       4.06905026      -0.01907799       0.05762393       0.03290585
Ba       4.01249916       4.04503363       4.04214105      -0.02364956       0.00889119       0.00599646
Ba      -0.06410180       8.04026410       4.08071616      -0.06410385      -0.03202262       0.04457254
Ba       3.96053205       8.05256033       3.95524287      -0.07561681      -0.01972652      -0.08090093
Ba       0.13279776       3.91873881       8.11796252       0.13279568      -0.11740269       0.04567258
Ba       4.10351429       4.14086755       8.07872965       0.06736539       0.10472591       0.00643954
Ba      -0.04764585       8.10466971       8.05310100      -0.04764808       0.03238379      -0.01918814
Ba       4.02921655       8.10959768       8.06986348      -0.00693250       0.03731162      -0.00242584
Ti       2.07510596       1.96582153       2.08522015       0.05703103      -0.05225152       0.06714716
Ti       6.11193690       2.00920127       2.01421937       0.05771516      -0.00887192      -0.00385380
Ti       2.03061371       6.06690344       1.95346936       0.01253864       0.01268596      -0.06460283
Ti       6.07701202       6.06160285       2.04470222       0.02279013       0.00738522       0.02662984
Ti       1.99076323       1.97948335       6.02936475      -0.02731187      -0.03858891      -0.02485377
Ti       6.02524012       1.99517778       6.01921477      -0.02898181      -0.02289462      -0.03500393
Ti       2.07606497       6.10831523       6.06622808       0.05798972       0.05409855       0.01201036
Ti       6.01148802       6.03019722       6.00591896      -0.04273405      -0.02401960      -0.04829895
O        4.02012707       2.04709211       2.01410006      -0.01601760       0.02901900      -0.00397278
O        8.06588186       1.89526153       2.18723375      -0.00640963      -0.12281173       0.16916074
O        4.05159790       6.11394268       1.96939967       0.01545309       0.05972514      -0.04867237
O        8.07835495       6.03854515       1.94907084       0.00606331      -0.01567254      -0.06900138
O        4.06003000       1.94174688       6.06586145       0.02388514      -0.07632543       0.01164309
O        8.02902743       2.02253122       6.13403600      -0.04326425       0.00445876       0.07981746
O        4.05959635       6.17800627       6.07625530       0.02345135       0.12378953       0.02203773
O        8.09679393       6.00802613       6.07620191       0.02450211      -0.04619075       0.02198416
O        1.92074476       3.97396515       1.97313325      -0.09732856      -0.06217718      -0.04493838
O        6.15942383       4.03221514       2.08219429       0.10520368      -0.00392734       0.06412248
O        2.07541356       7.96866262       1.82976019       0.05734008      -0.10362413      -0.18831064
O        6.03358028       8.07896438       2.03940662      -0.02064002       0.00667747       0.02133560
O        2.04209887       4.01448743       6.03010668       0.02402536      -0.02165411      -0.02411048
O        5.92394224       4.03821908       6.07266631      -0.13027809       0.00207740       0.01844898
O        1.92020352       8.12550446       6.10697460      -0.09787013       0.05321850       0.05275825
O        6.13516599       8.07638101       6.06719934       0.08094551       0.00409490       0.01298280
O        1.99614411       2.01127056      -0.01307943      -0.02192910      -0.00680253      -0.01307922
O        6.07943350       2.07167610       0.06943648       0.02521347       0.05360286       0.06943651
O        2.09261982       5.96768717      -0.08433570       0.07454646      -0.08653035      -0.08433470
O        6.08181737       6.04274562      -0.02912807       0.02759719      -0.01147205      -0.02912724
O        2.01948825       1.92815504       3.95200566       0.00141486      -0.08991726      -0.08413965
O        6.01560793       1.88099184       4.03846989      -0.03861228      -0.13708061       0.00232440
O        1.97952166       6.10140362       3.97000666      -0.03855187       0.04718689      -0.06613785
O        6.06570868       6.05518277       4.07394814       0.01148833       0.00096590       0.03780344
40
Lattice="8.07229364156986 2.904777715589395e-07 3.5974003450358844e-07 2.9047805627122115e-07 8.072288850344885 -1.5906224019387422e-06 3.5973984946264966e-07 -1.5906229804257139e-06 8.072291048783132" Properties=species:S:1:pos:R:3:u_disp:R:3 system=batio3_cubic base_model=chgnet role=train_pool T=100.0 draw=9 n_tries=13 rms_disp_A=0.09202087273779631 min_pair_ratio=0.9377197961943704 nearest_heldout_A=0.08587945451829658 site_map_ok=1 nearest_heldout_src=batio3_cubic_mace_mp0_q1d2-0-0-b0.extxyz#2 pbc="T T T"
Ba       0.04350699       3.96318525       3.94044938       0.04350509      -0.07295704      -0.09569503
Ba       3.99795408       3.99413578       4.03764375      -0.03819464      -0.04200665       0.00149915
Ba      -0.05979110       8.07064666       3.97209085      -0.05979314      -0.00164005      -0.06405276
Ba       4.02102369       8.02439007       4.10091376      -0.01512517      -0.04789679       0.06476997
Ba      -0.01722749       4.05226255       8.06922347      -0.01722957       0.01612106      -0.00306647
Ba       4.02307872       4.06738420       8.05740635      -0.01307018       0.03124256      -0.01488377
Ba       0.01545157       8.07143843       8.04368748       0.01544934      -0.00084749      -0.02860166
Ba       4.10515715       8.12066726       8.06360457       0.06900811       0.04838120      -0.00868476
Ti       2.07382397       1.99203675       2.04928526       0.05574905      -0.02603630       0.03121227
Ti       6.13322553       2.03145193       2.04391623       0.07900379       0.01337874       0.02584305
Ti       1.96425789       6.08391329       2.08665345      -0.05381717       0.02969581       0.06858125
Ti       6.00978787       6.07679459       2.04634908      -0.04443402       0.02257697       0.02827670
Ti       2.05802214       2.06023423       6.08984038       0.03994704       0.04216198       0.03562186
Ti       6.06612742       1.99111018       5.97744456       0.01190550      -0.02696222      -0.07677414
Ti       2.00419486       6.05387161       6.06582743      -0.01388038      -0.00034507       0.01160970
Ti       6.04654094       6.01955918       6.08310882      -0.00768113      -0.03465765       0.02889092
O        4.02662209       2.08184368       2.12390340      -0.00952258       0.06377057       0.10583056
O        8.02085247       2.07566636       1.91732633      -0.05143903       0.05759310      -0.10074668
O        4.07158915       6.04982655       2.07410702       0.03544433      -0.00439098       0.05603498
O        8.11752205       5.97171700       2.03838243       0.04523041      -0.08250068       0.02031021
O        4.09991528       2.08991692       6.07783916       0.06377042       0.07184460       0.02362081
O        8.03910759       1.96882838       6.15246376      -0.03318408      -0.04924408       0.09824523
O        4.03210802       6.03239634       6.06496045      -0.00403698      -0.02182040       0.01074289
O        8.08349680       6.10327644       6.13401045       0.01120498       0.04905955       0.07979271
O        1.94878448       4.02466007       2.04414699      -0.06928885      -0.01148226       0.02607536
O        6.04531322       4.09995361       2.06883409      -0.00890693       0.06381113       0.05076228
O        2.00299511       8.06727631       2.15250425      -0.01507836      -0.00501045       0.13443342
O        6.06733875       8.12285260       1.88746398       0.01311846       0.05056569      -0.13060704
O        2.03594679       4.08793728       6.15675240       0.01787328       0.05179574       0.10253525
O        6.08102791       4.10248774       6.03248937       0.02680758       0.06634606      -0.02172796
O        2.00918515       8.06852163       6.14833193      -0.00888850      -0.00376433       0.09411558
O        5.91136777       8.09754937       6.06116075      -0.14285270       0.02526326       0.00694421
O        2.03008499       1.99257263       0.06972510       0.01201178      -0.02550046       0.06972531
O        6.08448549       2.03346087      -0.02936265       0.03026546       0.01538763      -0.02936262
O        1.98605865       6.07968344       0.05996316      -0.03201470       0.02546592       0.05996416
O        6.10164985       6.20080644      -0.03102320       0.04742967       0.14658878      -0.03102237
O        1.95867509       2.05856753       4.13021704      -0.05939830       0.04049523       0.09407172
O        6.05264406       2.10621821       4.04443247      -0.00157615       0.08814577       0.00828698
O        2.04569896       5.98219660       4.14789410       0.02762543      -0.07202013       0.11174958
O        6.09240828       6.05196561       4.01430437       0.03818792      -0.00225126      -0.02184033
40
Lattice="8.07229364156986 2.904777715589395e-07 3.5974003450358844e-07 2.9047805627122115e-07 8.072288850344885 -1.5906224019387422e-06 3.5973984946264966e-07 -1.5906229804257139e-06 8.072291048783132" Properties=species:S:1:pos:R:3:u_disp:R:3 system=batio3_cubic base_model=chgnet role=train_pool T=100.0 draw=10 n_tries=13 rms_disp_A=0.10298185404692638 min_pair_ratio=0.911922701559788 nearest_heldout_A=0.100164259071958 site_map_ok=1 nearest_heldout_src=batio3_cubic_orb_v2_q0-1d2-0-b0.extxyz#3 pbc="T T T"
Ba      -0.04391506       4.04245592       4.07563744      -0.04391696       0.00631363       0.03949303
Ba       4.03088944       4.06046765       4.05416495      -0.00525929       0.02432521       0.01802036
Ba      -0.01325994       8.06916778       4.01225562      -0.01326199      -0.00311894      -0.02388799
Ba       4.10209206       8.06251278       4.07435064       0.06594319      -0.00977408       0.03820684
Ba      -0.04445915       4.05432889       8.03759492      -0.04446123       0.01818739      -0.03469502
Ba       4.02451087       3.97746722       7.99652508      -0.01163803      -0.05867442      -0.07576504
Ba       0.07350739       8.09652654       8.05207508       0.07350517       0.02424062      -0.02021406
Ba       4.07554172       8.08530333       8.10832810       0.03939267       0.01301727       0.03603878
Ti       2.00010949       2.02873810       1.99831040      -0.01796543       0.01066505      -0.01976259
Ti       6.03667923       2.04322908       1.94963037      -0.01754251       0.02515589      -0.06844281
Ti       2.07171553       5.96463074       2.04997626       0.05364046      -0.08958674       0.03190406
Ti       6.09037764       5.99839331       2.02976535       0.03615575      -0.05582431       0.01169297
Ti       2.03161469       2.00675303       6.00278547       0.01353959      -0.01131922      -0.05143305
Ti       6.02403263       2.02759275       6.01401526      -0.03018930       0.00952035      -0.04020343
Ti       2.03767130       6.08813377       6.11550391       0.01959605       0.03391709       0.06128619
Ti       6.02847708       6.08195468       6.13268986      -0.02574499       0.02773786       0.07847195
O        3.97801564       1.93224932       2.12749333      -0.05812904      -0.08582379       0.10942049
O        7.90726155       2.02181822       1.98084641      -0.16502995       0.00374497      -0.03722660
O        4.09399138       6.03806068       2.02884856       0.05784656      -0.01615686       0.01077652
O        8.08364944       5.95186512       2.09766111       0.01135780      -0.10235256       0.07958889
O        3.96829352       1.97135081       5.92353879      -0.06785133      -0.04672151      -0.13067957
O        7.99613541       2.00010352       6.09738438      -0.07615626      -0.01796894       0.04316585
O        3.98003749       6.06115214       5.98631222      -0.05610751       0.00693540      -0.06790534
O        8.09571779       6.02745195       6.14984873       0.02342597      -0.02676493       0.09563099
O        2.01197051       4.10732494       2.12318333      -0.00610282       0.07118261       0.10511170
O        6.03042222       4.09295271       2.01065244      -0.02379793       0.05681023      -0.00741937
O        2.00762673       8.19773631       2.14256876      -0.01044675       0.12544955       0.12449793
O        6.01430073       8.05495033       1.93920069      -0.03991957      -0.01733657      -0.07887033
O        2.08448987       4.02693116       5.94350960       0.06641636      -0.00921038      -0.11070756
O        5.98338979       4.00158728       6.06339682      -0.07083054      -0.03455440       0.00917949
O        1.90449563       8.11304865       6.12275593      -0.11357802       0.04076269       0.06853957
O        6.06959620       8.05879151       6.12696390       0.01537572      -0.01349460       0.07274736
O        2.06383058       2.12342106       0.08156317       0.04575737       0.10534796       0.08156338
O        5.91538695       1.95789365      -0.01254470      -0.13883308      -0.06017959      -0.01254466
O        1.99155791       6.16248419      -0.02209334      -0.02651544       0.10826666      -0.02209233
O        6.05829286       6.04630710      -0.07519054       0.00407268      -0.00791056      -0.07518971
O        1.96795285       2.03827916       4.16383394      -0.05012054       0.02020686       0.12768863
O        6.03104610       1.94235218       3.92377211      -0.02317411      -0.07572026      -0.11237338
O        2.04369325       5.98563626       4.02496356       0.02561972      -0.06858046      -0.01118096
O        6.11912951       6.12247914       3.95963757       0.06490916       0.06826227      -0.07650713
40
Lattice="8.07229364156986 2.904777715589395e-07 3.5974003450358844e-07 2.9047805627122115e-07 8.072288850344885 -1.5906224019387422e-06 3.5973984946264966e-07 -1.5906229804257139e-06 8.072291048783132" Properties=species:S:1:pos:R:3:u_disp:R:3 system=batio3_cubic base_model=chgnet role=train_pool T=100.0 draw=11 n_tries=13 rms_disp_A=0.09914129831201629 min_pair_ratio=0.9171604281832608 nearest_heldout_A=0.09597751387049881 site_map_ok=1 nearest_heldout_src=batio3_cubic_sevennet0_q1d2-0-0-b0.extxyz#3 pbc="T T T"
Ba       0.06113058       4.01640047       3.97914479       0.06112868      -0.01974181      -0.05699962
Ba       4.02753273       4.09852993       4.06394530      -0.00861599       0.06238750       0.02780071
Ba       0.07843261       8.01942169       4.01269488       0.07843056      -0.05286502      -0.02344874
Ba       4.09536050       8.06493148       4.09849242       0.05921163      -0.00735538       0.06234862
Ba      -0.10564378       4.04328386       7.99101539      -0.10564586       0.00714237      -0.08127455
Ba       4.03777758       4.04099558       8.07679313       0.00162868       0.00485394       0.00450301
Ba      -0.00715207       8.07691425       8.17306522      -0.00715430       0.00462833       0.10077607
Ba       4.06119320       8.02314933       8.05156270       0.02504415      -0.04913673      -0.02072662
Ti       2.06517243       2.03404952       1.94870023       0.04709750       0.01597647      -0.06937277
Ti       6.06894590       1.99852671       2.07221030       0.01472416      -0.01954649       0.05413712
Ti       1.98019733       6.09153413       2.03147943      -0.03787774       0.03731665       0.01340723
Ti       5.98484906       6.01272469       2.07142323      -0.06937283      -0.04149293       0.05335085
Ti       1.95437809       2.06192909       6.05546162      -0.06369701       0.04385683       0.00124310
Ti       6.00833005       1.96026388       6.03061884      -0.04589187      -0.05780852      -0.02359986
Ti       2.00885179       6.03694297       6.06682616      -0.00922345      -0.01727371       0.01260843
Ti       5.98886571       6.07752127       6.07240305      -0.06535636       0.02330445       0.01818514
O        4.03077306       2.03464630       2.01878944      -0.00537161       0.01657319       0.00071660
O        8.01621022       2.18934355       2.10838507      -0.05608128       0.17127030       0.09031206
O        4.02911502       6.04322545       2.06805793      -0.00702980      -0.01099209       0.04998589
O        8.08522321       6.11523688       1.92695333       0.01293158       0.06101920      -0.09111889
O        4.08163512       2.11012872       6.00815672       0.04549027       0.09205640      -0.04606164
O        8.07652929       1.95016140       6.08667547       0.00423762      -0.06791106       0.03245694
O        4.02570769       6.00496625       6.02785557      -0.01043731      -0.04925049      -0.02636199
O        8.07449015       6.06749199       6.04668240       0.00219833       0.01327511      -0.00753534
O        1.97531499       4.20004747       1.90602936      -0.04275834       0.16390514      -0.11204227
O        5.94659422       3.97874457       2.10626118      -0.10762593      -0.05739791       0.08818937
O        2.04950315       8.11077165       1.95234899       0.03142967       0.03848489      -0.06572185
O        6.08078170       8.09287650       2.05715613       0.02656141       0.02058960       0.03908512
O        2.04381726       4.11414073       6.04950940       0.02574375       0.07799919      -0.00470776
O        6.04639415       4.04649164       6.05037847      -0.00782618       0.01034996      -0.00383886
O        2.06714681       8.20650381       5.97999012       0.04907315       0.13421785      -0.07422624
O        6.06659456       8.05584354       6.06781802       0.01237409      -0.01644257       0.01360148
O        1.93502654       2.07126008      -0.03147066      -0.08304666       0.05318699      -0.03147045
O        6.04854677       1.93197420       0.02005116      -0.00567326      -0.08609904       0.02005119
O        2.09015423       6.10295018      -0.15553295       0.07208088       0.04873266      -0.15553194
O        5.91490482       6.01754103       0.01374384      -0.13931535      -0.03667663       0.01374467
O        2.04800810       2.03676131       4.05588612       0.02993471       0.01868901       0.01974081
O        6.03638580       1.92418927       4.12446472      -0.01783441      -0.09388318       0.08831923
O        1.98247705       6.09365754       3.93906163      -0.03559648       0.03944082      -0.09708289
O        6.05477601       5.98986096       4.00485427       0.00055566      -0.06435591      -0.03129043
40
Lattice="8.07229364156986 2.904777715589395e-07 3.5974003450358844e-07 2.9047805627122115e-07 8.072288850344885 -1.5906224019387422e-06 3.5973984946264966e-07 -1.5906229804257139e-06 8.072291048783132" Properties=species:S:1:pos:R:3:u_disp:R:3 system=batio3_cubic base_model=chgnet role=train_pool T=100.0 draw=12 n_tries=13 rms_disp_A=0.10546309876340597 min_pair_ratio=0.8862358272287174 nearest_heldout_A=0.1036519005459407 site_map_ok=1 nearest_heldout_src=batio3_cubic_orb_v2_q1d2-0-0-b1.extxyz#3 pbc="T T T"
Ba      -0.08137769       4.09389342       4.01738512      -0.08137959       0.05775113      -0.01875929
Ba       3.98108646       3.96941494       3.99124654      -0.05506226      -0.06672749      -0.04489805
Ba      -0.01561286       7.99373895       4.09581942      -0.01561490      -0.07854776       0.05967580
Ba       4.10007634       8.07639144       4.03658925       0.06392748       0.00410458       0.00044545
Ba       0.01898416       4.02663594       8.04005426       0.01898207      -0.00950555      -0.03223568
Ba       4.07129004       4.05392356       8.08784364       0.03514114       0.01778192       0.01555352
Ba       0.00914224       8.08826694       8.01395256       0.00914001       0.01598103      -0.05833658
Ba       4.10229892       8.15316417       8.14801586       0.06614987       0.08087811       0.07572654
Ti       2.02455424       2.05559882       1.97648762       0.00647932       0.03752577      -0.04158538
Ti       6.09904730       1.94124894       2.03286106       0.04482555      -0.07682426       0.01478789
Ti       1.99518598       6.05133954       2.00241447      -0.02288909      -0.00287794      -0.01565773
Ti       6.01577682       6.02359024       2.04812305      -0.03844507      -0.03062738       0.03005067
Ti       1.98524642       2.05249519       5.98132197      -0.03282868       0.03442294      -0.07289655
Ti       6.06158457       2.01655202       6.08112867       0.00736265      -0.00152038       0.02690997
Ti       2.02198927       6.09615814       6.08383682       0.00391402       0.04194146       0.02961909
Ti       6.07355807       5.97620172       6.03924966       0.01933600      -0.07801511      -0.01496825
O        4.04492590       2.07696014       2.04183400       0.00878122       0.05888702       0.02376116
O        8.09181704       1.89303869       1.92209732       0.01952555      -0.12503457      -0.09597570
O        4.10667443       6.00739387       1.97995679       0.07052962      -0.04682367      -0.03811525
O        8.11090180       6.01995259       2.09324101       0.03861016      -0.03426509       0.07516880
O        4.10075779       2.03103378       6.09951241       0.06461293       0.01296147       0.04529405
O        7.90054496       2.13932034       6.02616913      -0.17174671       0.12124788      -0.02804941
O        4.00338955       6.12339375       6.04791518      -0.03275545       0.06917700      -0.00630238
O        8.03160274       5.97171893       6.16837503      -0.04068907      -0.08249796       0.11415729
O        2.05786629       4.00411323       2.01803379       0.03979296      -0.03202910      -0.00003784
O        6.03998047       3.99003021       2.09822777      -0.01423968      -0.04611227       0.08015596
O        1.99776920       8.00358503       2.00792756      -0.02030427      -0.06870173      -0.01014328
O        5.99888877       8.04269439       2.13096415      -0.05533153      -0.02959251       0.11289314
O        1.99976844       4.04416938       6.12898099      -0.01830507       0.00802784       0.07476384
O        5.98013125       4.19269507       5.94409131      -0.07408908       0.15655339      -0.11012603
O        1.84598623       8.14447493       5.99829072      -0.17208742       0.07218897      -0.05592563
O        5.96732229       8.12707274       5.97475028      -0.08689819       0.05478663      -0.07946625
O        2.03904166       1.99379937       0.02034685       0.02096846      -0.02427373       0.02034706
O        6.13568370       2.14357918       0.08601002       0.08146367       0.12550593       0.08601005
O        1.99576647       6.07710531      -0.06817044      -0.02230688       0.02288779      -0.06816944
O        5.95655349       6.00721773       0.01219997      -0.09766668      -0.04699994       0.01220080
O        1.96132679       2.06006848       4.06798883      -0.05674659       0.04199618       0.03184352
O        6.18613009       2.00712194       4.05493532       0.13190988      -0.01095050       0.01878982
O        2.06310234       5.93724357       4.03806209       0.04502880      -0.11697316       0.00191758
O        6.07844946       6.01515893       3.98629091       0.02422911      -0.03905794      -0.04985379
40
Lattice="8.07229364156986 2.904777715589395e-07 3.5974003450358844e-07 2.9047805627122115e-07 8.072288850344885 -1.5906224019387422e-06 3.5973984946264966e-07 -1.5906229804257139e-06 8.072291048783132" Properties=species:S:1:pos:R:3:u_disp:R:3 system=batio3_cubic base_model=chgnet role=train_pool T=300.0 draw=0 n_tries=13 rms_disp_A=0.13565557689269367 min_pair_ratio=0.864891428676903 nearest_heldout_A=0.12581543455908803 site_map_ok=1 nearest_heldout_src=batio3_cubic_mattersim_q0-0-0-b0.extxyz#3 pbc="T T T"
Ba      -0.06592756       3.98927527       4.00944137      -0.06592946      -0.04686702      -0.02670304
Ba       4.10264176       3.96181493       3.97944115       0.06649303      -0.07432751      -0.05670344
Ba      -0.01566420       8.07798298       3.97040336      -0.01566624       0.00569627      -0.06574026
Ba       3.99589360       8.03872731       4.13050400      -0.04025526      -0.03355954       0.09436020
Ba      -0.10104134       4.03348835       8.09071208      -0.10104342      -0.00265314       0.01842214
Ba       4.07570703       4.11118977       8.11999382       0.03955813       0.07504813       0.04770370
Ba       0.11826444       8.09076358       7.95634940       0.11826222       0.01847766      -0.11593974
Ba       3.98470475       8.12638361       8.11708810      -0.05144430       0.05409754       0.04479878
Ti       1.91376007       2.11142108       2.08265387      -0.10431485       0.09334803       0.06458088
Ti       6.00558153       2.01716698       1.87943325      -0.04864021      -0.00090622      -0.13863992
Ti       1.96256492       5.98856602       2.02262993      -0.05551014      -0.06565145       0.00455773
Ti       6.07718858       6.12146031       2.04769019       0.02296669       0.06724269       0.02961781
Ti       1.99978474       2.07055087       6.09368003      -0.01829036       0.05247861       0.03946151
Ti       6.06056000       2.01910357       5.93416467       0.00633808       0.00103117      -0.12005403
Ti       1.96605876       5.97807408       6.06752221      -0.05201648      -0.07614260       0.01330449
Ti       6.03389911       6.09120488       6.10395322      -0.02032295       0.03698805       0.04973531
O        4.15697046       1.97834865       1.96011471       0.12082579      -0.03972446      -0.05795812
O        8.15050523       1.98479689       2.05051927       0.07821373      -0.03327637       0.03244626
O        4.10875305       6.04103367       2.07308258       0.07260823      -0.01318386       0.05501054
O        8.17800910       6.00945389       2.02921509       0.10571746      -0.04476379       0.01114288
O        3.96007393       2.05181281       6.10698196      -0.07607092       0.03374050       0.05276360
O        8.02875706       2.09614848       6.06273389      -0.04353461       0.07807602       0.00851535
O        4.13740873       6.09088643       6.18604303       0.10126373       0.03666969       0.13182547
O        8.17642834       5.99648920       5.94425770       0.10413653      -0.05772769      -0.10996004
O        2.02394132       3.91229967       1.93266467       0.00586799      -0.12384267      -0.08540696
O        6.12539329       4.00542822       2.03472214       0.07117314      -0.03071425       0.01665033
O        1.98000882       7.99527671       2.06301013      -0.03806466      -0.07701004       0.04493929
O        6.10938012       7.96562506       2.05910883       0.05515982      -0.10666185       0.04103781
O        2.13317246       3.96105705       6.07956841       0.11509895      -0.07508449       0.02535125
O        6.03655286       4.06561170       6.17903350      -0.01766747       0.02947002       0.12481616
O        2.02027058       7.91123853       6.05504620       0.00219693      -0.16104743       0.00082984
O        6.03042095       8.14492648       6.06364294      -0.02379953       0.07264038       0.00942640
O        1.93779184       2.12839918      -0.00611015      -0.08028136       0.11032608      -0.00610994
O        6.05032374       2.01044197       0.11247331      -0.00389629      -0.00763127       0.11247334
O        2.12699838       6.10293902       0.09407533       0.10892503       0.04872150       0.09407634
O        6.35588821       6.24229674      -0.01968587       0.30166804       0.18807907      -0.01968504
O        1.93790850       2.02430962       4.00200575      -0.08016489       0.00623732      -0.03413956
O        6.13509554       2.09810791       4.19213662       0.08087533       0.08003546       0.15599113
O        2.24585270       5.91584852       4.10090641       0.22777917      -0.13836821       0.06476189
O        6.10272859       5.99006615       4.05247739       0.04850824      -0.06415072       0.01633269
40
Lattice="8.07229364156986 2.904777715589395e-07 3.5974003450358844e-07 2.9047805627122115e-07 8.072288850344885 -1.5906224019387422e-06 3.5973984946264966e-07 -1.5906229804257139e-06 8.072291048783132" Properties=species:S:1:pos:R:3:u_disp:R:3 system=batio3_cubic base_model=chgnet role=train_pool T=300.0 draw=1 n_tries=13 rms_disp_A=0.14213330366252405 min_pair_ratio=0.8643363037739253 nearest_heldout_A=0.13559012428269415 site_map_ok=1 nearest_heldout_src=batio3_cubic_chgnet_q0-0-0-b2.extxyz#3 pbc="T T T"
Ba       0.11281350       4.02865557       4.14308610       0.11281160      -0.00748672       0.10694169
Ba       4.06557119       3.95698218       4.02072199       0.02942247      -0.07916025      -0.01542260
Ba      -0.01857235       8.08385472       4.01966860      -0.01857439       0.01156800      -0.01647502
Ba       3.97679861       8.00436507       4.02121248      -0.05935025      -0.06792179      -0.01493131
Ba      -0.02598287       4.15263537       7.99158576      -0.02598495       0.11649387      -0.08070418
Ba       4.05097190       4.06326785       8.07844219       0.01482300       0.02712622       0.00615208
Ba      -0.05053098       8.13075030       8.10401803      -0.05053321       0.05846438       0.03172888
Ba       3.99749025       8.23728233       8.08519716      -0.03865879       0.16499627       0.01290784
Ti       2.07840085       2.01060634       2.00739104       0.06032593      -0.00746671      -0.01068195
Ti       6.02440524       2.03936352       2.06748042      -0.02981650       0.02129032       0.04940725
Ti       2.13897375       6.02776199       1.95191548       0.12089868      -0.02645549      -0.06615672
Ti       6.17533058       5.98249214       2.06489281       0.12110869      -0.07172549       0.04682043
Ti       1.97595508       2.03945816       6.03808699      -0.04212002       0.02138590      -0.01613153
Ti       6.02040032       2.00779320       6.10106383      -0.03382161      -0.01027921       0.04684513
Ti       1.96790720       6.06246026       6.03476012      -0.05016805       0.00824358      -0.01945761
Ti       6.04297029       5.99332707       6.11745206      -0.01125178      -0.06088976       0.06323415
O        4.11733481       1.99978155       2.01029646       0.08119014      -0.01829157      -0.00777638
O        8.08701060       1.90141693       1.98661269       0.01471911      -0.11665632      -0.03146033
O        3.92964272       6.00502759       1.95975549      -0.10650209      -0.04918995      -0.05831655
O        8.04373611       5.99996930       1.98800757      -0.02855553      -0.05424838      -0.03006464
O        3.97227225       1.92086805       6.00552490      -0.06387260      -0.09720426      -0.04869346
O        8.01239556       1.98044807       5.98134656      -0.05989611      -0.03762439      -0.07287198
O        4.10721856       6.07296892       6.02682701       0.07107356       0.01875218      -0.02739055
O        8.19642493       5.91882018       6.01054830       0.12413312      -0.13539671      -0.04366945
O        1.97256249       3.97074466       1.97161672      -0.04551084      -0.06539767      -0.04645491
O        6.10952090       3.87796395       1.94318300       0.05530075      -0.15817852      -0.07488881
O        2.17223731       7.99802366       1.88844570       0.15416384      -0.07426310      -0.12962513
O        5.93261623       7.99212161       2.13872424      -0.12160406      -0.08016529       0.12065323
O        2.05395356       3.95563669       5.93756879       0.03588005      -0.08050485      -0.11664837
O        5.90705616       4.14771601       5.87806037      -0.14716417       0.11157433      -0.17615696
O        2.01018254       8.03686743       6.19002782      -0.00789111      -0.03541854       0.13581146
O        6.06962839       8.06049746       6.29218996       0.01540792      -0.01178865       0.23797342
O        2.02163081       2.01944768      -0.01734618       0.00355760       0.00137458      -0.01734597
O        5.99402890       2.09535912      -0.00887518      -0.06019113       0.07728588      -0.00887515
O        2.04198541       5.89951261      -0.05570005       0.02391206      -0.15470491      -0.05569904
O        6.19293744       5.77169106       0.08894163       0.13871727      -0.28252660       0.08894245
O        1.91699979       1.83755609       4.02208005      -0.10107360      -0.18051621      -0.01406526
O        6.05285953       1.91187367       4.02308926      -0.00136068      -0.10619877      -0.01305623
O        2.06172240       6.06329897       3.86357269       0.04364886       0.00908225      -0.17257183
O        5.94115983       6.02774387       4.05833560      -0.11306052      -0.02647300       0.02219090
40
Lattice="8.07229364156986 2.904777715589395e-07 3.5974003450358844e-07 2.9047805627122115e-07 8.072288850344885 -1.5906224019387422e-06 3.5973984946264966e-07 -1.5906229804257139e-06 8.072291048783132" Properties=species:S:1:pos:R:3:u_disp:R:3 system=batio3_cubic base_model=chgnet role=train_pool T=300.0 draw=2 n_tries=13 rms_disp_A=0.12560501675732347 min_pair_ratio=0.9105272968937256 nearest_heldout_A=0.12183225737019383 site_map_ok=1 nearest_heldout_src=batio3_cubic_mattersim_q1d2-0-1d2-b0.extxyz#2 pbc="T T T"
Ba       0.11467308       4.02647135       4.01278312       0.11467118      -0.00967094      -0.02336130
Ba       3.99118673       3.98818798       4.02356944      -0.04496199      -0.04795446      -0.01257516
Ba       0.07957407       8.08951468       3.97842205       0.07957203       0.01722797      -0.05772157
Ba       4.02364100       8.14904883       3.97605172      -0.01250787       0.07676197      -0.06009208
Ba      -0.05824302       4.05389361       8.06162198      -0.05824510       0.01775212      -0.01066796
Ba       4.00804355       3.99642761       8.09844079      -0.02810535      -0.03971402       0.02615067
Ba      -0.01731900       8.05417170       7.97809407      -0.01732123      -0.01811422      -0.09419507
Ba       4.14392910       8.01961380       8.17199403       0.10778006      -0.05267226       0.09970470
Ti       1.91768513       2.04942512       2.06802310      -0.10038980       0.03135207       0.04995011
Ti       6.00273216       2.08480948       2.07357267      -0.05148958       0.06673628       0.05549950
Ti       2.02886129       6.05156791       2.06355648       0.01078622      -0.00264957       0.04548428
Ti       6.07890996       6.08188902       2.02642655       0.02468807       0.02767140       0.00835417
Ti       2.00173402       1.91079754       6.13135075      -0.01634108      -0.10727472       0.07713223
Ti       6.04277317       2.07313032       6.13076942      -0.01144875       0.05505792       0.07655072
Ti       2.04485650       5.99901886       6.01717781       0.02678126      -0.05519782      -0.03703991
Ti       6.02841331       6.04220153       6.02599571      -0.02580875      -0.01201529      -0.02822219
O        3.95567156       2.13333569       2.10555630      -0.08047311       0.11526258       0.08748347
O        8.03460631       1.94740873       1.94435541      -0.03768518      -0.07066453      -0.07371760
O        4.05736735       6.12437938       2.06435306       0.02122253       0.07016184       0.04628102
O        8.07366490       6.14194190       2.03254922       0.00137326       0.08772422       0.01447700
O        3.95624809       1.98166928       6.01679043      -0.07989676      -0.03640303      -0.03742793
O        7.95727391       2.15854152       6.17127500      -0.11501776       0.14046906       0.11705646
O        4.06203358       6.06624354       6.01540006       0.02588859       0.01202680      -0.03881750
O        8.07713042       6.05659696       6.01113698       0.00483860       0.00238008      -0.04308076
O        1.80788547       3.95934482       1.96849240      -0.21018786      -0.07679751      -0.04957923
O        6.06748799       4.10224927       2.09370056       0.01326784       0.06610680       0.07562876
O        2.19164196       8.12629324       2.09334998       0.17356849       0.05400648       0.07527915
O        5.92586129       8.15576505       2.09614450      -0.12835901       0.08347815       0.07807349
O        2.04735971       4.12903993       6.07689293       0.02928620       0.09289839       0.02267578
O        6.01576570       4.01734886       5.98333840      -0.03845463      -0.01879282      -0.07087893
O        1.95701551       8.07366809       6.05163918      -0.06105814       0.00138213      -0.00257718
O        5.88471564       8.05285692       6.17123098      -0.16950483      -0.01942919       0.11701444
O        2.10361352       1.92090042      -0.04765142       0.08554031      -0.09717268      -0.04765121
O        5.88340009       2.12370854       0.08748521      -0.17081994       0.10563530       0.08748524
O        2.02880734       6.08459457       0.05467120       0.01073398       0.03037705       0.05467220
O        6.16447906       5.87861944       0.03773054       0.11025889      -0.17559822       0.03773137
O        1.83183885       2.01603337       3.97768825      -0.18623454      -0.00203893      -0.05845707
O        6.04266533       1.99095974       4.05635994      -0.01155488      -0.02711271       0.02021445
O        2.10674311       6.08433496       3.98131378       0.08866957       0.03011824      -0.05483073
O        5.99808715       6.15914600       4.07748882      -0.05613321       0.10492913       0.04134412
40
Lattice="8.07229364156986 2.904777715589395e-07 3.5974003450358844e-07 2.9047805627122115e-07 8.072288850344885 -1.5906224019387422e-06 3.5973984946264966e-07 -1.5906229804257139e-06 8.072291048783132" Properties=species:S:1:pos:R:3:u_disp:R:3 system=batio3_cubic base_model=chgnet role=train_pool T=300.0 draw=3 n_tries=13 rms_disp_A=0.12644984414947516 min_pair_ratio=0.9115818947429081 nearest_heldout_A=0.12138339390735457 site_map_ok=1 nearest_heldout_src=batio3_cubic_mace_mp0_q1d2-0-0-b0.extxyz#2 pbc="T T T"
Ba       0.03835020       4.06607650       3.95501543       0.03834830       0.02993421      -0.08112898
Ba       4.03498071       3.98154060       4.14126825      -0.00116801      -0.05460183       0.10512366
Ba       0.17575821       8.08075422       4.06940331       0.17575617       0.00846750       0.03325969
Ba       4.04381534       8.01836158       3.99921230       0.00766647      -0.05392528      -0.03693150
Ba      -0.07095944       3.99529544       8.15595294      -0.07096152      -0.04084606       0.08366300
Ba       4.04930490       4.03301177       8.09574803       0.01315600      -0.00312987       0.02345791
Ba      -0.10886789       7.99673136       7.93838141      -0.10887011      -0.07555456      -0.13390773
Ba       4.08024068       8.04837919       8.09884928       0.04409163      -0.02390688       0.02655996
Ti       1.98530252       2.08232747       2.01222486      -0.03277240       0.06425442      -0.00584813
Ti       6.06631215       2.00948930       2.03349533       0.01209040      -0.00858389       0.01542215
Ti       1.95698734       6.10293777       1.97545440      -0.06108773       0.04872030      -0.04261780
Ti       6.04063113       6.11833891       2.07090809      -0.01359075       0.06412128       0.05283572
Ti       1.83624670       2.04474910       6.17108395      -0.18182840       0.02667685       0.11686543
Ti       6.03893762       2.02549050       5.93188012      -0.01528430       0.00741810      -0.12233858
Ti       2.04598893       6.15586229       6.12790614       0.02791369       0.10164561       0.07368842
Ti       6.03891139       5.98281180       6.01997723      -0.01531067      -0.07140502      -0.03424067
O        4.04810458       1.97125460       2.03212877       0.01195991      -0.04681851       0.01405594
O        8.09577421       2.05570427       1.89849256       0.02348272       0.03763102      -0.11958045
O        4.05623995       6.08581319       1.92668657       0.02009513       0.03159565      -0.09138547
O        8.06597325       6.14930661       2.09767952      -0.00631839       0.09508893       0.07960730
O        3.97537008       2.02344794       6.00441316      -0.06077477       0.00537563      -0.04980520
O        8.01091362       2.01056119       6.11374740      -0.06137805      -0.00751127       0.05952886
O        3.96638949       5.96326103       5.97103810      -0.06975551      -0.09095571      -0.08317947
O        8.05154300       6.13362928       6.12465347      -0.02074882       0.07941240       0.07043573
O        2.05736589       4.06221414       1.94161008       0.03929256       0.02607181      -0.07646155
O        6.11159267       4.10032384       1.93522211       0.05737251       0.06418137      -0.08284969
O        2.15192375       8.07448365       2.07347161       0.13385028       0.00219689       0.05540078
O        6.15400241       8.08935666       1.99196134       0.09978212       0.01706976      -0.02610967
O        2.01130579       4.08406675       6.16639258      -0.00676772       0.04792521       0.11217542
O        6.03233798       4.13118953       5.99158990      -0.02188235       0.09504784      -0.06262743
O        1.90654187       8.10354728       6.12098933      -0.11153178       0.03126132       0.06677297
O        6.05909589       8.19930417       6.13122021       0.00487542       0.12701807       0.07700367
O        1.97571072       2.03507718       0.01281101      -0.04236249       0.01700409       0.01281122
O        6.00501880       1.92221662      -0.00051095      -0.04920123      -0.09585662      -0.00051092
O        1.98340294       6.22015100       0.11585953      -0.03467041       0.16593348       0.11586054
O        5.94534168       6.14768375      -0.12899566      -0.10887850       0.09346609      -0.12899483
O        1.99664283       2.18494704       3.98578161      -0.02143056       0.16687474      -0.05036371
O        6.17946701       2.08228636       3.87722413       0.12524680       0.06421391      -0.15892136
O        2.01398222       6.13921660       4.05045744      -0.00409131       0.08499987       0.01431292
O        6.15404832       6.17942201       3.95562121       0.09982796       0.12520514      -0.08052349
40
Lattice="8.07229364156986 2.904777715589395e-07 3.5974003450358844e-07 2.9047805627122115e-07 8.072288850344885 -1.5906224019387422e-06 3.5973984946264966e-07 -1.5906229804257139e-06 8.072291048783132" Properties=species:S:1:pos:R:3:u_disp:R:3 system=batio3_cubic base_model=chgnet role=train_pool T=300.0 draw=4 n_tries=13 rms_disp_A=0.11348328341876593 min_pair_ratio=0.9016577678725082 nearest_heldout_A=0.10995895117511542 site_map_ok=1 nearest_heldout_src=batio3_cubic_chgnet_q1d2-1d2-0-b0.extxyz#2 pbc="T T T"
Ba       0.00186894       3.91727437       4.06757293       0.00186704      -0.11886792       0.03142851
Ba       4.05718019       4.15548913       3.98499249       0.02103147       0.11934669      -0.05115211
Ba       0.08576708       8.04634046       4.11751474       0.08576504      -0.02594625       0.08137112
Ba       4.00446037       8.08565540       4.00674924      -0.03168850       0.01336854      -0.02939455
Ba      -0.02223106       4.04466210       8.01776303      -0.02223314       0.00852060      -0.05452690
Ba       4.02432387       3.92552618       8.03138114      -0.01182503      -0.11061546      -0.04090898
Ba       0.07926872       8.18992117       7.99869621       0.07926650       0.11763526      -0.07359293
Ba       4.03404607       8.00862011       8.08411845      -0.00210297      -0.06366596       0.01182913
Ti       2.00133603       2.10376244       2.11961255      -0.01673890       0.08568939       0.10153956
Ti       6.06043814       2.03095831       2.05254517       0.00621640       0.01288512       0.03447200
Ti       2.01716627       6.08638174       2.02519570      -0.00090880       0.03216427       0.00712350
Ti       6.01785015       6.03950110       2.03882936      -0.03637174      -0.01471653       0.02075698
Ti       1.95551739       1.95917965       6.10015313      -0.06255771      -0.05889261       0.04593461
Ti       5.95229207       1.99912922       6.02757756      -0.10192985      -0.01894318      -0.02664114
Ti       2.06287311       6.02249592       6.08072116       0.04479787      -0.03172076       0.02650344
Ti       6.07504511       6.04069244       6.01851597       0.02082304      -0.01352439      -0.03570193
O        4.09138802       1.92156211       2.06097770       0.05524334      -0.09651100       0.04290487
O        8.00250672       1.91465937       2.07276385      -0.06978478      -0.10341389       0.05469083
O        3.89450973       6.06459373       2.03414058      -0.14163509       0.01037619       0.01606854
O        8.13380921       6.06804567       2.02240114       0.06151757       0.01382799       0.00432892
O        4.07171331       2.16064637       6.12315694       0.03556846       0.14257405       0.06893858
O        8.10112126       2.08160152       5.95515098       0.02882959       0.06352906      -0.09906756
O        4.04538987       5.95809923       6.07591213       0.00924487      -0.09611752       0.02169456
O        7.98312177       6.18699626       6.16120558      -0.08917005       0.13277937       0.10698783
O        2.02606945       4.01466039       2.12657665       0.00799612      -0.02148194       0.10850502
O        5.99524859       4.10615742       1.99254572      -0.05897157       0.07001495      -0.02552609
O        2.03815733       8.09719135       2.06144662       0.02008386       0.02490459       0.04337579
O        6.02631270       7.98288286       2.09710321      -0.02790760      -0.08940404       0.07903220
O        2.02608345       4.07371574       6.08303499       0.00800994       0.03757420       0.02881784
O        6.08680751       4.18018001       6.01740393       0.03258718       0.14403833      -0.03681341
O        2.02607496       8.18147808       5.99906220       0.00800131       0.10919212      -0.05515416
O        6.03494341       8.19690788       6.02821523      -0.01927706       0.12462177      -0.02600131
O        1.79888187       2.03173445      -0.04040895      -0.21919134       0.01366135      -0.04040874
O        6.03787271       1.95959062       0.01252285      -0.01634732      -0.05848262       0.01252288
O        1.99208548       6.23963708       0.01658118      -0.02598787       0.18541956       0.01658218
O        6.06862341       6.05656742       0.06899914       0.01440323       0.00234975       0.06899996
O        1.93445231       2.03852003       4.05612565      -0.08362108       0.02044773       0.01998034
O        6.03681888       1.96527802       4.08291813      -0.01740133      -0.05279443       0.04677263
O        1.92443517       5.98079170       4.10955371      -0.09363837      -0.07342502       0.07340919
O        6.04379344       6.08857698       4.05741952      -0.01042691       0.03436011       0.02127482
40
Lattice="8.07229364156986 2.904777715589395e-07 3.5974003450358844e-07 2.9047805627122115e-07 8.072288850344885 -1.5906224019387422e-06 3.5973984946264966e-07 -1.5906229804257139e-06 8.072291048783132" Properties=species:S:1:pos:R:3:u_disp:R:3 system=batio3_cubic base_model=chgnet role=train_pool T=300.0 draw=5 n_tries=13 rms_disp_A=0.15014851672280238 min_pair_ratio=0.8618268741874476 nearest_heldout_A=0.14670045714649232 site_map_ok=1 nearest_heldout_src=batio3_cubic_chgnet_q1d2-1d2-0-b0.extxyz#3 pbc="T T T"
Ba      -0.05000231       4.10690091       4.19530570      -0.05000421       0.07075862       0.15916129
Ba       3.98760623       4.00677245       4.03492607      -0.04854249      -0.02936999      -0.00121853
Ba      -0.03204434       8.04451845       3.94256468      -0.03204639      -0.02776827      -0.09357894
Ba       4.13293312       8.03166098       4.09202482       0.09678426      -0.04062588       0.05588102
Ba       0.08799650       3.96159394       8.04160205       0.08799442      -0.07454756      -0.03068788
Ba       3.86603889       4.06673507       8.02371014      -0.17011001       0.03059343      -0.04857998
Ba       0.21329614       8.12354901       7.85332035       0.21329391       0.05126309      -0.21896879
Ba       4.07779348       8.07708039       8.25159274       0.04164443       0.00479433       0.17930342
Ti       2.01101741       1.91966807       2.09017886      -0.00705751      -0.09840498       0.07210586
Ti       6.04786565       2.07354090       1.98264434      -0.00635609       0.05546771      -0.03542883
Ti       1.95038871       6.06833997       2.01850592      -0.06768636       0.01412250       0.00043372
Ti       5.98849932       6.02568694       2.02269770      -0.06572257      -0.02853068       0.00462532
Ti       1.93923589       2.02189210       6.06082125      -0.07883922       0.00381984       0.00660273
Ti       5.90676784       1.98446743       6.03279120      -0.14745408      -0.03360497      -0.02142750
Ti       2.03662937       6.04323861       6.02588981       0.01855412      -0.01097808      -0.02832792
Ti       6.01563440       6.02737843       6.08026440      -0.03858767      -0.02683840       0.02604649
O        4.06448190       2.07377544       2.12848865       0.02833723       0.05570232       0.11041582
O        8.13179115       1.98328542       2.04516247       0.05949966      -0.03478784       0.02708945
O        4.05846219       6.05459770       2.06127465       0.02231737       0.00038016       0.04320261
O        8.11504756       6.08435965       2.01593853       0.04275592       0.03014197      -0.00213369
O        4.16137308       2.01010868       5.87571657       0.12522823      -0.00796363      -0.17850179
O        8.26331473       2.16291640       6.05129373       0.19102305       0.14484393      -0.00292481
O        3.95654619       6.07161733       5.99897949      -0.07959881       0.01740059      -0.05523807
O        8.01121027       5.96889110       6.20528220      -0.06108155      -0.08532579       0.15106445
O        1.92944828       4.03718833       2.00771789      -0.08862505       0.00104599      -0.01035374
O        5.94933451       4.03075136       2.16273957      -0.10488564      -0.00539112       0.14466776
O        2.01994695       8.10332399       1.78121390       0.00187347       0.03103724      -0.23685694
O        6.08473357       8.02341736       2.17650262       0.03051327      -0.04886954       0.15843161
O        2.10807110       4.06574545       6.02719118       0.08999759       0.02960392      -0.02702597
O        6.06989743       4.10429402       6.18260033       0.01567710       0.06815234       0.12838299
O        1.93062445       8.19914418       6.09408957      -0.08744921       0.12685822       0.03987321
O        6.13329953       8.08262672       5.99764840       0.07907906       0.01034062      -0.05656814
O        2.08129213       2.04781429      -0.12357549       0.06321893       0.02974120      -0.12357528
O        5.99159062       1.96293137      -0.09118272      -0.06262940      -0.05514187      -0.09118269
O        1.96365272       5.99363784      -0.05180816      -0.05442063      -0.06057968      -0.05180716
O        5.97661905       6.10100157       0.09260793      -0.07760112       0.04678391       0.09260875
O        1.92495650       1.83308541       3.88417237      -0.09311689      -0.18498689      -0.15197294
O        6.10710281       2.08195449       4.02895031       0.05288260       0.06388204      -0.00719518
O        1.94887447       6.30309610       3.93042969      -0.06919906       0.24887938      -0.10571483
O        6.01345590       6.13419558       4.15651377      -0.04076445       0.07997871       0.12036907
40
Lattice="8.07229364156986 2.904777715589395e-07 3.5974003450358844e-07 2.9047805627122115e-07 8.072288850344885 -1.5906224019387422e-06 3.5973984946264966e-07 -1.5906229804257139e-06 8.072291048783132" Properties=species:S:1:pos:R:3:u_disp:R:3 system=batio3_cubic base_model=chgnet role=train_pool T=300.0 draw=6 n_tries=13 rms_disp_A=0.1298289696335908 min_pair_ratio=0.8943799287792972 nearest_heldout_A=0.12681192194025553 site_map_ok=1 nearest_heldout_src=batio3_cubic_mattersim_q1d2-0-1d2-b0.extxyz#2 pbc="T T T"
Ba       0.03270716       4.10021518       4.03513109       0.03270526       0.06407290      -0.00101332
Ba       3.90487367       4.02313109       4.09375132      -0.13127505      -0.01301134       0.05760672
Ba      -0.07166181       7.98662122       3.99846321      -0.07166385      -0.08566550      -0.03768041
Ba       4.03085164       8.16647736       4.03892268      -0.00529723       0.09419050       0.00277888
Ba      -0.01911803       3.96844682       8.15245697      -0.01912011      -0.06769467       0.08016703
Ba       3.96684673       3.98182091       8.01878191      -0.06930217      -0.05432073      -0.05350821
Ba       0.02649158       8.03922566       8.13161671       0.02648935      -0.03306026       0.05932757
Ba       4.15903843       8.07938637       7.84757245       0.12288939       0.00710031      -0.22471687
Ti       2.06050708       2.09810722       2.02825521       0.04243216       0.08003417       0.01018222
Ti       6.10460967       1.96121523       2.10684694       0.05038792      -0.05685796       0.08877377
Ti       2.11506277       6.11666151       2.08283927       0.09698771       0.06244403       0.06476707
Ti       6.03465311       5.99704420       2.01271122      -0.01956878      -0.05717343      -0.00536116
Ti       2.01143371       2.08497859       5.98886829      -0.00664139       0.06690633      -0.06535023
Ti       6.10786818       2.09085145       6.06770684       0.05364626       0.07277905       0.01348814
Ti       1.98362278       6.09787580       6.14658606      -0.03445246       0.04365912       0.09236834
Ti       6.07490743       6.00282794       6.02308584       0.02068536      -0.05138889      -0.03113207
O        3.98098218       2.00992258       2.05527525      -0.05516249      -0.00815053       0.03720242
O        8.01624056       2.07383595       2.02576860      -0.05605093       0.05576269       0.00769558
O        3.95340177       5.98503448       2.08921120      -0.08274305      -0.06918306       0.07113916
O        8.11272441       6.05547003       1.94431011       0.04043277       0.00125235      -0.07376211
O        4.10781928       2.15871655       6.21744335       0.07167443       0.14064423       0.16322499
O        8.09859579       2.14550623       5.98605491       0.02630412       0.12743377      -0.06816363
O        4.11358111       6.08259821       6.02962741       0.07743611       0.02838147      -0.02459015
O        8.14175108       6.15203722       6.12131261       0.06945927       0.09782033       0.06709486
O        2.04032449       3.98287077       2.03651097       0.02225116      -0.05327156       0.01843934
O        5.88054412       4.06701248       2.00471257      -0.17367603       0.03087000      -0.01335924
O        2.00898349       8.17452292       1.94238160      -0.00908999       0.10223616      -0.07568924
O        6.15401349       8.11875288       2.20329487       0.09979319       0.04646598       0.18522386
O        2.03335037       4.05383243       6.07976600       0.01527686       0.01769090       0.02554885
O        6.09827569       3.96834822       6.02318768       0.04405536      -0.06779346      -0.03102966
O        2.18775354       8.24214306       6.10948204       0.16967989       0.16985710       0.05526568
O        6.02974948       7.98234699       6.11364371      -0.02447100      -0.08993912       0.05942717
O        1.93136578       2.01345492       0.09074721      -0.08670742      -0.00461817       0.09074742
O        6.10877876       1.93097255      -0.08344446       0.05455873      -0.08710069      -0.08344443
O        2.16879545       6.13471246       0.01421457       0.15072209       0.08049494       0.01421557
O        5.93852680       5.95584753       0.09359832      -0.11569337      -0.09837013       0.09359914
O        2.04417068       1.92421570       4.06763278       0.02609729      -0.09385660       0.03148747
O        6.02858720       2.04853277       4.03592660      -0.02563301       0.03046032      -0.00021890
O        2.00270548       5.99913149       3.94595592      -0.01536805      -0.05508523      -0.09018859
O        6.20573463       6.03098715       4.07901906       0.15151428      -0.02322972       0.04287436
40
Lattice="8.07229364156986 2.904777715589395e-07 3.5974003450358844e-07 2.9047805627122115e-07 8.072288850344885 -1.5906224019387422e-06 3.5973984946264966e-07 -1.5906229804257139e-06 8.072291048783132" Properties=species:S:1:pos:R:3:u_disp:R:3 system=batio3_cubic base_model=chgnet role=train_pool T=300.0 draw=7 n_tries=13 rms_disp_A=0.15244021520650747 min_pair_ratio=0.884897679164868 nearest_heldout_A=0.14831089980702586 site_map_ok=1 nearest_heldout_src=batio3_cubic_chgnet_q0-0-0-b2.extxyz#3 pbc="T T T"
Ba      -0.10207340       4.19303196       4.06568971      -0.10207530       0.15688968       0.02954529
Ba       3.89961858       4.05065362       4.06371114      -0.13653014       0.01451119       0.02756655
Ba      -0.03646097       8.02854265       4.07004428      -0.03646302      -0.04374406       0.03390066
Ba       4.07602929       8.11338330       4.05125891       0.03988042       0.04109644       0.01511511
Ba       0.09093966       4.03406197       7.86009747       0.09093758      -0.00207953      -0.21219247
Ba       4.04109764       3.84460352       8.10449330       0.00494873      -0.19153812       0.03220318
Ba       0.02041183       8.17305723       8.03292925       0.02040961       0.10077131      -0.03935989
Ba       4.06685909       8.07163352       8.26956908       0.03071004      -0.00065254       0.19727975
Ti       2.02463477       1.97594201       1.97024527       0.00655985      -0.04213104      -0.04782773
Ti       6.14102080       2.15013720       2.06748425       0.08679906       0.13206400       0.04941107
Ti       1.97232041       6.08006024       1.99093135      -0.04575466       0.02584276      -0.02714085
Ti       5.99833916       6.05919579       1.99507959      -0.05588272       0.00497817      -0.02299279
Ti       2.02721427       1.91656920       5.97059208       0.00913917      -0.10150305      -0.08362644
Ti       5.97390200       2.03492434       5.98035275      -0.08031992       0.01685194      -0.07386595
Ti       2.10054083       5.99196817       6.10875038       0.08246559      -0.06224851       0.05453266
Ti       6.01858006       6.13599331       6.02633799      -0.03564201       0.08177649      -0.02787991
O        4.11668819       2.00526140       2.04681210       0.08054352      -0.01281171       0.02873926
O        8.01927180       2.11342825       1.95576442      -0.05301969       0.09535500      -0.06230859
O        4.09290368       6.10433239       2.09997618       0.05675886       0.05011485       0.08190414
O        8.19514602       5.94137197       1.94843693       0.12285438      -0.11284571      -0.06963529
O        4.09301371       1.95334413       6.01063312       0.05686886      -0.06472819      -0.04358524
O        7.99191799       2.02636838       5.93071224      -0.08037369       0.00829592      -0.12350629
O        4.06887863       6.00221177       6.09148436       0.03273363      -0.05200497       0.03726680
O        8.06976884       6.09327070       6.13929197      -0.00252298       0.03905382       0.08507423
O        2.15905666       3.87592564       1.81228395       0.14098333      -0.16021669      -0.20578768
O        5.97242719       3.97706389       2.03288833      -0.08179296      -0.05907858       0.01481652
O        2.01291365       7.97459237       2.03466348      -0.00515983      -0.09769439       0.01659264
O        6.36574695       8.00032773       2.13723850       0.31152665      -0.07195918       0.11916748
O        1.95094635       4.08514086       6.15251764      -0.06712716       0.04899933       0.09830048
O        5.97260337       3.98619351       6.11462106      -0.08161696      -0.04994817       0.06040373
O        2.20191780       8.08107584       5.91892864       0.18384415       0.00878988      -0.13528772
O        6.05401068       8.00494910       6.03108978      -0.00020979      -0.06733700      -0.02312676
O        1.95419358       1.83533358      -0.07329485      -0.06387963      -0.18273951      -0.07329464
O        5.90457503       2.00810925       0.04068452      -0.14964500      -0.00996400       0.04068455
O        2.24135609       6.04959789      -0.01967678       0.22328274      -0.00461963      -0.01967577
O        6.07304706       6.14030478       0.08167296       0.01882689       0.08608711       0.08167379
O        2.06500414       1.94421774       4.01854233       0.04693075      -0.07385456      -0.01760298
O        6.15503651       2.10212933       4.03577837       0.10081630       0.08405688      -0.00036713
O        2.04487932       6.00953654       3.91032684       0.02680578      -0.04468019      -0.12581768
O        6.09132114       5.88558271       4.08672236       0.03710078      -0.16863416       0.05057766
40
Lattice="8.07229364156986 2.904777715589395e-07 3.5974003450358844e-07 2.9047805627122115e-07 8.072288850344885 -1.5906224019387422e-06 3.5973984946264966e-07 -1.5906229804257139e-06 8.072291048783132" Properties=species:S:1:pos:R:3:u_disp:R:3 system=batio3_cubic base_model=chgnet role=train_pool T=300.0 draw=8 n_tries=13 rms_disp_A=0.1348444167511493 min_pair_ratio=0.883390459135055 nearest_heldout_A=0.13037424886581128 site_map_ok=1 nearest_heldout_src=batio3_cubic_mace_mp0_T100.extxyz#2 pbc="T T T"
Ba      -0.07974626       4.04174937       4.00319082      -0.07974816       0.00560708      -0.03295359
Ba       3.99828248       3.93966169       4.01998098      -0.03786624      -0.09648075      -0.01616361
Ba       0.09213607       7.98932933       3.96564360       0.09213403      -0.08295738      -0.07050002
Ba       4.03252575       8.19761096       4.02425443      -0.00362312       0.12532410      -0.01188937
Ba      -0.10710151       3.99292916       8.01789388      -0.10710359      -0.04321234      -0.05439605
Ba       4.09709427       3.99279380       7.91689814       0.06094537      -0.04334784      -0.15539197
Ba       0.03094745       8.10214917       8.23947719       0.03094523       0.02986325       0.16718805
Ba       4.00243442       8.11745559       8.06265499      -0.03371462       0.04516953      -0.00963433
Ti       2.07669175       2.05024618       2.05822264       0.05861683       0.03217313       0.04014964
Ti       6.02762425       2.09459610       1.97498070      -0.02659749       0.07652290      -0.04309247
Ti       2.07026838       6.05500857       2.08830003       0.05219331       0.00079109       0.07022783
Ti       6.07409621       6.03012808       2.03193388       0.01987432      -0.02408954       0.01386150
Ti       1.95667603       2.07753580       6.07273858      -0.06139907       0.05946355       0.01852006
Ti       5.95758492       1.93135442       5.99173033      -0.09663700      -0.08671799      -0.06248837
Ti       2.06257920       6.13606553       6.14103104       0.04450396       0.08184885       0.08681331
Ti       6.08794922       6.03997331       6.12030041       0.03372716      -0.01424351       0.06608251
O        4.03946785       2.15714488       2.01853540       0.00332317       0.13907177       0.00046256
O        8.04520302       1.98712855       2.12268573      -0.02708847      -0.03094470       0.10461271
O        4.04439931       6.07342219       2.09821751       0.00825450       0.01920465       0.08014547
O        8.18145947       6.11441854       2.00403339       0.10916783       0.06020086      -0.01403883
O        3.96179842       2.00569588       6.03298451      -0.07434644      -0.01237644      -0.02123385
O        8.08962614       2.02899817       6.16300909       0.01733447       0.01092571       0.10879055
O        4.06665411       6.25263042       6.12506096       0.03050911       0.19841368       0.07084339
O        8.10597941       6.02117640       6.19904022       0.03368759      -0.03304048       0.14482248
O        2.02818583       3.98268400       2.03741502       0.01011250      -0.05345833       0.01934339
O        6.13807872       3.96863699       1.99426279       0.08385857      -0.06750549      -0.02380902
O        2.12101219       8.05174822       1.96605511       0.10293871      -0.02053854      -0.05201572
O        5.93034415       8.05512482       2.17060105      -0.12387614      -0.01716209       0.15253003
O        2.18162314       4.00429820       6.05518519       0.16354963      -0.03184334       0.00096803
O        6.10159941       4.01579670       6.03527213       0.04737908      -0.02034498      -0.01894520
O        1.84098042       8.04867653       6.04946348      -0.17709324      -0.02360943      -0.00475288
O        6.06896926       8.16428929       6.10827999       0.01474879       0.09200318       0.05406345
O        2.12164514       2.04213479       0.00905183       0.10357193       0.02406170       0.00905204
O        6.14060828       2.08987702       0.17257259       0.08638825       0.07180378       0.17257262
O        2.15942496       5.99782724      -0.05690021       0.14135161      -0.05639028      -0.05689921
O        6.00896147       6.12234184       0.12341460      -0.04525870       0.06812417       0.12341543
O        1.94342545       2.11725380       3.96903192      -0.07464794       0.09918150      -0.06711340
O        6.01299004       1.94997402       4.14359402      -0.04123016      -0.06809842       0.10744852
O        1.98383619       6.00090963       4.05091435      -0.03423735      -0.05330710       0.01476983
O        6.29293737       5.89892163       4.13954473       0.23871702      -0.15529524       0.10340003
40
Lattice="8.07229364156986 2.904777715589395e-07 3.5974003450358844e-07 2.9047805627122115e-07 8.072288850344885 -1.5906224019387422e-06 3.5973984946264966e-07 -1.5906229804257139e-06 8.072291048783132" Properties=species:S:1:pos:R:3:u_disp:R:3 system=batio3_cubic base_model=chgnet role=train_pool T=300.0 draw=9 n_tries=13 rms_disp_A=0.13523098719413176 min_pair_ratio=0.8714860628396842 nearest_heldout_A=0.12965597076314178 site_map_ok=1 nearest_heldout_src=batio3_cubic_sevennet0_q1d2-0-0-b0.extxyz#3 pbc="T T T"
Ba      -0.07156170       4.09930944       3.94474190      -0.07156360       0.06316715      -0.09140251
Ba       4.08083861       3.97378017       4.03641935       0.04468989      -0.06236226       0.00027476
Ba      -0.02899649       8.12153718       4.10455206      -0.02899854       0.04925047       0.06840844
Ba       3.92477413       8.08510889       4.11811342      -0.11137473       0.01282203       0.08196963
Ba      -0.16438248       4.02807752       8.04982338      -0.16438456      -0.00806398      -0.02246655
Ba       4.10614912       4.14211145       8.00718018       0.07000021       0.10596981      -0.06510994
Ba       0.15870561       8.05286754       8.14562517       0.15870339      -0.01941838       0.07333603
Ba       4.03552891       8.05375318       8.04706631      -0.00062013      -0.01853288      -0.02522301
Ti       1.98241108       2.01534634       1.99521953      -0.03566384      -0.00272671      -0.02285347
Ti       6.02095957       1.96114247       2.04453093      -0.03326218      -0.05693072       0.02645775
Ti       2.03205274       5.96200334       2.00227528       0.01397768      -0.09221413      -0.01579692
Ti       6.06933500       6.11013415       1.89654937       0.01511311       0.05591653      -0.12152301
Ti       2.08217040       2.09157303       6.03370774       0.06409530       0.07350077      -0.02051078
Ti       5.97853913       1.98258667       6.13491738      -0.07568279      -0.03548573       0.08069868
Ti       2.05981808       6.08145040       6.00303588       0.04174283       0.02723372      -0.05118184
Ti       6.16651885       6.00197256       5.93846582       0.11229679      -0.05224427      -0.11575209
O        3.88021689       2.00423749       2.07381774      -0.15592778      -0.01383562       0.05574491
O        8.01598531       1.93745733       2.22027357      -0.05630619      -0.08061593       0.20220056
O        4.06492446       6.02860881       2.15603680       0.02877964      -0.02560873       0.13796476
O        8.12979128       6.05086112       2.02583784       0.05749964      -0.00335656       0.00776562
O        4.00431484       2.06904587       6.16140093      -0.03183001       0.05097355       0.10718258
O        8.04773936       1.91579161       5.97939317      -0.02455232      -0.10228085      -0.07482537
O        4.11049953       5.96759957       6.06235251       0.07435453      -0.08661717       0.00813495
O        8.17547755       5.92109914       6.03083626       0.10318573      -0.13311774      -0.02338148
O        2.00192089       4.21018409       2.15496710      -0.01615244       0.17404176       0.13689547
O        6.02183507       3.92588211       1.96763840      -0.03238508      -0.11026037      -0.05043341
O        2.12243722       8.06141465       1.95827098       0.10436375      -0.01087211      -0.05979985
O        6.06484216       8.03559976       2.03948581       0.01062186      -0.03668714       0.02141479
O        2.07804966       4.04054785       5.93046506       0.05997615       0.00440631      -0.12375209
O        6.13418090       3.95285926       6.07121502       0.07996057      -0.08328243       0.01699769
O        2.19419798       8.07438509       6.05301450       0.17612432       0.00209913      -0.00120186
O        6.06270888       7.93358644       6.06641156       0.00848841      -0.13869967       0.01219502
O        1.92160142       2.02934938       0.07366157      -0.09647178       0.01127629       0.07366178
O        6.14666120       1.96803998       0.12942437       0.09244117      -0.05003326       0.12942440
O        2.04868810       6.03529044      -0.09826597       0.03061475      -0.01892708      -0.09826496
O        6.12359177       5.92690360      -0.00970724       0.06937159      -0.12731406      -0.00970641
O        2.09301317       2.11979562       4.13576701       0.07493978       0.10172332       0.09962170
O        5.96011018       1.92180380       4.02279551      -0.09411003      -0.09626865      -0.01334998
O        1.96671342       6.11973687       3.98404586      -0.05136012       0.06552014      -0.05209866
O        6.22436495       5.95582667       4.08333213       0.17014460      -0.09839020       0.04718743
40
Lattice="8.07229364156986 2.904777715589395e-07 3.5974003450358844e-07 2.9047805627122115e-07 8.072288850344885 -1.5906224019387422e-06 3.5973984946264966e-07 -1.5906229804257139e-06 8.072291048783132" Properties=species:S:1:pos:R:3:u_disp:R:3 system=batio3_cubic base_model=chgnet role=train_pool T=300.0 draw=10 n_tries=13 rms_disp_A=0.122312938385274 min_pair_ratio=0.8939708093246057 nearest_heldout_A=0.1185453353348344 site_map_ok=1 nearest_heldout_src=batio3_cubic_mace_mp0_ref.extxyz#1 pbc="T T T"
Ba      -0.00030017       4.00505808       4.02320348      -0.00030207      -0.03108421      -0.01294094
Ba       4.00069502       4.00333825       4.04330519      -0.03545370      -0.03280419       0.00716060
Ba       0.05961667       8.10292646       4.00438093       0.05961463       0.03063975      -0.03176269
Ba       4.15655969       8.05858299       4.01481431       0.12041083      -0.01370387      -0.02132948
Ba       0.05191493       3.96652839       8.11184032       0.05191285      -0.06961310       0.03955038
Ba       3.97995322       4.10388257       8.05820048      -0.05619569       0.06774094      -0.01408963
Ba      -0.07570477       7.96595877       8.13710170      -0.07570700      -0.10632715       0.06481256
Ba       4.01417666       8.13403453       8.10757481      -0.02197239       0.06174846       0.03528548
Ti       1.99924452       1.95524903       1.99116398      -0.01883040      -0.06282402      -0.02690902
Ti       6.04956667       2.06601149       1.99122703      -0.00465507       0.04793830      -0.02684615
Ti       2.07634608       6.01776799       2.05613720       0.05827102      -0.03644949       0.03806500
Ti       6.06092994       6.13505317       2.02003821       0.00670806       0.08083555       0.00196583
Ti       2.05162295       1.99781853       6.03314147       0.03354785      -0.02025372      -0.02107705
Ti       6.10460459       1.99892024       6.01623061       0.05038267      -0.01915216      -0.03798808
Ti       1.95439572       6.09878745       6.17302792      -0.06367952       0.04457077       0.11881019
Ti       6.02969668       6.11680064       6.01423285      -0.02452539       0.06258381      -0.03998506
O        4.03636964       2.09789252       1.94701312       0.00022497       0.07981941      -0.07105971
O        8.13149133       2.16297917       1.92107531       0.05919983       0.14490591      -0.09699771
O        3.89676360       6.01553694       2.04684526      -0.13938122      -0.03868060       0.02877323
O        7.88532721       6.09920446       2.04270382      -0.18696443       0.04498678       0.02463161
O        3.95004729       1.87102169       6.01205619      -0.08609756      -0.14705063      -0.04216217
O        8.04136509       1.94593149       6.05564232      -0.03092658      -0.07214097       0.00142378
O        4.03516111       6.22766261       6.20456649      -0.00098389       0.17344586       0.15034893
O        8.07244822       6.07983016       5.92825621       0.00015640       0.02561327      -0.12596153
O        2.04817134       4.15744430       2.00268652       0.03009801       0.12130197      -0.01538511
O        6.03392929       3.94197410       2.12759715      -0.02029086      -0.09416837       0.10952534
O        1.96319104       8.15702824       2.04627592      -0.05488243       0.08474149       0.02820508
O        6.04113134       8.11211132       1.83205165      -0.01308896       0.03982442      -0.18601937
O        2.02296002       4.04118967       5.98952680       0.00488651       0.00504814      -0.06469036
O        6.10900508       4.06117965       6.02109693       0.05478475       0.02503797      -0.03312040
O        1.93164580       8.03607538       5.97198928      -0.08642785      -0.03621059      -0.08222708
O        6.07034383       8.04607921       6.16768025       0.01612335      -0.02620690       0.11346371
O        2.02181112       1.99981033      -0.09963982       0.00373791      -0.01826277      -0.09963961
O        6.10044438       2.08233214      -0.05055211       0.04622435       0.06425890      -0.05055208
O        2.01741213       6.14504092       0.06391565      -0.00066122       0.09082340       0.06391665
O        6.02173985       6.00938060       0.06527112      -0.03248033      -0.04483707       0.06527194
O        1.97893767       2.00325569       3.99936628      -0.03913572      -0.01481661      -0.03677903
O        5.93814564       1.92709060       3.89688241      -0.11607457      -0.09098184      -0.13926309
O        2.17050060       6.10721969       3.92331390       0.15242707       0.05300297      -0.11283062
O        6.01926458       6.19551851       4.01682917      -0.03495577       0.14130164      -0.01931553
40
Lattice="8.07229364156986 2.904777715589395e-07 3.5974003450358844e-07 2.9047805627122115e-07 8.072288850344885 -1.5906224019387422e-06 3.5973984946264966e-07 -1.5906229804257139e-06 8.072291048783132" Properties=species:S:1:pos:R:3:u_disp:R:3 system=batio3_cubic base_model=chgnet role=train_pool T=300.0 draw=11 n_tries=13 rms_disp_A=0.1257563255222659 min_pair_ratio=0.8884226119537721 nearest_heldout_A=0.12029618544915352 site_map_ok=1 nearest_heldout_src=batio3_cubic_sevennet0_q1d2-0-0-b0.extxyz#3 pbc="T T T"
Ba       0.04889801       3.99870541       4.05926150       0.04889611      -0.03743688       0.02311709
Ba       3.90135600       4.06085009       4.06648455      -0.13479272       0.02470766       0.03033996
Ba       0.09824714       8.11269968       3.98846899       0.09824509       0.04041296      -0.04767463
Ba       4.06753066       8.14760871       4.01555977       0.03138180       0.07532185      -0.02058403
Ba      -0.05982863       3.91869367       8.00029830      -0.05983071      -0.11744783      -0.07199164
Ba       3.99537552       4.06705780       8.04667533      -0.04077338       0.03091616      -0.02561479
Ba      -0.11533017       7.98770718       8.09577662      -0.11533239      -0.08457874       0.02348748
Ba       4.01128760       8.15643474       8.07982238      -0.02486145       0.08414868       0.00753305
Ti       2.04095737       1.96436662       2.07699677       0.02288244      -0.05370643       0.05892377
Ti       6.01011956       2.01849777       2.00098213      -0.04410219       0.00042458      -0.01709104
Ti       2.07595705       5.99950455       1.99946167       0.05788198      -0.05471292      -0.01861053
Ti       6.10796224       6.03885404       2.08788245       0.05374035      -0.01536358       0.06981007
Ti       2.02903807       1.99236761       6.07235279       0.01096297      -0.02570465       0.01813427
Ti       6.02789266       2.03914764       6.00091881      -0.02632926       0.02107524      -0.05329989
Ti       2.07795578       6.09086918       6.15758542       0.05988053       0.03665250       0.10336770
Ti       6.15168437       6.05437877       6.12465679       0.09746231       0.00016195       0.07043888
O        3.99666571       2.04654069       2.00716120      -0.03947896       0.02846757      -0.01091163
O        8.05227874       2.04613791       1.96652617      -0.02001275       0.02806465      -0.05154685
O        4.06729259       6.02049225       1.98100939       0.03114777      -0.03372528      -0.03706265
O        8.18924448       6.09684418       2.03457629       0.11695284       0.04262650       0.01650407
O        4.07059066       2.13751055       6.05745928       0.03444581       0.11943824       0.00324092
O        8.02243420       2.00973337       5.99720631      -0.04985747      -0.00833909      -0.05701223
O        4.16898557       6.10792738       6.18765276       0.13284057       0.05371064       0.13343520
O        8.18159993       6.05518955       6.13078436       0.10930811       0.00097267       0.07656662
O        2.07118357       4.13925190       1.99575736       0.05311024       0.10310957      -0.02231427
O        6.08226927       3.99202222       2.18828859       0.02804912      -0.04412025       0.17021678
O        2.03835443       8.12046549       1.95125554       0.02028095       0.04817873      -0.06681530
O        5.95827144       7.95017342       1.95049382      -0.09594886      -0.12211348      -0.06757719
O        2.02490551       4.04698499       6.06166402       0.00683200       0.01084346       0.00744686
O        6.08499953       3.98506103       5.94348808       0.03077920      -0.05108065      -0.11072925
O        2.08648241       8.12223145       6.10920907       0.06840875       0.04994548       0.05499271
O        6.04507611       8.09360474       6.25500448      -0.00914436       0.02131863       0.20078794
O        2.03283151       2.00882500      -0.04274888       0.01475830      -0.00924809      -0.04274867
O        6.07385636       1.99537228      -0.00749268       0.01963633      -0.02270096      -0.00749265
O        2.09680076       6.04986797      -0.01000537       0.07872741      -0.00434955      -0.01000437
O        6.20981398       5.95185409       0.07920311       0.15559380      -0.10236357       0.07920393
O        2.10056424       2.06482520       3.86608584       0.08249085       0.04675290      -0.17005948
O        6.01293204       1.78820495       3.95188473      -0.04128817      -0.22986749      -0.08426077
O        2.16194837       6.09065375       3.98567757       0.14387484       0.03643703      -0.05046695
O        6.17896493       6.22732288       4.08820210       0.12474458       0.17310601       0.05205740
40
Lattice="8.07229364156986 2.904777715589395e-07 3.5974003450358844e-07 2.9047805627122115e-07 8.072288850344885 -1.5906224019387422e-06 3.5973984946264966e-07 -1.5906229804257139e-06 8.072291048783132" Properties=species:S:1:pos:R:3:u_disp:R:3 system=batio3_cubic base_model=chgnet role=train_pool T=300.0 draw=12 n_tries=13 rms_disp_A=0.1358015957696621 min_pair_ratio=0.8814067538338978 nearest_heldout_A=0.13287435314046764 site_map_ok=1 nearest_heldout_src=batio3_cubic_orb_v2_q1d2-0-0-b0.extxyz#3 pbc="T T T"
Ba      -0.12119610       4.06704203       4.03272583      -0.12119800       0.03089974      -0.00341858
Ba       3.88245192       3.88396047       3.99715540      -0.15369680      -0.15218196      -0.03898920
Ba       0.07138777       8.22188166       4.04514931       0.07138573       0.14959494       0.00900570
Ba       4.11563557       8.07731219       3.96788426       0.07948670       0.00502533      -0.06825954
Ba      -0.01872408       4.02246503       8.14184154      -0.01872616      -0.01367647       0.06955160
Ba       4.12936921       4.08213243       8.11798555       0.09322031       0.04599079       0.04569544
Ba       0.02223924       7.96532847       8.09047154       0.02223702      -0.10695745       0.01818240
Ba       4.12300806       8.06378283       8.14345805       0.08685902      -0.00850323       0.07116873
Ti       1.99449578       2.03767873       1.93139518      -0.02357914       0.01960568      -0.08667781
Ti       6.02923334       1.97192849       1.95337587      -0.02498840      -0.04614471      -0.06469730
Ti       2.02104558       6.11135965       2.11128405       0.00297051       0.05714217       0.09321185
Ti       6.06286696       6.10897311       1.95164010       0.00864507       0.05475548      -0.06643228
Ti       2.10260638       2.10877475       6.12517019       0.08453127       0.09070250       0.07095167
Ti       6.04295920       2.03929004       6.11661336      -0.01126272       0.02121764       0.06239466
Ti       2.01218422       6.03546496       6.10804791      -0.00589103      -0.01875172       0.05383019
Ti       5.94526004       6.01094167       5.87804655      -0.10896203      -0.04327515      -0.17617135
O        4.02293150       1.89082205       1.91346151      -0.01321317      -0.12725106      -0.10461133
O        8.16207405       2.07975683       2.03283565       0.08978256       0.06168357       0.01476264
O        4.04386614       6.02781018       2.02114697       0.00772132      -0.02640735       0.00307493
O        8.06586809       6.14018868       1.95562762      -0.00642355       0.08597099      -0.06244460
O        4.07635627       2.04876346       6.15631433       0.04021142       0.03069114       0.10209597
O        7.98685103       2.00188288       6.01434101      -0.08544064      -0.01618958      -0.03987753
O        4.11831802       6.04783448       6.10097852       0.08217302      -0.00638226       0.04676096
O        7.94752413       6.10156964       5.97714048      -0.12476769       0.04735275      -0.07707727
O        2.07130457       3.91185960       1.88800874       0.05323124      -0.12428273      -0.13006289
O        6.13657477       4.08870220       2.05384714       0.08235462       0.05255972       0.03577533
O        1.99581417       7.99066671       1.92389210      -0.02225930      -0.08162004      -0.09417874
O        6.06415839       8.09323149       1.93979864       0.00993810       0.02094459      -0.07827237
O        1.90721580       4.04518113       6.16676964      -0.11085771       0.00903959       0.11255249
O        5.91380668       3.99976508       5.95290501      -0.14041365      -0.03637660      -0.10131233
O        2.12281143       7.96669617       5.87033127       0.10473778      -0.10558979      -0.18388509
O        5.93318696       8.14806877       5.99449695      -0.12103352       0.07578266      -0.05971959
O        1.91697438       2.07031232       0.08993054      -0.10109883       0.05223923       0.08993075
O        6.13858024       2.07554052       0.09660221       0.08436021       0.05746728       0.09660224
O        2.05874228       6.08062243      -0.10353772       0.04066893       0.02640491      -0.10353671
O        5.94036563       5.95495714      -0.03199716      -0.11385455      -0.09926053      -0.03199634
O        2.13120038       2.08605576       4.16596239       0.11312699       0.06798346       0.12981708
O        5.99219261       1.92631684       3.97074934      -0.06202759      -0.09175561      -0.06539615
O        1.92629493       6.02620877       3.97931045      -0.09177860      -0.02800795      -0.05683407
O        6.06276238       6.23209159       4.05028596       0.00854202       0.17787471       0.01414126
40
Lattice="8.07229364156986 2.904777715589395e-07 3.5974003450358844e-07 2.9047805627122115e-07 8.072288850344885 -1.5906224019387422e-06 3.5973984946264966e-07 -1.5906229804257139e-06 8.072291048783132" Properties=species:S:1:pos:R:3:u_disp:R:3 system=batio3_cubic base_model=chgnet role=train_pool T=600.0 draw=0 n_tries=14 rms_disp_A=0.16550671273689943 min_pair_ratio=0.8082622423343196 nearest_heldout_A=0.15834057683553424 site_map_ok=1 nearest_heldout_src=batio3_cubic_sevennet0_q1d2-0-1d2-b0.extxyz#3 pbc="T T T"
Ba      -0.05903615       3.97438174       3.92468689      -0.05903805      -0.06176055      -0.11145752
Ba       4.16170698       3.83880466       3.98849208       0.12555826      -0.19733777      -0.04765252
Ba       0.04200652       8.24633026       4.24299784       0.04200448       0.17404355       0.20685422
Ba       3.85496779       7.97729857       4.00239725      -0.18118108      -0.09498829      -0.03374655
Ba      -0.06511053       4.03988671       8.03808429      -0.06511261       0.00374522      -0.03420565
Ba       4.02199477       4.02883185       7.97576477      -0.01415413      -0.00730979      -0.09652535
Ba       0.10286191       8.09690507       8.20303855       0.10285969       0.02461915       0.13074941
Ba       3.91171733       8.02427748       7.99375683      -0.12443172      -0.04800858      -0.07853250
Ti       1.98772197       2.03551630       1.98180679      -0.03035295       0.01744325      -0.03626620
Ti       5.98776190       2.16336687       2.10101833      -0.06645985       0.14529367       0.08294516
Ti       2.16895579       5.97126744       2.14191047       0.15088073      -0.08295004       0.12383827
Ti       6.05688004       6.22292153       1.99582159       0.00265815       0.16870391      -0.02225079
Ti       2.06616111       2.12514804       6.07436476       0.04808601       0.10707579       0.02014624
Ti       6.22158994       2.01824087       6.15879394       0.16736801       0.00016846       0.10457524
Ti       2.01736222       6.02532961       6.04300186      -0.00071303      -0.02888707      -0.01121586
Ti       6.10391471       6.10633561       6.02757751       0.04969264       0.05211879      -0.02664039
O        4.10295276       2.09163661       2.05368264       0.06680809       0.07356350       0.03560980
O        8.13412968       2.09064532       1.91774890       0.06183819       0.07257206      -0.10032412
O        4.02516869       6.04630655       2.10249816      -0.01097612      -0.00791099       0.08442612
O        8.19812504       6.13845588       2.04003347       0.12583341       0.08423820       0.02196125
O        3.86236063       2.32247022       6.09998582      -0.17378423       0.30439791       0.04576747
O        8.05260610       2.10074988       6.15529846      -0.01968558       0.08267742       0.10107992
O        4.29782360       6.06339055       5.85337669       0.26167860       0.00917380      -0.20084088
O        8.20396627       6.13769730       6.06783807       0.13167445       0.08348041       0.01362032
O        1.98652908       4.06357377       2.09224718      -0.03154425       0.02743144       0.07417555
O        6.09643070       3.96869730       1.97283517       0.04221055      -0.06744518      -0.04523664
O        1.99001149       8.16084860       1.94040724      -0.02806199       0.08856184      -0.07766360
O        6.01203351       7.85264039       1.94495234      -0.04218678      -0.21964651      -0.07311867
O        2.12884864       4.04626073       6.03511625       0.11077513       0.01011919      -0.01910090
O        6.03283134       4.11572111       5.99213304      -0.02138899       0.07957943      -0.06208429
O        2.15631991       8.05377474       6.12893754       0.13824626      -0.01851122       0.07472118
O        6.15313439       8.23627998       6.21235432       0.09891391       0.16399388       0.15813778
O        1.87100988       2.00933173      -0.02928581      -0.14706332      -0.00874137      -0.02928560
O        5.93618660       1.96138938       0.04753193      -0.11803343      -0.05668386       0.04753196
O        2.05527119       5.95969716      -0.10562957       0.03719784      -0.09452036      -0.10562856
O        6.10900807       6.00402668      -0.02020360       0.05478790      -0.05019099      -0.02020277
O        2.11029425       2.02768242       4.11384458       0.09222086       0.00961012       0.07769926
O        5.97064879       1.93551572       3.95026395      -0.08357142      -0.08255673      -0.08588154
O        2.01128072       6.05873191       3.98224391      -0.00679281       0.00451518      -0.05390061
O        6.04343259       6.20942647       4.02497682      -0.01078776       0.15520960      -0.01116788
40
Lattice="8.07229364156986 2.904777715589395e-07 3.5974003450358844e-07 2.9047805627122115e-07 8.072288850344885 -1.5906224019387422e-06 3.5973984946264966e-07 -1.5906229804257139e-06 8.072291048783132" Properties=species:S:1:pos:R:3:u_disp:R:3 system=batio3_cubic base_model=chgnet role=train_pool T=600.0 draw=1 n_tries=14 rms_disp_A=0.21807349715695554 min_pair_ratio=0.8651910444508599 nearest_heldout_A=0.21360762981045647 site_map_ok=1 nearest_heldout_src=batio3_cubic_mace_mp0_T100.extxyz#1 pbc="T T T"
Ba       0.11951215       4.11018806       3.88498670       0.11951025       0.07404577      -0.15115772
Ba       4.00261877       3.80456009       3.91265146      -0.03352995      -0.23158234      -0.12349313
Ba      -0.24469689       8.27976165       4.21563968      -0.24469894       0.20747493       0.17949606
Ba       4.09371337       7.92554903       3.86046354       0.05756451      -0.14673783      -0.17568026
Ba       0.06383816       4.01386984       7.97897108       0.06383608      -0.02227166      -0.09331886
Ba       3.95953660       3.97589992       8.28970569      -0.07661230      -0.06024172       0.21741557
Ba       0.11866423       8.18370082       8.18491065       0.11866200       0.11141490       0.11262151
Ba       4.06577522       7.88414112       8.07401215       0.02962617      -0.18814494       0.00172283
Ti       1.92799956       2.14441509       2.02723666      -0.09007536       0.12634204       0.00916367
Ti       6.04753049       2.04889573       1.97798314      -0.00669126       0.03082253      -0.04009004
Ti       2.01759725       6.16135887       2.09341323      -0.00047782       0.10714139       0.07534103
Ti       6.22638936       6.08876182       1.96883742       0.17216748       0.03454419      -0.04923496
Ti       2.06212790       2.01458751       6.02132164       0.04405280      -0.00348474      -0.03289688
Ti       6.06531678       2.16707520       6.21507851       0.01109485       0.14900280       0.16085981
Ti       1.97511492       6.04859112       5.87508128      -0.04296032      -0.00562556      -0.17913644
Ti       5.94443942       6.14236984       6.00797443      -0.10978264       0.08815302      -0.04624347
O        4.08101263       1.86473007       2.05313743       0.04486796      -0.15334304       0.03506460
O        8.00395774       2.21938029       2.14194180      -0.06833375       0.20130703       0.12386879
O        3.93111551       6.25149739       1.97065466      -0.10502930       0.19727985      -0.04741738
O        8.02575679       6.04588125       2.09360344      -0.04653485      -0.00833643       0.07553122
O        4.02621559       2.09920222       6.27014081      -0.00992926       0.08112990       0.21592245
O        8.05234067       2.00108099       6.09338801      -0.01995100      -0.01699147       0.03916948
O        3.97947413       6.00471453       6.07056513      -0.05667087      -0.04950221       0.01634756
O        8.03996717       5.95573366       5.85802118      -0.03232465      -0.09848323      -0.19619657
O        2.17078659       3.96127016       1.93393541       0.15271326      -0.07487217      -0.08413622
O        5.96516575       4.10087046       2.18049760      -0.08905440       0.06472798       0.16242579
O        1.75024818       8.13327642       2.21528533      -0.26782529       0.06098967       0.19721450
O        6.14512096       8.21567263       1.76763392       0.09090066       0.14338573      -0.25043709
O        2.13131229       3.85660050       6.37777756       0.11323879      -0.17954103       0.32356040
O        6.07684526       4.08611140       5.95653880       0.02262493       0.04996972      -0.09767854
O        2.09033292       7.98140365       5.80140880       0.07225927      -0.09088231      -0.25280756
O        6.12320581       8.08155234       6.27324903       0.06898534       0.00926623       0.21903249
O        1.90256551       1.81536757       0.00593355      -0.11550769      -0.20270553       0.00593376
O        6.07627371       2.34411450       0.07634175       0.02205368       0.32604126       0.07634178
O        2.04416728       6.27076902       0.02319560       0.02609392       0.21655150       0.02319660
O        6.08486106       6.00277082      -0.01734823       0.03064089      -0.05144685      -0.01734741
O        1.99224231       2.10873402       4.17507178      -0.02583107       0.09066172       0.13892647
O        6.02836970       2.00577083       4.20178515      -0.02585051      -0.01230162       0.16563965
O        1.98665800       5.88256738       3.83853183      -0.03141553      -0.17164935      -0.19761269
O        6.07702862       6.34427768       3.94552212       0.02280826       0.29006081      -0.09062257
40
Lattice="8.07229364156986 2.904777715589395e-07 3.5974003450358844e-07 2.9047805627122115e-07 8.072288850344885 -1.5906224019387422e-06 3.5973984946264966e-07 -1.5906229804257139e-06 8.072291048783132" Properties=species:S:1:pos:R:3:u_disp:R:3 system=batio3_cubic base_model=chgnet role=train_pool T=600.0 draw=2 n_tries=14 rms_disp_A=0.17901182681304276 min_pair_ratio=0.8443779981900534 nearest_heldout_A=0.17518360359890434 site_map_ok=1 nearest_heldout_src=batio3_cubic_chgnet_q0-0-0-b0.extxyz#3 pbc="T T T"
Ba       0.13848894       3.99123604       4.08817613       0.13848704      -0.04490625       0.05203171
Ba       4.23165539       3.98648493       3.88540183       0.19550667      -0.04965751      -0.15074276
Ba       0.04354065       8.11579060       3.94443127       0.04353861       0.04350389      -0.09171235
Ba       4.05125956       8.01873161       4.17924023       0.01511070      -0.05355525       0.14309643
Ba      -0.22502209       4.10904544       8.11780165      -0.22502417       0.07290395       0.04551171
Ba       4.03739232       4.01675558       8.04685813       0.00124342      -0.01938605      -0.02543198
Ba       0.07419499       8.02008153       8.10279586       0.07419276      -0.05220439       0.03050672
Ba       3.98337264       8.16674576       7.96501121      -0.05277641       0.09445970      -0.10727812
Ti       2.04572310       2.06076112       1.93249720       0.02764817       0.04268807      -0.08557579
Ti       5.92011090       2.04264862       2.06550990      -0.13411084       0.02457543       0.04743672
Ti       1.94334149       6.02328561       2.01842525      -0.07473358      -0.03093187       0.00035305
Ti       5.91238034       6.09937241       1.90566407      -0.14184155       0.04515479      -0.11240831
Ti       2.00671945       2.07042989       6.06847630      -0.01135565       0.05235763       0.01425778
Ti       6.01056872       2.00925167       6.22524687      -0.04365321      -0.00882073       0.17102817
Ti       1.94590508       6.03559115       5.96296377      -0.07217017      -0.01862553      -0.09125396
Ti       5.98143408       5.98325223       6.04327332      -0.07278798      -0.07096460      -0.01094458
O        3.99626675       1.85142533       1.94168233      -0.03987792      -0.16664778      -0.07639051
O        8.10677585       2.09308862       2.21236544       0.03448435       0.07501537       0.19429242
O        3.95438924       6.03060401       2.13636615      -0.08175558      -0.02361353       0.11829411
O        8.05834691       5.99570951       1.96804384      -0.01394472      -0.05850817      -0.05002838
O        3.99672307       2.16359251       6.18653155      -0.03942178       0.14552020       0.13231319
O        8.12335854       1.97474456       6.14359103       0.05106687      -0.04332790       0.08937249
O        4.02468664       5.94350686       6.16567065      -0.01145836      -0.11070989       0.11145308
O        8.08577973       6.09066774       5.89202754       0.01348791       0.03645085      -0.16219020
O        2.15946428       4.07161227       1.79968005       0.14139096       0.03546994      -0.21839158
O        5.86186737       3.80697846       2.09270730      -0.19235278      -0.22916402       0.07463549
O        1.94668617       7.96761153       2.15114979      -0.07138730      -0.10467522       0.13307895
O        5.92795286       8.07949315       1.94270002      -0.12626744       0.00720625      -0.07537099
O        1.99543659       4.10764112       6.07981854      -0.02263692       0.07149958       0.02560139
O        6.15801131       3.95029509       5.93720455       0.10379098      -0.08584659      -0.11701279
O        2.08756632       8.14276971       6.28552503       0.06949267       0.07048375       0.23130867
O        5.97814353       8.13220623       6.22935248      -0.07607695       0.05992012       0.17513594
O        2.02584919       1.93990443       0.23289136       0.00777598      -0.07816866       0.23289157
O        6.09415123       2.16641071       0.04484470       0.03993121       0.14833747       0.04484474
O        1.94886375       5.94261888      -0.03341178      -0.06920961      -0.11159864      -0.03341077
O        6.06755930       6.11415694       0.16172310       0.01333912       0.05993928       0.16172393
O        2.25304907       2.22078560       4.17377654       0.23497568       0.20271330       0.13763122
O        6.15799336       1.90358138       4.02446972       0.10377315      -0.11449107      -0.01167577
O        2.02668144       6.14449977       3.86433818       0.00860791       0.09028305      -0.17180634
O        5.90800780       6.14801263       4.18343425      -0.14621255       0.09379576       0.14728955
40
Lattice="8.07229364156986 2.904777715589395e-07 3.5974003450358844e-07 2.9047805627122115e-07 8.072288850344885 -1.5906224019387422e-06 3.5973984946264966e-07 -1.5906229804257139e-06 8.072291048783132" Properties=species:S:1:pos:R:3:u_disp:R:3 system=batio3_cubic base_model=chgnet role=train_pool T=600.0 draw=3 n_tries=14 rms_disp_A=0.1809950477880945 min_pair_ratio=0.8520039928899181 nearest_heldout_A=0.17512802240262101 site_map_ok=1 nearest_heldout_src=batio3_cubic_mace_mp0_q1d2-0-0-b0.extxyz#2 pbc="T T T"
Ba       0.02988799       4.07612876       4.01496141       0.02988609       0.03998647      -0.02118300
Ba       4.04853717       3.97638699       4.02751936       0.01238845      -0.05975544      -0.00862523
Ba       0.01711807       8.19058268       4.00111077       0.01711603       0.11829597      -0.03503285
Ba       4.20470223       8.01560717       4.07422414       0.16855337      -0.05667969       0.03808034
Ba      -0.07504485       4.10878069       8.08131351      -0.07504693       0.07263920       0.00902357
Ba       4.16987436       4.11032581       8.18678314       0.13372545       0.07418417       0.11449303
Ba      -0.11945117       8.07889680       7.89408654      -0.11945339       0.00661088      -0.17820260
Ba       3.90665861       7.78260681       7.85974493      -0.12949044      -0.28967925      -0.21254439
Ti       1.98114310       1.98114859       2.11527250      -0.03693182      -0.03692446       0.09719951
Ti       6.12158936       2.08242394       2.11682959       0.06736761       0.06435074       0.09875642
Ti       1.85704043       6.07203350       1.92836705      -0.16103464       0.01781602      -0.08970515
Ti       6.12700034       6.08994590       2.09357039       0.07277846       0.03572828       0.07549801
Ti       2.05645789       2.08150758       6.18481472       0.03838279       0.06343532       0.13059620
Ti       5.99447397       2.15344773       6.14932083      -0.05974796       0.13537533       0.09510213
Ti       2.11325286       6.06645328       5.99296016       0.09517762       0.01223660      -0.06125756
Ti       6.11334503       6.10287951       6.04455039       0.05912296       0.04866268      -0.00966752
O        4.19075301       1.92939358       2.14327261       0.15460834      -0.08867953       0.12519978
O        8.11244440       1.98520810       1.98270794       0.04015291      -0.03286516      -0.03536508
O        3.92296268       6.28570099       2.21492429      -0.11318214       0.23148346       0.19685225
O        7.93529758       6.03902816       2.10268098      -0.13699406      -0.01518952       0.08460876
O        4.13149797       2.15816251       6.19797935       0.09535312       0.14009020       0.14376099
O        8.15101814       2.01352889       6.20704614       0.07872647      -0.00454357       0.15282760
O        3.89855591       5.95790516       6.02849639      -0.13758909      -0.09631158      -0.02572118
O        7.87329914       5.99142535       6.11238169      -0.19899268      -0.06279153       0.05816395
O        1.98923096       4.02631395       1.99270092      -0.02884237      -0.00982838      -0.02537071
O        6.06328170       4.05491782       2.01626303       0.00906155       0.01877534      -0.00180878
O        1.81817849       8.09517571       2.10992816      -0.19989499       0.02288895       0.09185733
O        6.16318997       8.02890570       2.11144123       0.10896968      -0.04338120       0.09337022
O        1.99035772       4.04047988       6.15949295      -0.02771579       0.00433835       0.10527580
O        6.13852522       4.11246086       6.32290537       0.08430489       0.07631918       0.26868804
O        2.10874988       8.00973564       6.09303592       0.09067622      -0.06255032       0.03881957
O        5.82033503       8.05068624       5.89114500      -0.23388544      -0.02159987      -0.16307154
O        2.06170593       2.11248136       0.10686077       0.04363272       0.09440827       0.10686098
O        6.11924714       2.03126754      -0.07588760       0.06502711       0.01319430      -0.07588757
O        1.80468034       6.17142914       0.20366935      -0.21339301       0.11721162       0.20367035
O        6.15127002       6.03724931       0.01138708       0.09704985      -0.01696836       0.01138790
O        2.01406162       1.94986899       4.06107532      -0.00401177      -0.06820331       0.02493001
O        6.05067285       1.98242896       4.04907657      -0.00354736      -0.03564348       0.01293108
O        1.95802052       5.87527042       4.22129163      -0.06005301      -0.17894631       0.18514711
O        5.99662467       5.86400138       3.97561347      -0.05759569      -0.19021549      -0.06053123
40
Lattice="8.07229364156986 2.904777715589395e-07 3.5974003450358844e-07 2.9047805627122115e-07 8.072288850344885 -1.5906224019387422e-06 3.5973984946264966e-07 -1.5906229804257139e-06 8.072291048783132" Properties=species:S:1:pos:R:3:u_disp:R:3 system=batio3_cubic base_model=chgnet role=train_pool T=600.0 draw=4 n_tries=14 rms_disp_A=0.19547766327556887 min_pair_ratio=0.82894286027977 nearest_heldout_A=0.1862271751607242 site_map_ok=1 nearest_heldout_src=batio3_cubic_chgnet_q0-1d2-0-b0.extxyz#3 pbc="T T T"
Ba      -0.03665135       4.11284499       4.20369305      -0.03665325       0.07670270       0.16754863
Ba       3.97357306       3.83578950       4.06283091      -0.06257566      -0.20035294       0.02668632
Ba       0.06062017       8.07162963       4.06666702       0.06061812      -0.00065708       0.03052341
Ba       4.16577120       7.98135546       4.20976970       0.12962233      -0.09093139       0.17362591
Ba       0.07989133       3.93818391       8.19822406       0.07988925      -0.09795758       0.12593412
Ba       3.99341297       4.02239672       8.09387531      -0.04273593      -0.01374492       0.02158520
Ba      -0.10022619       8.06495144       7.93711945      -0.10022842      -0.00733447      -0.13516969
Ba       3.97105508       8.17722613       7.95243344      -0.06509397       0.10494007      -0.11985588
Ti       2.06118558       1.95243911       1.91462651       0.04311065      -0.06563394      -0.10344649
Ti       6.15887750       1.95731912       1.85525598       0.10465576      -0.06075408      -0.16281719
Ti       2.07593914       6.14391603       2.01181331       0.05786407       0.08969856      -0.00625889
Ti       6.05980723       6.13602950       1.99774141       0.00558534       0.08181188      -0.02033097
Ti       2.13706319       2.05589124       6.00703805       0.11898809       0.03781898      -0.04718047
Ti       6.06951621       2.04299914       6.03723004       0.01529429       0.02492674      -0.01698866
Ti       1.93256604       6.01588351       6.07120422      -0.08550921      -0.03833317       0.01698649
Ti       5.92488906       6.13820688       6.03554995      -0.12933300       0.08399006      -0.01866795
O        4.09190808       1.95807157       2.01201143       0.05576341      -0.06000154      -0.00606140
O        8.11323139       2.01803045       1.97210047       0.04093989      -0.00004281      -0.04597254
O        3.94160479       6.06992727       1.72489135      -0.09454003       0.01570973      -0.29318069
O        7.91173886       6.23800153       2.12643246      -0.16055278       0.18378384       0.10836024
O        4.22060786       2.29184414       5.83826389       0.18446301       0.27377182      -0.21595447
O        8.09224267       2.11612547       6.19238612       0.01995100       0.09805301       0.13816758
O        4.12926930       6.06167839       6.08729401       0.09312431       0.00746164       0.03307645
O        8.12946620       6.07965228       5.90902861       0.05717438       0.02543539      -0.14518913
O        1.97181862       4.11205171       1.75390123      -0.04625471       0.07590938      -0.26417040
O        5.97910794       4.19564526       1.92614216      -0.07511221       0.15950278      -0.09192965
O        2.01865209       8.04161883       2.03450683       0.00057861      -0.03066793       0.01643599
O        5.93988785       8.23171518       1.80084774      -0.11433244       0.15942828      -0.21722327
O        2.11338695       4.14779368       6.06263587       0.09531344       0.11165215       0.00841872
O        6.21761781       4.14905270       5.90838879       0.16339748       0.11291102      -0.14582855
O        2.28173213       8.15309050       6.10670802       0.26365847       0.08080453       0.05249166
O        5.95387347       8.20999108       6.07692087      -0.10034701       0.13770497       0.02270433
O        2.09865280       2.03582662       0.05130141       0.08057959       0.01775353       0.05130162
O        6.03971634       2.00358842       0.09118733      -0.01450369      -0.01448482       0.09118736
O        1.77660844       6.15900938      -0.23481958      -0.24146491       0.10479186      -0.23481858
O        5.98044213       5.96946631      -0.15577266      -0.07377805      -0.08475136      -0.15577184
O        1.93875034       1.99626161       4.10029247      -0.07932305      -0.02181069       0.06414716
O        6.12791796       2.09909433       4.04748159       0.07369775       0.08102188       0.01133609
O        2.01142155       5.87219870       4.02258794      -0.00665198      -0.18201802      -0.01355658
O        5.86047600       6.31142924       3.84466416      -0.19374436       0.25721237      -0.19148054
40
Lattice="8.07229364156986 2.904777715589395e-07 3.5974003450358844e-07 2.9047805627122115e-07 8.072288850344885 -1.5906224019387422e-06 3.5973984946264966e-07 -1.5906229804257139e-06 8.072291048783132" Properties=species:S:1:pos:R:3:u_disp:R:3 system=batio3_cubic base_model=chgnet role=train_pool T=600.0 draw=5 n_tries=14 rms_disp_A=0.18772922510689397 min_pair_ratio=0.838951642118467 nearest_heldout_A=0.18395043006843317 site_map_ok=1 nearest_heldout_src=batio3_cubic_chgnet_q1d2-1d2-0-b0.extxyz#3 pbc="T T T"
Ba       0.16357977       4.09876423       4.05450022       0.16357787       0.06262194       0.01835581
Ba       3.77296605       4.04862673       4.04669048      -0.26318267       0.01248430       0.01054589
Ba      -0.05841316       8.26001431       3.97366054      -0.05841520       0.18772759      -0.06248307
Ba       3.90759082       8.03860817       4.11231898      -0.12855804      -0.03367869       0.07617518
Ba      -0.07685506       3.89313405       7.99648972      -0.07685714      -0.14300745      -0.07580021
Ba       4.21565394       4.00836503       7.99901812       0.17950504      -0.02777661      -0.07327199
Ba      -0.12672616       8.17323499       7.97980914      -0.12672838       0.10094907      -0.09248000
Ba       4.12862761       8.06456818       8.24176368       0.09247856      -0.00771788       0.16947436
Ti       2.26830357       1.95023456       1.90533424       0.25022864      -0.06783849      -0.11273876
Ti       6.15844608       1.95517508       2.10852297       0.10422434      -0.06289812       0.09044979
Ti       2.06113330       5.97346341       1.95595614       0.04305823      -0.08075406      -0.06211606
Ti       6.15445927       6.13500084       2.01008605       0.10023738       0.08078322      -0.00798633
Ti       2.12649165       1.92520180       6.11584304       0.10841655      -0.09287045       0.06162452
Ti       6.05242839       1.91524973       5.95445962      -0.00179353      -0.10282267      -0.09975908
Ti       2.01124550       6.08653293       6.13707850      -0.00682974       0.03231625       0.08286077
Ti       6.04841500       5.99437550       5.93744290      -0.00580707      -0.05984133      -0.11677501
O        3.98668808       1.86584073       2.18374799      -0.04945660      -0.15223238       0.16567516
O        7.89205850       2.04727493       1.90150021      -0.18023299       0.02920167      -0.11657281
O        4.04245423       6.13515494       2.10105234       0.00630941       0.08093740       0.08298030
O        8.04627434       5.99672278       1.96719489      -0.02601729      -0.05749491      -0.05087733
O        4.18512496       1.99195389       6.06512346       0.14898011      -0.02611843       0.01090511
O        8.28230198       1.85978994       6.10790420       0.21001031      -0.15828252       0.05368566
O        3.92615326       5.90868575       6.09828026      -0.10999173      -0.14553099       0.04406269
O        8.03692442       6.23850801       6.01411481      -0.03536740       0.18429113      -0.04010293
O        2.06464801       3.86729843       2.00362910       0.04657468      -0.16884390      -0.01444253
O        5.93558647       4.06926253       2.09405427      -0.11863368       0.03312006       0.07598246
O        1.94512666       8.03863424       1.89423219      -0.07294681      -0.03365251      -0.12383864
O        6.11993769       8.07866087       2.19269584       0.06571740       0.00637397       0.17462483
O        1.79091010       4.05835602       5.99449997      -0.22716341       0.02221449      -0.05971719
O        6.16756712       4.16482358       6.26661925       0.11334679       0.12868190       0.21240192
O        2.29409384       8.20524361       6.00425648       0.27602019       0.13295765      -0.04995988
O        5.99935960       8.14969136       6.00996187      -0.05486087       0.07740526      -0.04425467
O        2.09475331       1.86479649      -0.03784057       0.07668010      -0.15327660      -0.03784036
O        6.10891019       1.96305298       0.21177614       0.05469016      -0.05502026       0.21177617
O        1.95389262       6.07211147      -0.15872672      -0.06418074       0.01789395      -0.15872571
O        5.98811930       6.15361185       0.15698512      -0.06610087       0.09939419       0.15698595
O        2.10454298       2.04033066       4.07868583       0.08646959       0.02225836       0.04254051
O        6.09097725       1.91288918       4.26183764       0.03675704      -0.10518326       0.22569214
O        2.03202383       5.96330383       3.90949244       0.01395029      -0.09091290      -0.12665208
O        6.02600991       6.12366844       4.14685717      -0.02821045       0.06945157       0.11071247
40
Lattice="8.07229364156986 2.904777715589395e-07 3.5974003450358844e-07 2.9047805627122115e-07 8.072288850344885 -1.5906224019387422e-06 3.5973984946264966e-07 -1.5906229804257139e-06 8.072291048783132" Properties=species:S:1:pos:R:3:u_disp:R:3 system=batio3_cubic base_model=chgnet role=train_pool T=600.0 draw=6 n_tries=14 rms_disp_A=0.184844840120682 min_pair_ratio=0.8557826180807276 nearest_heldout_A=0.18327264920616151 site_map_ok=1 nearest_heldout_src=batio3_cubic_chgnet_q1d2-0-0-b1.extxyz#2 pbc="T T T"
Ba      -0.01188000       3.96176933       3.94464153      -0.01188190      -0.07437295      -0.09150288
Ba       4.26467644       3.98322962       3.99754405       0.22852772      -0.05291281      -0.03860055
Ba      -0.01910724       8.12838172       3.97567993      -0.01910929       0.05609500      -0.06046368
Ba       3.94265301       7.93370213       4.04646273      -0.09349585      -0.13858473       0.01031893
Ba      -0.00317313       4.14986915       8.11716656      -0.00317521       0.11372765       0.04487662
Ba       3.90878176       4.03527134       8.05295408      -0.12736714      -0.00087030      -0.01933604
Ba       0.07471193       8.10981882       8.18347474       0.07470970       0.03753290       0.11118560
Ba       4.06925441       8.02837964       8.12678815       0.03310536      -0.04390642       0.05449882
Ti       2.05661648       1.91057874       1.98498493       0.03854155      -0.10749431      -0.03308806
Ti       6.01666059       1.99527492       2.08072536      -0.03756115      -0.02279828       0.06265218
Ti       2.03513044       6.08010297       2.12098820       0.01705537       0.02588549       0.10291600
Ti       6.14253566       6.15701888       1.96290253       0.08831378       0.10280126      -0.05516985
Ti       1.90158764       2.13614214       5.95834412      -0.11648746       0.11806988      -0.09587440
Ti       5.93210175       2.08699463       6.08411227      -0.12212017       0.06892223       0.02989357
Ti       1.95890270       6.11676326       6.09184358      -0.05917255       0.06254658       0.03762586
Ti       6.18122417       6.05310474       6.07066002       0.12700210      -0.00111209       0.01644211
O        4.07768548       1.85921027       1.96992424       0.04154080      -0.15886284      -0.04814859
O        8.13737484       1.96294961       1.97409148       0.06508335      -0.05512365      -0.04398153
O        4.04296260       6.03231016       1.82386225       0.00681778      -0.02190738      -0.19420979
O        8.12117085       6.11917254       2.16157813       0.04887921       0.06495486       0.14350591
O        3.91711409       2.08814078       5.81916073      -0.11903077       0.07006846      -0.23505763
O        7.90991396       2.12057030       5.96932293      -0.16237772       0.10249784      -0.08489561
O        3.98798267       6.14913976       6.23610218      -0.04816232       0.09492302       0.18188462
O        8.09317107       6.11218936       6.08168219       0.02087925       0.05797247       0.02746444
O        2.14310053       4.11384148       2.07565126       0.12502720       0.07769915       0.05757963
O        6.12273946       4.04471765       1.87226057       0.06851931       0.00857517      -0.14581124
O        2.21871698       8.06849110       1.97878548       0.20064350      -0.00379566      -0.03928535
O        6.16331597       8.13183510       2.17714582       0.10909568       0.05954820       0.15907480
O        2.04364217       4.05217926       5.83187945       0.02556866       0.01603773      -0.22233771
O        6.22306098       4.02981692       6.32697593       0.16884065      -0.00632476       0.27275860
O        1.82910238       8.11525569       6.08788422      -0.18897128       0.04296973       0.03366786
O        5.84053659       8.05162145       6.02285042      -0.21368388      -0.02066466      -0.03136612
O        1.76796783       2.21036855      -0.19391501      -0.25010537       0.19229545      -0.19391480
O        5.97744002       1.98662676      -0.11790289      -0.07678001      -0.03144648      -0.11790286
O        1.80095472       5.86251979       0.03023459      -0.21711863      -0.19169773       0.03023560
O        6.03204651       6.10537857       0.24018571      -0.02217367       0.05116090       0.24018654
O        1.90026864       1.79529358       3.96154434      -0.11780475      -0.22277872      -0.07460097
O        6.05863521       2.00323636       3.88952256       0.00441500      -0.01483609      -0.14662293
O        2.08635113       6.12538565       4.04576902       0.06827759       0.07116892       0.00962450
O        6.01166407       6.01992372       4.16842433      -0.04255628      -0.03429315       0.13227963
40
Lattice="8.07229364156986 2.904777715589395e-07 3.5974003450358844e-07 2.9047805627122115e-07 8.072288850344885 -1.5906224019387422e-06 3.5973984946264966e-07 -1.5906229804257139e-06 8.072291048783132" Properties=species:S:1:pos:R:3:u_disp:R:3 system=batio3_cubic base_model=chgnet role=train_pool T=600.0 draw=7 n_tries=14 rms_disp_A=0.1732267578257118 min_pair_ratio=0.8275438424442522 nearest_heldout_A=0.16952803237308312 site_map_ok=1 nearest_heldout_src=batio3_cubic_chgnet_q0-1d2-0-b0.extxyz#2 pbc="T T T"
Ba       0.04138019       4.06274875       3.96816843       0.04137829       0.02660646      -0.06797598
Ba       4.11739013       4.09870769       4.02240400       0.08124141       0.06256526      -0.01374060
Ba       0.04429843       8.01961070       4.06729268       0.04429638      -0.05267601       0.03114906
Ba       3.95977786       8.20802700       4.15414049      -0.07637101       0.13574014       0.11799669
Ba      -0.07015130       4.00549013       8.05500136      -0.07015338      -0.03065136      -0.01728858
Ba       4.08841749       4.24161713       8.03620418       0.05226859       0.20547549      -0.03608593
Ba      -0.02752925       8.06987754       7.85994416      -0.02753147      -0.00240838      -0.21234498
Ba       3.95467490       8.03460094       8.19713618      -0.08147414      -0.03768512       0.12484686
Ti       1.98518479       1.85864069       2.04214579      -0.03289013      -0.15943236       0.02407280
Ti       6.07006412       1.83368256       2.07721087       0.01584237      -0.18439063       0.05913769
Ti       2.15744632       6.09669759       1.95055507       0.13937125       0.04248012      -0.06751713
Ti       6.09838136       6.05178613       2.11722759       0.04415947      -0.00243149       0.09915521
Ti       1.97289515       1.80507422       6.23957588      -0.04517995      -0.21299803       0.18535736
Ti       6.01836074       1.96237114       6.05947074      -0.03586118      -0.05570126       0.00525204
Ti       2.10597514       5.97395179       5.95902801       0.08789989      -0.08026489      -0.09518971
Ti       6.20641777       5.97969565       6.03668114       0.15219570      -0.07452118      -0.01753677
O        3.99991277       1.92402320       2.10024753      -0.03623191      -0.09404991       0.08217469
O        8.08437605       1.88544570       2.21849589       0.01208456      -0.13262755       0.20042288
O        4.09356905       6.25126949       1.81765267       0.05742424       0.19705195      -0.20041937
O        8.11052342       5.92538385       1.96135457       0.03823179      -0.12883384      -0.05671765
O        3.90655882       2.05970556       6.25715833      -0.12958603       0.04163324       0.20293997
O        8.12207333       1.89426925       6.05951050       0.04978166      -0.12380322       0.00529196
O        3.91418548       6.11273236       6.09912844      -0.12195952       0.05851562       0.04491087
O        7.86941729       6.00280095       5.88523799      -0.20287453      -0.05141593      -0.16897975
O        2.01447300       4.00691052       2.04009185      -0.00360033      -0.02923181       0.02202022
O        6.10946390       4.02816551       2.03664966       0.05524375      -0.00797697       0.01857785
O        2.03446821       7.95299578       1.93574748       0.01639473      -0.11929098      -0.08232336
O        6.11451543       8.11704437       2.02156601       0.06029513       0.04475747       0.00349499
O        1.94778937       4.03096568       6.04171938      -0.07028414      -0.00517586      -0.01249777
O        6.02857110       4.08163510       5.92875491      -0.02564923       0.04549342      -0.12546242
O        2.00696719       8.09221735       6.00071786      -0.01110647       0.01993138      -0.05349850
O        6.11569361       8.26566660       6.14731834       0.06147314       0.19338049       0.09310180
O        1.91258179       1.85003313       0.11662746      -0.10549142      -0.16803996       0.11662767
O        5.87851193       2.09616654       0.01549983      -0.17570810       0.07809330       0.01549986
O        1.80824704       6.15121155       0.05458351      -0.20982631       0.09699403       0.05458451
O        6.19204289       6.02926346      -0.00872958       0.13782272      -0.02495420      -0.00872876
O        2.02813198       1.97718315       4.05637779       0.01005860      -0.04088915       0.02023247
O        6.02328712       1.79736971       4.07121172      -0.03093309      -0.22070273       0.03506622
O        2.15658554       5.94122356       4.06980220       0.13851201      -0.11299317       0.03365768
O        5.87816776       6.07939379       3.84993891      -0.17605259       0.02517692      -0.18620579
40
Lattice="8.07229364156986 2.904777715589395e-07 3.5974003450358844e-07 2.9047805627122115e-07 8.072288850344885 -1.5906224019387422e-06 3.5973984946264966e-07 -1.5906229804257139e-06 8.072291048783132" Properties=species:S:1:pos:R:3:u_disp:R:3 system=batio3_cubic base_model=chgnet role=train_pool T=600.0 draw=8 n_tries=14 rms_disp_A=0.16515338697230994 min_pair_ratio=0.8348507618649403 nearest_heldout_A=0.16108069863370378 site_map_ok=1 nearest_heldout_src=batio3_cubic_mace_mp0_ref.extxyz#2 pbc="T T T"
Ba      -0.00147151       3.86952580       4.15712646      -0.00147341      -0.16661649       0.12098205
Ba       4.08971742       4.23835977       4.16497070       0.05356870       0.20221734       0.12882610
Ba       0.03622513       7.90539500       4.19023214       0.03622309      -0.16689171       0.15408852
Ba       3.99877684       8.03195211       3.82935719      -0.03737203      -0.04033475      -0.20678661
Ba       0.11470018       4.11424706       8.20106448       0.11469810       0.07810557       0.12877454
Ba       4.02119137       3.99494089       8.10079331      -0.01495754      -0.04120075       0.02850320
Ba      -0.13661762       8.00969660       8.01685646      -0.13661984      -0.06258932      -0.05543268
Ba       3.86629588       8.08328952       7.85409067      -0.16985317       0.01100346      -0.21819865
Ti       2.04250939       2.11447488       1.92843669       0.02443447       0.09640183      -0.08963630
Ti       6.11673302       2.10614541       2.05970549       0.06251127       0.08807222       0.04163232
Ti       2.18339953       6.06636100       1.95242509       0.16532447       0.01214353      -0.06564711
Ti       6.28419849       6.04803961       1.98609886       0.22997660      -0.00617801      -0.03197352
Ti       2.03188079       1.99307327       5.97139019       0.01380569      -0.02499899      -0.08282833
Ti       6.06091806       2.04433978       6.13279227       0.00669614       0.02626738       0.07857357
Ti       2.07690856       5.99045662       5.95172384       0.05883332      -0.06376006      -0.10249389
Ti       6.04329729       5.99901810       6.07531177      -0.01092478      -0.05519873       0.02109387
O        4.06003288       1.95622903       1.88094406       0.02388820      -0.06184408      -0.13712878
O        8.02099790       2.25577704       1.95844555      -0.05129360       0.23770378      -0.05962746
O        4.00780130       6.23767206       2.02210790      -0.02834351       0.18345452       0.00403586
O        7.95681695       5.90820513       2.13204389      -0.11547469      -0.14601255       0.11397167
O        4.03034606       2.03986811       6.00521090      -0.00579879       0.02179580      -0.04900746
O        8.08213664       2.14282232       6.11212995       0.00984497       0.12474986       0.05791141
O        4.03891704       6.03854753       6.00954299       0.00277204      -0.01566921      -0.04467457
O        8.14130402       6.28037646       6.09398446       0.06901221       0.22615957       0.03976671
O        2.09692638       4.18528760       2.09874986       0.07885305       0.14914527       0.08067823
O        6.06151524       4.04783533       2.19233480       0.00729509       0.01169285       0.17426299
O        1.88379158       8.04135191       1.97009499      -0.13428189      -0.03093485      -0.04797584
O        6.06332041       7.93084903       1.90950472       0.00910012      -0.14143788      -0.10856630
O        2.06507470       4.22296182       5.97238133       0.04700119       0.18682028      -0.08183582
O        6.00207505       4.17765419       5.92472344      -0.05214528       0.14151251      -0.12949390
O        1.98178687       8.18688511       6.16145135      -0.03628678       0.11459915       0.10723499
O        5.99293896       8.11177004       6.01300921      -0.06128152       0.03948393      -0.04120733
O        2.08266180       2.10227543       0.00939583       0.06458859       0.08420233       0.00939604
O        6.06712609       2.04783922       0.04035499       0.01290606       0.02976598       0.04035502
O        1.97748028       6.07785209       0.03991843      -0.04059308       0.02363457       0.03991943
O        5.97978824       6.09099079      -0.06373052      -0.07443193       0.03677312      -0.06372970
O        1.92279426       1.95263404       4.12410727      -0.09527912      -0.06543826       0.08796195
O        6.07460413       2.05272861       3.96767389       0.02038392       0.03465617      -0.06847161
O        1.97142279       6.25550074       4.04421313      -0.04665074       0.20128402       0.00806861
O        6.14013234       6.04958740       4.10308842       0.08591198      -0.00462947       0.06694372
40
Lattice="8.07229364156986 2.904777715589395e-07 3.5974003450358844e-07 2.9047805627122115e-07 8.072288850344885 -1.5906224019387422e-06 3.5973984946264966e-07 -1.5906229804257139e-06 8.072291048783132" Properties=species:S:1:pos:R:3:u_disp:R:3 system=batio3_cubic base_model=chgnet role=train_pool T=600.0 draw=9 n_tries=14 rms_disp_A=0.1567376719293017 min_pair_ratio=0.8264552038928207 nearest_heldout_A=0.15506568646331054 site_map_ok=1 nearest_heldout_src=batio3_cubic_chgnet_q0-1d2-1d2-b0.extxyz#2 pbc="T T T"
Ba      -0.14889286       4.13918054       3.90624161      -0.14889476       0.10303826      -0.12990280
Ba       3.94537732       4.19048588       4.13816329      -0.09077140       0.15434344       0.10201870
Ba      -0.09922366       8.08653303       4.14519663      -0.09922571       0.01424631       0.10905301
Ba       4.06543313       8.11455853       4.06533431       0.02928426       0.04227167       0.02919052
Ba       0.03368085       3.97322526       7.99852507       0.03367877      -0.06291624      -0.07376487
Ba       3.91643823       3.91655275       8.01536363      -0.11971067      -0.11958889      -0.05692649
Ba       0.20239744       7.91275690       8.25110126       0.20239521      -0.15952902       0.17881212
Ba       4.14898015       8.15762432       8.04305553       0.11283110       0.08533826      -0.02923380
Ti       2.06110605       1.96532744       2.11343957       0.04303113      -0.05274561       0.09536657
Ti       6.08933532       2.20883422       2.02824980       0.03511358       0.19076103       0.01017662
Ti       2.14817437       6.07022995       1.87742466       0.13009930       0.01601248      -0.14064754
Ti       6.10210411       6.09096351       1.94107745       0.04788222       0.03674589      -0.07699493
Ti       2.00344930       1.81228860       6.04306761      -0.01462580      -0.20578366      -0.01115091
Ti       5.99734145       2.04020831       6.01475260      -0.05688047       0.02213591      -0.03946610
Ti       1.99051190       6.01972346       5.99767357      -0.02756335      -0.03449322      -0.05654416
Ti       6.05946263       6.01588545       6.06888068       0.00524056      -0.03833138       0.01466278
O        4.09503947       2.09285916       2.09412180       0.05889480       0.07478604       0.07604897
O        7.98862381       2.02989128       2.01240288      -0.08366769       0.01181803      -0.00567014
O        4.03939843       5.93711930       1.93274795       0.00325361      -0.11709824      -0.08532409
O        8.17645569       6.17615983       1.77191671       0.10416405       0.12194215      -0.24615551
O        3.98780333       1.84784581       6.07424899      -0.04834152      -0.17022651       0.02003063
O        8.01932097       1.89469258       6.09356113      -0.05297071      -0.12337988       0.03934259
O        3.89457304       5.97385739       6.05113712      -0.14157196      -0.08035935      -0.00308044
O        8.12683693       6.07527195       6.00284532       0.05454511       0.02105506      -0.05137242
O        1.99830024       3.96627155       1.94621250      -0.01977309      -0.06987078      -0.07185913
O        6.00921174       4.12437824       1.88268264      -0.04500841       0.08823576      -0.13538917
O        1.99005376       7.95425190       1.95183584      -0.02801971      -0.11803485      -0.06623500
O        5.99387955       8.09983481       2.11162402      -0.06034075       0.02754791       0.09355301
O        2.01417516       4.01987388       5.98972516      -0.00389835      -0.01626766      -0.06449199
O        6.04544236       4.05941549       5.94070107      -0.00877797       0.02327381      -0.11351627
O        1.93225206       8.05339851       6.16007109      -0.08582159      -0.01888745       0.10585474
O        6.05504720       8.08797641       5.88878258       0.00082672       0.01569030      -0.16543396
O        2.12313480       2.04011636       0.00150449       0.10506159       0.02204327       0.00150470
O        6.00976357       2.12504666       0.01824691      -0.04445646       0.10697342       0.01824694
O        2.12976187       5.96299600       0.02050843       0.11168852      -0.09122152       0.02050943
O        6.08341139       6.07081011      -0.01572277       0.02919122       0.01659244      -0.01572194
O        2.10138940       1.93564682       4.00730124       0.08331601      -0.08242548      -0.02884408
O        6.06646525       2.24311152       4.12182365       0.01224504       0.22503908       0.08567815
O        2.12252260       6.08834808       4.06005884       0.10444907       0.03413135       0.02391432
O        6.21387946       5.85842196       4.10731539       0.15965910      -0.19579491       0.07117069
40
Lattice="8.07229364156986 2.904777715589395e-07 3.5974003450358844e-07 2.9047805627122115e-07 8.072288850344885 -1.5906224019387422e-06 3.5973984946264966e-07 -1.5906229804257139e-06 8.072291048783132" Properties=species:S:1:pos:R:3:u_disp:R:3 system=batio3_cubic base_model=chgnet role=train_pool T=600.0 draw=10 n_tries=14 rms_disp_A=0.16584826636158845 min_pair_ratio=0.8734551211529428 nearest_heldout_A=0.15852260484647823 site_map_ok=1 nearest_heldout_src=batio3_cubic_sevennet0_q1d2-0-0-b0.extxyz#3 pbc="T T T"
Ba      -0.12687244       3.95088328       4.00027124      -0.12687434      -0.08525901      -0.03587317
Ba       3.84563300       4.02137190       4.24006545      -0.19051572      -0.01477054       0.20392086
Ba       0.08257690       8.02147332       4.07581078       0.08257486      -0.05081339       0.03966716
Ba       4.12861694       8.05387219       3.91746110       0.09246807      -0.01841467      -0.11868270
Ba      -0.09904072       4.05552838       7.93107076      -0.09904280       0.01938688      -0.14121918
Ba       4.03754029       4.05867238       7.94933483       0.00139139       0.02253074      -0.12295529
Ba       0.05441132       8.12754580       8.14229148       0.05440910       0.05525988       0.07000233
Ba       4.18518487       7.97890714       8.08440847       0.14903582      -0.09337892       0.01211915
Ti       2.08212274       2.08775075       2.00335107       0.06404782       0.06967770      -0.01472193
Ti       6.01651714       2.18029580       1.98959602      -0.03770461       0.16222260      -0.02847715
Ti       2.01400220       6.06580134       1.94142582      -0.00407286       0.01158386      -0.07664638
Ti       6.14985343       6.00159180       2.10452119       0.09563154      -0.05262582       0.08644881
Ti       2.04689947       1.97301971       6.02199439       0.02882437      -0.04505254      -0.03222413
Ti       6.06142992       1.99470947       6.04290681       0.00720800      -0.02336293      -0.01131189
Ti       1.85800096       6.17343071       6.06359888      -0.16007429       0.11921403       0.00938116
Ti       5.91083056       6.01985351       6.12519169      -0.14339150      -0.03436332       0.07097379
O        3.98431151       1.95324354       1.94139702      -0.05183316      -0.06482958      -0.07667582
O        7.97952585       2.15143625       2.14513964      -0.09276565       0.13336299       0.12706663
O        4.12900853       6.18923201       1.95662313       0.09286371       0.13501448      -0.06144891
O        8.10715063       5.93398197       2.05903584       0.03485900      -0.12023571       0.04096362
O        4.02449840       2.16551944       6.10907763      -0.01164645       0.14744712       0.05485927
O        8.03638233       2.03821891       5.97382957      -0.03590935       0.02014645      -0.08038897
O        4.11386987       6.14707658       5.89635670       0.07772487       0.09285984      -0.15786086
O        8.17097646       6.13284872       6.16478811       0.09868464       0.07863184       0.11057036
O        2.22577369       4.19832231       2.09161717       0.20770036       0.16217998       0.07354554
O        5.93363421       3.95900249       2.11413490      -0.12058594      -0.07713999       0.09606309
O        2.00178448       8.22845717       2.03133295      -0.01628900       0.15617042       0.01326211
O        6.12568969       8.05420554       2.12965512       0.07146940      -0.01808136       0.11158410
O        2.02176677       4.12620229       6.05590654       0.00369326       0.09006075       0.00168939
O        6.08283188       4.07385032       6.09515944       0.02861155       0.03770864       0.04094211
O        2.03446065       8.14721856       6.15598385       0.01638700       0.07493260       0.10176749
O        6.04574454       7.95629413       6.17386909      -0.00847593      -0.11599198       0.11965255
O        2.05015042       2.13188193       0.07199156       0.03207721       0.11380883       0.07199177
O        6.04810242       1.92556783       0.05630290      -0.00611761      -0.09250541       0.05630293
O        2.12873378       6.20569331       0.00908625       0.11066043       0.15147579       0.00908726
O        6.14639821       5.97572094      -0.04473042       0.09217803      -0.07849672      -0.04472959
O        2.13009050       2.04656167       4.13501311       0.11201711       0.02848937       0.09886780
O        5.95294338       1.88454985       4.15557802      -0.10127683      -0.13352260       0.11943253
O        1.92123871       6.25180181       4.10979720      -0.09683482       0.19758508       0.07365269
O        6.37814611       5.93514279       3.92413084       0.32392575      -0.11907408      -0.11201386
40
Lattice="8.07229364156986 2.904777715589395e-07 3.5974003450358844e-07 2.9047805627122115e-07 8.072288850344885 -1.5906224019387422e-06 3.5973984946264966e-07 -1.5906229804257139e-06 8.072291048783132" Properties=species:S:1:pos:R:3:u_disp:R:3 system=batio3_cubic base_model=chgnet role=train_pool T=600.0 draw=11 n_tries=14 rms_disp_A=0.16441798645339817 min_pair_ratio=0.860066425216371 nearest_heldout_A=0.15908872212248623 site_map_ok=1 nearest_heldout_src=batio3_cubic_chgnet_q0-0-0-b0.extxyz#3 pbc="T T T"
Ba       0.09477252       4.11612254       4.12895615       0.09477062       0.07998026       0.09281174
Ba       4.06108674       4.03061584       4.00387044       0.02493802      -0.00552660      -0.03227415
Ba      -0.26195047       8.09681250       4.24425867      -0.26195252       0.02452578       0.20811505
Ba       3.99588353       8.07049708       3.97121572      -0.04026533      -0.00178978      -0.06492807
Ba       0.02063678       3.81991966       8.16240057       0.02063470      -0.21622183       0.09011063
Ba       4.10196742       4.04923301       8.02927827       0.06581852       0.01309137      -0.04301185
Ba       0.10542034       8.05102701       8.14848964       0.10541812      -0.02125890       0.07620050
Ba       3.93377349       8.04605303       7.94896310      -0.10237556      -0.02623304      -0.12332622
Ti       1.98506703       2.00769564       1.92482913      -0.03300789      -0.01037741      -0.09324386
Ti       6.02603201       2.20606976       1.94412817      -0.02818974       0.18799657      -0.07394500
Ti       2.04981874       6.10245297       1.93119262       0.03174367       0.04823549      -0.08687958
Ti       6.10030634       6.16622159       1.95097707       0.04608445       0.11200397      -0.06709531
Ti       2.06781116       1.99839351       5.93680278       0.04973606      -0.01967875      -0.11741574
Ti       6.01986072       2.02529950       6.00321062      -0.03436120       0.00722710      -0.05100808
Ti       1.96964327       6.04628695       5.92012118      -0.04843198      -0.00792973      -0.13409655
Ti       5.99896007       6.07252457       6.08806078      -0.05526200       0.01830774       0.03384287
O        4.01363936       2.02703286       2.02833827      -0.02250532       0.00895974       0.01026543
O        8.08297399       1.92613392       2.07287054       0.01068249      -0.09193933       0.05479752
O        3.98679248       6.03118544       1.89148192      -0.04935234      -0.02303209      -0.12659012
O        8.08361508       6.05039729       1.85029588       0.01132345      -0.00382039      -0.16777634
O        4.12017515       1.95587118       5.98292100       0.08403030      -0.06220114      -0.07129735
O        8.07884503       1.92289821       6.13632669       0.00655336      -0.09517425       0.08210815
O        3.99433624       5.99092386       5.99040842      -0.04180876      -0.06329288      -0.06380915
O        8.20730494       6.31998413       6.07157298       0.13501312       0.26576724       0.01735524
O        2.03411655       3.99201809       2.00696945       0.01604322      -0.04412424      -0.01110218
O        6.08829530       3.93970402       2.00068346       0.03407515      -0.09643846      -0.01738835
O        2.05808803       7.99459040       2.03229932       0.04001456      -0.07769636       0.01422848
O        6.23180980       7.97186477       1.92307331       0.17758950      -0.10042213      -0.09499771
O        2.04239364       4.16145589       5.86578076       0.02432013       0.12531435      -0.18843639
O        6.26230498       4.07639753       6.05764928       0.20808465       0.04025585       0.00343195
O        2.16530741       8.19888597       6.07213823       0.14723375       0.12660001       0.01792187
O        5.99815540       8.06835866       6.18149125      -0.05606508      -0.00392745       0.12727472
O        2.01338771       2.18627768       0.15183309      -0.00468550       0.16820458       0.15183330
O        5.97200842       1.98150478       0.03405773      -0.08221161      -0.03656846       0.03405776
O        2.19635418       6.00733056       0.04527697       0.17828083      -0.04688697       0.04527797
O        6.03809229       5.88215664      -0.01090311      -0.01612788      -0.17206103      -0.01090229
O        2.16818613       2.22604149       4.13273816       0.15011274       0.20796919       0.09659284
O        6.13864699       1.98784067       4.02001241       0.08442678      -0.03023178      -0.01613308
O        1.94143877       6.19994442       4.17487182      -0.07663476       0.14572770       0.13872730
O        6.10866407       6.22558672       4.02700235       0.05444371       0.17136985      -0.00914235
40
Lattice="8.07229364156986 2.904777715589395e-07 3.5974003450358844e-07 2.9047805627122115e-07 8.072288850344885 -1.5906224019387422e-06 3.5973984946264966e-07 -1.5906229804257139e-06 8.072291048783132" Properties=species:S:1:pos:R:3:u_disp:R:3 system=batio3_cubic base_model=chgnet role=train_pool T=600.0 draw=12 n_tries=14 rms_disp_A=0.16776115955231052 min_pair_ratio=0.8635384690509293 nearest_heldout_A=0.1612991715852391 site_map_ok=1 nearest_heldout_src=batio3_cubic_chgnet_q0-1d2-1d2-b0.extxyz#3 pbc="T T T"
Ba      -0.13219425       3.97504468       3.96633227      -0.13219616      -0.06109761      -0.06981214
Ba       4.04928590       3.85111066       4.22071835       0.01313718      -0.18503177       0.18457376
Ba       0.03522725       8.18242364       4.10373206       0.03522520       0.11013692       0.06758844
Ba       4.10595023       7.99889636       4.03834045       0.06980137      -0.07339050       0.00219665
Ba       0.09940826       4.21869687       7.93391294       0.09940618       0.18255537      -0.13837700
Ba       3.89955705       4.18522997       8.16687134      -0.13659185       0.14908833       0.09458122
Ba      -0.06575408       8.06658822       8.09530514      -0.06575631      -0.00569770       0.02301600
Ba       4.13854079       7.90544164       8.02790905       0.10239174      -0.16684442      -0.04438027
Ti       1.95420940       1.90164127       2.05826709      -0.06386552      -0.11643179       0.04019409
Ti       5.99067846       2.04705848       1.94553743      -0.06354328       0.02898528      -0.07253574
Ti       1.97056857       6.03485820       1.97661746      -0.04750650      -0.01935928      -0.04145474
Ti       6.10800631       6.12115444       1.99184115       0.05378443       0.06693682      -0.02623123
Ti       2.07817444       1.96456491       6.08929997       0.06009934      -0.05350734       0.03508145
Ti       6.15381822       2.02548763       6.06949750       0.09959630       0.00741523       0.01527880
Ti       2.00594861       6.06642674       5.96001118      -0.01212664       0.01221006      -0.09420655
Ti       6.12108751       6.04595542       6.15469378       0.06686544      -0.00826140       0.10047588
O        4.10699769       2.07049043       2.01100621       0.07085302       0.05241732      -0.00706662
O        8.19899335       2.03435437       1.88263047       0.12670185       0.01628111      -0.13544255
O        3.92548334       6.09226551       2.05541844      -0.11066147       0.03804797       0.03734640
O        7.91372143       6.08380427       1.77630553      -0.15857021       0.02958659      -0.24176669
O        3.98990004       1.98286239       5.92950253      -0.04624481      -0.03520993      -0.12471583
O        7.99267640       1.89767013       6.03061189      -0.07961527      -0.12040233      -0.02360665
O        4.05516086       6.11233068       6.12841076       0.01901586       0.05811394       0.07419320
O        8.11042296       6.20832289       6.12514670       0.03813114       0.15410600       0.07092895
O        2.03636191       3.96387610       2.11817969       0.01828858      -0.07226623       0.10010806
O        6.08303994       4.10159148       1.97463576       0.02881979       0.06544900      -0.04343605
O        1.94628794       8.05496595       1.98978565      -0.07178554      -0.01732080      -0.02828518
O        6.04308385       8.18544262       1.93506157      -0.01113644       0.11315571      -0.08300944
O        1.97877542       4.04779881       5.91018252      -0.03929809       0.01165727      -0.14403464
O        6.14323844       4.30633743       6.05382887       0.08901811       0.27019575      -0.00038846
O        2.03273742       8.07499788       5.97450746       0.01466377       0.00271192      -0.07970890
O        6.13717372       8.19794035       6.00868863       0.08295324       0.12565425      -0.04552791
O        2.14658391       1.98577944      -0.10053707       0.12851071      -0.03229365      -0.10053686
O        5.81821456       2.05759635      -0.05398707      -0.23600547       0.03952311      -0.05398704
O        2.08495065       6.07405296       0.13656782       0.06687730       0.01983544       0.13656883
O        6.08836474       6.10998222      -0.14141748       0.03414456       0.05576455      -0.14141665
O        1.99776401       1.89989092       3.97631933      -0.02030937      -0.11818138      -0.05982599
O        6.32796766       2.06040394       4.10900839       0.27374745       0.04233150       0.07286290
O        1.74107962       6.11889666       4.10168836      -0.27699392       0.06467993       0.06554384
O        5.95913655       5.96732258       3.89645950      -0.09508380      -0.08689429      -0.13968520
40
Lattice="8.07229364156986 2.904777715589395e-07 3.5974003450358844e-07 2.9047805627122115e-07 8.072288850344885 -1.5906224019387422e-06 3.5973984946264966e-07 -1.5906229804257139e-06 8.072291048783132" Properties=species:S:1:pos:R:3:u_disp:R:3 system=batio3_cubic base_model=chgnet role=train_pool T=600.0 draw=13 n_tries=14 rms_disp_A=0.17365268135035372 min_pair_ratio=0.8046628077937699 nearest_heldout_A=0.16414085371698708 site_map_ok=1 nearest_heldout_src=batio3_cubic_chgnet_q0-1d2-0-b0.extxyz#3 pbc="T T T"
Ba       0.03443383       3.87590739       3.88951290       0.03443193      -0.16023490      -0.14663151
Ba       4.05772475       3.98592133       4.04056858       0.02157603      -0.05022111       0.00442398
Ba       0.04594344       8.19865498       3.99960656       0.04594140       0.12636827      -0.03653706
Ba       4.11577886       8.10138371       4.20235068       0.07962999       0.02909685       0.16620688
Ba       0.10761739       4.15048154       7.96011885       0.10761531       0.11434004      -0.11217108
Ba       3.85933510       4.16154246       8.24523655      -0.17681380       0.12540082       0.17294644
Ba       0.01362891       7.83184444       7.99157243       0.01362668      -0.24044148      -0.08071671
Ba       3.86219975       8.04119652       8.06058584      -0.17394930      -0.03108955      -0.01170348
Ti       1.93748408       2.02067226       1.88144512      -0.08059084       0.00259921      -0.13662788
Ti       5.98342385       2.01044962       1.90965310      -0.07079789      -0.00762358      -0.10842008
Ti       2.14801747       6.01945570       1.99088961       0.12994240      -0.03476178      -0.02718259
Ti       6.08533150       6.08700062       2.13182376       0.03110962       0.03278300       0.11375138
Ti       1.98141078       2.05427448       6.01182875      -0.03666432       0.03620222      -0.04238977
Ti       5.91922752       2.06300935       6.16957935      -0.13499440       0.04493695       0.11536065
Ti       2.10650355       6.14851991       5.95605780       0.08842830       0.09430323      -0.09815992
Ti       6.09167408       6.09931103       6.07016230       0.03745201       0.04509420       0.01594440
O        4.01325977       1.98339668       2.12118552      -0.02288490      -0.03467643       0.10311268
O        8.06106806       2.07781652       1.99120978      -0.01122343       0.05974326      -0.02686324
O        4.00038447       6.17644530       2.07877527      -0.03576034       0.12222776       0.06070323
O        8.05401926       6.06669404       2.17076037      -0.01827237       0.01247635       0.15268815
O        4.30862225       2.06418197       6.37667298       0.27247740       0.04610965       0.32245462
O        8.27343241       1.86665343       6.24727485       0.20114074      -0.15141903       0.19305631
O        3.95477830       5.95170152       6.06041401      -0.08136670      -0.10251522       0.00619645
O        7.99748232       6.02681116       6.02804139      -0.07480949      -0.02740573      -0.02617635
O        1.98011145       4.14347118       1.91753014      -0.03796188       0.10732885      -0.10054149
O        5.93936516       4.08420939       1.94378107      -0.11485499       0.04806691      -0.07429074
O        1.99103566       8.16774132       2.06508794      -0.02703782       0.09545456       0.04701710
O        5.99487813       8.02728453       1.92219329      -0.05934217      -0.04500237      -0.09587773
O        2.08798211       4.08596698       6.10595221       0.06990860       0.04982545       0.05173506
O        6.12380510       4.00636243       6.03124268       0.06958477      -0.02977925      -0.02297466
O        2.23630401       8.13106525       6.05971432       0.21823036       0.05877929       0.00549796
O        6.08665171       8.12170499       6.15729835       0.03243123       0.04941889       0.10308181
O        2.09253578       2.14361232       0.04628920       0.07446257       0.12553923       0.04628941
O        6.09959958       1.95333241       0.11297397       0.04537956      -0.06474083       0.11297400
O        2.09015176       6.03844471      -0.03046315       0.07207840      -0.01577281      -0.03046215
O        5.97357763       5.93446427      -0.14806855      -0.08064255      -0.11975340      -0.14806773
O        2.03068896       2.14875903       4.16532185       0.01261557       0.13068673       0.12917654
O        6.15015179       1.92395631       4.15260322       0.09593158      -0.09411614       0.11645773
O        2.14373713       6.01488719       4.06419562       0.12566360      -0.03932954       0.02805110
O        5.84801836       5.97908561       3.96393294      -0.20620199      -0.07513126      -0.07221176
