40
Lattice="11.841087389565814 -5.299540211115622e-07 5.134422012396998e-08 -5.299543174639322e-07 11.84110017440169 5.370282133059492e-08 5.1344211613704544e-08 5.370297858733353e-08 11.841077618801604" Properties=species:S:1:pos:R:3:u_disp:R:3 system=cssnbr3_cubic base_model=chgnet role=train_pool T=100.0 draw=0 n_tries=13 rms_disp_A=0.4024343561411542 min_pair_ratio=0.7936436198374169 nearest_heldout_A=0.3960857735285713 site_map_ok=1 nearest_heldout_src=cssnbr3_cubic_chgnet_q1d2-1d2-1d2-b2.extxyz#5 pbc="T T T"
Cs       6.43993674       6.17918965      -0.05374960       0.51939335       0.25863993      -0.05374980
Cs      11.89058737       6.09561489       0.43303339       0.04950028       0.17506545       0.43303316
Cs       5.69402113      11.73607286      -0.41386726      -0.22652200      -0.10502694      -0.41386749
Cs      11.34991725      11.74130061       0.02869759      -0.49116958      -0.09979892       0.02869733
Cs       5.57929076       5.61034264       5.67320644      -0.34125266      -0.31020710      -0.24733257
Cs      11.57559640       6.04193602       6.15144705      -0.26549072       0.12138655       0.23090802
Cs       6.22611799      11.62079891       5.98401755       0.30557483      -0.22030091       0.06347851
Cs      12.26784633      11.88684102       6.08369887       0.42675947       0.04574146       0.16315981
Sn       3.04112413       3.09453511       2.67892911       0.08085192       0.13425844      -0.28133665
Sn       8.91585878       2.66119891       3.11195583       0.03504288      -0.29907750       0.15169005
Sn       3.02709408       8.95512756       2.88164822       0.06682213       0.07430079      -0.07861757
Sn       9.02804922       8.51759888       3.06532626       0.14723358      -0.36322762       0.10506045
Sn       3.06035732       3.04569209       8.88067215       0.10008509       0.08541538      -0.00013242
Sn       8.94753665       3.00797123       8.95246000       0.06672073       0.04769479       0.07165541
Sn       2.87682776       8.86777488       8.85163315      -0.08344421      -0.01305191      -0.02917145
Sn       8.88304794       8.93554836       9.00855483       0.00223227       0.05472184       0.12775020
Br       5.80811155       3.06847337       2.76668571      -0.11243185       0.10819871      -0.19358449
Br      11.77408042       2.89571243       3.09046195      -0.06700668      -0.06456196       0.13019172
Br       6.02926823       9.54327911       2.70094345       0.10872509       0.66245437      -0.25932678
Br      11.97316465       9.04850778       2.61210821       0.13207782       0.16768330      -0.34816204
Br       6.01671230       3.15017996       8.99939565       0.09616888       0.18990528       0.11858664
Br      12.05061496       3.07075941       8.97311847       0.20952784       0.11048500       0.09230943
Br       6.00362873       8.94755840       8.91996678       0.08308557       0.06673363       0.03915774
Br      11.95072256       8.88310783       8.86122253       0.10963570       0.00228333      -0.01958653
Br       2.70187934       6.01990327       3.05344086      -0.25839207       0.09935454       0.09317066
Br       8.09826167       5.67042113       3.28918206      -0.78255343      -0.25012734       0.32891183
Br       2.89543894      11.83122277       2.59259393      -0.06483220      -0.00987605      -0.36767630
Br       8.60694936      11.60236642       3.09473830      -0.27386548      -0.23873213       0.13446804
Br       2.81105774       6.03239232       8.47285287      -0.14921370       0.11184356      -0.40795614
Br       9.24717148       5.89151647       9.26792387       0.36635635      -0.02903202       0.38711484
Br       2.75503355      12.00110485       8.71252959      -0.20523761       0.16000601      -0.16827945
Br       8.73894379      11.80990650       8.94999244      -0.14187107      -0.03119208       0.06918338
Br       2.77402340       3.48084301      -0.18985917      -0.18624821       0.52056837      -0.18986120
Br       9.36286597       2.71788296       0.09625468       0.48205066      -0.24239142       0.09625263
Br       3.31758956       8.88993794      -0.14307803       0.35731822       0.00911321      -0.14308008
Br       8.99778527       9.12159985       0.21122868       0.11697023       0.24077538       0.21122660
Br       2.45432446       2.68989524       5.80654663      -0.50594718      -0.27037943      -0.11399421
Br       8.73993371       2.72897273       6.10440711      -0.14088162      -0.23130168       0.18386625
Br       3.14514270       8.63758341       5.76117686       0.18487133      -0.24324135      -0.15936400
Br       8.94375229       8.68041954       5.96772481       0.06293722      -0.20040495       0.04718393
40
Lattice="11.841087389565814 -5.299540211115622e-07 5.134422012396998e-08 -5.299543174639322e-07 11.84110017440169 5.370282133059492e-08 5.1344211613704544e-08 5.370297858733353e-08 11.841077618801604" Properties=species:S:1:pos:R:3:u_disp:R:3 system=cssnbr3_cubic base_model=chgnet role=train_pool T=100.0 draw=1 n_tries=13 rms_disp_A=0.45167407797292636 min_pair_ratio=0.6970922561958374 nearest_heldout_A=0.4278121922641538 site_map_ok=1 nearest_heldout_src=cssnbr3_cubic_chgnet_q0-0-1d2-b3.extxyz#8 pbc="T T T"
Cs       5.84837633       5.70768117       0.07486069      -0.07216706      -0.21286854       0.07486049
Cs      11.78928137       5.61225071      -0.08455326      -0.05180572      -0.30829874      -0.08455349
Cs       6.36874864      12.05664731       0.12243795       0.44820551       0.21554751       0.12243772
Cs      12.08513621      11.53562556       0.24369962       0.24404938      -0.30547397       0.24369937
Cs       5.94448158       6.14972691       5.80572146       0.02393816       0.22917717      -0.11481755
Cs      11.79182294       6.14605249       6.00049375      -0.04926418       0.22550301       0.07995471
Cs       5.44247475      12.17084988       5.84257089      -0.47806841       0.32975006      -0.07796815
Cs      12.04718354      11.59704009       5.62143637       0.20609669      -0.24405947      -0.29910269
Sn       2.76109644       3.39669103       3.11002959      -0.19917577       0.43641435       0.14976383
Sn       8.87167515       2.94911897       2.75963482      -0.00914076      -0.01115744      -0.20063096
Sn       2.79186746       9.20608764       3.28941655      -0.16840448       0.32526088       0.32915076
Sn       8.60920024       8.72781198       2.91897003      -0.27161540      -0.15301453      -0.04129578
Sn       2.92555738       2.90972526       9.01049866      -0.03471486      -0.05055145       0.12969409
Sn       8.89690527       2.97383482       8.62708269       0.01608934       0.01355838      -0.25372191
Sn       2.82417382       8.84127199       9.13310738      -0.13609815      -0.03955480       0.25230279
Sn       8.66166801       8.89646315       8.76966022      -0.21914765       0.01563663      -0.11114440
Br       5.96570071       3.52558068       3.05070008       0.04515731       0.56530603       0.09042987
Br      11.80739207       3.05134933       3.15557021      -0.03369502       0.09107495       0.19529998
Br       5.68525382       8.61638283       3.26074691      -0.23528932      -0.26444191       0.30047668
Br      11.61811952       8.74536820       2.38704398      -0.22296731      -0.13545628      -0.57322627
Br       5.95462297       2.50409434       8.90696001       0.03407955      -0.45618034       0.02615100
Br      11.90117887       2.34679459       9.24426191       0.06009175      -0.61347982       0.36345288
Br       5.80070777       8.43031940       8.83766094      -0.11983539      -0.45050537      -0.04314810
Br      11.65975194       8.16469516       8.10391378      -0.18133492      -0.71612934      -0.77689528
Br       2.55777803       6.14738167       3.25206978      -0.40249337       0.22683294       0.29179958
Br       8.31485047       6.01647341       2.97172276      -0.56596463       0.09592494       0.01145253
Br       3.07954279      12.05599164       3.55113375       0.11927165       0.21489282       0.59086352
Br       8.74243694      11.85377465       2.83815461      -0.13837790       0.01267610      -0.12211564
Br       3.05213448       5.98780901       8.67677789       0.09186305       0.06726025      -0.20403112
Br       9.29264534       5.89421010       8.86739933       0.41183022      -0.02633839      -0.01340971
Br       3.05818033      11.86551195       8.80762562       0.09790916       0.02441311      -0.07318341
Br       9.10121585      11.82099905       8.72125412       0.22040098      -0.02009953      -0.15955494
Br       2.86739267       2.90532104       0.01966383      -0.09287894      -0.05495361       0.01966181
Br       8.94484263       3.29340482      -0.07195079       0.06402732       0.33313044      -0.07195284
Br       3.17794678       9.11376471       0.16060162       0.21767543       0.23293998       0.16059956
Br       9.62953874       9.01969705      -0.11123008       0.74872370       0.13887258      -0.11123216
Br       3.21688127       2.96639992       5.97027938       0.25660963       0.00612525       0.04973854
Br       9.44563799       3.29893630       5.66602730       0.56482265       0.33866189      -0.25451356
Br       3.04408289       8.78568908       6.09933816       0.08381152      -0.09513568       0.17879730
Br       8.92529668       8.68587588       5.75984427       0.04448161      -0.19494861      -0.16069661
40
Lattice="11.841087389565814 -5.299540211115622e-07 5.134422012396998e-08 -5.299543174639322e-07 11.84110017440169 5.370282133059492e-08 5.1344211613704544e-08 5.370297858733353e-08 11.841077618801604" Properties=species:S:1:pos:R:3:u_disp:R:3 system=cssnbr3_cubic base_model=chgnet role=train_pool T=100.0 draw=2 n_tries=13 rms_disp_A=0.42007715201160817 min_pair_ratio=0.8094845719308555 nearest_heldout_A=0.41080482888299064 site_map_ok=1 nearest_heldout_src=cssnbr3_cubic_orb_v2_q1d2-1d2-0-b0.extxyz#5 pbc="T T T"
Cs       5.73668144       5.89195600       0.16282441      -0.18386196      -0.02859371       0.16282421
Cs      11.31256325       5.94535553      -0.02257568      -0.52852384       0.02480609      -0.02257590
Cs       6.25122388      11.84073612       0.16708271       0.33068075      -0.00036367       0.16708248
Cs      11.90036797      11.68207498      -0.31141483       0.05928114      -0.15902455      -0.31141508
Cs       5.88031322       5.80045429       5.78081594      -0.04023020      -0.12009545      -0.13972307
Cs      11.66795578       5.75477401       6.13508836      -0.17313133      -0.16577547       0.21454932
Cs       5.68948675      11.56952849       5.86655512      -0.23105640      -0.27157134      -0.05398392
Cs      11.94845870      11.42756196       5.68404418       0.10737185      -0.41353760      -0.23649488
Sn       2.92322179       3.32002017       3.12693629      -0.03705042       0.35974349       0.16667053
Sn       8.95439605       2.91253404       3.08494049       0.07358015      -0.04774237       0.12467470
Sn       2.83337581       9.11706222       2.61991651      -0.12689613       0.23623545      -0.34034928
Sn       8.65562609       8.87474045       3.22189108      -0.22518955      -0.00608606       0.26162527
Sn       2.78956981       2.93138804       8.84413801      -0.17070243      -0.02888866      -0.03666655
Sn       8.82110294       2.86382875       8.94733038      -0.05971299      -0.09644769       0.06652579
Sn       2.60395908       8.54287786       8.72332227      -0.35631288      -0.33794893      -0.15748233
Sn       8.50053714       8.78355543       9.11949450      -0.38027852      -0.09727110       0.23868988
Br       6.09182343       3.08115385       3.28432709       0.17128003       0.12087920       0.32405689
Br      12.00172568       3.41954100       3.05560149       0.16063858       0.45926661       0.09533126
Br       5.87603864       9.01346122       2.50212777      -0.04450450       0.13263648      -0.45814246
Br      11.71862126       8.78193489       2.58953449      -0.12246557      -0.09888959      -0.37073576
Br       5.86941712       2.87609529       9.15320161      -0.05112630      -0.08417939       0.27239259
Br      11.80156394       2.91064948       8.74699255      -0.03952318      -0.04962494      -0.13381649
Br       5.71701752       9.32517375       8.85210967      -0.20352564       0.44434899      -0.02869937
Br      11.66475644       9.25445437       8.84864106      -0.17633042       0.37362987      -0.03216801
Br       3.11585130       6.29912756       2.84339594       0.15557989       0.37857882      -0.11687426
Br       9.27055916       5.98153205       2.90727649       0.38974406       0.06098358      -0.05299374
Br       2.58180871      12.08077901       3.44211213      -0.37846243       0.23968019       0.48184190
Br       9.08751437      11.84058955       3.33335044       0.20669953      -0.00050900       0.37308019
Br       3.27965989       5.82923910       8.85777645       0.31938846      -0.09130965      -0.02303256
Br       9.40073053       5.94259407       8.68017650       0.51991540       0.02204557      -0.20063254
Br       3.21665146      11.85459749       8.47109756       0.25638030       0.01349864      -0.40971148
Br       9.09845647      11.89450044       8.74332274       0.21764161       0.05340186      -0.13748632
Br       3.00220186       2.81042488       0.09617195       0.04193025      -0.14984976       0.09616993
Br       9.29805267       3.22540807       0.14497726       0.41723736       0.26513369       0.14497521
Br       2.94948831       9.40765642      -0.31166943      -0.01078303       0.52683168      -0.31167148
Br       8.50967239       9.13922056       0.13704562      -0.37114266       0.25839610       0.13704355
Br       3.38263104       2.78000151       6.00044649       0.42235941      -0.18027316       0.07990566
Br       9.28276755       2.70183594       6.03644424       0.40195221      -0.25843847       0.11590338
Br       3.11155121       8.76754029       5.75842201       0.15127983      -0.11328447      -0.16211886
Br       9.44900702       8.47167363       6.12252543       0.56819195      -0.40915086       0.20198454
40
Lattice="11.841087389565814 -5.299540211115622e-07 5.134422012396998e-08 -5.299543174639322e-07 11.84110017440169 5.370282133059492e-08 5.1344211613704544e-08 5.370297858733353e-08 11.841077618801604" Properties=species:S:1:pos:R:3:u_disp:R:3 system=cssnbr3_cubic base_model=chgnet role=train_pool T=100.0 draw=3 n_tries=13 rms_disp_A=0.38700408721414664 min_pair_ratio=0.7060524236875279 nearest_heldout_A=0.3793799282841569 site_map_ok=1 nearest_heldout_src=cssnbr3_cubic_chgnet_q0-1d2-1d2-b0.extxyz#5 pbc="T T T"
Cs       5.67435856       5.82504956       0.02223511      -0.24618483      -0.09550015       0.02223491
Cs      11.60841007       5.74878105       0.01239354      -0.23267702      -0.17176840       0.01239332
Cs       6.09427374      11.98947893      -0.26725117       0.17373061       0.14837913      -0.26725139
Cs      11.77054000      11.64350467       0.28111608      -0.07054682      -0.19759486       0.28111583
Cs       6.10146266       6.11566714       5.84892820       0.18091923       0.19511741      -0.07161081
Cs      11.76177711       5.79993725       5.84969827      -0.07931000      -0.12061222      -0.07084076
Cs       5.97608697      11.75677195       5.61696380       0.05554382      -0.08432788      -0.30357523
Cs      11.55778811      11.53024368       6.02070567      -0.28329875      -0.31085588       0.10016661
Sn       2.91845069       2.86768539       2.82860190      -0.04182152      -0.09259129      -0.13166386
Sn       8.73219757       3.09784733       3.07160075      -0.14861833       0.13757091       0.11133496
Sn       2.83654751       8.79518096       3.17830000      -0.12372443      -0.08564581       0.21803422
Sn       8.79250803       9.01846360       2.90075506      -0.08830761       0.13763710      -0.05951075
Sn       2.95380700       2.80768248       8.65037039      -0.00646523      -0.15259423      -0.23043418
Sn       8.72629138       2.87991933       8.97119487      -0.15452455      -0.08035711       0.09039027
Sn       3.22603731       8.83960896       8.97365842       0.26576534      -0.04121783       0.09285382
Sn       9.30122365       8.72306527       8.86032106       0.42040799      -0.15776126      -0.02048356
Br       5.85449802       2.78968447       3.34194471      -0.06604538      -0.17059018       0.38167451
Br      11.91876079       2.76250370       2.72545270       0.07767369      -0.19777068      -0.23481753
Br       5.86950576       8.77300386       2.82678343      -0.05103737      -0.10782088      -0.13348679
Br      11.74211959       9.21915406       2.30877147      -0.09896724       0.33832959      -0.65149878
Br       5.82630886       2.99242374       8.64970673      -0.09423457       0.03214906      -0.23110228
Br      11.78644941       3.68372610       8.80019826      -0.05463771       0.72345169      -0.08061078
Br       6.31255446       9.00072591       9.15089079       0.39201130       0.11990114       0.27008175
Br      12.09689124       8.93359444       8.72300168       0.25580439       0.05276994      -0.15780739
Br       3.41507702       5.97383817       3.40340558       0.45480562       0.05328944       0.44313538
Br       9.06773680       6.07942061       3.17574236       0.18692170       0.15887214       0.21547213
Br       2.24998340      11.80563984       2.80416041      -0.71028774      -0.03545898      -0.15610982
Br       8.70374532      12.07010948       3.17414729      -0.17706951       0.22901093       0.21387704
Br       2.79278761       5.75199184       8.95970811      -0.16748382      -0.16855692       0.07889910
Br       8.87620314       5.73573891       8.78495925      -0.00461199      -0.18480958      -0.09584979
Br       3.30778359      11.83818120       8.77592794       0.34751242      -0.00291765      -0.10488110
Br       8.94291714      11.89738275       8.92141252       0.06210227       0.05628416       0.04060345
Br       2.82688819       2.97047540      -0.06286773      -0.13338343       0.01020075      -0.06286976
Br       8.46990522       3.01631918       0.13978226      -0.41091009       0.05604479       0.13978021
Br       3.01968533       8.69376474       0.18230237       0.05941399      -0.18706000       0.18230032
Br       9.13187434       8.91829288       0.06214306       0.25105930       0.03746841       0.06214098
Br       3.19712257       2.78074237       5.87578119       0.23685094      -0.17953230      -0.04475965
Br       9.08012429       2.94058724       6.02312889       0.19930896      -0.01968717       0.10258803
Br       2.66400799       9.05007878       6.13118322      -0.29626338       0.16925402       0.21064236
Br       9.27466578       9.65543995       5.92298493       0.39385071       0.77461545       0.00244404
40
Lattice="11.841087389565814 -5.299540211115622e-07 5.134422012396998e-08 -5.299543174639322e-07 11.84110017440169 5.370282133059492e-08 5.1344211613704544e-08 5.370297858733353e-08 11.841077618801604" Properties=species:S:1:pos:R:3:u_disp:R:3 system=cssnbr3_cubic base_model=chgnet role=train_pool T=100.0 draw=4 n_tries=13 rms_disp_A=0.39718568227904916 min_pair_ratio=0.7589893461783608 nearest_heldout_A=0.3844339921435215 site_map_ok=1 nearest_heldout_src=cssnbr3_cubic_chgnet_q1d2-0-0-b4.extxyz#5 pbc="T T T"
Cs       5.67893234       6.10264924      -0.33892710      -0.24161106       0.18209953      -0.33892730
Cs      11.89101778       5.70011548       0.22612351       0.04993069      -0.22043397       0.22612329
Cs       5.69202198      11.67528192       0.17783163      -0.22852115      -0.16581788       0.17783140
Cs      12.08657044      11.78071194       0.21985065       0.24548361      -0.06038760       0.21985040
Cs       5.60752817       6.26751590       5.87940002      -0.31301525       0.34696617      -0.04113899
Cs      11.17497807       5.62287181       5.87678198      -0.66610904      -0.29767766      -0.04375705
Cs       6.05138664      11.88306229       5.84500622       0.13084348       0.04196247      -0.07553282
Cs      11.65705685      11.83989330       5.82207184      -0.18403000      -0.00120626      -0.09846722
Sn       2.97994359       3.06605820       2.70717120       0.01967138       0.10578153      -0.25309455
Sn       8.90473175       2.85920782       3.12601472       0.02391585      -0.10106860       0.16574893
Sn       3.11135383       8.74869668       3.17905491       0.15108189      -0.13213009       0.21878913
Sn       9.02732517       8.81679751       2.91433853       0.14650953      -0.06402900      -0.04592728
Sn       2.96056494       3.07672437       8.64036096       0.00029270       0.11644766      -0.24044361
Sn       8.78174141       2.68040944       9.06113525      -0.09907452      -0.27986700       0.18033065
Sn       2.99731825       8.98118994       8.90768181       0.03704628       0.10036314       0.02687721
Sn       8.84261583       8.70142325       8.92531747      -0.03819983      -0.17940328       0.04451285
Br       5.95925998       2.62148558       2.46868315       0.03871658      -0.33878907      -0.49158705
Br      11.83130810       3.17075092       2.77190986      -0.00977900       0.21047654      -0.18836037
Br       5.84538096       9.30573902       2.91940853      -0.07516218       0.42491428      -0.04086170
Br      12.04232778       8.79394448       2.66075804       0.20124095      -0.08687999      -0.29951221
Br       5.93326373       3.33721130       8.61609409       0.01272031       0.37693662      -0.26471492
Br      11.72740279       3.11393276       8.81024192      -0.11368433       0.15365835      -0.07056712
Br       5.97185722       8.92005012       8.72137162       0.05131406       0.03922535      -0.15943742
Br      11.93838468       9.13149202       9.07032779       0.09729782       0.25066752       0.18951873
Br       3.34540780       5.89531085       3.07340311       0.38513639      -0.02523788       0.11313291
Br       9.30334068       5.95674412       3.33083517       0.42252558       0.03619565       0.37056495
Br       2.81416716      11.85175717       3.23969887      -0.14610398       0.01065835       0.27942864
Br       9.50148909      11.76820490       3.14966211       0.62067426      -0.07289365       0.18939186
Br       2.77514880       6.05041380       9.09776131      -0.18512263       0.12986504       0.21695230
Br       9.23597494       5.83321446       9.05708907       0.35515981      -0.08733404       0.17628004
Br       2.60004877      11.87152490       8.93180911      -0.36022240       0.03042606       0.05100007
Br       9.01918471      11.57414370       8.33034389       0.13836984      -0.26695488      -0.55046517
Br       3.10444695       3.13834763      -0.17952886       0.14417533       0.17807299      -0.17953088
Br       8.81597817       2.97627967       0.05257240      -0.06483714       0.01600529       0.05257035
Br       2.80502315       9.61527054       0.03439372      -0.15524820       0.73444581       0.03439167
Br       8.94293844       9.06797613       0.21920803       0.06212340       0.18715166       0.21920595
Br       3.07761872       2.69723563       5.84371100       0.11734709      -0.26303905      -0.07682983
Br       8.65830863       2.26192469       6.00423572      -0.22250671      -0.69834972       0.08369486
Br       3.28869767       9.01493956       5.96796202       0.32842630       0.13411480       0.04742116
Br       8.88751686       8.74236411       6.03183659       0.00670179      -0.13846038       0.11129570
40
Lattice="11.841087389565814 -5.299540211115622e-07 5.134422012396998e-08 -5.299543174639322e-07 11.84110017440169 5.370282133059492e-08 5.1344211613704544e-08 5.370297858733353e-08 11.841077618801604" Properties=species:S:1:pos:R:3:u_disp:R:3 system=cssnbr3_cubic base_model=chgnet role=train_pool T=100.0 draw=5 n_tries=13 rms_disp_A=0.40854254392313727 min_pair_ratio=0.7801718890533488 nearest_heldout_A=0.3981670161159683 site_map_ok=1 nearest_heldout_src=cssnbr3_cubic_chgnet_q1d2-0-0-b2.extxyz#5 pbc="T T T"
Cs       5.72932064       5.93863809       0.10045764      -0.19122276       0.01808838       0.10045744
Cs      11.52783729       6.01998863       0.10473876      -0.31324980       0.09943919       0.10473853
Cs       6.14785328      11.60799332       0.10422306       0.22731015      -0.23310648       0.10422283
Cs      11.85943541      12.30147348       0.00427364       0.01834858       0.46037395       0.00427339
Cs       5.85537328       5.94196407       5.68131981      -0.06517014       0.02141433      -0.23921920
Cs      11.85614333       6.12444741       5.42899070       0.01505621       0.20389794      -0.49154833
Cs       5.47666890      11.60313533       5.75321035      -0.44387426      -0.23796450      -0.16732868
Cs      11.78420629      11.80639685       5.51713620      -0.05688056      -0.03470271      -0.40340286
Sn       2.80886888       2.66931860       2.92537707      -0.15140333      -0.29095808      -0.03488869
Sn       8.76860012       3.25905013       3.25035953      -0.11221578       0.29877372       0.29009375
Sn       2.90210365       8.63524577       2.71084563      -0.05816830      -0.24558099      -0.24942016
Sn       8.89727188       9.09535075       2.97349166       0.01645625       0.21452425       0.01322585
Sn       2.91463643       2.76696079       8.99201970      -0.04563580      -0.19331591       0.11121513
Sn       8.88651084       3.16699853       8.91393462       0.00569491       0.20672209       0.03313003
Sn       2.93992704       8.67943133       8.64056869      -0.02034493      -0.20139546      -0.24023591
Sn       8.85897818       9.14380045       8.94228510      -0.02183749       0.26297392       0.06148048
Br       5.92228868       2.74357381       3.20909833       0.00174528      -0.21670084       0.24882813
Br      11.76114296       2.79694550       2.70771400      -0.07994414      -0.16332889      -0.25255623
Br       5.93376326       8.55619671       2.78856418       0.01322012      -0.32462803      -0.17170605
Br      11.69805046       8.81221320       2.89570353      -0.14303637      -0.06861127      -0.06456673
Br       5.91697077       3.04051215       8.87152753      -0.00357265       0.08023747      -0.00928148
Br      11.71178056       2.93045319       8.50523661      -0.12930656      -0.02982123      -0.37557242
Br       5.84826238       9.43080615       9.22479570      -0.07228078       0.54998138       0.34398666
Br      11.68804650       8.92550558       8.97359743      -0.15304035       0.04468108       0.09278837
Br       2.68518416       5.64126679       3.17356713      -0.27508725      -0.27928194       0.21329693
Br       8.78810518       6.09334822       3.20979927      -0.09270993       0.17279975       0.24952905
Br       3.31708934      11.59555939       2.64057290       0.35681820      -0.24553943      -0.31969733
Br       9.05423782      12.03854221       2.98287636       0.17342299       0.19744366       0.02260611
Br       2.74482027       5.93270352       9.69500432      -0.21545117       0.01215476       0.81419531
Br       8.87630759       6.19062123       9.27532954      -0.00450753       0.27007274       0.39452050
Br       2.91705116      11.80274606       9.13325076      -0.04322001      -0.03835279       0.25244173
Br       9.25918336      12.01590715       9.04212515       0.37836849       0.17480857       0.16131609
Br       3.04223977       2.44851427       0.06879882       0.08196816      -0.51176037       0.06879679
Br       9.28355929       2.69442441      -0.00276000       0.40274398      -0.26584997      -0.00276206
Br       3.39506861       8.43045333      -0.14452825       0.43479727      -0.45037141      -0.14453030
Br       9.32947042       9.16717312       0.17518948       0.44865538       0.28634865       0.17518740
Br       2.93978286       2.81633955       5.88387083      -0.02048878      -0.14393512      -0.03667000
Br       8.79207344       3.11679438       5.93269222      -0.08874189       0.15651997       0.01215135
Br       3.49361897       8.98079306       5.81751681       0.53334760       0.09996830      -0.10302405
Br       9.29949625       9.00237996       6.01717468       0.41868118       0.12155546       0.09663379
40
Lattice="11.841087389565814 -5.299540211115622e-07 5.134422012396998e-08 -5.299543174639322e-07 11.84110017440169 5.370282133059492e-08 5.1344211613704544e-08 5.370297858733353e-08 11.841077618801604" Properties=species:S:1:pos:R:3:u_disp:R:3 system=cssnbr3_cubic base_model=chgnet role=train_pool T=100.0 draw=6 n_tries=13 rms_disp_A=0.3838927181895724 min_pair_ratio=0.8207316327795683 nearest_heldout_A=0.3682480702735719 site_map_ok=1 nearest_heldout_src=cssnbr3_cubic_chgnet_q0-0-1d2-b3.extxyz#7 pbc="T T T"
Cs       5.66077739       5.74131547      -0.18822426      -0.25976601      -0.17923424      -0.18822446
Cs      12.09470789       6.09953157      -0.26810115       0.25362080       0.17898213      -0.26810137
Cs       5.75847600      12.04518676       0.00608684      -0.16206713       0.20408696       0.00608662
Cs      11.62966991      11.71771256       0.37286091      -0.21141692      -0.12338697       0.37286066
Cs       6.36064241       5.92706401       5.72277349       0.44009899       0.00651427      -0.19776552
Cs      12.00592495       6.15001037       6.06346507       0.16483784       0.22946089       0.14292603
Cs       6.23357068      11.51709888       5.73957901       0.31302752      -0.32400095      -0.18096002
Cs      11.84261230      11.89874368       6.11935902       0.00152545       0.05764412       0.19881995
Sn       2.80811201       3.19064458       2.78616372      -0.15216020       0.23036790      -0.17410204
Sn       8.62409677       2.98487729       3.04203829      -0.25671913       0.02460088       0.08177251
Sn       3.32853840       9.08587112       2.82616046       0.36826645       0.20504435      -0.13410533
Sn       9.06619930       8.88719935       2.81843528       0.18538366       0.00637285      -0.14183053
Sn       2.64614400       3.14031532       8.71709167      -0.31412823       0.18003861      -0.16371290
Sn       8.67915623       3.01927322       9.02346796      -0.20165970       0.05899678       0.14266336
Sn       3.15474543       9.00168904       8.77768049       0.19447346       0.12086225      -0.10312411
Sn       8.93196096       8.94992568       8.85265598       0.05114530       0.06909915      -0.02814864
Br       5.79376159       2.96070176       3.09873847      -0.12678181       0.00042711       0.13846826
Br      11.58190916       3.30818058       3.00892037      -0.25917793       0.34790619       0.04865014
Br       6.12075526       8.63399689       3.13598375       0.20021212      -0.24682785       0.17571352
Br      12.06524315       9.36785805       2.85961716       0.22415632       0.48703358      -0.10065309
Br       5.65360562       2.33432087       8.91585422      -0.26693781      -0.62595381       0.03504521
Br      11.66005587       2.93708958       8.88413487      -0.18103125      -0.02318483       0.00332584
Br       6.06173299       8.55963839       8.94218122       0.14118982      -0.32118638       0.06137218
Br      11.97298723       8.49037841       8.80268982       0.13190038      -0.39044609      -0.07811925
Br       2.78624091       6.00785658       2.64302840      -0.17403050       0.08730785      -0.31724180
Br       8.45510619       5.97063658       2.99933578      -0.42570891       0.05008811       0.03906555
Br       3.32694474      11.77626372       3.03972663       0.36667359      -0.06483510       0.07945640
Br       8.93485364      11.91490159       2.83865018       0.05403880       0.07380304      -0.12162007
Br       2.71248783       6.00589154       8.91764067      -0.24778360       0.08534278       0.03683166
Br       8.49975263       5.85447302       8.92260178      -0.38106249      -0.06607548       0.04179275
Br       3.11997389      11.84517363       9.35840016       0.15970273       0.00407478       0.47759112
Br       8.73411231      11.76709408       9.42159688      -0.14670255      -0.07400451       0.54078781
Br       2.63467666       3.13597898       0.01765963      -0.32559495       0.17570433       0.01765760
Br       9.16970140       2.93904843       0.01454358       0.28888610      -0.02122595       0.01454153
Br       2.90951636       8.87235703      -0.05503427      -0.05075498      -0.00846770      -0.05503633
Br       8.70247415       9.07199482       0.06033678      -0.17834090       0.19117035       0.06033470
Br       2.89132982       3.07367646       5.92170420      -0.06894182       0.11340179       0.00116337
Br       8.65250567       2.67533259       6.02353215      -0.22830966      -0.28494182       0.10299129
Br       3.39636064       8.55289813       5.72922252       0.43608927      -0.32792663      -0.19131834
Br       9.22746651       8.30613250       5.87336943       0.34665144      -0.57469199      -0.04717145
40
Lattice="11.841087389565814 -5.299540211115622e-07 5.134422012396998e-08 -5.299543174639322e-07 11.84110017440169 5.370282133059492e-08 5.1344211613704544e-08 5.370297858733353e-08 11.841077618801604" Properties=species:S:1:pos:R:3:u_disp:R:3 system=cssnbr3_cubic base_model=chgnet role=train_pool T=100.0 draw=7 n_tries=13 rms_disp_A=0.3902599983427785 min_pair_ratio=0.724773986277848 nearest_heldout_A=0.3711721937247407 site_map_ok=1 nearest_heldout_src=cssnbr3_cubic_chgnet_q0-0-0-b1.extxyz#5 pbc="T T T"
Cs       5.55583285       6.07677254       0.21302371      -0.36471054       0.15622283       0.21302351
Cs      11.63386782       5.50336225       0.17397037      -0.20721927      -0.41718719       0.17397015
Cs       5.93405036      12.35289784       0.41587423       0.01350723       0.51179804       0.41587401
Cs      11.85799355      11.55886150       0.34365182       0.01690672      -0.28223803       0.34365157
Cs       6.08570473       5.98174122       6.08145821       0.16516131       0.06119149       0.16091920
Cs      11.78500151       6.27286155       5.69866254      -0.05608560       0.35231207      -0.22187649
Cs       5.59588507      11.75434019       6.20193804      -0.32465809      -0.08675964       0.28139901
Cs      11.57076454      11.68176488       5.89899285      -0.27032231      -0.15933468      -0.02154622
Sn       3.14973127       2.88817747       3.26754035       0.18945906      -0.07209921       0.30727459
Sn       9.11197834       2.97176847       2.80727725       0.23116244       0.01149205      -0.15298854
Sn       2.92897834       8.97339538       2.90129959      -0.03129360       0.09256861      -0.05896620
Sn       8.77404116       8.88993650       2.83688562      -0.10677448       0.00911000      -0.12338019
Sn       2.96625912       2.99511233       9.12620220       0.00598688       0.03483563       0.24539763
Sn       8.98086740       3.13733238       8.79017978       0.10005148       0.17705594      -0.09062481
Sn       2.91111056       8.87364647       8.81831210      -0.04916141      -0.00718032      -0.06249249
Sn       8.80974706       9.13774729       8.84420185      -0.07106860       0.25692076      -0.03660278
Br       6.03305451       3.27004645       2.45708686       0.11251111       0.30977180      -0.50318334
Br      12.01817366       2.80849729       2.42815578       0.17708657      -0.15177710      -0.53211445
Br       5.81625660       8.43562384       3.29914092      -0.10428654      -0.44520090       0.33887069
Br      11.83343289       8.64207063       2.68566427      -0.00765394      -0.23875385      -0.27460599
Br       6.03064757       3.03813299       8.95350770       0.11010415       0.07785831       0.07269869
Br      11.95160647       2.47292202       8.30515494       0.11051935      -0.48735239      -0.57565410
Br       5.84748013       8.79805645       8.50101058      -0.07306303      -0.08276831      -0.37979846
Br      11.67987760       9.01749798       9.06591323      -0.16120925       0.13667348       0.18510417
Br       2.82115893       5.88203766       3.06837820      -0.13911248      -0.03851107       0.10810799
Br       8.65433825       5.96531150       2.96478591      -0.22647685       0.04476303       0.00451569
Br       3.13943473      11.89179126       2.74941240       0.17916359       0.05069244      -0.21085783
Br       8.87066589      11.88661713       2.59942328      -0.01014895       0.04551857      -0.36084698
Br       3.07710603       6.00774607       8.80775352       0.11683460       0.08719731      -0.07305549
Br       9.09790080       5.97646765       8.89819871       0.21708567       0.05591916       0.01738967
Br       3.54817737      11.87268731       8.43788485       0.58790621       0.03158846      -0.44292418
Br       8.67153303      11.98269786       9.20498474      -0.20928183       0.14159927       0.32417568
Br       3.00041244       2.59144697       0.19233766       0.04014083      -0.36882768       0.19233564
Br       9.34026994       2.90073645      -0.23633729       0.45945464      -0.05953793      -0.23633934
Br       3.02422538       8.56958960       0.03684289       0.06395404      -0.31123513       0.03684084
Br       9.06532685       8.69437890       0.10592770       0.18451181      -0.18644556       0.10592563
Br       3.11047534       2.89236212       6.17716907       0.15020371      -0.06791256       0.25662824
Br       8.69020833       3.07972950       5.69626031      -0.19060700       0.11945509      -0.22428055
Br       2.85834977       9.21936553       5.92602204      -0.10192161       0.33854077       0.00548117
Br       8.90532966       8.90650512       5.80725046       0.02451459       0.02568063      -0.11329043
40
Lattice="11.841087389565814 -5.299540211115622e-07 5.134422012396998e-08 -5.299543174639322e-07 11.84110017440169 5.370282133059492e-08 5.1344211613704544e-08 5.370297858733353e-08 11.841077618801604" Properties=species:S:1:pos:R:3:u_disp:R:3 system=cssnbr3_cubic base_model=chgnet role=train_pool T=100.0 draw=8 n_tries=13 rms_disp_A=0.4292232295010248 min_pair_ratio=0.8150909435567205 nearest_heldout_A=0.42361813994145553 site_map_ok=1 nearest_heldout_src=cssnbr3_cubic_chgnet_q1d2-1d2-0-b1.extxyz#4 pbc="T T T"
Cs       5.57276114       5.77699091      -0.26507774      -0.34778225      -0.14355880      -0.26507794
Cs      12.19214848       5.87391619       0.24385824       0.35106139      -0.04663326       0.24385801
Cs       5.77279790      11.17021107       0.01827451      -0.14774523      -0.67088873       0.01827428
Cs      11.75983488      11.81213792       0.16273218      -0.08125195      -0.02896161       0.16273192
Cs       6.08163387       5.90502758       5.82634344       0.16109045      -0.01552216      -0.09419556
Cs      11.94742118       5.89544033       6.20711127       0.10633406      -0.02510914       0.28657224
Cs       6.11439183      11.98354364       5.79896768       0.19384867       0.14244381      -0.12157136
Cs      12.09366639      11.84942634       6.23737686       0.25257954       0.00832678       0.31683780
Sn       2.97837399       2.82534045       3.05474333       0.01810178      -0.13493623       0.09447757
Sn       8.82203321       3.22471471       3.09729448      -0.05878270       0.26443830       0.13702869
Sn       2.71470451       8.67424212       2.86264547      -0.24556743      -0.20658464      -0.09762032
Sn       8.59621948       9.10962273       2.96294940      -0.28459615       0.22879623       0.00268359
Sn       2.91220113       3.04719492       8.96286348      -0.04807111       0.08691821       0.08205891
Sn       8.93989790       2.91871842       9.04861639       0.05908197      -0.04155803       0.16781180
Sn       3.15716946       9.02244051       8.65532791       0.19689750       0.14161372      -0.22547669
Sn       9.18737806       8.98592619       8.71824670       0.30656239       0.10509966      -0.16255792
Br       5.94545404       2.82673223       2.44994385       0.02491064      -0.13354242      -0.51032635
Br      11.75428560       3.08750461       2.68567813      -0.08680149       0.12723022      -0.27459210
Br       5.57043238       9.24630300       2.84595748      -0.35011076       0.36547826      -0.11431275
Br      11.65697744       9.55083125       3.62240425      -0.18410939       0.67000677       0.66213399
Br       5.99448097       2.88092596       8.99192572       0.07393755      -0.07934872       0.11111671
Br      11.93360876       2.81741433       8.43497558       0.09252164      -0.14286009      -0.44583345
Br       6.03250932       9.26771142       8.94979649       0.11196615       0.38688665       0.06898745
Br      12.03433063       9.02386029       9.30864499       0.19324377       0.14303579       0.42783593
Br       2.99546056       5.72015883       2.76713981       0.03518915      -0.20038990      -0.19313039
Br       8.60602868       6.11561050       2.94182542      -0.27478643       0.19506203      -0.01844480
Br       3.08610073      11.67895102       2.67014631       0.12582959      -0.16214780      -0.29012392
Br       9.00138888      12.01986872       3.22879496       0.12057404       0.17877017       0.26852470
Br       3.09028844       5.97922949       8.79387475       0.13001701       0.05868073      -0.08693426
Br       9.15104522       5.88985336       8.91829162       0.27023009      -0.03069513       0.03748258
Br       3.29536981      11.83542180       8.31961373       0.33509864      -0.00567705      -0.56119531
Br       9.00084362      11.64707810       8.99286865       0.12002875      -0.19402048       0.11205959
Br       2.75782438       2.47288015      -0.11801928      -0.20244724      -0.48739449      -0.11802131
Br       8.63558498       3.29934389       0.10370174      -0.24523033       0.33906951       0.10369969
Br       3.05566467       8.12161602      -0.23848548       0.09539332      -0.75920871      -0.23848753
Br       8.33971799       8.92273760      -0.04381643      -0.54109705       0.04191313      -0.04381851
Br       2.61034838       3.33214392       5.99576898      -0.34992326       0.37186925       0.07522815
Br       8.93787123       3.11465810       6.14556696       0.05705590       0.15438370       0.22502610
Br       3.07335620       9.11712535       5.82487889       0.11308483       0.23630059      -0.09566197
Br       8.48807070       8.44533043       5.91115032      -0.39274436      -0.43549406      -0.00939057
40
Lattice="11.841087389565814 -5.299540211115622e-07 5.134422012396998e-08 -5.299543174639322e-07 11.84110017440169 5.370282133059492e-08 5.1344211613704544e-08 5.370297858733353e-08 11.841077618801604" Properties=species:S:1:pos:R:3:u_disp:R:3 system=cssnbr3_cubic base_model=chgnet role=train_pool T=100.0 draw=9 n_tries=13 rms_disp_A=0.39233111138325855 min_pair_ratio=0.8091352727323602 nearest_heldout_A=0.38480897927331736 site_map_ok=1 nearest_heldout_src=cssnbr3_cubic_chgnet_q1d2-1d2-1d2-b3.extxyz#5 pbc="T T T"
Cs       5.66274006       6.12466728      -0.08105338      -0.25780334       0.20411757      -0.08105358
Cs      12.05935766       6.08505638      -0.37326405       0.21827057       0.16450693      -0.37326427
Cs       5.72750104      11.96499467      -0.25314701      -0.19304209       0.12389487      -0.25314723
Cs      12.09937138      11.92400215      -0.14878085       0.25828455       0.08290262      -0.14878110
Cs       6.31080918       5.51496724       5.58458653       0.39026576      -0.40558250      -0.33595248
Cs      11.94558579       5.69817801       6.17800259       0.10449867      -0.22237147       0.25746356
Cs       5.99031642      11.77951550       5.99076319       0.06977326      -0.06158432       0.07022416
Cs      11.71904026      11.56162324       6.23257664      -0.12204659      -0.27947632       0.31203758
Sn       2.89105639       3.08192942       2.86511913      -0.06921582       0.12165274      -0.09514663
Sn       8.87807152       2.86847526       2.76475836      -0.00274438      -0.09180116      -0.19550742
Sn       2.70290513       9.01590606       3.05410292      -0.25736682       0.13507930       0.09383714
Sn       8.57270366       8.70689813       2.98702958      -0.30811198      -0.17392838       0.02676377
Sn       2.79805956       2.97539719       8.87229993      -0.16221267       0.01512049      -0.00850464
Sn       8.59423636       3.06307842       8.84379617      -0.28657956       0.10280198      -0.03700842
Sn       2.92658039       9.01938836       8.84971210      -0.03369158       0.13856157      -0.03109249
Sn       8.88260989       8.91526413       8.92324565       0.00179422       0.03443760       0.04244103
Br       5.88163260       3.39959630       2.53343411      -0.03891080       0.43932164      -0.42683609
Br      11.94878590       2.52237559       2.96692872       0.10769880      -0.43789880       0.00665849
Br       5.73555560       8.59165727       3.46677048      -0.18498753      -0.28916747       0.50650025
Br      11.62257291       8.70611925       3.20910041      -0.21851392      -0.17470522       0.24883015
Br       5.74796983       3.02363194       8.95739422      -0.17257360       0.06335726       0.07658520
Br      11.69539948       3.20942961       9.02785890      -0.14568764       0.24915520       0.14704986
Br       6.13299873       9.21460253       8.93281287       0.21245557       0.33377776       0.05200383
Br      11.80361534       8.90572431       8.73211819      -0.03747152       0.02489980      -0.14869087
Br       3.46287620       5.96264995       2.87561453       0.50260479       0.04210122      -0.08465567
Br       9.09345040       5.93207189       3.23401023       0.21263530       0.01152342       0.27374001
Br       3.06916674      11.92015714       2.95025473       0.10889560       0.07905832      -0.01001549
Br       8.46220404      11.89172742       2.65841774      -0.41861080       0.05062887      -0.30185252
Br       2.72967312       6.13748927       9.19522936      -0.23059831       0.21694051       0.31442035
Br       8.92162123       6.02452112       9.10691018       0.04080610       0.10397263       0.22610115
Br       2.66912498      11.91062114       9.09652559      -0.29114619       0.06952229       0.21571655
Br       8.32058641      12.05570575       9.03704670      -0.56022845       0.21460717       0.15623764
Br       3.31892381       3.46456625       0.00034550       0.35865219       0.50429160       0.00034347
Br       9.25730846       3.09037869      -0.04083792       0.37649316       0.13010431      -0.04083997
Br       3.27594861       8.89123063       0.02563065       0.31567727       0.01040589       0.02562859
Br       9.23111020       8.90499707       0.04740307       0.35029516       0.02417260       0.04740099
Br       3.12593165       2.61019642       5.91443217       0.16566001      -0.35007826      -0.00610866
Br       9.34928107       2.64555231       5.89862991       0.46846573      -0.31472210      -0.02191095
Br       2.99159192       8.53968416       5.89656749       0.03132055      -0.34114060      -0.02397337
Br       8.81027505       8.45652180       5.91054228      -0.07054002      -0.42430270      -0.00999861
40
Lattice="11.841087389565814 -5.299540211115622e-07 5.134422012396998e-08 -5.299543174639322e-07 11.84110017440169 5.370282133059492e-08 5.1344211613704544e-08 5.370297858733353e-08 11.841077618801604" Properties=species:S:1:pos:R:3:u_disp:R:3 system=cssnbr3_cubic base_model=chgnet role=train_pool T=100.0 draw=10 n_tries=13 rms_disp_A=0.4551284167954965 min_pair_ratio=0.7864336396489127 nearest_heldout_A=0.4442457053615361 site_map_ok=1 nearest_heldout_src=cssnbr3_cubic_chgnet_q1d2-1d2-0-b0.extxyz#5 pbc="T T T"
Cs       6.14361075       5.57135781      -0.06885943       0.22306736      -0.34919190      -0.06885963
Cs      11.46993389       5.83522389      -0.03548340      -0.37115320      -0.08532556      -0.03548362
Cs       6.23596662      11.98415232      -0.23012295       0.31542349       0.14305252      -0.23012318
Cs      12.27894836      11.90614337       0.13948422       0.43786154       0.06504383       0.13948396
Cs       5.75397513       6.03232947       6.10324984      -0.16656829       0.11177973       0.18271083
Cs      12.48080783       6.15070278       6.03963859       0.63972072       0.23015330       0.11909955
Cs       5.72447518      11.48967118       5.99587605      -0.19606798      -0.35142865       0.07533702
Cs      11.62076457      11.79643899       6.33593425      -0.22032228      -0.04466057       0.41539519
Sn       2.79861842       3.13664752       2.53383113      -0.16165379       0.17637085      -0.42643463
Sn       8.65789899       2.98095871       2.89778877      -0.22291691       0.02068229      -0.06247702
Sn       2.93671284       8.89760266       3.20585051      -0.02355911       0.01677590       0.24558473
Sn       8.84285762       8.95634234       2.94830330      -0.03795802       0.07551584      -0.01196251
Sn       3.10523413       3.03264608       8.41456563       0.14496190       0.07236937      -0.46623894
Sn       8.87191591       3.04629985       8.74092088      -0.00890002       0.08602341      -0.13988371
Sn       2.62919581       8.92509876       9.29523895      -0.33107616       0.04427196       0.41443436
Sn       8.66921315       8.99659164       8.83523924      -0.21160251       0.11576511      -0.04556538
Br       5.65424094       2.99243990       3.82670677      -0.26630246       0.03216525       0.86643656
Br      11.60681069       3.00813368       2.88012328      -0.23427640       0.04785929      -0.08014694
Br       5.76192644       8.56955646       3.24107781      -0.15861669      -0.31126828       0.28080758
Br      11.73924823       8.89887492       2.70432041      -0.10183860       0.01805045      -0.25594984
Br       6.07464671       3.31677383       9.06433710       0.15410328       0.35649915       0.18352808
Br      11.90779557       2.94235705       8.14154004       0.06670845      -0.01791737      -0.73926900
Br       5.77272808       8.31755062       9.03247097      -0.14781508      -0.56327415       0.15166193
Br      11.69941494       8.93339214       9.37791181      -0.14167191       0.05256764       0.49710274
Br       2.88497836       5.88637620       2.96969886      -0.07529305      -0.03417253       0.00942866
Br       8.85464362       5.95813925       2.82072176      -0.02617148       0.03759078      -0.13954847
Br       3.48627638      11.93568689       2.93875114       0.52600523       0.09458807      -0.02151909
Br       8.42380355      11.79531677       2.76879412      -0.45701129      -0.04578179      -0.19147613
Br       3.51784049       5.94169645       8.70007446       0.55756905       0.02114769      -0.18073455
Br       9.40903002       5.90757025       8.68376805       0.52821489      -0.01297824      -0.19704099
Br       3.08323974      11.88739905       9.06296434       0.12296857       0.04630020       0.18215531
Br       8.79327516      11.84281002       8.29913993      -0.08753970       0.00171144      -0.58166913
Br       2.96755122       3.35069255      -0.54782304       0.00727961       0.39041791      -0.54782506
Br       9.07514369       2.76696873      -0.01446300       0.19432838      -0.19330565      -0.01446506
Br       3.24173355       9.13344890       0.37590561       0.28146221       0.25262416       0.37590356
Br       9.14884148       8.70791021       0.06930617       0.26802644      -0.17291426       0.06930409
Br       2.54834219       2.77839980       5.65641553      -0.41192945      -0.18187487      -0.26412530
Br       8.42368976       2.90250538       5.97316093      -0.45712557      -0.05776903       0.05262007
Br       2.91291037       8.71459895       6.17103486      -0.04736100      -0.16622581       0.25049400
Br       8.95287921       8.85052737       5.95268819       0.07206414      -0.03029713       0.03214730
40
Lattice="11.841087389565814 -5.299540211115622e-07 5.134422012396998e-08 -5.299543174639322e-07 11.84110017440169 5.370282133059492e-08 5.1344211613704544e-08 5.370297858733353e-08 11.841077618801604" Properties=species:S:1:pos:R:3:u_disp:R:3 system=cssnbr3_cubic base_model=chgnet role=train_pool T=100.0 draw=11 n_tries=13 rms_disp_A=0.4259858954157269 min_pair_ratio=0.7327302467314569 nearest_heldout_A=0.41504236122914356 site_map_ok=1 nearest_heldout_src=cssnbr3_cubic_chgnet_q0-0-0-b1.extxyz#4 pbc="T T T"
Cs       5.71725374       5.77496731      -0.02462878      -0.20328966      -0.14558240      -0.02462898
Cs      11.76072975       6.24562592       0.14132396      -0.08035734       0.32507647       0.14132374
Cs       6.14953638      12.35627301       0.05689149       0.22899325       0.51517321       0.05689126
Cs      11.76067897      11.82815264       0.02804089      -0.08040785      -0.01294689       0.02804063
Cs       5.99409176       5.80027501       6.44511440       0.07354833      -0.12027473       0.52457539
Cs      11.89101445       6.18110512       6.15122138       0.04992734       0.26055564       0.23068235
Cs       5.96217080      11.90645007       5.88638110       0.04162765       0.06535024      -0.03415794
Cs      11.57055044      12.12004484       5.55958741      -0.27053641       0.27894528      -0.36095165
Sn       3.07110759       2.86083553       2.84714738       0.11083538      -0.09944115      -0.11311838
Sn       8.89504404       3.01441297       2.87742700       0.01422813       0.05413655      -0.08283878
Sn       2.99248102       9.00648176       3.38373021       0.03220907       0.12565499       0.42346442
Sn       8.80099930       8.87073710       2.99944649      -0.07981634      -0.01008940       0.03918068
Sn       2.85828849       2.68670549       8.65333819      -0.10198375      -0.27357122      -0.22746638
Sn       8.71368801       2.76000451       8.80146815      -0.16712791      -0.20027193      -0.07933645
Sn       2.95660010       8.88713837       9.28759614      -0.00367187       0.00631158       0.40679154
Sn       8.88055444       8.64251510       9.05617579      -0.00026122      -0.23831143       0.17537117
Br       5.96563661       3.30293514       2.54365444       0.04509321       0.34266049      -0.41661576
Br      11.82711597       2.97358005       2.80934012      -0.01397112       0.01330567      -0.15093011
Br       5.95622669       8.43350315       3.32340488       0.03568356      -0.44732159       0.36313465
Br      11.88817526       8.97631931       2.38072412       0.04708843       0.09549484      -0.57954613
Br       5.75573891       2.90084880       8.92021133      -0.16480452      -0.05942588       0.03940232
Br      11.77039300       3.17422651       9.27907041      -0.07069412       0.21395209       0.39826138
Br       5.94258111       9.31196317       8.97658656       0.02203795       0.43113840       0.09577752
Br      11.83544731       8.94667252       9.10754700      -0.00563955       0.06584802       0.22673794
Br       3.59141405       6.06755572       2.86477416       0.63114264       0.14700699      -0.09549604
Br       9.25750325       5.78293809       2.65936385       0.37668815      -0.13761037      -0.30090638
Br       3.01155563      11.71341387       2.94163018       0.05128448      -0.12768495      -0.01864004
Br       8.96125777      11.89798327       2.73986404       0.08044293       0.05688472      -0.22040621
Br       2.89168241       5.84076715       8.07622178      -0.06858902      -0.07978161      -0.80458723
Br       8.68426606       5.71682861       9.07438669      -0.19654907      -0.20371988       0.19357765
Br       3.15829528      11.86774990       8.51726057       0.19802412       0.02665106      -0.36354846
Br       8.55807592      11.80210301       8.77408407      -0.32273895      -0.03899557      -0.10672500
Br       3.45836690       2.54812969      -0.11117857       0.49809529      -0.41214495      -0.11118060
Br       8.43322613       2.55652989      -0.10874982      -0.44758918      -0.40374449      -0.10875187
Br       2.56833743       9.01405877       0.01591089      -0.39193392       0.13323403       0.01590883
Br       9.00329326       8.41225807       0.09810837       0.12247822      -0.46856640       0.09810630
Br       3.33050187       2.83390266       5.54561931       0.37023023      -0.12637201      -0.37492153
Br       8.64214936       2.56708681       5.98121293      -0.23866597      -0.39318759       0.06067207
Br       2.87168424       9.19618397       6.23662434      -0.08858713       0.31535921       0.31608348
Br       9.10288419       8.94218367       6.02542860       0.22206913       0.06135918       0.10488772
40
Lattice="11.841087389565814 -5.299540211115622e-07 5.134422012396998e-08 -5.299543174639322e-07 11.84110017440169 5.370282133059492e-08 5.1344211613704544e-08 5.370297858733353e-08 11.841077618801604" Properties=species:S:1:pos:R:3:u_disp:R:3 system=cssnbr3_cubic base_model=chgnet role=train_pool T=100.0 draw=12 n_tries=13 rms_disp_A=0.3606915062519457 min_pair_ratio=0.8414264074239161 nearest_heldout_A=0.35386878028122426 site_map_ok=1 nearest_heldout_src=cssnbr3_cubic_chgnet_q0-1d2-0-b4.extxyz#4 pbc="T T T"
Cs       6.02845797       5.88499155      -0.08366916       0.10791458      -0.03555816      -0.08366936
Cs      11.85190716       6.09650707       0.16432423       0.01082007       0.17595762       0.16432401
Cs       5.89148328      11.67238256      -0.12979013      -0.02905985      -0.16871724      -0.12979036
Cs      11.82488868      12.01535891      -0.24983505      -0.01619814       0.17425938      -0.24983530
Cs       5.84653191       5.72327105       5.86014360      -0.07401151      -0.19727869      -0.06039541
Cs      11.76859110       6.04543306       5.78483842      -0.07249602       0.12488359      -0.13570062
Cs       5.94337263      11.82606321       5.82689300       0.02282947      -0.01503661      -0.09364604
Cs      11.45770023      12.10143951       5.85897618      -0.38338662       0.26033995      -0.06156288
Sn       2.91668139       2.86531355       2.98866587      -0.04359081      -0.09496313       0.02840011
Sn       8.73050137       2.92342333       2.93751035      -0.15031453      -0.03685309      -0.02275544
Sn       2.76038284       8.95965196       2.96262954      -0.19988911       0.07882519       0.00236376
Sn       8.79589787       8.86825799       3.05056434      -0.08491777      -0.01256851       0.09029853
Sn       2.78982859       2.81966713       8.86511211      -0.17044364      -0.14060958      -0.01569246
Sn       8.72661995       2.89060101       8.91516541      -0.15419598      -0.06967543       0.03436082
Sn       3.35640132       8.74095574       8.94111597       0.39612936      -0.13987106       0.06031137
Sn       9.24564964       8.69021841       8.98705404       0.36483398      -0.19060812       0.10624942
Br       5.94474862       2.97252295       3.40090446       0.02420522       0.01224830       0.44063426
Br      11.77757302       3.08576635       2.55785563      -0.06351407       0.12549196      -0.40241459
Br       5.80445391       8.50263960       3.02933937      -0.11608923      -0.37818514       0.06906914
Br      11.81350730       9.10742868       2.95695458      -0.02757952       0.22660420      -0.00331567
Br       5.77452635       3.05493750       8.91074230      -0.14601708       0.09466282       0.02993329
Br      11.71138997       3.28404328       8.49888295      -0.12969715       0.32376887      -0.38192609
Br       6.14649395       8.43017092       9.05915473       0.22595079      -0.45065385       0.17834569
Br      12.12596642       8.99252415       8.56607031       0.28487957       0.11169965      -0.31473876
Br       2.75246247       5.78197666       3.35936907      -0.20780894      -0.13857208       0.39909886
Br       9.09500987       5.96619122       2.86689175       0.21419477       0.04564275      -0.09337848
Br       3.48065651      11.92730123       3.03749882       0.52038537       0.08620241       0.07722859
Br       9.07595085      11.87976550       3.14929279       0.19513602       0.03866694       0.18902253
Br       2.92718010       5.67735851       9.01617281      -0.03309134      -0.24319025       0.13536380
Br       9.02170592       5.71845279       8.87333882       0.14089079      -0.20209571      -0.00747021
Br       2.53211324      11.67247897       9.18350450      -0.42815793      -0.16861987       0.30269546
Br       8.68807043      11.68680613       8.70780657      -0.19274444      -0.15429246      -0.17300249
Br       3.57885501       3.24283466      -0.04616073       0.61858340       0.28256001      -0.04616275
Br       9.26532957       2.89897108      -0.06474340       0.38451427      -0.06130330      -0.06474545
Br       2.67021957       9.15957194       0.09550145      -0.29005178       0.27874721       0.09549940
Br       8.42142432       8.99697036      -0.00149556      -0.45939072       0.11614589      -0.00149764
Br       2.72265246       3.16286993       6.02637797      -0.23761918       0.20259525       0.10583714
Br       8.70815327       2.68908899       5.93668883      -0.17266206      -0.27118542       0.01614797
Br       3.28001280       9.13371756       5.91675004       0.31974142       0.25289280      -0.00379082
Br       9.24092478       9.12143559       6.03448327       0.36010971       0.24061110       0.11394239
40
Lattice="11.841087389565814 -5.299540211115622e-07 5.134422012396998e-08 -5.299543174639322e-07 11.84110017440169 5.370282133059492e-08 5.1344211613704544e-08 5.370297858733353e-08 11.841077618801604" Properties=species:S:1:pos:R:3:u_disp:R:3 system=cssnbr3_cubic base_model=chgnet role=train_pool T=300.0 draw=0 n_tries=24 rms_disp_A=0.7082197444752234 min_pair_ratio=0.6330312196546685 nearest_heldout_A=0.6880744316590479 site_map_ok=1 nearest_heldout_src=cssnbr3_cubic_chgnet_q1d2-0-0-b4.extxyz#7 pbc="T T T"
Cs       5.82367535       6.52164238      -0.03648060      -0.09686804       0.60109267      -0.03648080
Cs      11.72435194       5.77762664       0.08479400      -0.11673515      -0.14292281       0.08479377
Cs       5.46967111      12.38718909      -0.14698105      -0.45087202       0.54608929      -0.14698127
Cs      12.18432649      11.74645764      -0.97029131       0.34323966      -0.09464189      -0.97029156
Cs       6.46635313       5.39402439       5.82590580       0.54580971      -0.52652534      -0.09463321
Cs      12.39576456       5.18853123       5.91950766       0.55467744      -0.73201825      -0.00103137
Cs       5.97265911      12.01616259       5.95464669       0.05211596       0.17506277       0.03410766
Cs      11.90001668      12.21840454       5.78680834       0.05892983       0.37730498      -0.13373072
Sn       2.34747669       3.17432536       2.88202322      -0.61279552       0.21404868      -0.07824254
Sn       8.36243312       2.70768129       2.31239959      -0.51838278      -0.25259513      -0.64786620
Sn       2.90610791       9.09941228       2.63596958      -0.05416404       0.21858552      -0.32429621
Sn       8.81992631       8.80948857       3.13455317      -0.06088932      -0.07133793       0.17428736
Sn       3.11375516       2.92666425       8.77102853       0.15348292      -0.03361245      -0.10977604
Sn       9.02304207       2.76927192       8.52997659       0.14222615      -0.19100452      -0.35082801
Sn       3.20840847       8.71710634       8.48692205       0.24813650      -0.16372046      -0.39388255
Sn       8.93685998       8.94627473       9.18576933       0.05604432       0.06544820       0.30496471
Br       5.47512329       2.84690350       3.54855564      -0.44542011      -0.11337115       0.58828544
Br      11.37435474       3.24754893       3.36672421      -0.46673235       0.28727455       0.40645398
Br       6.13408742       9.12729990       2.93394224       0.21354429       0.24647517      -0.02632799
Br      11.75711213       9.24247146       2.48414980      -0.08397470       0.36164699      -0.47612046
Br       5.99104095       2.60671856       9.64595416       0.07049753      -0.35355611       0.76514515
Br      12.00626556       3.32212429       9.56478384       0.16517843       0.36184988       0.68397481
Br       6.26673845       8.46651751       9.50089737       0.34619529      -0.41430725       0.62008833
Br      11.85335585       9.31544486       9.40576750       0.01226899       0.43462036       0.52495843
Br       2.78180064       6.38455582       3.24006983      -0.17847077       0.46400708       0.27979963
Br       9.02234317       5.55178673       3.41932819       0.14152807      -0.36876174       0.45905797
Br       2.48371446      11.96406675       3.43826965      -0.47655668       0.12296793       0.47799942
Br       9.12983251      11.72992107       3.27305082       0.24901767      -0.11117749       0.31278056
Br       2.62928856       5.54355264       7.94812428      -0.33098287      -0.37699612      -0.93268473
Br       8.58612103       5.61217103       9.79770590      -0.29469410      -0.30837747       0.91689687
Br       2.68451742      11.60660807       8.13390559      -0.27575375      -0.23449078      -0.74690345
Br       8.73152665      11.77420717       9.12035474      -0.14928821      -0.06689141       0.23954568
Br       2.81855190       3.34045003       0.17213142      -0.14171971       0.38017539       0.17212940
Br       8.30921811       2.45869773      -0.17826893      -0.57159720      -0.50157665      -0.17827098
Br       3.63738845       8.93839058      -0.24470938       0.67711711       0.05756585      -0.24471143
Br       7.92908333       8.09327967       0.31071069      -0.95173172      -0.78754479       0.31070861
Br       4.06436509       3.28901739       6.03659315       1.10409345       0.32874271       0.11605232
Br       8.66957548       3.14042139       5.83674529      -0.21123985       0.18014698      -0.08379557
Br       3.27336992       8.35503419       5.72220601       0.31309855      -0.52579057      -0.19833485
Br       9.64583621       9.79801639       6.15466689       0.76502114       0.91719189       0.23412601
40
Lattice="11.841087389565814 -5.299540211115622e-07 5.134422012396998e-08 -5.299543174639322e-07 11.84110017440169 5.370282133059492e-08 5.1344211613704544e-08 5.370297858733353e-08 11.841077618801604" Properties=species:S:1:pos:R:3:u_disp:R:3 system=cssnbr3_cubic base_model=chgnet role=train_pool T=300.0 draw=1 n_tries=24 rms_disp_A=0.6394887276734713 min_pair_ratio=0.6575432352490757 nearest_heldout_A=0.6314407283085766 site_map_ok=1 nearest_heldout_src=cssnbr3_cubic_chgnet_q0-0-0-b3.extxyz#5 pbc="T T T"
Cs       6.12062583       5.30113897       0.57993828       0.20008243      -0.61941074       0.57993808
Cs      12.23127355       5.83260361      -0.09244017       0.39018646      -0.08794584      -0.09244039
Cs       5.86498406      12.18324806       0.41797720      -0.05555907       0.34214826       0.41797697
Cs      11.97733856      12.24514117       0.09809947       0.13625173       0.40404163       0.09809921
Cs       5.45094782       5.62284149       6.25549290      -0.46959560      -0.29770825       0.33495389
Cs      11.44380087       6.03065966       6.29344931      -0.39728625       0.11011019       0.37291028
Cs       5.98296072      11.37800037       5.61654927       0.06241757      -0.46309945      -0.30398976
Cs      11.76425880      12.30593772       5.37478906      -0.07682805       0.46483816      -0.54575000
Sn       2.54349246       3.13154657       3.31518958      -0.41677975       0.17126989       0.35492382
Sn       8.33030493       2.37395544       2.45001654      -0.55051097      -0.58632097      -0.51024924
Sn       3.26471132       8.97747688       2.82695589       0.30443938       0.09665012      -0.13330990
Sn       9.04592733       8.31425054       2.52060104       0.16511169      -0.56657596      -0.43966477
Sn       3.02176067       3.21869882       9.28182417       0.06148844       0.25842212       0.40101961
Sn       8.81209700       2.83907297       8.52996175      -0.06871893      -0.12120348      -0.35084284
Sn       3.39046990       9.26608970       8.61769966       0.43019794       0.38526290      -0.26310494
Sn       9.05468387       8.99705339       8.48710732       0.17386820       0.11622686      -0.39369731
Br       5.56442450       2.64288188       3.16299516      -0.35611890      -0.31739277       0.20272496
Br      11.53098232       3.09451869       3.66086883      -0.31010477       0.13424430       0.70059860
Br       6.27178999       9.44906450       3.62510478       0.35124686       0.56823976       0.66483455
Br      12.25611228       8.87449576       3.03999031       0.41502545      -0.00632871       0.07972006
Br       5.78190908       2.74046920       8.44202366      -0.13863434      -0.21980548      -0.43878535
Br      11.71248571       2.52890988       9.00661124      -0.12860141      -0.43136454       0.12580220
Br       6.17242566       9.49560966       9.77653815       0.25188250       0.61478489       0.89572911
Br      11.83214534       8.96672155       8.66236827      -0.00894151       0.08589705      -0.21844079
Br       3.16451927       6.28211743       2.94849439       0.20424787       0.36156870      -0.01177581
Br       8.99967486       5.83027865       3.64144617       0.11885975      -0.09026982       0.68117595
Br       3.27885084      12.04376949       2.41340885       0.31857969       0.20267067      -0.54686138
Br       9.12686199      11.65582078       2.36534274       0.24604716      -0.18527778      -0.59492751
Br       2.57716287       6.12238975       8.64594483      -0.38310856       0.20184099      -0.23486418
Br       8.49432625       5.87829692       9.08852887      -0.38648888      -0.04225157       0.20771983
Br       3.30390869      12.26130191       9.05514169       0.34363752       0.42020307       0.17433265
Br       8.50711293      11.87367986       8.63916044      -0.37370193       0.03258128      -0.24164862
Br       2.47363770       2.61326598       0.40484241      -0.48663392      -0.34700867       0.40484039
Br       8.13609833       3.33060683      -0.30797433      -0.74471698       0.37033245      -0.30797638
Br       3.69638869       8.77405658      -0.25109611       0.73611734      -0.10676816      -0.25109816
Br       8.86632344       9.05590858      -0.23008275      -0.01449161       0.17508412      -0.23008482
Br       3.83279841       2.72313043       6.49820416       0.87252677      -0.23714424       0.57766332
Br       8.76279299       3.04914571       5.37569806      -0.11802235       0.08887131      -0.54484280
Br       2.47086039       8.79033858       5.65128638      -0.48941098      -0.09048618      -0.26925448
Br       9.16424371       8.30902506       5.64592725       0.28342864      -0.57179943      -0.27461364
40
Lattice="11.841087389565814 -5.299540211115622e-07 5.134422012396998e-08 -5.299543174639322e-07 11.84110017440169 5.370282133059492e-08 5.1344211613704544e-08 5.370297858733353e-08 11.841077618801604" Properties=species:S:1:pos:R:3:u_disp:R:3 system=cssnbr3_cubic base_model=chgnet role=train_pool T=300.0 draw=2 n_tries=24 rms_disp_A=0.6415979338896037 min_pair_ratio=0.6720611544093252 nearest_heldout_A=0.6300517523595528 site_map_ok=1 nearest_heldout_src=cssnbr3_cubic_orb_v2_q1d2-1d2-0-b0.extxyz#6 pbc="T T T"
Cs       5.80754578       6.20084416      -0.28806239      -0.11299762       0.28029445      -0.28806259
Cs      11.47499427       6.61472736       0.16457803      -0.36609282       0.69417791       0.16457781
Cs       5.74929347      11.47230969       0.06942696      -0.17124966      -0.36879011       0.06942674
Cs      12.16281432      12.01553806      -0.52574940       0.32172750       0.17443852      -0.52574965
Cs       5.73269267       6.08321610       5.96090296      -0.18785076       0.16266637       0.04036395
Cs      12.23879401       5.63707693       6.54171021       0.39770690      -0.28347254       0.62117118
Cs       6.17815666      11.66847354       5.72104910       0.25761351      -0.17262629      -0.19948994
Cs      11.68135793      11.75837883       5.81112635      -0.15972893      -0.08272073      -0.10941271
Sn       2.70252619       2.75898961       3.12045299      -0.25774602      -0.20128707       0.16018723
Sn       8.67515655       2.92929589       3.21507964      -0.20565935      -0.03098052       0.25481385
Sn       3.07570989       8.82205021       3.07312880       0.11543795      -0.05877656       0.11286301
Sn       9.16344487       8.91946206       2.62435636       0.28262924       0.03863556      -0.33590946
Sn       2.97799725       3.15285307       9.15959979       0.01772502       0.19257636       0.27879522
Sn       8.77384921       3.22028643       9.31115149      -0.10696672       0.26000999       0.43034689
Sn       2.53949783       8.70227414       8.81976732      -0.42077414      -0.17855266      -0.06103727
Sn       8.76157192       9.04957126       9.04023600      -0.11924375       0.16874473       0.15943137
Br       5.90973565       3.41484296       2.93376468      -0.01080775       0.45456831      -0.02650552
Br      11.58620371       2.39379913       3.01398405      -0.25488339      -0.56647526       0.05371382
Br       6.10992411       8.90118066       3.15250809       0.18938098       0.02035592       0.19223786
Br      12.19100927       8.92163508       2.17557341       0.34992244       0.04081060      -0.78469685
Br       5.80352680       3.69020979       9.54843117      -0.11701663       0.72993511       0.66762216
Br      11.88894029       2.99004213       9.06739024       0.04785317       0.02976771       0.18658120
Br       5.87052576       9.24812879       9.08923660      -0.05001740       0.36730402       0.20842756
Br      11.73851566       8.82521950       9.12775422      -0.10257119      -0.05560500       0.24694516
Br       3.89509573       5.64397943       2.70071557       0.93482432      -0.27656931      -0.25955463
Br       9.40205685       5.65511129       2.96301282       0.52124175      -0.26543718       0.00274260
Br       2.95611209      11.77516621       3.76740875      -0.00415906      -0.06593261       0.80713852
Br       8.66793602      11.72880745       2.74948369      -0.21287882      -0.11229110      -0.21078656
Br       3.32029645       5.90858443       8.94780463       0.36002501      -0.01196433       0.06699562
Br       9.96662521       6.05017760       8.19153126       1.08581008       0.12962911      -0.68927778
Br       2.72027846      11.81962015       8.55475119      -0.23999271      -0.02147870      -0.32605785
Br       9.13042552      12.09580770       7.81978149       0.24961065       0.25470911      -1.06102758
Br       2.93495058       2.74564923       0.05065056      -0.02532103      -0.21462542       0.05064853
Br       8.05942027       2.05379435       0.24702727      -0.82139504      -0.90648003       0.24702522
Br       2.06423353       8.99600067      -0.05415451      -0.89603782       0.11517594      -0.05415656
Br       9.33831458       8.42462693      -0.27759341       0.45749953      -0.45619754      -0.27759549
Br       2.39334502       3.68368038       6.00204633      -0.56692662       0.72340571       0.08150549
Br       8.39737941       2.42807642       5.86471556      -0.48343592      -0.53219799      -0.05582530
Br       2.94071068       8.84360933       6.13924460      -0.01956069      -0.03721543       0.21870374
Br       9.55630226       8.58288344       5.52869989       0.67548719      -0.29794106      -0.39184100
40
Lattice="11.841087389565814 -5.299540211115622e-07 5.134422012396998e-08 -5.299543174639322e-07 11.84110017440169 5.370282133059492e-08 5.1344211613704544e-08 5.370297858733353e-08 11.841077618801604" Properties=species:S:1:pos:R:3:u_disp:R:3 system=cssnbr3_cubic base_model=chgnet role=train_pool T=300.0 draw=3 n_tries=24 rms_disp_A=0.6381805156803738 min_pair_ratio=0.6759662893960697 nearest_heldout_A=0.6234756889515328 site_map_ok=1 nearest_heldout_src=cssnbr3_cubic_chgnet_q1d2-1d2-1d2-b1.extxyz#6 pbc="T T T"
Cs       6.10949791       5.83416792      -0.61736164       0.18895452      -0.08638180      -0.61736184
Cs      11.81300655       5.42936239      -0.39031101      -0.02808054      -0.49118705      -0.39031124
Cs       6.34882749      12.52706576       0.53361155       0.42828436       0.68596597       0.53361132
Cs      12.08704127      11.44541126       0.53754144       0.24595445      -0.39568827       0.53754119
Cs       6.11753428       5.94910088       6.19128642       0.19699085       0.02855114       0.27074741
Cs      12.43894326       5.64418003       5.84514723       0.59785614      -0.27636944      -0.07539180
Cs       5.82348639      12.21591662       6.05332927      -0.09705676       0.37481680       0.13279023
Cs      11.26976798      11.73308297       5.78605140      -0.57131887      -0.10801659      -0.13448766
Sn       2.69306088       2.53643531       2.93419095      -0.26721133      -0.42384137      -0.02607481
Sn       8.73837768       2.91931467       2.97536095      -0.14243822      -0.04096174       0.01509517
Sn       2.42884322       8.56029653       2.47636745      -0.53142872      -0.32053023      -0.48389834
Sn       8.40548525       8.58802263       3.10237827      -0.47533039      -0.29280387       0.14211246
Sn       2.72360212       3.28158794       8.91896801      -0.23667011       0.32131123       0.03816344
Sn       8.58707888       2.65772011       8.80778180      -0.29373705      -0.30255633      -0.07302279
Sn       2.78900926       9.38231358       8.32883236      -0.17126271       0.50148679      -0.55197224
Sn       9.02243292       8.80434672       9.01249813       0.14161726      -0.07647981       0.13169351
Br       5.75745169       2.77360972       3.94995146      -0.16309171      -0.18666494       0.98968126
Br      11.61790748       2.86631654       2.76754926      -0.22317962      -0.09395785      -0.19272096
Br       5.76092783       8.12828656       3.56184784      -0.15961531      -0.75253818       0.60157761
Br      11.59101530       8.26049256       3.42360152      -0.25007153      -0.62033191       0.46333127
Br       5.82631206       3.41590908       8.10494609      -0.09423137       0.45563440      -0.77586293
Br      11.58757363       3.29482309       8.68192048      -0.25351349       0.33454868      -0.19888856
Br       6.00577908       9.72606696       9.15780280       0.08523592       0.84524219       0.27699376
Br      12.09440808       9.02585943       8.92838877       0.25332122       0.14503493       0.04757971
Br       2.70378511       5.71186383       2.08571134      -0.25648630      -0.20868491      -0.87455886
Br       8.91588552       5.60916608       3.18675842       0.03507042      -0.31138239       0.22648820
Br       2.99099109      11.64194604       3.02284026       0.03071995      -0.19915278       0.06257003
Br       8.74790360      11.52171404       2.56397975      -0.13291124      -0.31938452      -0.39629051
Br       3.06182813       6.01961359       8.81703594       0.10155670       0.09906483      -0.06377307
Br       9.71774250       6.11289251       9.18986282       0.83692738       0.19234401       0.30905378
Br       3.16508748      12.27261691       9.58590644       0.20481631       0.43151807       0.70509740
Br       9.39761171      11.80290814       8.69883133       0.51679685      -0.03819044      -0.18197773
Br       3.64438570       3.97014261       0.06333115       0.68411409       1.00986797       0.06332912
Br       8.57944322       3.55734108       0.05341516      -0.30137209       0.59706670       0.05341311
Br       3.24618352       8.65249560      -0.38169418       0.28591217      -0.22832913      -0.38169623
Br       8.97301720       8.76876048       0.08053420       0.09220216      -0.11206399       0.08053212
Br       2.87204915       3.24383411       6.11713564      -0.08822248       0.28355944       0.19659481
Br       9.22032869       3.10614798       6.06049507       0.33951336       0.14587357       0.13995421
Br       3.04164374       8.62960431       5.54879420       0.08137237      -0.25122045      -0.37174666
Br       8.59287990       9.05171840       5.91442765      -0.28793517       0.17089390      -0.00611323
40
Lattice="11.841087389565814 -5.299540211115622e-07 5.134422012396998e-08 -5.299543174639322e-07 11.84110017440169 5.370282133059492e-08 5.1344211613704544e-08 5.370297858733353e-08 11.841077618801604" Properties=species:S:1:pos:R:3:u_disp:R:3 system=cssnbr3_cubic base_model=chgnet role=train_pool T=300.0 draw=4 n_tries=24 rms_disp_A=0.6641562543124615 min_pair_ratio=0.6418569884430532 nearest_heldout_A=0.6266513331948463 site_map_ok=1 nearest_heldout_src=cssnbr3_cubic_mattersim_q0-0-0-b0.extxyz#8 pbc="T T T"
Cs       5.98999563       6.64714947       0.06753772       0.06945223       0.72659976       0.06753752
Cs      12.06134701       5.74446506      -0.18873481       0.22025992      -0.17608439      -0.18873504
Cs       6.16357679      12.64664028      -0.31752646       0.24303366       0.80554048      -0.31752669
Cs      12.28399176      12.24678620      -0.82817338       0.44290493       0.40568667      -0.82817363
Cs       5.90445948       5.90284509       5.85542990      -0.01608394      -0.01770465      -0.06510911
Cs      11.96712148       6.35797083       5.71721082       0.12603437       0.43742136      -0.20332822
Cs       5.93515895      12.15577946       5.79803695       0.01461580       0.31467964      -0.12250209
Cs      12.32907571      12.03523585       5.30510739       0.48798886       0.19413629      -0.61543168
Sn       2.97603566       2.90878291       3.27289496       0.01576346      -0.05149377       0.31262920
Sn       8.79505982       3.01717637       2.88525003      -0.08575608       0.05689996      -0.07501576
Sn       3.05911249       8.98063320       2.53248151       0.09884054       0.09980643      -0.42778427
Sn       8.73764807       8.72263763       2.71094480      -0.14316757      -0.15818888      -0.24932102
Sn       2.87370215       2.64803653       9.24687255      -0.08657008      -0.31224018       0.36606799
Sn       8.83557534       3.14956488       8.87864323      -0.04524059       0.18928844      -0.00216137
Sn       2.80409208       8.36810306       8.73537673      -0.15617989      -0.51272374      -0.14542786
Sn       8.69596410       8.92162065       8.90361180      -0.18485156       0.04079412       0.02280718
Br       5.75810703       2.79838468       2.95950057      -0.16243637      -0.16188997      -0.00076963
Br      11.83187421       3.14923573       2.98960663      -0.00921289       0.18896134       0.02933641
Br       6.13073260       9.22459590       3.51519890       0.21018947       0.34377116       0.55492867
Br      11.83677426       8.38346086       3.90596649      -0.00431257      -0.49736361       0.94569624
Br       5.66401884       2.53123921       8.98628324      -0.25652458      -0.42903547       0.10547423
Br      11.80112353       2.67870714       9.11106187      -0.03996359      -0.28156728       0.23025283
Br       5.82278326       8.55276488       9.08948149      -0.09775991      -0.32805989       0.20867245
Br      11.78040319       7.58036580       8.68279837      -0.06068366      -1.30045870      -0.19801069
Br       3.35118444       5.72832300       3.14249450       0.39091304      -0.19222573       0.18222430
Br       9.41390718       5.93472459       2.45672462       0.53309208       0.01417612      -0.50354560
Br       2.32736082      11.63603992       2.44778767      -0.63291032      -0.20505890      -0.51248256
Br       9.24879040      11.61417014       3.27939086       0.36797556      -0.22692841       0.31912061
Br       2.76374236       5.48716923       9.88835056      -0.19652907      -0.43337953       1.00754155
Br       9.36091552       5.89055210       8.91543320       0.48010039      -0.02999640       0.03462416
Br       2.58101240      11.41132519       9.05167515      -0.37925877      -0.42977365       0.17086612
Br       9.17275373      11.77918570       9.83679283       0.29193886      -0.06191288       0.95598377
Br       2.44483216       3.41980792       0.46969924      -0.51543946       0.45953328       0.46969721
Br       8.87074371       3.14167408       0.24348445      -0.01007160       0.18139969       0.24348240
Br       3.24234313       9.08756112      -0.10884288       0.28207178       0.20673638      -0.10884493
Br       8.52429919       9.47240168      -0.12541521      -0.35651585       0.59157722      -0.12541728
Br       2.19825204       2.03190789       6.26329728      -0.76201960      -0.92836678       0.34275645
Br       7.95201290       3.16873210       5.90393114      -0.92880243       0.20845769      -0.01660973
Br       2.84552957       9.24352779       5.61108187      -0.11474181       0.36270303      -0.30945900
Br       9.08235267       8.31724782       5.97064938       0.20153760      -0.56357668       0.05010849
40
Lattice="11.841087389565814 -5.299540211115622e-07 5.134422012396998e-08 -5.299543174639322e-07 11.84110017440169 5.370282133059492e-08 5.1344211613704544e-08 5.370297858733353e-08 11.841077618801604" Properties=species:S:1:pos:R:3:u_disp:R:3 system=cssnbr3_cubic base_model=chgnet role=train_pool T=300.0 draw=5 n_tries=24 rms_disp_A=0.627129546280803 min_pair_ratio=0.69918290166924 nearest_heldout_A=0.6135902344304875 site_map_ok=1 nearest_heldout_src=cssnbr3_cubic_chgnet_q0-0-1d2-b1.extxyz#6 pbc="T T T"
Cs       5.78956314       6.12250209       0.75711512      -0.13098025       0.20195238       0.75711492
Cs      12.16156284       6.27823986       0.31605977       0.32047575       0.35769041       0.31605954
Cs       6.12632954      12.29898814       0.28191751       0.20578641       0.45788834       0.28191728
Cs      11.92168464      12.08105362       0.05956568       0.08059782       0.23995409       0.05956542
Cs       5.47369695       5.45485001       5.75132162      -0.44684648      -0.46569972      -0.16921739
Cs      12.05151963       6.05842586       6.03276319       0.21043251       0.13787639       0.11222415
Cs       6.01337878      11.21823058       5.61150312       0.09283563      -0.62286925      -0.30903592
Cs      12.05994265      12.33182029       6.32880760       0.21885580       0.49072073       0.40826854
Sn       2.95302875       2.87259175       2.46744172      -0.00724346      -0.08768493      -0.49282404
Sn       8.63427108       3.32045718       2.83708440      -0.24654483       0.36018076      -0.12318138
Sn       3.05566789       8.84661066       2.84409303       0.09539594      -0.03421610      -0.11617275
Sn       9.20162153       9.24729010       2.68543658       0.32080589       0.36646360      -0.27482923
Sn       2.53365752       2.59914300       8.47792433      -0.42661471      -0.36113371      -0.40288024
Sn       8.30861837       2.81217723       8.85272971      -0.57219756      -0.14809921      -0.02807488
Sn       3.22572704       8.46525242       8.94798237       0.26545507      -0.41557437       0.06717777
Sn       9.14469686       8.56132994       8.70455896       0.26388119      -0.31949658      -0.17624566
Br       5.74934516       2.66589898       2.32232433      -0.17119824      -0.29437567      -0.63794588
Br      11.75085083       2.11239717       2.89801594      -0.09023627      -0.84787721      -0.06225429
Br       6.05429285       9.40127101       3.31696996       0.13374972       0.52044628       0.35669973
Br      12.26322209       9.06972097       3.60341169       0.42213526       0.18889649       0.64314143
Br       5.54082519       2.74231522       8.49128848      -0.37971824      -0.21795946      -0.38952054
Br      11.37553667       3.14132408       8.84989858      -0.46555045       0.18104966      -0.03091046
Br       6.33462510       8.66945794       8.43782468       0.41408194      -0.21136683      -0.44298436
Br      12.05404761       9.51917174       9.18515503       0.21296076       0.63834724       0.30434597
Br       3.09100293       5.72504098       3.07932908       0.13073153      -0.19550775       0.11905888
Br       9.53500920       5.95359484       2.83158401       0.65419410       0.03304637      -0.12868621
Br       2.62045638      11.64642843       3.44972163      -0.33981477      -0.19467039       0.48945141
Br       9.42797856      11.77703536       3.09415746       0.54716372      -0.06406320       0.13388721
Br       3.57092195       5.49065855       9.36225171       0.61065052      -0.42989020       0.48144270
Br       8.06727555       5.90721370       8.92381375      -0.81353957      -0.01333480       0.04300471
Br       3.02276870      11.45677353       9.19599104       0.06249753      -0.38432532       0.31518200
Br       8.62515040      11.64262370       9.00433964      -0.25566446      -0.19847488       0.12353057
Br       2.32497432       2.62949008      -0.35341438      -0.63529729      -0.33078456      -0.35341640
Br       8.04949638       3.38299576      -0.02725471      -0.83131892       0.42272138      -0.02725676
Br       3.59114437       8.81778251      -0.31265803       0.63087302      -0.06304222      -0.31266008
Br       8.98108458       8.59315758       0.04095333       0.10026954      -0.28766689       0.04095125
Br       3.33758566       3.05702111       5.60314957       0.37731402       0.09674643      -0.31739127
Br       8.09638867       3.46236756       5.90630074      -0.78442666       0.50209315      -0.01424012
Br       3.22692367       9.48805107       5.87830359       0.26665230       0.60722631      -0.04223727
Br       8.62374818       9.04724342       5.50442984      -0.25706689       0.16641892      -0.41611104
40
Lattice="11.841087389565814 -5.299540211115622e-07 5.134422012396998e-08 -5.299543174639322e-07 11.84110017440169 5.370282133059492e-08 5.1344211613704544e-08 5.370297858733353e-08 11.841077618801604" Properties=species:S:1:pos:R:3:u_disp:R:3 system=cssnbr3_cubic base_model=chgnet role=train_pool T=300.0 draw=6 n_tries=24 rms_disp_A=0.7177863421151233 min_pair_ratio=0.6543558755157304 nearest_heldout_A=0.7021165053849026 site_map_ok=1 nearest_heldout_src=cssnbr3_cubic_chgnet_q0-0-0-b3.extxyz#6 pbc="T T T"
Cs       5.46580299       6.13916277      -0.49769298      -0.45474040       0.21861306      -0.49769318
Cs      11.87923169       5.34326594       0.80175220       0.03814460      -0.57728350       0.80175198
Cs       5.40014315      11.80218206      -0.53518303      -0.52039998      -0.03891774      -0.53518325
Cs      11.74589320      11.86013519       0.02116287      -0.09519362       0.01903566       0.02116261
Cs       7.01606892       5.37380404       6.39373586       1.09552550      -0.54674570       0.47319685
Cs      11.67603679       6.15277862       6.02237433      -0.16505033       0.23222915       0.10183530
Cs       5.41081650      11.93531210       6.42426488      -0.50972665       0.09421228       0.50372585
Cs      11.88657711      11.71367612       5.91819844       0.04549025      -0.12742344      -0.00234062
Sn       2.87436604       3.06175300       3.20267285      -0.08590617       0.10147632       0.24240709
Sn       8.60136327       3.37866452       3.17998970      -0.27945264       0.41838811       0.21972391
Sn       2.85254698       8.84923615       3.11933343      -0.10772496      -0.03159061       0.15906764
Sn       8.93446993       9.36098623       2.61591460       0.05365429       0.48015972      -0.34435121
Sn       2.64152980       2.87946335       8.98437856      -0.31874244      -0.08081336       0.10357399
Sn       8.82890068       3.20997261       9.03009081      -0.05191524       0.24969617       0.14928621
Sn       2.69296683       8.49113854       9.02350460      -0.26730514      -0.38968826       0.14270001
Sn       8.95260071       9.24675739       8.60800925       0.07178504       0.36593086      -0.27279537
Br       5.85241049       3.42154629       3.67548195      -0.06813291       0.46127164       0.71521175
Br      11.76496376       3.08976933       3.25240458      -0.07612333       0.12949494       0.29213435
Br       5.89366761       8.98817296       3.32343318      -0.02687552       0.10734823       0.36316295
Br      11.80044763       8.96680110       3.70630064      -0.04063920       0.08597662       0.74603038
Br       5.97105423       2.88732758       7.90898494       0.05051081      -0.07294709      -0.97182408
Br      11.60843758       2.72541681       8.12901914      -0.23264954      -0.23485761      -0.75178990
Br       5.94595424       8.28430725       9.66090404       0.02541108      -0.59651752       0.78009501
Br      11.92668014       9.21872859       9.17003472       0.08559329       0.33790409       0.28922566
Br       3.68924807       5.97822288       2.10486907       0.72897666       0.05767415      -0.85540113
Br       9.43296985       6.20641178       2.62304427       0.55215475       0.28586331      -0.33722596
Br       3.06229959      11.87991158       2.05591801       0.10202845       0.03881277      -0.90435222
Br       8.51598754      12.15767841       2.29987391      -0.36482730       0.31657985      -0.66039634
Br       2.92426671       5.65434078       8.99235830      -0.03600473      -0.26620798       0.11154929
Br       9.04722110       6.11025767       8.44792999       0.16640597       0.18970917      -0.43287905
Br       3.24007642      11.53051459       8.33881593       0.27980525      -0.31058426      -0.54199311
Br       8.67402581      11.92570771      10.22100171      -0.20678906       0.08460913       1.34019265
Br       2.59468809       3.29745283      -0.21327224      -0.36558352       0.33717819      -0.21327426
Br       8.23658675       2.85194580      -0.00069167      -0.64422855      -0.10832858      -0.00069372
Br       3.31895463       8.20597425      -0.01529573       0.35868329      -0.67485048      -0.01529779
Br       9.54308907       9.75630107      -0.19078068       0.66227403       0.87547660      -0.19078276
Br       3.38156880       2.40743016       5.87075198       0.42129716      -0.55284451      -0.04978885
Br       8.96157616       3.13892219       5.65311540       0.08076083       0.17864779      -0.26742546
Br       3.42819115       8.03126552       5.75456302       0.46791977      -0.84955924      -0.16597784
Br       9.36647619       8.61463993       5.60716650       0.48566112      -0.26618456      -0.31337439
40
Lattice="11.841087389565814 -5.299540211115622e-07 5.134422012396998e-08 -5.299543174639322e-07 11.84110017440169 5.370282133059492e-08 5.1344211613704544e-08 5.370297858733353e-08 11.841077618801604" Properties=species:S:1:pos:R:3:u_disp:R:3 system=cssnbr3_cubic base_model=chgnet role=train_pool T=300.0 draw=7 n_tries=24 rms_disp_A=0.6910598712651407 min_pair_ratio=0.7002894267146722 nearest_heldout_A=0.6827780409761315 site_map_ok=1 nearest_heldout_src=cssnbr3_cubic_mattersim_q0-0-0-b0.extxyz#6 pbc="T T T"
Cs       5.89376611       5.98701303       0.30443688      -0.02677729       0.06646332       0.30443669
Cs      11.52076867       5.79066466       0.53214526      -0.32031842      -0.12988478       0.53214503
Cs       5.95318855      11.85936722      -0.28609166       0.03264542       0.01826743      -0.28609188
Cs      11.88523353      11.35216713      -0.28681228       0.04414671      -0.48893241      -0.28681253
Cs       5.43593133       6.50041517       6.06350782      -0.48461209       0.57986543       0.14296881
Cs      11.64860071       6.47401023       6.27327681      -0.19248640       0.55346076       0.35273778
Cs       5.87228273      12.22673532       5.61472423      -0.04826043       0.38563549      -0.30581480
Cs      12.23309167      12.08503460       5.80498094       0.39200482       0.24393504      -0.11555812
Sn       2.99228602       2.97002246       2.42472257       0.03201381       0.00974578      -0.53554319
Sn       9.04896353       2.63029158       3.01239497       0.16814762      -0.32998484       0.05212918
Sn       2.66157801       8.78453177       2.98157903      -0.29869393      -0.09629500       0.02131324
Sn       8.51344156       8.64583159       2.74753016      -0.36737407      -0.23499492      -0.21273565
Sn       3.12598452       3.54479233       8.44330855       0.16571228       0.58451562      -0.43749602
Sn       9.24365941       3.19686060       8.83962432       0.36284348       0.23658416      -0.04118028
Sn       3.32458268       9.16896123       8.84757741       0.36431071       0.28813443      -0.03322718
Sn       9.24128610       9.22838916       8.74809841       0.36047043       0.34756263      -0.13270621
Br       6.07623963       2.50485647       2.98490077       0.15569623      -0.45541818       0.02463057
Br      12.21439104       3.34312794       3.25661708       0.37330394       0.38285355       0.29634685
Br       5.52869183       7.95498536       3.17750356      -0.39185131      -0.92583938       0.21723333
Br      11.58668876       8.40286443       3.34880979      -0.25439807      -0.47796004       0.38853953
Br       6.07954842       3.16086003       8.32881428       0.15900499       0.20058535      -0.55199474
Br      12.02039172       1.91208144       8.73036803       0.17930460      -1.04819298      -0.15044100
Br       6.10887728       9.38501597       8.99990723       0.18833412       0.50419121       0.11909820
Br      11.86322647       8.71005827      10.28390508       0.02213962      -0.17076623       1.40309602
Br       3.50512109       5.80252805       3.17677274       0.54484968      -0.11802069       0.21650254
Br       9.71288437       5.84121461       3.79981517       0.83206927      -0.07933386       0.83954494
Br       2.15519396      11.76513481       2.18943467      -0.80507718      -0.07596401      -0.77083556
Br       8.22612228      11.73299847       2.07589907      -0.65469255      -0.10810009      -0.88437118
Br       2.62489218       6.19727175       8.80566084      -0.33537925       0.27672299      -0.07514817
Br       8.82570744       5.97003860       9.35675001      -0.05510768       0.04949010       0.47594098
Br       2.90184851      12.05548004       8.83665781      -0.05842266       0.21438119      -0.04415123
Br       9.25059924      12.39607645       8.94829161       0.36978437       0.55497787       0.06748255
Br       2.26242870       3.37938204      -0.49758524      -0.69784291       0.41910739      -0.49758726
Br       9.19148728       2.71871892       0.12134879       0.31067197      -0.24155546       0.12134674
Br       2.67040687       8.14100255       0.13021905      -0.28986448      -0.73982218       0.13021700
Br       8.77524850       8.55214947       0.17242955      -0.10556654      -0.32867500       0.17242747
Br       3.32405105       3.39811764       5.72612697       0.36377942       0.43784297      -0.19441386
Br       8.99430137       2.66690448       5.74355523       0.11348604      -0.29336993      -0.17698563
Br       2.43787802       8.25129396       6.04595490      -0.52239335      -0.62953080       0.12541403
Br       9.27320715       8.29297071       6.06667573       0.39239208      -0.58785378       0.14613485
40
Lattice="11.841087389565814 -5.299540211115622e-07 5.134422012396998e-08 -5.299543174639322e-07 11.84110017440169 5.370282133059492e-08 5.1344211613704544e-08 5.370297858733353e-08 11.841077618801604" Properties=species:S:1:pos:R:3:u_disp:R:3 system=cssnbr3_cubic base_model=chgnet role=train_pool T=300.0 draw=8 n_tries=24 rms_disp_A=0.7418844360701058 min_pair_ratio=0.6427193758704435 nearest_heldout_A=0.7217203886074753 site_map_ok=1 nearest_heldout_src=cssnbr3_cubic_chgnet_q1d2-0-0-b4.extxyz#7 pbc="T T T"
Cs       6.04432381       5.98772650       0.40808683       0.12378042       0.06717679       0.40808663
Cs      11.87711506       4.99518111       0.30339801       0.03602797      -0.92536834       0.30339779
Cs       5.49686473      11.66436955       0.51867143      -0.42367840      -0.17673025       0.51867120
Cs      12.21900366      11.56536528      -0.03010734       0.37791683      -0.27573425      -0.03010760
Cs       5.71357592       5.65487056       5.92975490      -0.20696750      -0.26567918       0.00921589
Cs      11.57876747       5.74702610       7.00353942      -0.26231965      -0.17352338       1.08300039
Cs       5.91232927      11.89602193       6.15722883      -0.00821388       0.05492210       0.23668980
Cs      11.04801603      12.05177324       5.99668458      -0.79307082       0.21067368       0.07614552
Sn       2.97826380       2.99331930       2.21690786       0.01799159       0.03304262      -0.74335790
Sn       8.94641085       2.92096894       2.75042795       0.06559495      -0.03930747      -0.20983784
Sn       2.61334661       8.90850125       3.26341726      -0.34692533       0.02767448       0.30315147
Sn       8.58999233       9.05637065       2.66986624      -0.29082331       0.17554415      -0.29039958
Sn       3.44857392       3.14738558       8.21916207       0.48830168       0.18710887      -0.66164250
Sn       9.38863318       3.41749554       8.80925650       0.50781725       0.45721910      -0.07154809
Sn       3.25583469       9.02188571       9.06250630       0.29556273       0.14105892       0.18170171
Sn       8.95913580       9.38631082       8.65479433       0.07832013       0.50548429      -0.22601030
Br       5.87316483       3.14407651       3.39930986      -0.04737857       0.18380186       0.43903965
Br      11.75968247       3.50857657       2.54975403      -0.08140463       0.54830219      -0.41051619
Br       5.88141992       9.51754412       3.42147670      -0.03912322       0.63671938       0.46120647
Br      11.58341150       9.04362844       3.32373500      -0.25767533       0.16280397       0.36346474
Br       6.06150287       3.29272257       8.45641041       0.14095945       0.33244790      -0.42439860
Br      12.09830531       3.90192368       9.49920752       0.25721819       0.94164927       0.61839848
Br       6.06316084       8.82615895       8.94324448       0.14261768      -0.05466582       0.06243545
Br      12.38532703       8.69901075       9.62986474       0.54424018      -0.18181375       0.74905568
Br       2.57203713       6.09890277       2.58580363      -0.38823428       0.17835404      -0.37446657
Br       8.74193327       6.07601405       2.10538552      -0.13888183       0.15546558      -0.85488470
Br       2.33657609      11.90618425       2.95038252      -0.62369505       0.06508543      -0.00988771
Br       9.19715490      11.88333961       3.03326715       0.31634007       0.04224106       0.07299690
Br       2.86022930       5.67736906       7.77747926      -0.10004213      -0.24317970      -1.10332975
Br       8.74266310       6.19718497       9.23760414      -0.13815203       0.27663647       0.35679511
Br       3.06109345      12.09566415       8.77656023       0.10082228       0.25456531      -0.10424881
Br       9.70741276      11.97021675       8.55746023       0.82659789       0.12911817      -0.32334883
Br       2.48274644       1.91105991      -0.39379845      -0.47752518      -1.04921474      -0.39380047
Br       7.93555446       2.67433784      -0.30266836      -0.94526085      -0.28593654      -0.30267041
Br       3.94848448       7.61591035      -0.03511026       0.98821313      -1.26491438      -0.03511231
Br       8.45971651       8.60199903      -0.07225036      -0.42109853      -0.27882543      -0.07225243
Br       3.20247626       2.38750523       5.41051671       0.24220462      -0.57276945      -0.51002413
Br       8.66096968       3.18942143       5.65431075      -0.21984565       0.22914702      -0.26623011
Br       3.51705127       8.40452276       6.11010338       0.55677989      -0.47630200       0.18956252
Br       9.35474481       9.41050525       6.01193335       0.47392974       0.52968075       0.09139246
40
Lattice="11.841087389565814 -5.299540211115622e-07 5.134422012396998e-08 -5.299543174639322e-07 11.84110017440169 5.370282133059492e-08 5.1344211613704544e-08 5.370297858733353e-08 11.841077618801604" Properties=species:S:1:pos:R:3:u_disp:R:3 system=cssnbr3_cubic base_model=chgnet role=train_pool T=300.0 draw=9 n_tries=24 rms_disp_A=0.691266699980287 min_pair_ratio=0.6760317575229984 nearest_heldout_A=0.6786622452855297 site_map_ok=1 nearest_heldout_src=cssnbr3_cubic_chgnet_q1d2-0-0-b0.extxyz#5 pbc="T T T"
Cs       5.63276484       5.12322730       0.47648946      -0.28777855      -0.79732241       0.47648926
Cs      12.74483343       6.27429636       0.13474574       0.90374634       0.35374691       0.13474551
Cs       6.29271147      11.89510113      -0.09699111       0.37216834       0.05400133      -0.09699134
Cs      12.24165083      11.53123138      -0.71593376       0.40056400      -0.30986815      -0.71593401
Cs       5.44432837       6.17570672       6.36971073      -0.47621505       0.25515698       0.44917172
Cs      11.40951844       5.77570793       5.70255520      -0.43156867      -0.14484155      -0.21798384
Cs       6.00954046      12.40080094       6.19322732       0.08899731       0.55970111       0.27268829
Cs      11.98383076      12.21788056       5.52109891       0.14274391       0.37678100      -0.39944015
Sn       3.44250538       2.81745026       3.13468055       0.48223317      -0.14282641       0.17441479
Sn       9.43431012       3.03096564       3.07918930       0.55349421       0.07068922       0.11892351
Sn       2.82092358       9.00653277       2.98566630      -0.13934836       0.12570600       0.02540051
Sn       8.53023039       8.87969034       3.45323138      -0.35058525      -0.00113616       0.49296557
Sn       2.74813271       2.64523169       8.97307491      -0.21213953      -0.31504502       0.09227034
Sn       8.66410284       2.92880549       8.87633910      -0.21671309      -0.03147095      -0.00446549
Sn       2.65283181       8.70489522       9.07226435      -0.30744016      -0.17593157       0.19145975
Sn       8.29506137       8.78754775       9.58938283      -0.58575429      -0.09327878       0.70857821
Br       6.34573522       3.78468398       3.26697686       0.42519182       0.82440933       0.30670666
Br      12.35188954       2.72775070       3.31786988       0.51080245      -0.23252369       0.35759965
Br       5.81420075       9.56464944       2.94696223      -0.10634239       0.68382470      -0.01330800
Br      11.76800718       8.72684458       2.49901760      -0.07307965      -0.15397989      -0.46125265
Br       5.57185920       3.11920621       8.98447661      -0.34868423       0.15893153       0.10366760
Br      11.67449794       3.25928593       8.41152012      -0.16658918       0.29901152      -0.46928892
Br       5.65505347       9.25067957       8.75832757      -0.26548969       0.36985480      -0.12248147
Br      11.41472348       8.52228371       8.80741138      -0.42636337      -0.35854080      -0.07339768
Br       4.02428947       6.16688814       2.56871673       1.06401806       0.24633941      -0.39155347
Br       8.39858638       5.99743205       2.83331862      -0.48222872       0.07688358      -0.12695161
Br       3.50500929      11.96004555       2.07204768       0.54473815       0.11894673      -0.88822254
Br       8.15909323      11.82839041       2.39016027      -0.72172161      -0.01270814      -0.57010998
Br       2.09665848       5.82048039       8.76032298      -0.86361295      -0.10006837      -0.12048603
Br       8.19861491       5.85140511       9.08777882      -0.68220022      -0.06914338       0.20696978
Br       3.50928376      11.58981231       8.44232446       0.54901259      -0.25128654      -0.43848458
Br       8.52732680      11.92026976       9.04139308      -0.35348807       0.07917118       0.16058401
Br       3.26886343       3.12527853      -0.06810235       0.30859182       0.16500389      -0.06810438
Br       8.99507316       3.14039437       0.01698269       0.11425786       0.18011999       0.01698064
Br       3.02111141       8.43706598      -0.19382542       0.06084006      -0.44375876      -0.19382747
Br       9.97889737       8.03016053       0.41968775       1.09808233      -0.85066394       0.41968567
Br       3.16823670       2.97695388       5.67818956       0.20796507       0.01667921      -0.24235128
Br       8.20140580       3.11181290       5.81833245      -0.67940953       0.15153849      -0.10220841
Br       2.99265466       8.90477554       5.64764061       0.03238328       0.02395078      -0.27290025
Br       9.10201445       8.21793364       6.39152916       0.22119938      -0.66289086       0.47098828
40
Lattice="11.841087389565814 -5.299540211115622e-07 5.134422012396998e-08 -5.299543174639322e-07 11.84110017440169 5.370282133059492e-08 5.1344211613704544e-08 5.370297858733353e-08 11.841077618801604" Properties=species:S:1:pos:R:3:u_disp:R:3 system=cssnbr3_cubic base_model=chgnet role=train_pool T=300.0 draw=10 n_tries=24 rms_disp_A=0.6968097792212327 min_pair_ratio=0.643023895420943 nearest_heldout_A=0.6750000116929402 site_map_ok=1 nearest_heldout_src=cssnbr3_cubic_chgnet_q1d2-1d2-0-b1.extxyz#7 pbc="T T T"
Cs       5.62207392       5.50634962      -0.13923761      -0.29846947      -0.41420009      -0.13923781
Cs      11.72135745       5.56851039       0.46965460      -0.11972964      -0.35203905       0.46965438
Cs       5.84991358      11.95539127      -0.05236551      -0.07062955       0.11429147      -0.05236574
Cs      11.16014034      12.26538196       0.46843324      -0.68094649       0.42428242       0.46843298
Cs       6.87190587       5.75233394       5.48942168       0.95136245      -0.16821579      -0.43111733
Cs      11.86905541       6.46283631       6.15365921       0.02796830       0.54228683       0.23312018
Cs       5.71594688      11.63809360       5.94323554      -0.20459627      -0.20300622       0.02269650
Cs      12.20307520      12.54639009       5.81937593       0.36198835       0.70529053      -0.10116313
Sn       2.56746994       2.84109789       2.85551316      -0.39280226      -0.11917879      -0.10475260
Sn       8.63057359       2.40973505       3.35512260      -0.25024231      -0.55054137       0.39485682
Sn       2.90453755       8.70642857       2.77309185      -0.05573439      -0.17439820      -0.18717394
Sn       8.56305901       8.50139544       3.03247781      -0.31775663      -0.37943106       0.07221200
Sn       3.15519886       3.39499559       8.85396082       0.19492663       0.43471889      -0.02684374
Sn       9.10509627       2.93596458       9.36103364       0.22428034      -0.02431186       0.48022904
Sn       3.55642961       9.21591714       8.38554312       0.59615764       0.33509035      -0.49526148
Sn       9.59362098       8.87950992       8.94768776       0.71280532      -0.00131660       0.06688314
Br       5.50729952       2.64926030       2.94937217      -0.41324388      -0.31101435      -0.01089803
Br      11.63035229       3.21990034       2.45207455      -0.21073481       0.25962595      -0.50819568
Br       5.71034065       8.88215624       3.37362897      -0.21020249       0.00133150       0.41335874
Br      11.86323256       9.41955066       3.19051718       0.02214573       0.53872618       0.23024692
Br       5.86397030       2.77087499       8.80379455      -0.05657312      -0.18939969      -0.07701446
Br      11.67061438       2.37443693       8.53325055      -0.17047274      -0.58583748      -0.34755848
Br       6.39773093       8.80998245       8.79545648       0.47718777      -0.07084231      -0.08535256
Br      12.15921371       8.77193928       9.44445837       0.31812685      -0.10888522       0.56364931
Br       3.04232553       5.78338110       3.22600868       0.08205412      -0.13716764       0.26573847
Br       8.85417089       5.52945244       3.68172695      -0.02664422      -0.39109602       0.72145672
Br       2.52357227      11.87194316       2.52819954      -0.43669887       0.03084434      -0.43207069
Br       8.91032968      11.49087227       2.53428285       0.02951484      -0.35022629      -0.42598740
Br       2.72735566       6.19437063       8.55173567      -0.23291577       0.27382187      -0.32907334
Br       8.83115702       5.37495305       8.38966815      -0.04965811      -0.54559544      -0.49114089
Br       2.58339235      12.15235920       8.17627270      -0.37687882       0.31126035      -0.70453634
Br       9.25123748      11.86685439       8.17997906       0.37042262       0.02575580      -0.70083000
Br       2.71022809       3.64166446      -0.09736096      -0.25004352       0.68138982      -0.09736298
Br       9.04328014       2.83486237       0.43220898       0.16246483      -0.12541201       0.43220693
Br       3.71582848       9.54111891       0.07556081       0.75555713       0.66029418       0.07555875
Br       9.44737518       7.77635407       0.06031587       0.56656014      -1.10447040       0.06031379
Br       2.21732792       3.13327347       5.99116440      -0.74294372       0.17299880       0.07062356
Br       9.62002738       3.86317933       6.19871771       0.73921205       0.90290493       0.27817685
Br       2.29995403       9.29011613       5.84497902      -0.66031734       0.40929137      -0.07556184
Br       8.19262771       8.16572861       6.01564932      -0.68818735      -0.71509588       0.09510843
40
Lattice="11.841087389565814 -5.299540211115622e-07 5.134422012396998e-08 -5.299543174639322e-07 11.84110017440169 5.370282133059492e-08 5.1344211613704544e-08 5.370297858733353e-08 11.841077618801604" Properties=species:S:1:pos:R:3:u_disp:R:3 system=cssnbr3_cubic base_model=chgnet role=train_pool T=300.0 draw=11 n_tries=24 rms_disp_A=0.7508060292495692 min_pair_ratio=0.6148911706804674 nearest_heldout_A=0.7371985030897671 site_map_ok=1 nearest_heldout_src=cssnbr3_cubic_chgnet_q0-0-1d2-b2.extxyz#7 pbc="T T T"
Cs       6.05397047       6.54351938      -0.12287005       0.13342708       0.62296967      -0.12287025
Cs      11.97113993       6.02886868       0.28943924       0.13005284       0.10831923       0.28943902
Cs       6.44208893      11.59302045      -0.39018599       0.52154580      -0.24807935      -0.39018622
Cs      12.06385436      12.48562386      -0.05809717       0.22276753       0.64452432      -0.05809743
Cs       5.32006766       5.91997826       5.73966106      -0.60047576      -0.00057148      -0.18087795
Cs      11.39989325       6.27270313       5.39679148      -0.44119387       0.35215365      -0.52374756
Cs       5.63037434      11.51641590       6.13188325      -0.29016882      -0.32468392       0.21134422
Cs      12.01257828      12.07399621       5.14404250       0.17149143       0.23289665      -0.77649656
Sn       3.77390155       3.25693894       3.12818105       0.81362934       0.29666226       0.16791529
Sn       9.66210162       2.80210898       3.23451514       0.78128571      -0.15816744       0.27424936
Sn       2.19589562       9.26623626       2.66504571      -0.76437632       0.38540949      -0.29522008
Sn       7.99286175       8.54961061       2.56512245      -0.88795389      -0.33121589      -0.39514336
Sn       2.65281037       3.22176741       9.12830051      -0.30746187       0.26149070       0.24749594
Sn       8.37839488       2.94304056       9.19282492      -0.50242105      -0.01723589       0.31202032
Sn       3.06901676       9.11994259       8.46958139       0.10874479       0.23911580      -0.41122321
Sn       8.85868078       8.93301156       8.59081573      -0.02213488       0.05218503      -0.28998889
Br       6.43535477       1.92806677       2.52035618       0.51481137      -1.03220788      -0.43991402
Br      12.35609595       2.62483123       3.25483620       0.51500885      -0.33544316       0.29456597
Br       5.57625337       8.57261740       2.39694769      -0.34428976      -0.30820734      -0.56332254
Br      11.37691113       8.69401074       2.32429074      -0.46417570      -0.18681374      -0.63597951
Br       5.58009401       2.21334846       8.62876265      -0.34044941      -0.74692622      -0.25204636
Br      11.60654371       3.78212850       9.50573605      -0.23454341       0.82185409       0.62492701
Br       5.98644611       8.65782836       8.94669248       0.06590295      -0.22299641       0.06588344
Br      11.66574397       8.01322052       9.20034564      -0.17534289      -0.86760398       0.31953657
Br       3.01100560       6.11991628       3.61497481       0.05073420       0.19936755       0.65470461
Br       9.79696504       5.84772808       3.42788467       0.91614994      -0.07282039       0.46761444
Br       3.42443400      12.25083174       4.02565267       0.46416285       0.40973292       1.06538245
Br       9.54956671      11.73769250       3.38977857       0.66875188      -0.10340606       0.42950831
Br       3.69285323       6.09419818       9.20994019       0.73258180       0.17364942       0.32913118
Br       8.47102028       5.87021398       8.41768177      -0.40979485      -0.05033451      -0.46312726
Br       2.95570094      11.95115189       9.92549345      -0.00457023       0.11005305       1.04468442
Br       8.43995020      11.91955030       9.10740273      -0.44086467       0.07845171       0.22659367
Br       2.38438867       2.27151189       0.19203544      -0.57588294      -0.68876275       0.19203341
Br       8.56915640       3.13994525       0.25793429      -0.31165890       0.17967087       0.25793224
Br       3.14437270       8.25950615      -0.29076586       0.18410136      -0.62131858      -0.29076791
Br       9.43901047       8.84370054      -0.20972828       0.55819543      -0.03712392      -0.20973036
Br       3.00167148       3.43530613       6.24962830       0.04139985       0.47503146       0.32908747
Br       8.79960213       2.40706223       6.17596350      -0.08121320      -0.55321218       0.25542264
Br       2.86779752       8.90437237       5.62316806      -0.09247386       0.02354761      -0.29737280
Br       9.05785470       8.84682525       5.67566357       0.17703963      -0.03399925      -0.24487732
40
Lattice="11.841087389565814 -5.299540211115622e-07 5.134422012396998e-08 -5.299543174639322e-07 11.84110017440169 5.370282133059492e-08 5.1344211613704544e-08 5.370297858733353e-08 11.841077618801604" Properties=species:S:1:pos:R:3:u_disp:R:3 system=cssnbr3_cubic base_model=chgnet role=train_pool T=300.0 draw=12 n_tries=24 rms_disp_A=0.7207270346275529 min_pair_ratio=0.6929784844460773 nearest_heldout_A=0.705761092057508 site_map_ok=1 nearest_heldout_src=cssnbr3_cubic_chgnet_q1d2-1d2-1d2-b2.extxyz#6 pbc="T T T"
Cs       5.74035754       6.04026572      -0.41253737      -0.18018586       0.11971601      -0.41253757
Cs      11.61969665       6.20445020       0.19835447      -0.22139044       0.28390075       0.19835424
Cs       5.95799295      12.25491962      -0.12670907       0.03744982       0.41381982      -0.12670929
Cs      12.73534239      11.91759086       0.03230208       0.89425557       0.07649133       0.03230182
Cs       5.40881078       5.96924392       5.88742764      -0.51173264       0.04869418      -0.03311136
Cs      12.17884289       6.54942363       5.56650969       0.33775578       0.62887415      -0.35402935
Cs       5.54976436      12.28487497       6.11828387      -0.37077879       0.44377514       0.19774483
Cs      11.54800574      11.76303153       5.52135535      -0.29308111      -0.07806803      -0.39918371
Sn       3.11452647       2.60270218       3.01912398       0.15425426      -0.35757450       0.05885822
Sn       9.03689696       3.68799643       2.78170060       0.15608106       0.72772001      -0.17856519
Sn       2.96398772       8.47928209       2.91925936       0.00371578      -0.40154468      -0.04100643
Sn       8.72429840       9.68805514       2.74537429      -0.15651724       0.80722864      -0.21489152
Sn       2.94546268       2.70755166       8.99781459      -0.01480955      -0.25272504       0.11701002
Sn       8.76370517       2.49594420       8.56485684      -0.11711076      -0.46433224      -0.31594775
Sn       3.10811393       8.65525110       8.70756150       0.14784196      -0.22557569      -0.17324310
Sn       9.10807685       8.36252335       8.94049707       0.22726118      -0.51830318       0.05969245
Br       5.83050740       2.46041747       2.75285544      -0.09003600      -0.49985718      -0.20741476
Br      12.05521902       1.97530673       2.85662461       0.21413192      -0.98496766      -0.10364561
Br       5.81771447       8.63403946       2.83710186      -0.10282867      -0.24678528      -0.12316837
Br      11.73343418       8.54879908       3.13262166      -0.10765265      -0.33202540       0.17235141
Br       5.76559387       3.90520116       9.22923684      -0.15494956       0.94492648       0.34842783
Br      11.52654252       3.25597716       9.88329152      -0.31454460       0.29570275       1.00248248
Br       6.09935919       8.73465244       8.42675667       0.17881603      -0.14617233      -0.45405236
Br      11.98761923       9.09990428       9.75440636       0.14653238       0.21907978       0.87359729
Br       2.88371383       5.70177517       3.25662374      -0.07655757      -0.21877356       0.29635354
Br       8.69868999       6.35349827       3.06123695      -0.18212511       0.43294980       0.10096672
Br       2.17242919      11.59617968       3.44960825      -0.78784195      -0.24491914       0.48933803
Br       8.03421884      12.43459460       3.63708416      -0.84659599       0.59349605       0.67681390
Br       3.53361644       5.61578035       8.51599952       0.57334501      -0.30476841      -0.36480949
Br       9.40274912       5.55560271       8.37822492       0.52193400      -0.36494579      -0.50258412
Br       3.16890612      11.70421482       9.70006647       0.20863495      -0.13688402       0.81925744
Br       9.29065257      11.43597475       8.56823696       0.40983770      -0.40512383      -0.31257210
Br       3.69541590       2.65021618       0.01326625       0.73514429      -0.31005846       0.01326423
Br       8.57918489       2.22017899      -0.31256726      -0.30163042      -0.74009539      -0.31256931
Br       3.20224302       7.85561174       0.04863386       0.24197167      -1.02521300       0.04863181
Br       8.23601312       9.64726876      -0.15051341      -0.64480192       0.76644430      -0.15051549
Br       3.37487485       3.44869072       6.08300133       0.41460321       0.48841605       0.16246050
Br       8.06103094       2.89921252       5.78068832      -0.81978439      -0.06106189      -0.13985254
Br       2.94635140       9.18282842       6.09948949      -0.01391997       0.30200366       0.17894863
Br       9.59561937       8.65511336       5.92337860       0.71480430      -0.22571114       0.00283771
40
Lattice="11.841087389565814 -5.299540211115622e-07 5.134422012396998e-08 -5.299543174639322e-07 11.84110017440169 5.370282133059492e-08 5.1344211613704544e-08 5.370297858733353e-08 11.841077618801604" Properties=species:S:1:pos:R:3:u_disp:R:3 system=cssnbr3_cubic base_model=chgnet role=train_pool T=600.0 draw=0 n_tries=136 rms_disp_A=0.8897628701984651 min_pair_ratio=0.6072022386781746 nearest_heldout_A=99.0 site_map_ok=0 nearest_heldout_src=none#-1 pbc="T T T"
Cs       6.72100463       5.52508870       0.77777029       0.80046124      -0.39546101       0.77777009
Cs      11.40306302       5.92987215      -0.29578580      -0.43802407       0.00932270      -0.29578603
Cs       6.58746352      11.52600734      -0.42837636       0.66692039      -0.31509246      -0.42837659
Cs      12.02307490      11.32994969       0.10804113       0.18198807      -0.51114984       0.10804088
Cs       5.89183224       4.99096474       5.83962000      -0.02871119      -0.92958500      -0.08091901
Cs      12.18295530       6.76907631       5.74546871       0.34186818       0.84852684      -0.17507033
Cs       5.17651582      10.96729209       6.13348045      -0.74402734      -0.87380773       0.21294141
Cs      12.08567971      11.98604907       5.57185970       0.24459286       0.14494951      -0.34867936
Sn       2.92080322       2.81447316       2.24146718      -0.03946899      -0.14580352      -0.71879858
Sn       9.02562262       3.70269238       3.19648200       0.14480671       0.74241597       0.23621621
Sn       2.87580180       8.49798585       3.03649677      -0.08447014      -0.38284092       0.07623099
Sn       8.82038834       9.57166174       3.23307633      -0.06042730       0.69083523       0.27281052
Sn       3.58656704       3.17457715       8.38874427       0.62629480       0.21430044      -0.49206030
Sn       9.39541088       3.14010425       8.93726083       0.51459495       0.17982781       0.05645623
Sn       2.40392782       8.97188587       9.10312807      -0.55634415       0.09105908       0.22232347
Sn       7.91823842       8.80035254       9.10207747      -0.96257725      -0.08047399       0.22127285
Br       5.94109483       3.32260543       3.54631625       0.02055143       0.36233078       0.58604605
Br      11.75572929       2.61117646       2.34079826      -0.08535781      -0.34909792      -0.61947197
Br       6.04581427       9.43215805       3.64978617       0.12527113       0.55133331       0.68951595
Br      11.77559960       9.51113978       2.92383748      -0.06548723       0.63031531      -0.03643278
Br       6.17965201       2.66937099       9.29801945       0.25910858      -0.29090369       0.41721044
Br      12.10185730       1.99990112       8.77590932       0.26077018      -0.96037329      -0.10489971
Br       5.30824073       8.42342642       8.75573935      -0.61230243      -0.45739835      -0.12506968
Br      11.32257901       7.94930386       8.96477355      -0.51850784      -0.93152064       0.08396448
Br       3.13557977       5.98861847       2.75582561       0.17530836       0.06806974      -0.20444459
Br       9.36971670       6.39326379       3.34760460       0.48890159       0.47271532       0.38733438
Br       2.42301818      11.90033377       3.51345781      -0.53725297       0.05923495       0.55318758
Br       9.08023381      12.46035392       2.53125267       0.19941897       0.61925536      -0.42901758
Br       2.00639188       5.87751525       8.93272362      -0.95387956      -0.04303351       0.05191461
Br       8.01375994       6.08073192       9.46131715      -0.86705519       0.16018343       0.58050812
Br       2.60556588      11.86632156       8.50925571      -0.35470528       0.02522271      -0.37155333
Br       8.46849041      11.59237039       7.58492327      -0.41232445      -0.24872819      -1.29588579
Br       2.00137568       5.22515992      -0.41659780      -0.95889594       2.26488528      -0.41659983
Br       8.82478624       2.92472325       0.13808165      -0.05602907      -0.03555113       0.13807959
Br       3.63132628       9.12502206       0.27497515       0.67105493       0.24419733       0.27497310
Br       9.35693858       8.37051514       0.47867935       0.47612354      -0.51030933       0.47867727
Br       3.15479768       2.36964749       5.72067483       0.19452604      -0.59062718      -0.19986601
Br       9.04431613       3.80774480       6.26196046       0.16350080       0.84747040       0.34141960
Br       3.30522158       8.53244595       5.97223011       0.34495021      -0.34837881       0.05168925
Br       9.83851457       8.76004614       5.65847754       0.95769951      -0.12077835      -0.26206335
40
Lattice="11.841087389565814 -5.299540211115622e-07 5.134422012396998e-08 -5.299543174639322e-07 11.84110017440169 5.370282133059492e-08 5.1344211613704544e-08 5.370297858733353e-08 11.841077618801604" Properties=species:S:1:pos:R:3:u_disp:R:3 system=cssnbr3_cubic base_model=chgnet role=train_pool T=600.0 draw=1 n_tries=136 rms_disp_A=0.8936711044061477 min_pair_ratio=0.6053019140828474 nearest_heldout_A=0.8753083132642124 site_map_ok=1 nearest_heldout_src=cssnbr3_cubic_mattersim_q0-0-0-b0.extxyz#7 pbc="T T T"
Cs       7.45216915       5.78996918       0.16284492       1.53162575      -0.13058053       0.16284472
Cs      12.58353043       5.98168891      -0.65067403       0.74244334       0.06113946      -0.65067425
Cs       5.75034501      12.58151698       0.02654920      -0.17019812       0.74041719       0.02654898
Cs      11.41351537      12.09821263      -0.07815609      -0.42757146       0.25711310      -0.07815634
Cs       5.45496673       6.15078108       6.37597089      -0.46557669       0.23023134       0.45543188
Cs      11.20632988       5.89822440       5.69703379      -0.63475723      -0.02232507      -0.22350524
Cs       6.81110156      12.66659543       5.77761411       0.89055841       0.82549560      -0.14292493
Cs      12.14239092      12.15226749       5.84818879       0.30130407       0.31116793      -0.07235028
Sn       3.04728703       2.56210300       2.47967001       0.08701482      -0.39817368      -0.48059575
Sn       9.32123465       2.81756431       2.91050072       0.44041874      -0.14271210      -0.04976507
Sn       2.95452005       7.96011625       3.05439788      -0.00575190      -0.92071051       0.09413209
Sn       8.98609051       8.52609482       3.46448002       0.10527487      -0.35473168       0.50421420
Sn       3.23525375       2.67725106       8.53627233       0.27498151      -0.28302565      -0.34453224
Sn       9.33447400       2.68679490       8.63232486       0.45365807      -0.27348154      -0.24847974
Sn       2.98956958       8.98284033       8.92552066       0.02929761       0.10201353       0.04471606
Sn       8.35458534       8.54904454       9.65296001      -0.52623032      -0.33178199       0.77215539
Br       5.66574137       3.48592941       3.22454943      -0.25480203       0.52565475       0.26427922
Br      11.80823051       2.72491177       2.85824122      -0.03285659      -0.23536262      -0.10202901
Br       5.89213679       8.76003611       2.91751502      -0.02840634      -0.12078863      -0.04275521
Br      12.01609504       8.28745796       2.72163978       0.17500821      -0.59336651      -0.23863048
Br       5.86776083       2.80797196       9.52102428      -0.05278260      -0.15230272       0.64021527
Br      12.08515697       3.24478052       9.32552333       0.24406985       0.28450611       0.44471429
Br       5.80386712       9.48261934       8.18321137      -0.11667604       0.60179458      -0.69759767
Br      11.50268769       8.59256845       8.53532816      -0.33839916      -0.28825605      -0.34548090
Br       3.39096194       5.85971973       2.34820668       0.43069053      -0.06082900      -0.61206353
Br       8.96186553       5.75301772       4.02634597       0.08105042      -0.16753075       1.06607574
Br       1.58834519      11.68925357       3.01369476      -1.37192595      -0.15184525       0.05342453
Br       7.39004949      11.94338390       3.22139251      -1.49076535       0.10228535       0.26112226
Br       2.69726783       5.81062732       9.23608608      -0.26300360      -0.10992144       0.35527707
Br       7.50537493       6.04373490       9.48315344      -1.37544019       0.12318641       0.60234440
Br       2.76821885      12.02823190       8.87401359      -0.19205232       0.18713306      -0.00679545
Br      10.34353210      11.98901233       8.47431522       1.46271724       0.14791375      -0.40649384
Br       2.83855896       2.35084932      -0.60216168      -0.12171265      -0.60942532      -0.60216371
Br       9.88802944       3.20511752       0.02711013       1.00721414       0.24484314       0.02710808
Br       3.82491821       8.45270143      -0.22185742       0.86464686      -0.42812330      -0.22185947
Br       8.83584995       8.73051728       0.17188637      -0.04496509      -0.15030719       0.17188429
Br       1.99473570       3.91260534       5.46630015      -0.96553593       0.95233067      -0.45424069
Br       8.91314522       2.24254229       5.84678532       0.03232989      -0.71773212      -0.07375554
Br       1.77289737       9.59104294       5.89370000      -1.18737401       0.71021818      -0.02684086
Br       8.20365235       8.87318190       6.30077677      -0.67716271      -0.00764260       0.38023588
40
Lattice="11.841087389565814 -5.299540211115622e-07 5.134422012396998e-08 -5.299543174639322e-07 11.84110017440169 5.370282133059492e-08 5.1344211613704544e-08 5.370297858733353e-08 11.841077618801604" Properties=species:S:1:pos:R:3:u_disp:R:3 system=cssnbr3_cubic base_model=chgnet role=train_pool T=600.0 draw=2 n_tries=136 rms_disp_A=0.9248185128576948 min_pair_ratio=0.6249220085363625 nearest_heldout_A=99.0 site_map_ok=0 nearest_heldout_src=none#-1 pbc="T T T"
Cs       4.95267447       6.03126898      -0.73494191      -0.96786892       0.11071927      -0.73494211
Cs      11.10389689       5.70620782       0.14202997      -0.73719020      -0.21434163       0.14202975
Cs       6.23449203      11.36631477      -0.73507183       0.31394890      -0.47478502      -0.73507205
Cs      12.11186030      11.85325316      -0.62130996       0.27077348       0.01215362      -0.62131021
Cs       6.44216408       7.01922938       5.93584441       0.52162066       1.09867964       0.01530540
Cs      12.07148835       5.86628513       6.64413757       0.23040123      -0.05426434       0.72359854
Cs       6.55965757      11.69777935       6.13013978       0.63911442      -0.14332047       0.20960075
Cs      11.89266609      12.37840776       5.20366088       0.05157924       0.53730820      -0.71687818
Sn       3.19611740       3.29507440       2.96113264       0.23584519       0.33479772       0.00086688
Sn       8.81893367       2.79714530       3.03856701      -0.06188224      -0.16313112       0.07830123
Sn       2.87677439       9.41652740       3.24861461      -0.08349756       0.53570064       0.28834882
Sn       8.52222536       8.93634272       3.32817928      -0.35859028       0.05551622       0.36791347
Sn       3.55229722       2.92647527       8.61997288       0.59202498      -0.03380144      -0.26083169
Sn       9.29411130       2.69791362       9.09859268       0.41329537      -0.26236282       0.21778808
Sn       2.91839634       8.92474680       9.57239194      -0.04187563       0.04392000       0.69158735
Sn       8.94307205       8.80611529       9.04815756       0.06225639      -0.07471124       0.16735294
Br       5.93437743       3.17631191       3.35904275       0.01383403       0.21603726       0.39877255
Br      11.99247327       3.83366767       2.35169462       0.15138617       0.87339328      -0.60857561
Br       5.25284756       8.69926703       3.89281061      -0.66769557      -0.18155771       0.93254038
Br      11.49602352       8.79675661       1.78411874      -0.34506331      -0.08406787      -1.17615151
Br       6.24134445       3.28684332       8.30061595       0.32080103       0.32656864      -0.58019306
Br      12.22897710       3.01849165       9.52305230       0.38788998       0.05821724       0.64224327
Br       5.70256607       8.47583098      10.12688934      -0.21797709      -0.40499379       1.24608030
Br      11.55195737       8.70586126       9.48000208      -0.28912949      -0.17496324       0.59919302
Br       2.87475084       6.09810932       2.79141691      -0.08552057       0.17756058      -0.16885330
Br       8.94318469       5.66928341       2.11844095       0.06236959      -0.25126506      -0.84182928
Br       2.51097782      12.10686110       2.51169529      -0.44929333       0.26576228      -0.44857493
Br       8.28613885      11.56009476       3.78257354      -0.59467598      -0.28100380       0.82230329
Br       2.66356863       6.17606722       8.12035552      -0.29670280       0.25551846      -0.76045349
Br       9.77209519       5.47543186       8.27067813       0.89128006      -0.44511664      -0.61013090
Br       2.64040421      11.54877602       9.70134900      -0.31986696      -0.29232282       0.82053996
Br       7.31338514      11.75801341       8.75502656      -1.56742972      -0.08308517      -0.12578250
Br       2.44038439       2.29025626      -0.15110642      -0.51988722      -0.67001839      -0.15110844
Br       8.22901572       2.41535189      -0.05649977      -0.65179959      -0.54492249      -0.05650182
Br       2.93840182       8.38898976       0.04502469      -0.02186952      -0.49183497       0.04502264
Br       9.27387332       9.24541417       0.19916313       0.39305828       0.36458970       0.19916105
Br       4.03972762       3.17535219       6.03081813       1.07945598       0.21507751       0.11027729
Br       7.46196882       2.94981987       5.76652735      -1.41884652      -0.01045453      -0.15401351
Br       3.52750558       8.27672210       5.92012660       0.56723421      -0.60410266      -0.00041427
Br      10.79754719       8.54951070       6.33927026       1.91673212      -0.33131380       0.41872938
40
Lattice="11.841087389565814 -5.299540211115622e-07 5.134422012396998e-08 -5.299543174639322e-07 11.84110017440169 5.370282133059492e-08 5.1344211613704544e-08 5.370297858733353e-08 11.841077618801604" Properties=species:S:1:pos:R:3:u_disp:R:3 system=cssnbr3_cubic base_model=chgnet role=train_pool T=600.0 draw=3 n_tries=136 rms_disp_A=0.8504957426014603 min_pair_ratio=0.6113092121977202 nearest_heldout_A=99.0 site_map_ok=0 nearest_heldout_src=none#-1 pbc="T T T"
Cs       5.69789337       5.98801788      -0.08695160      -0.22265002       0.06746817      -0.08695180
Cs      10.83745557       6.51710758       0.07210215      -1.00363152       0.59655814       0.07210192
Cs       6.59520610      13.00819659      -0.33867580       0.67466297       1.16709680      -0.33867602
Cs      12.50265997      11.54552078       0.18783333       0.66157314      -0.29557876       0.18783308
Cs       5.96162668       5.50280522       5.84867086       0.04108326      -0.41774452      -0.07186815
Cs      11.51282624       5.37522160       6.42141471      -0.32826088      -0.54532787       0.50087568
Cs       5.34351933      11.71927900       5.88196816      -0.57702383      -0.12182083      -0.03857087
Cs      12.03389449      11.54982007       6.08207967       0.19280764      -0.29127949       0.16154061
Sn       2.37984324       2.98366641       3.17286945      -0.58042897       0.02338973       0.21260369
Sn       8.40812705       3.10421196       3.29236701      -0.47268885       0.14393555       0.33210122
Sn       3.28196429       8.88450549       2.28220379       0.32169234       0.00367873      -0.67806200
Sn       9.07004785       9.15913952       3.01881951       0.18923222       0.27831302       0.05855370
Sn       2.71296299       3.00828621       8.94991793      -0.24730925       0.04800951       0.06911336
Sn       8.96025272       3.13761922       9.19654174       0.07943679       0.17734278       0.31573715
Sn       2.40086096       8.55123258       8.39319879      -0.55941101      -0.32959421      -0.48760581
Sn       8.45639161       9.02029431       8.91667462      -0.42442405       0.13946778       0.03587000
Br       5.79293879       2.94957455       3.34261123      -0.12760461      -0.01070010       0.38234103
Br      11.62283955       3.24432646       3.18407541      -0.21824754       0.28405207       0.22380519
Br       6.16224442       8.76595295       2.74095179       0.24170129      -0.11487179      -0.21931844
Br      12.23786793       9.11360791       3.46027108       0.39678110       0.23278344       0.50000082
Br       6.20339439       3.01150714       9.33236822       0.28285097       0.05123246       0.45155921
Br      11.94697193       2.62823770       8.71193536       0.10588481      -0.33203671      -0.16887367
Br       5.98583024       8.54889220       8.30140987       0.06528708      -0.33193256      -0.57939917
Br      11.70076435       8.55620531       9.01661880      -0.14032250      -0.32461920       0.13580974
Br       2.62648811       5.92327814       2.44831757      -0.33378330       0.00272940      -0.51195263
Br       9.14867685       6.20140868       2.64601485       0.26786175       0.28086021      -0.31425537
Br       2.95314236      11.93839465       4.26388603      -0.00712878       0.09729583       1.30361580
Br       8.33608530      11.79802549       2.77405256      -0.54472954      -0.04307306      -0.18621769
Br       3.01451052       5.81655339       8.15184038       0.05423909      -0.10399537      -0.72896863
Br       9.32156850       5.93779449       9.24840592       0.44075338       0.01724600       0.36759688
Br       4.34151468      11.67063125       8.36188380       1.38124351      -0.17046760      -0.51892524
Br       8.93406316      11.90309590       8.54091256       0.05324830       0.06199732      -0.33989650
Br       3.69281173       3.71350732       0.12499413       0.73254012       0.75323267       0.12499211
Br       9.60054698       3.93750100       0.49531279       0.71973167       0.97722662       0.49531074
Br       3.04147739       8.67445511      -0.57162794       0.08120605      -0.20636962      -0.57163000
Br       8.88878545       8.72874824      -0.15131603       0.00797041      -0.15207623      -0.15131811
Br       2.60850832       3.19934114       6.08603104      -0.35176332       0.23906647       0.16549020
Br       8.95760507       4.19717169       6.35771240       0.07678974       1.23689728       0.43717154
Br       3.55323088       6.28309109       5.47399651       0.59295951      -2.59773367      -0.44654436
Br       8.55375259       8.04913065       5.63813598      -0.32706248      -0.83169385      -0.28240490
40
Lattice="11.841087389565814 -5.299540211115622e-07 5.134422012396998e-08 -5.299543174639322e-07 11.84110017440169 5.370282133059492e-08 5.1344211613704544e-08 5.370297858733353e-08 11.841077618801604" Properties=species:S:1:pos:R:3:u_disp:R:3 system=cssnbr3_cubic base_model=chgnet role=train_pool T=600.0 draw=4 n_tries=136 rms_disp_A=0.8762072751417032 min_pair_ratio=0.6308903074078877 nearest_heldout_A=0.8559808243802648 site_map_ok=1 nearest_heldout_src=cssnbr3_cubic_chgnet_q1d2-1d2-1d2-b3.extxyz#8 pbc="T T T"
Cs       5.83977497       5.77386719       0.52237558      -0.08076842      -0.14668252       0.52237538
Cs      10.71880124       6.16175393      -0.15245578      -1.12228585       0.24120449      -0.15245600
Cs       6.75447769      11.02013807       0.23479113       0.83393456      -0.82096172       0.23479090
Cs      12.94600997      12.31617166       0.21800002       1.10492315       0.47507213       0.21799976
Cs       6.20831780       6.36165258       5.59570370       0.28777438       0.44110284      -0.32483531
Cs      11.06373522       5.98709198       5.54583513      -0.77735190       0.06654251      -0.37470390
Cs       5.67317404      11.83956128       6.35276336      -0.24736912      -0.00153854       0.43222433
Cs      12.27655178      12.32341220       5.31010216       0.43546493       0.48231264      -0.61043690
Sn       2.72851740       3.01046157       2.83701713      -0.23175481       0.05018489      -0.12324863
Sn       8.64654304       2.71681235       3.07950197      -0.23427286      -0.24346406       0.11923618
Sn       2.52414464       8.89848643       3.64550620      -0.43612730       0.01765966       0.68524041
Sn       8.92625495       8.73672732       2.87758288       0.04543931      -0.14409918      -0.08268293
Sn       2.54034666       2.70853079       8.81794296      -0.41992558      -0.25174592      -0.06286161
Sn       8.79012310       3.16004290       8.88342628      -0.09069283       0.19976646       0.00262168
Sn       3.21225467       8.58643521       9.63068409       0.25198270      -0.29439158       0.74987949
Sn       9.27809870       9.09382921       8.43854132       0.39728303       0.21300268      -0.44226330
Br       5.63205778       3.66946447       2.49732514      -0.28848562       0.70918982      -0.46294506
Br      11.65549298       1.57670326       2.24207377      -0.18559412      -1.38357113      -0.71819646
Br       5.56382673       9.14329126       3.22818726      -0.35671641       0.26246652       0.26791703
Br      11.59194576       9.05570183       3.28757328      -0.24914107       0.17487735       0.32730302
Br       5.61850349       2.44163757       8.68955110      -0.30203994      -0.51863711      -0.19125791
Br      11.43856887       3.58659919       7.66573850      -0.40251825       0.62632478      -1.21507053
Br       6.18145404       9.21682638       9.43714167       0.26091088       0.33600161       0.55633263
Br      12.14679930       8.32882059       8.51892315       0.30571245      -0.55200391      -0.36188591
Br       3.85648501       5.99634493       2.98331079       0.89621360       0.07579620       0.02304059
Br       9.11607824       5.88940827       3.27229249       0.23526314      -0.03114020       0.31202227
Br       3.62649950      12.01779058       3.31610682       0.66622836       0.17669177       0.35583659
Br       8.51327994      11.69962560       3.37871907      -0.36753489      -0.14147296       0.41844881
Br       2.29778096       5.60382190       8.49796710      -0.66249047      -0.31672686      -0.38284191
Br       9.70993688       6.13635987       9.23793790       0.82912175       0.21581138       0.35712886
Br       2.29948461      11.75692730       8.91870130      -0.66078656      -0.08417155       0.03789226
Br       8.52393693      11.83577168       7.48991943      -0.35687794      -0.00532691      -1.39088964
Br       3.49144201       3.14129547      -0.24537440       0.53117040       0.18102082      -0.24537642
Br       9.28712007       2.42382904       0.24028938       0.40630476      -0.53644534       0.24028733
Br       3.97108381       9.11730924       0.43507938       1.01081246       0.23648451       0.43507732
Br       8.19730208       8.70624778      -0.04550924      -0.68351297      -0.17457669      -0.04551132
Br       2.38221546       2.72665116       5.93319697      -0.57805618      -0.23362351       0.01265613
Br       7.48842215       2.09610640       5.81504035      -1.39239318      -0.86416801      -0.10550051
Br       4.12650501       9.58052928       6.50102483       1.16623364       0.69970452       0.58048397
Br       9.40338154       9.47550298       5.95039189       0.52256648       0.59467849       0.02985100
40
Lattice="11.841087389565814 -5.299540211115622e-07 5.134422012396998e-08 -5.299543174639322e-07 11.84110017440169 5.370282133059492e-08 5.1344211613704544e-08 5.370297858733353e-08 11.841077618801604" Properties=species:S:1:pos:R:3:u_disp:R:3 system=cssnbr3_cubic base_model=chgnet role=train_pool T=600.0 draw=5 n_tries=136 rms_disp_A=0.8178392856145382 min_pair_ratio=0.6306815450669669 nearest_heldout_A=99.0 site_map_ok=0 nearest_heldout_src=none#-1 pbc="T T T"
Cs       6.09395089       5.61974744       0.22282664       0.17340749      -0.30080227       0.22282644
Cs      12.56621296       6.14023243      -0.01143258       0.72512587       0.21968298      -0.01143281
Cs       6.69072504      11.75874708      -0.18867892       0.77018191      -0.08235272      -0.18867914
Cs      11.84932775      12.25599319       0.15108680       0.00824093       0.41489365       0.15108655
Cs       5.81887503       5.59826192       5.94417207      -0.10166839      -0.32228782       0.02363307
Cs      12.39891856       5.88244829       5.28641665       0.55783145      -0.03810118      -0.63412238
Cs       5.49456662      12.45939090       5.80842724      -0.42597653       0.61829108      -0.11211180
Cs      10.80688985      11.89529456       5.85766927      -1.03419700       0.05419500      -0.06286979
Sn       2.50830136       2.63529338       3.23415848      -0.45197084      -0.32498330       0.27389272
Sn       8.85643979       2.62304170       3.45736960      -0.02437612      -0.33723471       0.49710381
Sn       3.12576841       8.60778700       3.18696343       0.16549646      -0.27303976       0.22669764
Sn       8.85912343       8.56234006       2.98628878      -0.02169221      -0.31848644       0.02602297
Sn       3.15874658       3.21272004       8.63318506       0.19847435       0.25244333      -0.24761951
Sn       9.31708247       2.40869045       9.50503698       0.43626655      -0.55158599       0.62423238
Sn       2.68006963       9.71994183       8.80690576      -0.28020234       0.83911503      -0.07389883
Sn       8.63738940       8.34523120       8.82693038      -0.24342627      -0.53559533      -0.05387425
Br       5.52681124       2.55227574       2.97730202      -0.39373216      -0.40799891       0.01703182
Br      11.54734400       2.66703821       3.47621008      -0.29374309      -0.29323618       0.51593985
Br       6.33968299       8.61662574       2.75451181       0.41913985      -0.26419900      -0.20575842
Br      11.97114435       8.67328760       4.12506499       0.13005752      -0.20753687       1.16479473
Br       5.72211094       2.69628150       8.22724438      -0.19843249      -0.26399318      -0.65356464
Br      12.16609892       2.92992381       8.11493095       0.32501180      -0.03035061      -0.76587809
Br       5.51861466       8.49216575       8.68954174      -0.40192850      -0.38865902      -0.19126730
Br      11.43892701      10.06887554       9.47762747      -0.40215984       1.18805104       0.59681840
Br       4.06359864       5.83629019       2.55155959       1.10332723      -0.08425855      -0.40871061
Br       8.83539691       5.57223831       3.80673075      -0.04541819      -0.34831016       0.84646052
Br       2.34860650      11.58511844       2.53735125      -0.61166465      -0.25598038      -0.42291898
Br       9.10229802      11.64736432       2.11143188       0.22148318      -0.19373423      -0.84883838
Br       2.58180791       6.42566973       8.34334182      -0.37846352       0.50512097      -0.53746719
Br       9.44628648       5.71402813       7.08557856       0.56547135      -0.20652037      -1.79523048
Br       2.90646347      12.25854770       9.16374993      -0.05380770       0.41744886       0.28294089
Br       9.22594741      11.49515536       9.67695856       0.34513255      -0.34594322       0.79614950
Br       3.25394500       3.60271947       0.44694213       0.29367339       0.64244482       0.44694010
Br       8.63766171       3.68542220       0.45877610      -0.24315359       0.72514782       0.45877405
Br       3.24375165       8.36488517      -0.21580180       0.28348030      -0.51593956      -0.21580386
Br       8.35343735       9.44052621       0.06759619      -0.52737769       0.55970174       0.06759412
Br       2.74489682       3.32337468       5.55377541      -0.21537482       0.36310000      -0.36676543
Br       8.06567706       2.77102787       6.41491858      -0.81513827      -0.18924654       0.49437772
Br       3.30159627       9.54778274       5.64140760       0.34132490       0.66695798      -0.27913327
Br       8.64275720       8.72758147       6.05087081      -0.23805787      -0.15324302       0.13032992
40
Lattice="11.841087389565814 -5.299540211115622e-07 5.134422012396998e-08 -5.299543174639322e-07 11.84110017440169 5.370282133059492e-08 5.1344211613704544e-08 5.370297858733353e-08 11.841077618801604" Properties=species:S:1:pos:R:3:u_disp:R:3 system=cssnbr3_cubic base_model=chgnet role=train_pool T=600.0 draw=6 n_tries=136 rms_disp_A=0.8636396424108707 min_pair_ratio=0.6372213128580139 nearest_heldout_A=0.8505770451291593 site_map_ok=1 nearest_heldout_src=cssnbr3_cubic_chgnet_q1d2-0-0-b4.extxyz#7 pbc="T T T"
Cs       5.78034179       5.42775711       0.06005502      -0.14020160      -0.49279260       0.06005482
Cs      11.63147998       6.28704606       0.70761336      -0.20960711       0.36649661       0.70761313
Cs       5.15464149      11.10316700      -0.32605633      -0.76590164      -0.73793280      -0.32605656
Cs      11.81416901      11.31516614      -0.67191584      -0.02691782      -0.52593339      -0.67191609
Cs       5.86715300       5.60996742       5.66115751      -0.05339042      -0.31058232      -0.25938150
Cs      11.54819542       6.02450432       6.58516725      -0.29289169       0.10395484       0.66462821
Cs       6.51930116      12.18414826       6.28410278       0.59875801       0.34304844       0.36356374
Cs      12.38307599      12.35875303       6.04988314       0.54198914       0.51765347       0.12934408
Sn       2.84189638       2.60794207       2.79522067      -0.11837583      -0.35233461      -0.16504509
Sn       8.60794200       2.63535260       2.54096428      -0.27287390      -0.32492382      -0.41930150
Sn       3.21623169       8.81779157       3.05236991       0.25595975      -0.06303520       0.09210413
Sn       9.37513989       8.69329985       2.68355380       0.49432425      -0.18752665      -0.27671201
Sn       3.00642395       3.45051193       8.96698458       0.04615172       0.49023522       0.08618001
Sn       8.88582097       2.71342691       9.05564884       0.00500505      -0.24684954       0.17484425
Sn       3.40375345       9.40341218       8.61083465       0.44348148       0.52258539      -0.26996994
Sn       9.59916347       8.91703371       8.43890246       0.71834781       0.03620718      -0.44190216
Br       5.74677478       1.56198983       3.02742980      -0.17376862      -1.39828483       0.06715959
Br      11.79696755       2.44950781       3.48347626      -0.04411954      -0.51076658       0.52320603
Br       6.19185176       7.90812314       3.48157512       0.27130863      -0.97270160       0.52130490
Br      12.25987381       9.04508307       3.01306270       0.41878698       0.16425860       0.05279245
Br       5.96892562       3.71473688       9.26921322       0.04838219       0.75446220       0.38840421
Br      11.74924560       3.69062850       8.12702648      -0.09184152       0.73035408      -0.75378255
Br       6.48991254       9.29503542       7.73696832       0.56936938       0.41421066      -1.14384072
Br      11.91693978       9.06612899       9.06431190       0.07585293       0.18530449       0.18350284
Br       1.46253113       5.69203647       3.17834790      -1.49774028      -0.22851227       0.21807770
Br       9.71697774       5.45118345       2.66955064       0.83616264      -0.46936501      -0.29071959
Br       2.58276230      11.66930163       3.12616972      -0.37750884      -0.17179719       0.16589949
Br       8.84974899      11.80227697       2.16074606      -0.03106585      -0.03882158      -0.79952419
Br       3.11497593       6.18709050      10.12063823       0.15470449       0.26654174       1.23982922
Br       8.50443814       5.71797337       9.42638953      -0.37637699      -0.20257513       0.54558050
Br       2.24061061      12.11561627       9.81431135      -0.71966056       0.27451742       0.93350231
Br       8.55523598      11.65743491       8.68555532      -0.32557888      -0.18366367      -0.19525374
Br       3.11212397       3.76137847      -0.00279281       0.15185236       0.80110383      -0.00279483
Br       7.79073616       2.84106403       0.08752302      -1.09007915      -0.11921035       0.08752097
Br       3.65929881       8.90003700      -0.16240833       0.69902746       0.01921227      -0.16241038
Br       9.08098174       8.15599534      -0.24411858       0.20016670      -0.72482913      -0.24412066
Br       2.02237218       3.39762072       5.90199950      -0.93789946       0.43734604      -0.01854133
Br       8.97672549       3.81772804       5.82704773       0.09591016       0.85745363      -0.09349313
Br       3.42710950       9.27718426       5.95026404       0.46683813       0.39635950       0.02972317
Br       8.80171315      10.01123355       5.36988339      -0.07910192       1.13040906      -0.55065750
40
Lattice="11.841087389565814 -5.299540211115622e-07 5.134422012396998e-08 -5.299543174639322e-07 11.84110017440169 5.370282133059492e-08 5.1344211613704544e-08 5.370297858733353e-08 11.841077618801604" Properties=species:S:1:pos:R:3:u_disp:R:3 system=cssnbr3_cubic base_model=chgnet role=train_pool T=600.0 draw=7 n_tries=136 rms_disp_A=0.8689568077656565 min_pair_ratio=0.6144056009031549 nearest_heldout_A=99.0 site_map_ok=0 nearest_heldout_src=none#-1 pbc="T T T"
Cs       6.17236914       6.00380882      -0.35354861       0.25182575       0.08325911      -0.35354881
Cs      12.35680765       6.15431752      -0.02857943       0.51572056       0.23376808      -0.02857965
Cs       6.39557795      10.91327721       0.25764031       0.47503482      -0.92782259       0.25764009
Cs      11.64305839      12.75999074       0.64613579      -0.19802843       0.91889121       0.64613554
Cs       6.48316146       5.87973669       6.49957450       0.56261804      -0.04081305       0.57903549
Cs      11.85998229       5.70215627       5.56404567       0.01889518      -0.21839320      -0.35649337
Cs       5.94955377      11.61463077       6.77386470       0.02901062      -0.22646906       0.85332566
Cs      11.77726756      12.47853827       5.61501741      -0.06381929       0.63743871      -0.30552165
Sn       3.00856309       2.60639199       2.75827982       0.04829088      -0.35388469      -0.20198594
Sn       8.19645221       2.72814511       3.04607318      -0.68436370      -0.23213131       0.08580739
Sn       2.51862412       8.49978812       2.58174203      -0.44164783      -0.38103864      -0.37852375
Sn       8.79400164       8.71695333       2.98431871      -0.08681400      -0.16387317       0.02405290
Sn       3.16950223       2.93463743       8.64091977       0.20923000      -0.02563927      -0.23988480
Sn       8.76164630       3.21048049       9.13934549      -0.11916963       0.25020404       0.25854090
Sn       2.61233478       8.53035182       8.39068869      -0.34793719      -0.35047497      -0.49011590
Sn       8.99673383       9.47202807       8.89085686       0.11591817       0.59120155       0.01005224
Br       5.95391888       3.10955689       2.54108143       0.03337548       0.14928224      -0.41918877
Br      11.65601889       3.53164933       3.27829847      -0.18506820       0.57137494       0.31802824
Br       5.83982247       8.51350163       3.14362163      -0.08072067      -0.36732311       0.18335140
Br      11.38986276       9.01756509       3.15079347      -0.45122407       0.13674061       0.19052321
Br       5.99515216       2.90079630       8.96784531       0.07460874      -0.05947838       0.08703630
Br      11.95666452       4.07198643      10.31363705       0.11557740       1.11171202       1.43282801
Br       5.70027812       7.64884864       9.56734954      -0.22026504      -1.23197613       0.68654050
Br      11.66793941       8.35471726       9.94817252      -0.17314744      -0.52610725       1.06736346
Br       3.69743259       5.93752663       3.52027544       0.73716118       0.01697789       0.56000524
Br       8.55677431       5.61887367       2.29498000      -0.32404079      -0.30167480      -0.66529023
Br       2.91506372      11.34135942       2.54483675      -0.04520742      -0.49973940      -0.41543348
Br       8.94392011      11.66916257       1.94411816       0.06310527      -0.17193598      -1.01615209
Br       3.12074829       5.70749729       7.85632046       0.16047685      -0.21305147      -1.02448855
Br       7.83793417       6.16193590       9.29024830      -1.04288096       0.24138741       0.40943927
Br       2.98789664      11.68384844       7.48989328       0.02762547      -0.15725041      -1.39091576
Br       9.53805581      11.79495459       9.21719915       0.65724095      -0.04614399       0.33639009
Br       3.20527788       3.26915781       0.02439140       0.24500627       0.30888316       0.02438937
Br       9.75110062       2.92893769       0.02423830       0.87028531      -0.03133669       0.02423625
Br       3.83623446       9.77824862      -0.42774262       0.87596312       0.89742389      -0.42774467
Br       9.27853798       9.44521291       0.13210254       0.39772294       0.56438845       0.13210046
Br       2.18297244       1.98342094       5.42283623      -0.77729920      -0.97685373      -0.49770461
Br       8.15979997       3.06492314       5.83459602      -0.72101536       0.10464874      -0.08594484
Br       2.54465800       9.75644240       5.47397130      -0.41561337       0.87561764      -0.44656956
Br       8.35338993       8.70927650       6.09346865      -0.52742513      -0.17154800       0.17292776
40
Lattice="11.841087389565814 -5.299540211115622e-07 5.134422012396998e-08 -5.299543174639322e-07 11.84110017440169 5.370282133059492e-08 5.1344211613704544e-08 5.370297858733353e-08 11.841077618801604" Properties=species:S:1:pos:R:3:u_disp:R:3 system=cssnbr3_cubic base_model=chgnet role=train_pool T=600.0 draw=8 n_tries=136 rms_disp_A=0.8140110160715828 min_pair_ratio=0.6521518336567191 nearest_heldout_A=0.7763994406114153 site_map_ok=1 nearest_heldout_src=cssnbr3_cubic_mattersim_q1d2-0-1d2-b1.extxyz#9 pbc="T T T"
Cs       5.61041255       5.15046214       0.89319841      -0.31013084      -0.77008757       0.89319821
Cs      12.54290960       6.37802768      -0.52334807       0.70182251       0.45747824      -0.52334829
Cs       5.91958534      11.25258095       0.51253019      -0.00095779      -0.58851885       0.51252996
Cs      11.82916850      12.53377963      -0.09992722      -0.01191832       0.69268009      -0.09992747
Cs       5.30627369       6.24865331       5.80334658      -0.61426973       0.32810357      -0.11719243
Cs      11.67747365       5.29110389       5.97907051      -0.16361347      -0.62944558       0.05853147
Cs       5.70227381      12.68911815       5.75853912      -0.21826934       0.84801833      -0.16199991
Cs      11.70372741      11.71024063       6.65656159      -0.13735945      -0.13085893       0.73602252
Sn       2.99487414       2.96949985       2.69363183       0.03460193       0.00922317      -0.26663393
Sn       9.18031603       1.82248922       3.11429513       0.29950012      -1.13778720       0.15402935
Sn       2.68260724       9.09415568       3.18496924      -0.27766470       0.21332892       0.22470345
Sn       8.99116041       8.01290976       2.59876352       0.11034477      -0.86791674      -0.36150229
Sn       3.06484167       3.15309258       8.38486514       0.10456944       0.19281587      -0.49593943
Sn       8.39396374       3.40034734       8.65611244      -0.48685219       0.44007090      -0.22469216
Sn       3.25978341       9.09412139       9.06656243       0.29951144       0.21329460       0.18575784
Sn       8.80347649       9.61149407       8.54337375      -0.07733918       0.73066754      -0.33743087
Br       6.16794588       2.85588922       3.96811560       0.24740248      -0.10438543       1.00784540
Br      12.12279541       2.26295461       3.38581926       0.28170832      -0.69731977       0.42554903
Br       5.76394000       9.32058714       2.90358457      -0.15660314       0.43976240      -0.05668566
Br      11.58808372       8.56663246       2.93402870      -0.25300311      -0.31419201      -0.02624156
Br       5.71249928       3.76260745       8.18992678      -0.20804415       0.80233278      -0.69088223
Br      11.85339848       3.14307883       9.76848819       0.01231136       0.18280442       0.88767915
Br       5.78112921       8.47103976       9.23585509      -0.13941395      -0.40978500       0.35504605
Br      11.89144771       8.98296850       8.09902264       0.05036085       0.10214400      -0.78178642
Br       3.04163963       6.04363153       2.57922291       0.08136823       0.12308280      -0.38104729
Br       9.54124064       5.22681682       2.82532670       0.66042554      -0.69373165      -0.13494353
Br       2.65800094      12.39224546       3.05405751      -0.30227021       0.55114664       0.09378728
Br       9.48452166      11.17359633       2.86983950       0.60370682      -0.66750223      -0.09043075
Br       2.74306874       5.98675996       9.06461509      -0.21720270       0.06621120       0.18380608
Br       9.59197918       6.46705388       8.35551608       0.71116406       0.54650538      -0.52529296
Br       2.90805334      12.00063127       7.13349717      -0.05221783       0.15953243      -1.74731186
Br       8.93157669      12.28240067       9.60330745       0.05076182       0.44130209       0.72249838
Br       3.33926286       2.75580799       0.22287560       0.37899125      -0.20446666       0.22287358
Br       9.69435413       2.68979210       0.16050631       0.81353883      -0.27048228       0.16050425
Br       2.85828008       9.08179370       0.08967951      -0.10199127       0.20096897       0.08967745
Br       8.60931177       8.22071696      -0.13878648      -0.27150327      -0.66010751      -0.13878856
Br       2.14303062       2.46136570       5.57736793      -0.81724102      -0.49890897      -0.34317291
Br       8.66472059       3.61201055       6.33064332      -0.21609475       0.65173615       0.41010246
Br       3.40751235       8.53402880       5.98414376       0.44724097      -0.34679596       0.06360290
Br       8.52280540       9.44254798       5.72195442      -0.35800967       0.56172348      -0.19858647
40
Lattice="11.841087389565814 -5.299540211115622e-07 5.134422012396998e-08 -5.299543174639322e-07 11.84110017440169 5.370282133059492e-08 5.1344211613704544e-08 5.370297858733353e-08 11.841077618801604" Properties=species:S:1:pos:R:3:u_disp:R:3 system=cssnbr3_cubic base_model=chgnet role=train_pool T=600.0 draw=9 n_tries=136 rms_disp_A=0.8600172647865244 min_pair_ratio=0.6054669671890064 nearest_heldout_A=0.8360589560755455 site_map_ok=1 nearest_heldout_src=cssnbr3_cubic_chgnet_q0-0-1d2-b1.extxyz#8 pbc="T T T"
Cs       6.44310976       6.11616504      -0.11716422       0.52256637       0.19561533      -0.11716442
Cs      12.50568921       5.95437580       0.41430520       0.66460212       0.03382636       0.41430497
Cs       5.13990570      12.13904501       0.24059135      -0.78063743       0.29794521       0.24059112
Cs      11.59207729      11.50460583      -0.23491812      -0.24900953      -0.33649370      -0.23491838
Cs       6.17254216       5.71615245       6.44904345       0.25199874      -0.20439729       0.52850444
Cs      12.61658770       5.69836791       5.67360348       0.77550059      -0.22218156      -0.24693555
Cs       5.19043152      11.33668675       5.45334884      -0.73011164      -0.50441308      -0.46719019
Cs      11.69820309      11.37257356       6.28744584      -0.14288376      -0.46852601       0.36690677
Sn       3.06494244       2.49725353       3.25863485       0.10467023      -0.46302315       0.29836909
Sn       8.92686937       2.79847566       3.49122624       0.04605347      -0.16180075       0.53096045
Sn       2.85961271       8.43778107       2.47899819      -0.10065923      -0.44304570      -0.48126759
Sn       8.61470992       9.13363742       2.50514875      -0.26610572       0.25281092      -0.45511706
Sn       3.00534487       2.64063259       9.23130763       0.04507264      -0.31964412       0.35050306
Sn       8.98522065       3.45578683       9.18231070       0.10440472       0.49551039       0.30150611
Sn       2.09906530       8.54013426       8.47358380      -0.86120667      -0.34069253      -0.40722080
Sn       8.28735629       9.34894823       8.75732220      -0.59345938       0.46812170      -0.12348243
Br       6.03320551       3.81412642       2.29765359       0.11266211       0.85385176      -0.66261662
Br      11.94730241       3.11957775       3.19828619       0.10621531       0.15930336       0.23801596
Br       5.68501451       9.50482503       2.04993660      -0.23552863       0.62400029      -0.91033363
Br      11.93521162       9.16906196       3.87718256       0.09412479       0.28823748       0.91691230
Br       6.03371379       1.95940221       8.55478843       0.11317037      -1.00087247      -0.32602058
Br      11.78169791       2.54115103       9.12825929      -0.05938921      -0.41912338       0.24745025
Br       5.53897006       8.95346396       8.46348928      -0.38157310       0.07263919      -0.41731976
Br      11.42116440       8.84203022       9.34023598      -0.41992245      -0.03879428       0.45942692
Br       3.76854435       5.85513700       1.40563597       0.80827294      -0.06541173      -1.55463423
Br       9.94442193       5.82686466       3.97210047       1.06360683      -0.09368381       1.01183025
Br       2.42645211      11.87556753       2.78305293      -0.53381904       0.03446871      -0.17721730
Br       9.04434255      11.93419550       2.64003057       0.16352772       0.09309695      -0.32023969
Br       3.53638867       5.83461914       8.90650109       0.57611724      -0.08592962       0.02569208
Br       8.62069301       6.08628976       8.46303200      -0.26012212       0.16574127      -0.41777704
Br       4.20442925      11.39693195       9.52628209       1.24415808      -0.44416690       0.64547305
Br       8.95340454      11.91470841       8.25324211       0.07258968       0.07360983      -0.62756695
Br       3.91013615       3.19893073       0.19195519       0.94986454       0.23865608       0.19195317
Br       9.12182374       3.20262960       0.19955998       0.24100844       0.24235522       0.19955792
Br       1.74256583       8.21615347       0.03042366      -1.21770552      -0.66467126       0.03042161
Br       8.25247736       8.69491724       0.07247992      -0.62833768      -0.18590723       0.07247784
Br       2.52955501       3.91426810       6.29418662      -0.43071663       0.95399343       0.37364579
Br       9.44692960       3.49082681       6.11692500       0.56611427       0.53055241       0.19638413
Br       2.76030315      10.16443745       5.72584675      -0.19996822       1.28361269      -0.19469411
Br       8.87749609       9.03589415       6.09333933      -0.00331898       0.15506965       0.17279844
40
Lattice="11.841087389565814 -5.299540211115622e-07 5.134422012396998e-08 -5.299543174639322e-07 11.84110017440169 5.370282133059492e-08 5.1344211613704544e-08 5.370297858733353e-08 11.841077618801604" Properties=species:S:1:pos:R:3:u_disp:R:3 system=cssnbr3_cubic base_model=chgnet role=train_pool T=600.0 draw=10 n_tries=136 rms_disp_A=0.8696158046960285 min_pair_ratio=0.6325311050522845 nearest_heldout_A=0.8515911466349864 site_map_ok=1 nearest_heldout_src=cssnbr3_cubic_mattersim_q0-1d2-1d2-b0.extxyz#7 pbc="T T T"
Cs       5.60558490       5.44222728       0.59907404      -0.31495850      -0.47832244       0.59907384
Cs      12.36505072       6.36955708      -0.09624783       0.52396363       0.44900763      -0.09624805
Cs       5.80913252      12.44795621       0.04628453      -0.11141061       0.60685641       0.04628431
Cs      12.77345989      11.76604842       0.27713367       0.93237306      -0.07505112       0.27713342
Cs       4.70731523       6.90540790       5.55915090      -1.21322819       0.98485816      -0.36138811
Cs      11.83360918       6.18391628       5.79579236      -0.00747794       0.26336680      -0.12474667
Cs       5.59829345      11.02613252       5.47865985      -0.32224970      -0.81496731      -0.44187919
Cs      12.06457979      11.11777426       5.67955649       0.22349294      -0.72332530      -0.24098257
Sn       2.65450881       2.70246326       2.93413780      -0.30576339      -0.25781342      -0.02612796
Sn       8.62939985       2.90895196       2.88508658      -0.25141605      -0.05132446      -0.07517920
Sn       2.95619791       8.60293616       2.74900260      -0.00407403      -0.27789061      -0.21126319
Sn       8.68965120       8.73370847       3.23013798      -0.19116444      -0.14711803       0.26987217
Sn       2.46975187       2.94185733       8.77518913      -0.49052036      -0.01841938      -0.10561544
Sn       8.75773112       3.13343876       8.53549776      -0.12308481       0.17316232      -0.34530683
Sn       2.90040635       9.13575582       8.78349562      -0.05986562       0.25492902      -0.09730898
Sn       8.74752306       8.94265935       8.94886633      -0.13329260       0.06183282       0.06806171
Br       5.56460222       1.24302931       2.89770090      -0.35594118      -1.71724534      -0.06256930
Br      11.81620304       2.19214178       3.30954801      -0.02488405      -0.76813261       0.34927778
Br       5.98408602       8.66726652       3.04004824       0.06354288      -0.21355822       0.07977801
Br      11.65199628       8.40560018       2.77777389      -0.18909054      -0.47522429      -0.18249636
Br       5.59929818       3.28289036       9.59806057      -0.32124525       0.32261568       0.71725156
Br      11.90972729       2.26037815       8.39415229       0.06864017      -0.69989626      -0.48665675
Br       5.82824039      10.04626826       8.70230636      -0.09230277       1.16544349      -0.17850267
Br      12.00865675       8.45017529       9.01577378       0.16756990      -0.43064921       0.13496472
Br       3.07850281       5.80917805       2.91123561       0.11823140      -0.11137068      -0.04903459
Br       8.11503049       6.31178094       3.45766663      -0.76578461       0.39123247       0.49739641
Br       2.51174366      11.70361429       2.42122407      -0.44852748      -0.13748453      -0.53904616
Br       9.74449425      11.97429290       3.42891750       0.86367941       0.13319435       0.46864725
Br       3.12437339       6.17823422       9.49376474       0.16410196       0.25768546       0.61295573
Br       9.00858234       6.28494013       7.54161824       0.12776722       0.36439163      -1.33919080
Br       3.42757587      11.44916445       9.55194687       0.46730471      -0.39193439       0.67113783
Br       9.40044003      11.84483086       9.61346653       0.51962516       0.00373228       0.73265747
Br       3.18791452       4.23522269      -0.54928532       0.22764291       1.27494805      -0.54928734
Br       7.86451925       3.14537764       0.12313566      -1.01629605       0.18510326       0.12313361
Br       3.85581477       8.31287142       0.25898652       0.89554342      -0.56795331       0.25898446
Br      10.40222266       9.05057192       0.00133157       1.52140762       0.16974746       0.00132949
Br       3.83625283       3.93566813       5.80997588       0.87598120       0.97539346      -0.11056495
Br       8.92017333       2.67706882       5.85803443       0.03935799      -0.28320559      -0.06250643
Br       2.80761850       9.27521389       5.90550627      -0.15265287       0.39438913      -0.01503460
Br       8.92507540       9.07647205       6.19482495       0.04426033       0.19564755       0.27428406
40
Lattice="11.841087389565814 -5.299540211115622e-07 5.134422012396998e-08 -5.299543174639322e-07 11.84110017440169 5.370282133059492e-08 5.1344211613704544e-08 5.370297858733353e-08 11.841077618801604" Properties=species:S:1:pos:R:3:u_disp:R:3 system=cssnbr3_cubic base_model=chgnet role=train_pool T=600.0 draw=11 n_tries=136 rms_disp_A=0.9547608059813073 min_pair_ratio=0.6278624574991931 nearest_heldout_A=99.0 site_map_ok=0 nearest_heldout_src=none#-1 pbc="T T T"
Cs       4.96094566       5.70184190      -0.08034173      -0.95959773      -0.21870781      -0.08034193
Cs      12.30871323       5.79434548      -0.86852681       0.46762614      -0.12620397      -0.86852704
Cs       6.27530437      11.92492952       0.49755527       0.35476124       0.08382972       0.49755504
Cs      11.83807636      12.25687767       0.68165811      -0.00301047       0.41577813       0.68165786
Cs       5.54685563       6.24258483       5.94384020      -0.37368779       0.32203509       0.02330119
Cs      11.94669808       6.76480924       5.73204550       0.10561096       0.84425976      -0.18849354
Cs       5.58768348      11.00784230       5.39093426      -0.33285968      -0.83325752      -0.52960478
Cs      12.21638209      11.60487078       5.64612626       0.37529524      -0.23622878      -0.27441280
Sn       3.59337701       2.88066226       2.95739366       0.63310480      -0.07961442      -0.00287210
Sn       9.72886049       2.82169315       2.57722218       0.84804459      -0.13858326      -0.38304361
Sn       2.87134559       9.09669303       3.59124323      -0.08892635       0.21586626       0.63097744
Sn       8.73316027       8.94503457       2.53501744      -0.14765537       0.06420807      -0.42524837
Sn       3.03295462       2.73897927       8.48400651       0.07268238      -0.22129744      -0.39679806
Sn       8.55067659       2.41360098       8.44422626      -0.33013934      -0.54667546      -0.43657833
Sn       2.50922717       8.94703320       9.55355529      -0.45104480       0.06620641       0.67275069
Sn       8.46361132       8.51011044       8.51721940      -0.41720435      -0.37071609      -0.36358522
Br       6.15335567       3.42529209       3.15782204       0.23281227       0.46501744       0.19755183
Br      12.33620601       4.04201785       3.91327148       0.49511891       1.08174346       0.95300125
Br       6.02645629       9.09426838       3.28376222       0.10591316       0.21344364       0.32349200
Br      11.52690511       9.68372429       2.13432597      -0.31418172       0.80289982      -0.82594428
Br       5.32938824       1.61729779       7.49648127      -0.59115519      -1.34297689      -1.38432774
Br      12.00653376       2.91217394       8.65171127       0.16544664      -0.04810047      -0.22909776
Br       5.72050360       8.56077613       9.85676678      -0.20003956      -0.32004864       0.97595774
Br      11.41439032      10.41877263       8.25055299      -0.42669653       1.53794813      -0.63025607
Br       2.44962292       6.00551279       2.77509744      -0.51064849       0.08496406      -0.18517276
Br       8.79795141       5.86191319       3.02648344      -0.08286369      -0.05863527       0.06621321
Br       3.24332516      11.79914904       4.15146486       0.28305402      -0.04194978       1.19119463
Br       9.86695064      11.95321210       4.52010034       0.98613580       0.11211355       1.55983009
Br       3.13355493       6.04007137       7.83157139       0.17328349       0.11952261      -1.04923762
Br       8.84760738       5.69034271       8.24722907      -0.03320775      -0.23020579      -0.63357997
Br       2.77021914      11.83462927      10.29481766      -0.19005203      -0.00646958       1.41400863
Br       8.12225850      11.16873536       9.27290568      -0.75855636      -0.67236322       0.39209662
Br       3.14088371       3.20655360       0.13149313       0.18061210       0.24627896       0.13149110
Br       9.07614120       2.97648321      -0.50498581       0.19532589       0.01620883      -0.50498786
Br       2.22363516       9.15737409       0.56540043      -0.73663618       0.27654936       0.56539838
Br       8.59773410       8.39635014      -0.05556927      -0.28308094      -0.48447433      -0.05557135
Br       2.86143241       2.41681620       5.89735146      -0.09883923      -0.54345847      -0.02318937
Br       9.29453597       2.59261632       5.83591076       0.41372063      -0.36765808      -0.08463010
Br       2.91328404       9.07024770       6.35776262      -0.04698733       0.18942294       0.43722176
Br      10.35429313       8.93413561       5.59453848       1.47347807       0.05331111      -0.32600241
40
Lattice="11.841087389565814 -5.299540211115622e-07 5.134422012396998e-08 -5.299543174639322e-07 11.84110017440169 5.370282133059492e-08 5.1344211613704544e-08 5.370297858733353e-08 11.841077618801604" Properties=species:S:1:pos:R:3:u_disp:R:3 system=cssnbr3_cubic base_model=chgnet role=train_pool T=600.0 draw=12 n_tries=136 rms_disp_A=0.8805387228807474 min_pair_ratio=0.6151604751286347 nearest_heldout_A=99.0 site_map_ok=0 nearest_heldout_src=none#-1 pbc="T T T"
Cs       6.38982965       5.96006891       0.13458987       0.46928625       0.03951920       0.13458967
Cs      12.52119350       6.51094935       1.14468791       0.68010641       0.59039991       1.14468768
Cs       5.83513132      12.45483571      -0.47513376      -0.08541181       0.61373591      -0.47513398
Cs      11.93177084      12.18016624       0.66079227       0.09068402       0.33906671       0.66079202
Cs       5.27233237       5.61884219       6.69431726      -0.64821105      -0.30170755       0.77377825
Cs      11.21510206       5.80801392       5.94034421      -0.62598505      -0.11253556       0.01980518
Cs       6.34771180      12.08095611       6.59382862       0.42716864       0.23985629       0.67328959
Cs      12.69252201      12.26553226       5.18192091       0.85143516       0.42443270      -0.73861816
Sn       3.36953691       3.37745873       2.97597961       0.40926470       0.41718205       0.01571385
Sn       9.09921948       3.36345028       3.09584138       0.21840357       0.40317386       0.13557559
Sn       3.54364089       9.15689067       2.09373566       0.58336895       0.27606391      -0.86653012
Sn       8.88527252       9.00238311       3.71619666       0.00445688       0.12155661       0.75593085
Sn       2.97268758       2.69672779       8.48330926       0.01241535      -0.26354892      -0.39749531
Sn       8.72722290       2.15275456       9.08457351      -0.15359303      -0.80752188       0.20376892
Sn       3.02123519       8.35619908       8.26263504       0.06096322      -0.52462771      -0.61816955
Sn       9.03854417       8.13054279       9.16792926       0.15772850      -0.75028374       0.28712464
Br       6.39216134       3.50997507       3.40201549       0.47161794       0.54970042       0.44174529
Br      12.09917621       3.06675111       2.57836240       0.25808912       0.10647672      -0.38190783
Br       6.10973559       8.09981779       3.43214935       0.18919246      -0.78100695       0.47187912
Br      11.77450972       9.09009107       2.08618240      -0.06657711       0.20926659      -0.87408786
Br       5.34567041       2.40600843       8.80628276      -0.57487301      -0.55426625      -0.07452625
Br      12.00963801       3.62583690       8.54178467       0.16855089       0.66556248      -0.33902437
Br       6.16252868       8.86288635       9.00953822       0.24198552      -0.01793842       0.12872918
Br      11.70266009       8.95043253       8.51875419      -0.13842676       0.06960803      -0.36205487
Br       3.12548071       6.04343049       3.01138732       0.16520931       0.12288176       0.05111712
Br       9.88199633       6.05453728       3.53898047       1.00118123       0.13398881       0.57871024
Br       1.86481925      11.70618033       2.64536533      -1.09545189      -0.13491849      -0.31490490
Br       7.86530890      12.16356877       2.92894581      -1.01550594       0.32247022      -0.03132444
Br       3.12636973       5.94771717       9.23896909       0.16609830       0.02716841       0.35816008
Br       8.97486672       5.16937200       8.64039226       0.09405159      -0.75117649      -0.24041677
Br       3.16882801      11.87597577       8.62526479       0.20855684       0.03487692      -0.25554425
Br       9.23995974      11.24620463       8.08794988       0.35914487      -0.59489395      -0.79285918
Br       2.84858462       3.34006809      -0.16876617      -0.11168700       0.37979344      -0.16876819
Br       8.55177778       2.79690190      -0.21237531      -0.32903752      -0.16337248      -0.21237736
Br       1.03769021       8.94542618      -0.87077012      -1.92258114       0.06460144      -0.87077217
Br       7.81801031       8.38702991       0.58321520      -1.06280473      -0.49379456       0.58321312
Br       2.78520174       2.53615723       5.29610335      -0.17506990      -0.42411744      -0.62443749
Br       7.96842292       2.13362875       5.94629160      -0.91239241      -0.82664566       0.02575074
Br       3.00716748       9.07524699       5.51488884       0.04689611       0.19442223      -0.40565202
Br       9.06577888       9.36950010       6.30110857       0.18496381       0.48867561       0.38056769
40
Lattice="11.841087389565814 -5.299540211115622e-07 5.134422012396998e-08 -5.299543174639322e-07 11.84110017440169 5.370282133059492e-08 5.1344211613704544e-08 5.370297858733353e-08 11.841077618801604" Properties=species:S:1:pos:R:3:u_disp:R:3 system=cssnbr3_cubic base_model=chgnet role=train_pool T=600.0 draw=13 n_tries=136 rms_disp_A=0.872408885202998 min_pair_ratio=0.6316397472977479 nearest_heldout_A=0.8546464887076345 site_map_ok=1 nearest_heldout_src=cssnbr3_cubic_orb_v2_q1d2-0-1d2-b0.extxyz#7 pbc="T T T"
Cs       6.50335253       6.26007879      -0.28820718       0.58280913       0.33952908      -0.28820738
Cs      11.40991086       5.53346484       0.63607922      -0.43117623      -0.38708461       0.63607900
Cs       4.90763327      11.23398309       0.16167438      -1.01290986      -0.60711671       0.16167415
Cs      11.65255029      11.78154195       0.46628483      -0.18853653      -0.05955758       0.46628458
Cs       5.81220638       5.83412831       5.79366584      -0.10833705      -0.08642143      -0.12687317
Cs      11.47879150       6.45931011       5.73965139      -0.36229562       0.53876064      -0.18088765
Cs       6.64014319      11.70221081       5.82236234       0.71960003      -0.13888901      -0.09817670
Cs      12.67068036      12.17184061       5.76016629       0.82959351       0.33074105      -0.16037277
Sn       3.35311175       3.15292120       2.88806882       0.39283954       0.19264452      -0.07219694
Sn       9.06390826       2.38593869       3.60300286       0.18309236      -0.57433772       0.64273708
Sn       3.05512552       8.63929430       3.37703058       0.09485358      -0.24153247       0.41676479
Sn       9.32777077       8.60050534       2.01802440       0.44695513      -0.28032117      -0.94224142
Sn       3.15195451       2.47129071       8.81305673       0.19168228      -0.48898600      -0.06774784
Sn       9.24250633       3.05334599       9.51961543       0.36169040       0.09306955       0.63881083
Sn       2.21959646       8.26116431       9.73972067      -0.74067551      -0.61966248       0.85891607
Sn       8.21082321       9.28488935       8.30313259      -0.66999245       0.40406283      -0.57767204
Br       5.88280836       3.55525812       1.80500905      -0.03773504       0.59498346      -1.15526115
Br      12.00782616       4.06747032       2.82095840       0.16673906       1.10719593      -0.13931183
Br       5.86170901       8.79095516       3.35693030      -0.05883412      -0.08986958       0.39666007
Br      12.25370021       8.59079146       2.50177773       0.41261338      -0.29003301      -0.45849253
Br       6.07473750       2.47573760       7.46753697       0.15419408      -0.48453708      -1.41327204
Br      11.96815959       2.81261939       9.52338839       0.12707247      -0.14765503       0.64257935
Br       5.32596706       9.38253798       9.21069501      -0.59457610       0.50171322       0.32988597
Br      11.50897863       9.36719143       8.80032794      -0.33210823       0.48636693      -0.08048112
Br       2.88510659       5.61410751       3.91763304      -0.07516482      -0.30644122       0.95736284
Br       8.57588353       5.64984751       2.27005198      -0.30493157      -0.27070096      -0.69021825
Br       3.37801522      11.72006291       3.36053243       0.41774408      -0.12103591       0.40026220
Br       9.24706029      11.66431109       2.12945717       0.36624546      -0.17678746      -0.83081309
Br       2.30180954       5.54024012       9.57904599      -0.65846189      -0.38030864       0.69823698
Br       9.11726871       6.19639892       8.48515488       0.23645358       0.27585043      -0.39565416
Br       2.55301326      11.61271305       8.84804592      -0.40725791      -0.22838580      -0.03276312
Br       8.41185301      11.78819609       8.03712193      -0.46896185      -0.05290249      -0.84368714
Br       3.80104020       3.52924916       0.00801009       0.84076858       0.56897451       0.00800806
Br       8.03797172       2.49216778      -0.01048005      -0.84284358      -0.46810660      -0.01048210
Br       2.78993095       9.45362167       0.31846198      -0.17034040       0.57279694       0.31845993
Br       9.27455979       9.22044252      -0.40979915       0.39374475       0.33961805      -0.40980123
Br       3.01308779       4.29343264       6.20497290       0.05281615       1.33315797       0.28443207
Br       9.10515272       2.47888243       6.10127901       0.22433739      -0.48139198       0.18073815
Br       2.28512514       9.05515297       6.69476720      -0.67514623       0.17432822       0.77422634
Br       9.67969928       8.79135583       5.37558064       0.79888421      -0.08946867      -0.54496024
