40
Lattice="11.789424384493788 4.994228680623598e-17 7.707693397294342e-17 3.86384251277039e-17 11.789424384493786 1.074067569937025e-14 -3.701747836649174e-16 1.034220411604992e-14 11.7894243844938" Properties=species:S:1:pos:R:3:u_disp:R:3 system=cssnbr3_cubic base_model=mace_mp0 role=train_pool T=100.0 draw=0 n_tries=13 rms_disp_A=0.29443004594984185 min_pair_ratio=0.8013914982903244 nearest_heldout_A=0.28200622518780133 site_map_ok=1 nearest_heldout_src=cssnbr3_cubic_orb_v2_q1d2-0-1d2-b0.extxyz#5 pbc="T T T"
Cs      -0.32135561      -0.07952429      -0.17875964      -0.32135561      -0.07952429      -0.17875964
Cs       5.51497469       0.29575567      -0.10070407      -0.37973750       0.29575567      -0.10070407
Cs       0.00959483       5.85396407      -0.03396318       0.00959483      -0.04074813      -0.03396318
Cs       5.87034544       5.92463696       0.02360453      -0.02436675       0.02992477       0.02360453
Cs       0.15931234       0.02484193       5.70465223       0.15931234       0.02484193      -0.19005996
Cs       5.59000520      -0.07199917       5.85038124      -0.30470699      -0.07199917      -0.04433096
Cs       0.39262947       5.56957906       5.88620035       0.39262947      -0.32513313      -0.00851185
Cs       5.73289828       5.97815401       6.12170549      -0.16181391       0.08344182       0.22699330
Sn       3.10112603       2.98815600       2.95307955       0.15376993       0.04079990       0.00572345
Sn       8.88937874       3.08288820       2.85835204       0.04731045       0.13553211      -0.08900406
Sn       3.02283907       8.80811561       2.92782789       0.07548297      -0.03395268      -0.01952821
Sn       8.85634844       8.82131989       2.92900073       0.01428015      -0.02074840      -0.01835536
Sn       3.04049559       2.89818874       8.92559580       0.09313949      -0.04916736       0.08352751
Sn       8.92010449       2.98015254       8.91036560       0.07803621       0.03279645       0.06829731
Sn       2.94733086       8.72364549       8.78794547      -0.00002524      -0.11842280      -0.05412282
Sn       8.68044055       8.89715174       8.80734822      -0.16162774       0.05508345      -0.03472007
Br       0.10092983       3.21768276       2.62124788       0.10092983       0.27032666      -0.32610821
Br       6.05418221       3.29700079       2.83783645       0.15947002       0.34964469      -0.10951964
Br       0.36542500       8.90334319       3.02050810       0.36542500       0.06127490       0.07315200
Br       6.14384746       8.58138083       3.12967870       0.24913526      -0.26068746       0.18232260
Br      -0.22670479       3.04452899       9.29695800      -0.22670479       0.09717290       0.45488971
Br       5.69868642       3.14401391       8.83859979      -0.19602578       0.19665781      -0.00346850
Br      -0.03587772       8.80064795       8.81598174      -0.03587772      -0.04142034      -0.02608655
Br       5.84588407       8.61734641       8.58437276      -0.04882812      -0.22472187      -0.25769553
Br       3.03085290      -0.04863800       3.24555668       0.08349680      -0.04863800       0.29820058
Br       8.64823988       0.17468957       2.84093058      -0.19382841       0.17468957      -0.10642551
Br       2.95117981       5.84232065       2.95851587       0.00382371      -0.05239155       0.01115977
Br       8.87329451       6.07667443       2.74260276       0.03122622       0.18196224      -0.20475333
Br       2.84787646      -0.01677669       8.89892063      -0.09947963      -0.01677669       0.05685234
Br       8.94545931      -0.00553933       8.98937434       0.10339102      -0.00553933       0.14730606
Br       2.91225000       5.84610942       8.86625707      -0.03510610      -0.04860277       0.02418878
Br       8.58315715       5.90548141       8.51016964      -0.25891113       0.01076922      -0.33189865
Br       3.13381299       2.62753115       0.12479291       0.18645690      -0.31982495       0.12479291
Br       8.63129909       3.27452705      -0.02584712      -0.21076920       0.32717096      -0.02584712
Br       3.40900762       8.86241591       0.12569094       0.46165152       0.02034762       0.12569094
Br       9.02109016       8.72000146       0.10377719       0.17902187      -0.12206683       0.10377719
Br       2.81104102       2.96073055       6.08806653      -0.13631508       0.01337446       0.19335434
Br       9.00112197       2.88968620       5.90430052       0.15905369      -0.05766990       0.00958833
Br       2.83857519       8.65446339       5.87779449      -0.10878091      -0.18760490      -0.01691770
Br       8.91199852       8.60112985       6.09312435       0.06993023      -0.24093844       0.19841216
40
Lattice="11.789424384493788 4.994228680623598e-17 7.707693397294342e-17 3.86384251277039e-17 11.789424384493786 1.074067569937025e-14 -3.701747836649174e-16 1.034220411604992e-14 11.7894243844938" Properties=species:S:1:pos:R:3:u_disp:R:3 system=cssnbr3_cubic base_model=mace_mp0 role=train_pool T=100.0 draw=1 n_tries=13 rms_disp_A=0.2935038988171924 min_pair_ratio=0.8232990057474592 nearest_heldout_A=0.2866724158492761 site_map_ok=1 nearest_heldout_src=cssnbr3_cubic_mattersim_q1d2-0-0-b0.extxyz#5 pbc="T T T"
Cs       0.20627284      -0.23082023       0.31553702       0.20627284      -0.23082023       0.31553702
Cs       5.80521457       0.02917834      -0.00727973      -0.08949762       0.02917834      -0.00727973
Cs      -0.13034381       5.89636349       0.16114823      -0.13034381       0.00165130       0.16114823
Cs       6.08770049       6.05338763       0.09315627       0.19298830       0.15867543       0.09315627
Cs       0.03039303       0.13409761       5.83838126       0.03039303       0.13409761      -0.05633093
Cs       5.66937452       0.63256987       5.98523731      -0.22533767       0.63256987       0.09052512
Cs      -0.28820086       5.62270862       6.02586724      -0.28820086      -0.27200357       0.13115505
Cs       5.81848350       5.90783584       6.05989967      -0.07622869       0.01312365       0.16518748
Sn       2.83824935       2.92182381       2.97770382      -0.10910675      -0.02553228       0.03034772
Sn       8.78816592       2.86058419       2.84003065      -0.05390236      -0.08677190      -0.10732545
Sn       3.00676232       8.70841688       2.86336142       0.05940622      -0.13365141      -0.08399468
Sn       8.85008471       8.82796486       2.84234607       0.00801642      -0.01410343      -0.10501003
Sn       2.94150485       3.08581555       8.90567582      -0.00585125       0.13845946       0.06360754
Sn       8.85423558       3.00250332       8.76079452       0.01216729       0.05514722      -0.08127376
Sn       2.98634517       8.86910844       8.73065841       0.03898908       0.02704015      -0.11140988
Sn       8.92183257       8.92832400       8.62473226       0.07976429       0.08625571      -0.21733603
Br      -0.05330977       2.72902735       3.14815506      -0.05330977      -0.21832875       0.20079896
Br       5.92792323       2.74253005       3.00230549       0.03321103      -0.20482604       0.05494939
Br      -0.12793825       8.88313663       2.84724212      -0.12793825       0.04106835      -0.10011397
Br       5.81362749       8.72188233       2.60873485      -0.08108471      -0.12018596      -0.33862124
Br      -0.06345937       3.01748075       8.44999542      -0.06345937       0.07012465      -0.39207287
Br       5.90410398       3.02623582       9.31096197       0.00939179       0.07887972       0.46889368
Br       0.16276232       8.98401306       9.07999858       0.16276232       0.14194477       0.23793030
Br       6.07866847       8.98456169       8.78306603       0.18395628       0.14249340      -0.05900226
Br       3.14945905      -0.04012597       2.95878390       0.20210295      -0.04012597       0.01142781
Br       9.04199277      -0.26246755       2.89717243       0.19992448      -0.26246755      -0.05018366
Br       3.02144552       5.90842358       3.24768258       0.07408942       0.01371138       0.30032649
Br       9.05877231       5.74344945       2.84588375       0.21670402      -0.15126274      -0.10147235
Br       2.68685119       0.00097971       8.99815136      -0.26050491       0.00097971       0.15608307
Br       8.64762986      -0.05288024       8.47562023      -0.19443843      -0.05288024      -0.36644806
Br       3.11001649       5.88590888       8.99214265       0.16266039      -0.00880331       0.15007437
Br       8.64903882       5.81612974       8.72982657      -0.19302947      -0.07858245      -0.11224172
Br       2.75594703       3.13716855      -0.10094099      -0.19140906       0.18981245      -0.10094099
Br       8.71605936       3.16244483      -0.07412223      -0.12600893       0.21508873      -0.07412223
Br       3.13351944       8.47175480       0.12270149       0.18616334      -0.37031349       0.12270149
Br       8.98382532       9.01338501      -0.22392042       0.14175703       0.17131672      -0.22392042
Br       3.15117626       2.95080976       5.73869519       0.20382016       0.00345367      -0.15601700
Br       8.66152969       2.85713826       5.82406277      -0.18053860      -0.09021783      -0.07064942
Br       2.97369771       8.72063664       5.94073017       0.02634162      -0.12143165       0.04601797
Br       9.09908703       8.64713717       5.71562026       0.25701874      -0.19493111      -0.17909193
40
Lattice="11.789424384493788 4.994228680623598e-17 7.707693397294342e-17 3.86384251277039e-17 11.789424384493786 1.074067569937025e-14 -3.701747836649174e-16 1.034220411604992e-14 11.7894243844938" Properties=species:S:1:pos:R:3:u_disp:R:3 system=cssnbr3_cubic base_model=mace_mp0 role=train_pool T=100.0 draw=2 n_tries=13 rms_disp_A=0.29519981357302005 min_pair_ratio=0.8344007610568015 nearest_heldout_A=0.27910203625136915 site_map_ok=1 nearest_heldout_src=cssnbr3_cubic_mace_mp0_q1d2-1d2-0-b0.extxyz#5 pbc="T T T"
Cs       0.34472910       0.06894436      -0.20817734       0.34472910       0.06894436      -0.20817734
Cs       5.94808571      -0.19510214       0.14541282       0.05337352      -0.19510214       0.14541282
Cs      -0.26379176       6.02918020      -0.32368789      -0.26379176       0.13446801      -0.32368789
Cs       5.85128724       5.88124684      -0.31425712      -0.04342495      -0.01346536      -0.31425712
Cs      -0.33315422       0.10526420       5.95630359      -0.33315422       0.10526420       0.06159140
Cs       5.35584141       0.16931718       5.83370653      -0.53887078       0.16931718      -0.06100567
Cs       0.16855800       6.36257022       5.77256323       0.16855800       0.46785803      -0.12214896
Cs       5.77425973       5.73371118       6.08662262      -0.12045246      -0.16100101       0.19191043
Sn       2.77758069       2.86624869       3.02881896      -0.16977541      -0.08110741       0.08146287
Sn       8.77593409       2.79571622       2.74015291      -0.06613420      -0.15163987      -0.20720319
Sn       2.83804773       8.83250163       2.97716540      -0.10930836      -0.00956666       0.02980930
Sn       8.78906928       8.73434990       2.95669057      -0.05299900      -0.10771839       0.00933447
Sn       3.08478394       3.01205542       8.98204730       0.13742785       0.06469933       0.13997901
Sn       9.05060606       2.88178488       8.71923739       0.20853777      -0.06557121      -0.12283090
Sn       3.15782651       8.84186540       8.93850993       0.21047041      -0.00020288       0.09644164
Sn       9.06623293       8.80235200       8.81582785       0.22416464      -0.03971629      -0.02624043
Br      -0.06432530       2.86986358       2.84982673      -0.06432530      -0.07749251      -0.09752937
Br       5.88672469       2.69623541       2.93009108      -0.00798750      -0.25112068      -0.01726502
Br      -0.09778916       8.73292026       2.91139439      -0.09778916      -0.10914803      -0.03596171
Br       5.69149350       8.83387326       2.83054086      -0.20321869      -0.00819503      -0.11681523
Br       0.13409127       3.33083629       8.80749549       0.13409127       0.38348020      -0.03457280
Br       5.99066888       3.00208475       8.89017337       0.09595669       0.05472865       0.04810508
Br       0.13957263       8.63614029       8.95991372       0.13957263      -0.20592800       0.11784543
Br       5.91447398       9.30204253       8.89786658       0.01976179       0.45997424       0.05579829
Br       2.87389857      -0.01698662       3.02245777      -0.07345753      -0.01698662       0.07510167
Br       8.91216323       0.06541748       2.76988241       0.07009494       0.06541748      -0.17747369
Br       3.15818784       5.92011886       3.07862338       0.21083174       0.02540666       0.13126728
Br       8.76752014       5.93797970       2.88072308      -0.07454815       0.04326751      -0.06663301
Br       2.76390491      -0.02921545       9.08444276      -0.18345119      -0.02921545       0.24237448
Br       9.10895635       0.06365929       8.89070426       0.26688806       0.06365929       0.04863598
Br       3.25546204       5.94240562       8.87135201       0.30810594       0.04769343       0.02928372
Br       8.88346106       5.89169933       8.80366290       0.04139277      -0.00301286      -0.03840539
Br       2.81841694       2.83793671      -0.03057502      -0.12893915      -0.10941939      -0.03057502
Br       8.74753506       2.59458525       0.11261687      -0.09453323      -0.35277085       0.11261687
Br       3.04106443       8.81068328       0.27768352       0.09370833      -0.03138500       0.27768352
Br       8.74975877       8.36389476       0.16042271      -0.09230952      -0.47817353       0.16042271
Br       2.89326600       3.18937684       5.93156319      -0.05409010       0.24202074       0.03685100
Br       8.92681746       2.77090791       5.90345305       0.08474918      -0.17644818       0.00874085
Br       3.10887101       9.07315382       6.10603259       0.16151491       0.23108553       0.21132039
Br       8.94122330       8.69672040       6.00126836       0.09915501      -0.14534789       0.10655617
40
Lattice="11.789424384493788 4.994228680623598e-17 7.707693397294342e-17 3.86384251277039e-17 11.789424384493786 1.074067569937025e-14 -3.701747836649174e-16 1.034220411604992e-14 11.7894243844938" Properties=species:S:1:pos:R:3:u_disp:R:3 system=cssnbr3_cubic base_model=mace_mp0 role=train_pool T=100.0 draw=3 n_tries=13 rms_disp_A=0.30515006965130426 min_pair_ratio=0.805605167539461 nearest_heldout_A=0.29521772669574015 site_map_ok=1 nearest_heldout_src=cssnbr3_cubic_chgnet_q1d2-1d2-0-b1.extxyz#4 pbc="T T T"
Cs       0.22859330      -0.20129302      -0.01667644       0.22859330      -0.20129302      -0.01667644
Cs       5.95250468      -0.22376532       0.15226481       0.05779249      -0.22376532       0.15226481
Cs      -0.04594358       5.69531852      -0.12349272      -0.04594358      -0.19939368      -0.12349272
Cs       6.02191336       6.15131160      -0.24258180       0.12720117       0.25659941      -0.24258180
Cs      -0.12913301       0.05148574       5.75758757      -0.12913301       0.05148574      -0.13712462
Cs       5.67517058      -0.01958578       6.39148863      -0.21954161      -0.01958578       0.49677644
Cs       0.08462142       5.87202073       5.41556823       0.08462142      -0.02269146      -0.47914396
Cs       5.81377303       5.89394648       5.63587325      -0.08093916      -0.00076571      -0.25883894
Sn       2.95411360       2.94152245       2.83183229       0.00675751      -0.00583365      -0.11552381
Sn       8.76815836       3.01561131       3.04564659      -0.07390993       0.06825521       0.09829049
Sn       3.01284542       8.94587092       2.92969369       0.06548933       0.10380264      -0.01766241
Sn       8.75284699       8.80987799       3.05063703      -0.08922130      -0.03219030       0.10328094
Sn       3.01534734       2.87723363       8.63248318       0.06799125      -0.07012247      -0.20958511
Sn       8.86738645       3.03791188       8.92438976       0.02531816       0.09055579       0.08232148
Sn       2.95390068       8.94831571       8.89237276       0.00654458       0.10624742       0.05030448
Sn       8.84284422       8.89772407       8.95915185       0.00077593       0.05565578       0.11708356
Br      -0.16247851       3.00223215       2.72304053      -0.16247851       0.05487606      -0.22431557
Br       5.58483983       2.76155039       2.85546376      -0.30987237      -0.18580570      -0.09189233
Br       0.09140484       8.90305336       3.07713185       0.09140484       0.06098507       0.12977575
Br       5.93673683       9.08358301       2.95924255       0.04202464       0.24151472       0.01188645
Br       0.19778393       2.98552979       9.03081030       0.19778393       0.03817369       0.18874201
Br       6.01167213       3.06183403       8.62504467       0.11695993       0.11447793      -0.21702362
Br      -0.11149873       8.91626032       8.93393481      -0.11149873       0.07419203       0.09186653
Br       5.72748007       8.89335171       8.99782280      -0.16723212       0.05128342       0.15575451
Br       2.79913056      -0.09263938       2.91567274      -0.14822553      -0.09263938      -0.03168335
Br       9.10326657      -0.01321045       3.27474103       0.26119828      -0.01321045       0.32738493
Br       2.91353542       5.83222186       2.66454360      -0.03382068      -0.06249033      -0.28281250
Br       8.68275964       5.94703214       3.10614586      -0.15930865       0.05231995       0.15878976
Br       3.27799111      -0.17633731       8.73766864       0.33063501      -0.17633731      -0.10439965
Br       8.79748606       0.11151980       8.99298375      -0.04458223       0.11151980       0.15091546
Br       3.15657148       5.81214949       8.90651770       0.20921539      -0.08256270       0.06444941
Br       8.63589596       5.96456605       9.24142610      -0.20617233       0.06985386       0.39935782
Br       2.97381839       2.61249641      -0.18698885       0.02646230      -0.33485968      -0.18698885
Br       8.78733620       2.77917648       0.04996499      -0.05473209      -0.16817961       0.04996499
Br       2.78327908       9.41395338       0.28416397      -0.16407701       0.57188510       0.28416397
Br       8.53750814       8.66000170      -0.19717926      -0.30456015      -0.18206658      -0.19717926
Br       3.17544489       2.78849268       5.87645069       0.22808879      -0.15886341      -0.01826150
Br       9.20322758       3.12617991       5.93136202       0.36115929       0.17882382       0.03664983
Br       3.01847171       9.06781833       6.10778143       0.07111562       0.22575004       0.21306923
Br       8.72042641       8.58122124       5.83794431      -0.12164188      -0.26084705      -0.05676788
40
Lattice="11.789424384493788 4.994228680623598e-17 7.707693397294342e-17 3.86384251277039e-17 11.789424384493786 1.074067569937025e-14 -3.701747836649174e-16 1.034220411604992e-14 11.7894243844938" Properties=species:S:1:pos:R:3:u_disp:R:3 system=cssnbr3_cubic base_model=mace_mp0 role=train_pool T=100.0 draw=4 n_tries=13 rms_disp_A=0.30084476563249574 min_pair_ratio=0.8465058160209726 nearest_heldout_A=0.2954511707868589 site_map_ok=1 nearest_heldout_src=cssnbr3_cubic_orb_v2_q1d2-1d2-0-b0.extxyz#4 pbc="T T T"
Cs      -0.07423472       0.26568074      -0.08185963      -0.07423472       0.26568074      -0.08185963
Cs       5.73124322      -0.19522967       0.03333677      -0.16346898      -0.19522967       0.03333677
Cs       0.08073714       5.71533717       0.17274145       0.08073714      -0.17937503       0.17274145
Cs       6.02555986       6.10616904      -0.23794882       0.13084767       0.21145685      -0.23794882
Cs      -0.18190018       0.07748562       5.67009399      -0.18190018       0.07748562      -0.22461820
Cs       6.05185587      -0.12384004       5.93787379       0.15714368      -0.12384004       0.04316160
Cs       0.01978790       5.85156883       5.66643089       0.01978790      -0.04314336      -0.22828130
Cs       5.87874860       5.82406795       5.97139908      -0.01596359      -0.07064424       0.07668689
Sn       2.87258277       2.80899403       3.02832423      -0.07477332      -0.13836207       0.08096813
Sn       8.75875534       2.81429828       2.89340455      -0.08331295      -0.13305781      -0.05395154
Sn       2.89434933       8.71886279       2.88239948      -0.05300676      -0.12320550      -0.06495662
Sn       8.89756231       8.70329082       2.85609366       0.05549402      -0.13877747      -0.09126244
Sn       2.83413628       2.96240276       8.90817317      -0.11321981       0.01504667       0.06610489
Sn       8.68435364       2.91767900       8.87346694      -0.15771465      -0.02967710       0.03139866
Sn       2.94260763       8.89769340       8.79193250      -0.00474846       0.05562511      -0.05013579
Sn       8.85973120       8.84888204       8.76159653       0.01766291       0.00681375      -0.08047176
Br       0.02223903       3.06009324       3.46962423       0.02223903       0.11273714       0.52226814
Br       5.95479399       2.74844028       2.99942485       0.06008180      -0.19891582       0.05206876
Br       0.11076156       9.02415551       2.46432670       0.11076156       0.18208723      -0.48302940
Br       5.84746280       8.61733823       3.08933822      -0.04724939      -0.22473006       0.14198213
Br       0.21200304       2.98384324       8.77519559       0.21200304       0.03648714      -0.06687270
Br       6.11422035       2.71993925       8.92130834       0.21950815      -0.22741685       0.07924005
Br      -0.01307086       9.07246533       8.91849820      -0.01307086       0.23039704       0.07642991
Br       5.79995242       8.82947320       9.14321501      -0.09475977      -0.01259509       0.30114672
Br       3.10250886       0.08147618       2.68860642       0.15515277       0.08147618      -0.25874968
Br       8.91458478      -0.07804833       3.04906042       0.07251650      -0.07804833       0.10170432
Br       3.06273138       6.16271431       2.77030402       0.11537528       0.26800212      -0.17705208
Br       8.81137876       5.72810652       3.02552606      -0.03068952      -0.16660567       0.07816996
Br       2.59505813       0.08862563       8.80230256      -0.35229796       0.08862563      -0.03976573
Br       8.66904458       0.28985158       8.51157833      -0.17302371       0.28985158      -0.33048996
Br       3.03453572       6.07375461       9.25211495       0.08717963       0.17904242       0.41004667
Br       8.77461561       6.28611754       8.83987745      -0.06745268       0.39140535      -0.00219084
Br       2.83803344       2.79017472      -0.12009827      -0.10932266      -0.15718137      -0.12009827
Br       8.74475234       2.82185321       0.05040657      -0.09731594      -0.12550288       0.05040657
Br       3.19799420       9.14857165       0.25954226       0.25063810       0.30650336       0.25954226
Br       8.83291875       9.18364077       0.05736960      -0.00914954       0.34157248       0.05736960
Br       2.97378049       2.87986864       5.90666306       0.02642440      -0.06748746       0.01195086
Br       8.57328279       2.64569201       5.88580169      -0.26878550      -0.30166409      -0.00891050
Br       3.14696224       8.84549925       6.20616580       0.19960614       0.00343096       0.31145361
Br       9.26645647       8.70784649       5.91236122       0.42438818      -0.13422180       0.01764902
40
Lattice="11.789424384493788 4.994228680623598e-17 7.707693397294342e-17 3.86384251277039e-17 11.789424384493786 1.074067569937025e-14 -3.701747836649174e-16 1.034220411604992e-14 11.7894243844938" Properties=species:S:1:pos:R:3:u_disp:R:3 system=cssnbr3_cubic base_model=mace_mp0 role=train_pool T=100.0 draw=5 n_tries=13 rms_disp_A=0.3440106695307526 min_pair_ratio=0.7875003767359892 nearest_heldout_A=0.3338637293393081 site_map_ok=1 nearest_heldout_src=cssnbr3_cubic_chgnet_q0-0-0-b4.extxyz#4 pbc="T T T"
Cs      -0.42054436       0.12319804       0.01859232      -0.42054436       0.12319804       0.01859232
Cs       5.82062995      -0.25946156      -0.52155070      -0.07408224      -0.25946156      -0.52155070
Cs       0.21457952       5.93857865       0.18689096       0.21457952       0.04386646       0.18689096
Cs       5.61052768       5.89487066      -0.07844405      -0.28418452       0.00015847      -0.07844405
Cs      -0.24559758       0.28485854       5.98412199      -0.24559758       0.28485854       0.08940980
Cs       5.73513020       0.12984695       5.95772988      -0.15958199       0.12984695       0.06301768
Cs       0.29924162       6.22946681       6.11206453       0.29924162       0.33475461       0.21735234
Cs       5.60881959       5.90996307       5.55549509      -0.28589260       0.01525088      -0.33921711
Sn       2.80799726       2.93993071       2.98708393      -0.13935884      -0.00742539       0.03972783
Sn       8.72706490       3.06320245       3.01942922      -0.11500338       0.11584636       0.07207312
Sn       2.97610642       8.90011229       2.89705621       0.02875033       0.05804400      -0.05029989
Sn       8.86180428       8.88404822       3.04813913       0.01973599       0.04197993       0.10078303
Sn       3.02961894       2.90691680       8.98664121       0.08226285      -0.04043929       0.14457292
Sn       8.95616304       2.98304788       9.00474317       0.11409476       0.03569178       0.16267488
Sn       3.02580197       8.73956128       8.83049463       0.07844588      -0.10250701      -0.01157366
Sn       8.92630166       8.91517599       8.73050704       0.08423338       0.07310770      -0.11156125
Br       0.25528249       2.95412816       2.94780182       0.25528249       0.00677206       0.00044572
Br       6.06542967       2.78762337       2.87846384       0.17071748      -0.15973273      -0.06889225
Br      -0.12472962       8.88215571       2.87242899      -0.12472962       0.04008742      -0.07492711
Br       5.86109248       9.23132176       3.20129323      -0.03361971       0.38925347       0.25393714
Br      -0.07387749       2.46938350       8.56339548      -0.07387749      -0.47797259      -0.27867280
Br       5.77376008       2.71320714       9.05906661      -0.12095211      -0.23414896       0.21699832
Br       0.20569953       8.75865397       8.67678723       0.20569953      -0.08341432      -0.16528106
Br       6.05690103       8.98656960       9.20636509       0.16218884       0.14450131       0.36429680
Br       2.84247873      -0.13276999       2.99933232      -0.10487737      -0.13276999       0.05197623
Br       8.78716473      -0.24990024       2.67987113      -0.05490356      -0.24990024      -0.26748497
Br       3.31212789       5.81242953       2.99699555       0.36477179      -0.08228266       0.04963945
Br       8.85924463       5.82663165       2.84858926       0.01717634      -0.06808054      -0.09876683
Br       3.27004143      -0.36721508       8.88377467       0.32268533      -0.36721508       0.04170639
Br       9.04504628      -0.19167941       8.73399383       0.20297799      -0.19167941      -0.10807446
Br       3.05372241       5.53792753       8.60743732       0.10636632      -0.35678466      -0.23463097
Br       9.40089747       5.77526424       8.84610043       0.55882918      -0.11944795       0.00403214
Br       2.55453218       2.98661888       0.05649607      -0.39282391       0.03926278       0.05649607
Br       8.85174133       3.15749582       0.22251834       0.00967304       0.21013972       0.22251834
Br       2.85884697       8.49138033       0.20723309      -0.08850913      -0.35068796       0.20723309
Br       8.81999619       9.08668571      -0.22789494      -0.02207210       0.24461742      -0.22789494
Br       2.99003716       2.89099201       5.97212346       0.04268107      -0.05636409       0.07741127
Br       8.71947000       3.38965617       6.13967688      -0.12259829       0.44230007       0.24496469
Br       2.94732996       8.64355772       5.94637691      -0.00002613      -0.19851057       0.05166471
Br       8.92469521       9.07664561       5.66675093       0.08262693       0.23457732      -0.22796127
40
Lattice="11.789424384493788 4.994228680623598e-17 7.707693397294342e-17 3.86384251277039e-17 11.789424384493786 1.074067569937025e-14 -3.701747836649174e-16 1.034220411604992e-14 11.7894243844938" Properties=species:S:1:pos:R:3:u_disp:R:3 system=cssnbr3_cubic base_model=mace_mp0 role=train_pool T=100.0 draw=6 n_tries=13 rms_disp_A=0.2816468919188948 min_pair_ratio=0.8082818372159091 nearest_heldout_A=0.27122102574320894 site_map_ok=1 nearest_heldout_src=cssnbr3_cubic_chgnet_q1d2-1d2-1d2-b3.extxyz#5 pbc="T T T"
Cs       0.11924118      -0.10683387       0.04861165       0.11924118      -0.10683387       0.04861165
Cs       5.82450813      -0.56497088      -0.08210091      -0.07020406      -0.56497088      -0.08210091
Cs       0.18806955       6.02753602      -0.19268880       0.18806955       0.13282383      -0.19268880
Cs       5.67619538       5.91368917       0.17242465      -0.21851682       0.01897698       0.17242465
Cs      -0.10631204       0.42306488       5.76048659      -0.10631204       0.42306488      -0.13422560
Cs       6.10281203      -0.28956544       6.28434267       0.20809983      -0.28956544       0.38963048
Cs      -0.06153609       5.55669035       6.28477229      -0.06153609      -0.33802184       0.39006010
Cs       5.94210841       6.03210332       5.78623711       0.04739621       0.13739112      -0.10847509
Sn       3.05547304       2.78398768       2.98624708       0.10811695      -0.16336842       0.03889098
Sn       8.82993092       2.99750820       2.91977016      -0.01213737       0.05015211      -0.02758594
Sn       3.14191784       8.77572699       2.91608415       0.19456174      -0.06634130      -0.03127194
Sn       8.93588162       8.86155705       3.00208118       0.09381333       0.01948877       0.05472508
Sn       2.80613086       2.91025066       8.92619323      -0.14122524      -0.03710543       0.08412494
Sn       8.66190877       3.04354493       8.95472275      -0.18015952       0.09618883       0.11265447
Sn       2.92748534       8.89086069       8.66382351      -0.01987076       0.04879240      -0.17824478
Sn       8.83365275       8.97748954       8.82740275      -0.00841554       0.13542126      -0.01466554
Br       0.00743794       2.92072403       3.10759669       0.00743794      -0.02663207       0.16024060
Br       5.89217511       2.81034484       2.61058183      -0.00253708      -0.13701125      -0.33677426
Br       0.01053789       8.93988868       3.25435532       0.01053789       0.09782039       0.30699923
Br       5.96515953       9.06058073       2.89047865       0.07044734       0.21851244      -0.05687744
Br       0.04447788       3.07637131       8.83215142       0.04447788       0.12901521      -0.00991687
Br       5.96147187       2.94967413       8.95278800       0.06675968       0.00231804       0.11071971
Br      -0.15155124       8.74621283       8.76827677      -0.15155124      -0.09585546      -0.07379152
Br       5.71860333       9.14052351       8.65848951      -0.17610887       0.29845522      -0.18357878
Br       2.96183623      -0.14816629       3.12634578       0.01448013      -0.14816629       0.17898968
Br       9.03132090       0.04431264       2.88130465       0.18925261       0.04431264      -0.06605145
Br       2.87288741       5.69581945       3.14775041      -0.07446869      -0.19889275       0.20039431
Br       8.70799300       6.04862800       2.98809734      -0.13407529       0.15391581       0.04074125
Br       2.63751678       0.19373724       8.63505142      -0.30983932       0.19373724      -0.20701687
Br       8.70850167       0.01346365       8.58818150      -0.13356662       0.01346365      -0.25388678
Br       2.97475023       6.00805585       8.68228237       0.02739414       0.11334366      -0.15978592
Br       8.78409063       5.79098221       8.77526151      -0.05797766      -0.10372998      -0.06680678
Br       2.84018267       2.97088991      -0.08338501      -0.10717342       0.02353381      -0.08338501
Br       8.78708812       3.20210313      -0.05904425      -0.05498016       0.25474703      -0.05904425
Br       3.09551621       8.69908928       0.05705717       0.14816011      -0.14297901       0.05705717
Br       8.90590892       9.08051049      -0.08853996       0.06384063       0.23844220      -0.08853996
Br       2.75534888       2.89526944       5.86489506      -0.19200722      -0.05208665      -0.02981713
Br       9.09504792       2.91646373       5.82504763       0.25297963      -0.03089237      -0.06966456
Br       3.35346093       8.75220876       5.85112799       0.40610483      -0.08985953      -0.04358420
Br       8.70624628       8.93949797       5.76693108      -0.13582201       0.09742969      -0.12778111
40
Lattice="11.789424384493788 4.994228680623598e-17 7.707693397294342e-17 3.86384251277039e-17 11.789424384493786 1.074067569937025e-14 -3.701747836649174e-16 1.034220411604992e-14 11.7894243844938" Properties=species:S:1:pos:R:3:u_disp:R:3 system=cssnbr3_cubic base_model=mace_mp0 role=train_pool T=100.0 draw=7 n_tries=13 rms_disp_A=0.32467006607638194 min_pair_ratio=0.8017338469528603 nearest_heldout_A=0.3099864717588523 site_map_ok=1 nearest_heldout_src=cssnbr3_cubic_chgnet_q0-0-0-b0.extxyz#4 pbc="T T T"
Cs       0.19998408      -0.32275973      -0.32625151       0.19998408      -0.32275973      -0.32625151
Cs       6.36649622      -0.34659076      -0.01268636       0.47178403      -0.34659076      -0.01268636
Cs      -0.21079698       5.90120252       0.43968728      -0.21079698       0.00649033       0.43968728
Cs       6.18675055       5.97032993       0.15582658       0.29203836       0.07561774       0.15582658
Cs       0.33334814      -0.29742996       5.80265080       0.33334814      -0.29742996      -0.09206140
Cs       5.59159730       0.54238804       6.18752586      -0.30311490       0.54238804       0.29281367
Cs       0.02965733       5.51877116       5.65771520       0.02965733      -0.37594103      -0.23699699
Cs       5.97251349       5.88412151       5.82485111       0.07780129      -0.01059069      -0.06986108
Sn       2.97769218       2.90267300       2.90005258       0.03033609      -0.04468310      -0.04730352
Sn       8.89819125       2.94334624       2.93217205       0.05612297      -0.00400986      -0.01518404
Sn       2.88234416       8.91947769       2.98922342      -0.06501193       0.07740940       0.04186732
Sn       8.83193543       8.90968628       3.05226823      -0.01013286       0.06761799       0.10491213
Sn       2.93219755       2.93686890       8.72567099      -0.01515855      -0.01048720      -0.11639730
Sn       8.79537911       3.17525609       8.79037974      -0.04668918       0.22789999      -0.05168855
Sn       2.85380071       8.68575842       8.73498766      -0.09355538      -0.15630987      -0.10708063
Sn       8.83493147       8.94622704       8.92453535      -0.00713682       0.10415875       0.08246706
Br       0.05112582       3.13011920       3.18525192       0.05112582       0.18276310       0.23789582
Br       5.92926799       3.15995624       3.03668091       0.03455579       0.21260015       0.08932481
Br       0.19646482       9.17946110       2.93892723       0.19646482       0.33739281      -0.00842887
Br       6.14018243       9.11136398       2.78395438       0.24547024       0.26929569      -0.16340172
Br       0.02786808       3.15729095       8.60594298       0.02786808       0.20993486      -0.23612531
Br       5.94065927       2.98147032       8.63473870       0.04594708       0.03411423      -0.20732959
Br       0.02615249       8.85420948       8.84138895       0.02615249       0.01214119      -0.00067934
Br       5.81129656       8.62962261       8.90273166      -0.08341563      -0.21244568       0.06066337
Br       2.87133751      -0.06497415       3.01530542      -0.07601858      -0.06497415       0.06794932
Br       8.71895261      -0.07209775       2.81794369      -0.12311568      -0.07209775      -0.12941241
Br       2.59745842       5.82227616       3.12405908      -0.34989768      -0.07243603       0.17670299
Br       8.83260454       5.85733974       3.05316670      -0.00946375      -0.03737245       0.10581061
Br       2.62242829      -0.04456289       8.34623682      -0.32492781      -0.04456289      -0.49583147
Br       8.68656333       0.12605732       8.85862943      -0.15550496       0.12605732       0.01656115
Br       2.67277667       5.74249058       8.39666302      -0.27457943      -0.15222161      -0.44540527
Br       8.72697663       6.05985129       9.03808257      -0.11509166       0.16513910       0.19601428
Br       2.65297499       2.96667145       0.00081505      -0.29438110       0.01931535       0.00081505
Br       8.92104606       2.96428222       0.09295829       0.07897777       0.01692613       0.09295829
Br       2.68794592       8.60683783       0.15556124      -0.25941018      -0.23523046       0.15556124
Br       8.59237607       8.95353359       0.11512723      -0.24969222       0.11146530       0.11512723
Br       2.94248355       2.96942434       5.74184234      -0.00487255       0.02206825      -0.15286985
Br       8.97715119       2.94230931       6.13347902       0.13508290      -0.00504678       0.23876682
Br       3.01293176       9.02999902       6.01962870       0.06557566       0.18793073       0.12491651
Br       8.99837230       8.65491967       5.96590580       0.15630401      -0.18714862       0.07119361
40
Lattice="11.789424384493788 4.994228680623598e-17 7.707693397294342e-17 3.86384251277039e-17 11.789424384493786 1.074067569937025e-14 -3.701747836649174e-16 1.034220411604992e-14 11.7894243844938" Properties=species:S:1:pos:R:3:u_disp:R:3 system=cssnbr3_cubic base_model=mace_mp0 role=train_pool T=100.0 draw=8 n_tries=13 rms_disp_A=0.3255835547308147 min_pair_ratio=0.8185948719583158 nearest_heldout_A=0.30998174670955997 site_map_ok=1 nearest_heldout_src=cssnbr3_cubic_chgnet_q1d2-1d2-0-b1.extxyz#5 pbc="T T T"
Cs      -0.15401258      -0.18790479       0.09894133      -0.15401258      -0.18790479       0.09894133
Cs       5.89838080      -0.18955769       0.41081040       0.00366861      -0.18955769       0.41081040
Cs       0.01528023       5.65913216       0.50498967       0.01528023      -0.23558003       0.50498967
Cs       5.79127923       6.27687450      -0.36986182      -0.10343297       0.38216231      -0.36986182
Cs       0.30733321       0.25225067       6.08845250       0.30733321       0.25225067       0.19374031
Cs       6.05848742      -0.16346318       5.89565351       0.16377522      -0.16346318       0.00094132
Cs      -0.27214092       5.90195840       5.82887534      -0.27214092       0.00724621      -0.06583686
Cs       6.17703355       6.23565504       5.99462428       0.28232136       0.34094285       0.09991209
Sn       3.16017850       2.88708397       2.87682611       0.21282241      -0.06027213      -0.07052998
Sn       9.06743453       2.99286004       2.79198963       0.22536624       0.04550394      -0.15536646
Sn       2.84260401       8.79293513       2.76777280      -0.10475208      -0.04913316      -0.17958330
Sn       8.70512387       8.84854831       2.94294051      -0.13694441       0.00648003      -0.00441559
Sn       2.95402175       2.84299986       8.72302176       0.00666566      -0.10435624      -0.11904652
Sn       8.83324073       3.01097038       8.78856577      -0.00882756       0.06361429      -0.05350251
Sn       2.83658471       8.78781240       8.65571503      -0.11077139      -0.05425589      -0.18635326
Sn       8.74591274       8.97191639       8.87233493      -0.09615555       0.12984811       0.03026664
Br      -0.29249993       2.56482164       2.69554208      -0.29249993      -0.38253446      -0.25181401
Br       5.60247020       3.31045651       3.05861802      -0.29224199       0.36310041       0.11126192
Br       0.19678962       8.68210598       3.15509980       0.19678962      -0.15996231       0.20774371
Br       5.92752267       8.35625382       2.57968340       0.03281047      -0.48581447      -0.36767269
Br       0.05180386       2.69432415       8.61569641       0.05180386      -0.25303194      -0.22637188
Br       5.88311277       3.16177954       8.73619216      -0.01159942       0.21442345      -0.10587612
Br      -0.01936649       8.84337537       8.98441403      -0.01936649       0.00130708       0.14234574
Br       5.91609673       9.01294794       8.88865820       0.02138454       0.17087965       0.04658991
Br       3.16612394      -0.01596359       2.99347557       0.21876784      -0.01596359       0.04611947
Br       8.47961824       0.16883208       3.32815267      -0.36245005       0.16883208       0.38079657
Br       2.84891864       5.85462785       3.03474276      -0.09843745      -0.04008434       0.08738666
Br       9.11281915       6.06254791       3.02188649       0.27075086       0.16783572       0.07453039
Br       3.11022341      -0.05140420       8.71706618       0.16286731      -0.05140420      -0.12500211
Br       8.66046284       0.04058098       8.88516177      -0.18160545       0.04058098       0.04309348
Br       3.01869104       5.90779446       8.63006115       0.07133494       0.01308226      -0.21200714
Br       8.67304291       6.03759261       8.97745749      -0.16902538       0.14288042       0.13538920
Br       2.83079780       2.83152101      -0.12102237      -0.11655829      -0.11583509      -0.12102237
Br       9.04709078       2.86166480      -0.03484811       0.20502249      -0.08569130      -0.03484811
Br       2.89225819       8.81751483      -0.16847461      -0.05509790      -0.02455346      -0.16847461
Br       8.77545788       8.72451355       0.21123900      -0.06661041      -0.11755474       0.21123900
Br       3.06863497       2.77302320       5.73588383       0.12127887      -0.17433289      -0.15882837
Br       9.04609153       3.21895344       5.76687007       0.20402324       0.27159735      -0.12784212
Br       3.09529417       8.91819354       5.84472590       0.14793808       0.07612525      -0.04998629
Br       8.41766364       8.80891632       6.00203446      -0.42440464      -0.03315197       0.10732227
40
Lattice="11.789424384493788 4.994228680623598e-17 7.707693397294342e-17 3.86384251277039e-17 11.789424384493786 1.074067569937025e-14 -3.701747836649174e-16 1.034220411604992e-14 11.7894243844938" Properties=species:S:1:pos:R:3:u_disp:R:3 system=cssnbr3_cubic base_model=mace_mp0 role=train_pool T=100.0 draw=9 n_tries=13 rms_disp_A=0.29758455755571994 min_pair_ratio=0.8002224904133357 nearest_heldout_A=0.2772061552215682 site_map_ok=1 nearest_heldout_src=cssnbr3_cubic_chgnet_q0-1d2-1d2-b0.extxyz#6 pbc="T T T"
Cs      -0.16031766       0.18169047      -0.10198783      -0.16031766       0.18169047      -0.10198783
Cs       6.01048788       0.26723258       0.28563247       0.11577569       0.26723258       0.28563247
Cs       0.17087623       5.61748944       0.14512140       0.17087623      -0.27722275       0.14512140
Cs       5.68203127       5.50118697       0.09640382      -0.21268092      -0.39352522       0.09640382
Cs       0.22502542      -0.22126980       5.91612982       0.22502542      -0.22126980       0.02141763
Cs       5.63067840       0.05302033       5.73089553      -0.26403379       0.05302033      -0.16381666
Cs      -0.02611609       5.95729058       5.64015605      -0.02611609       0.06257838      -0.25455615
Cs       6.21886773       6.15470361       6.09962358       0.32415554       0.25999141       0.20491139
Sn       2.90883351       2.97064487       2.79972263      -0.03852259       0.02328877      -0.14763347
Sn       8.86048185       2.97345149       2.92089872       0.01841356       0.02609540      -0.02645737
Sn       3.06484589       8.79464339       2.90250444       0.11748980      -0.04742489      -0.04485166
Sn       8.94784939       8.89168008       2.93880673       0.10578110       0.04961179      -0.00854936
Sn       2.98140987       3.02278949       8.73980039       0.03405377       0.07543340      -0.10226790
Sn       8.94880585       2.93819702       8.77724229       0.10673756      -0.00915908      -0.06482600
Sn       2.94148424       8.97350033       8.98597621      -0.00587186       0.13143205       0.14390792
Sn       8.75686051       8.90145783       8.85463174      -0.08520778       0.05938954       0.01256345
Br       0.09431660       2.73565100       2.99309419       0.09431660      -0.21170510       0.04573809
Br       5.96731887       2.78974250       2.46749130       0.07260667      -0.15761360      -0.47986479
Br      -0.08342510       8.70507957       3.17187863      -0.08342510      -0.13698872       0.22452254
Br       5.79611927       8.62523203       3.29614081      -0.09859293      -0.21683626       0.34878472
Br       0.01824923       2.77579062       8.99331641       0.01824923      -0.17156548       0.15124812
Br       5.99497985       3.05254205       8.67634964       0.10026766       0.10518595      -0.16571864
Br      -0.09168856       9.14239368       9.02289082      -0.09168856       0.30032539       0.18082253
Br       5.68503158       8.95738081       8.90767364      -0.20968061       0.11531253       0.06560535
Br       2.80544908       0.08171861       2.60810393      -0.14190701       0.08171861      -0.33925216
Br       8.83019128       0.06650206       2.77511111      -0.01187701       0.06650206      -0.17224499
Br       2.63265749       5.81844938       3.07889814      -0.31469861      -0.07626281       0.13154204
Br       8.86030951       5.90864228       2.74457076       0.01824122       0.01393009      -0.20278533
Br       2.94384359      -0.11330781       9.03787265      -0.00351251      -0.11330781       0.19580436
Br       8.69641428       0.19602018       9.03481231      -0.14565401       0.19602018       0.19274402
Br       2.91291697       5.81883794       8.49552545      -0.03443912      -0.07587425      -0.34654284
Br       8.72007264       6.00466904       8.82200232      -0.12199565       0.10995685      -0.02006597
Br       2.89733635       3.35686338       0.07370484      -0.05001975       0.40950728       0.07370484
Br       9.15321216       3.15271002      -0.03046628       0.31114387       0.20535393      -0.03046628
Br       3.31041937       8.46769806       0.01596554       0.36306328      -0.37437023       0.01596554
Br       8.70074502       8.65771977      -0.01076525      -0.14132326      -0.18434851      -0.01076525
Br       2.96788411       2.67780741       5.94607958       0.02052802      -0.26954869       0.05136739
Br       8.63887012       2.90325914       5.81223074      -0.20319817      -0.04409695      -0.08248145
Br       3.01857010       9.02702129       6.02267289       0.07121401       0.18495301       0.12796070
Br       8.76153804       8.73952868       5.90508429      -0.08053025      -0.10253960       0.01037210
40
Lattice="11.789424384493788 4.994228680623598e-17 7.707693397294342e-17 3.86384251277039e-17 11.789424384493786 1.074067569937025e-14 -3.701747836649174e-16 1.034220411604992e-14 11.7894243844938" Properties=species:S:1:pos:R:3:u_disp:R:3 system=cssnbr3_cubic base_model=mace_mp0 role=train_pool T=100.0 draw=10 n_tries=13 rms_disp_A=0.339394072053991 min_pair_ratio=0.8128794280787317 nearest_heldout_A=0.3295169857347847 site_map_ok=1 nearest_heldout_src=cssnbr3_cubic_chgnet_q0-1d2-1d2-b0.extxyz#5 pbc="T T T"
Cs      -0.79356214      -0.08886683      -0.01660403      -0.79356214      -0.08886683      -0.01660403
Cs       5.54670087       0.34243909       0.05104232      -0.34801132       0.34243909       0.05104232
Cs       0.35729118       5.75593732      -0.41261950       0.35729118      -0.13877487      -0.41261950
Cs       5.90299657       6.10039479       0.35696347       0.00828437       0.20568260       0.35696347
Cs      -0.30918291      -0.16131690       6.25644259      -0.30918291      -0.16131690       0.36173040
Cs       5.83815286      -0.33120256       6.01084318      -0.05655933      -0.33120256       0.11613099
Cs      -0.02158816       5.89359523       5.79623736      -0.02158816      -0.00111697      -0.09847483
Cs       5.94464418       5.92479630       5.81067758       0.04993199       0.03008411      -0.08403462
Sn       2.96528952       2.86887621       2.69615021       0.01793343      -0.07847988      -0.25120588
Sn       8.89071427       2.82607844       2.93225920       0.04864598      -0.12127765      -0.01509689
Sn       2.92753749       8.78204335       3.00787295      -0.01981861      -0.06002494       0.06051685
Sn       8.99798359       8.70234960       3.20846222       0.15591530      -0.13971869       0.26110612
Sn       3.06968422       3.22895406       8.63536026       0.12232813       0.28159797      -0.20670803
Sn       8.90399355       3.07077951       8.81343260       0.06192526       0.12342341      -0.02863569
Sn       2.96686650       9.17904950       8.87115470       0.01951040       0.33698121       0.02908641
Sn       8.97071650       8.84830634       9.12156748       0.12864822       0.00623805       0.27949919
Br      -0.11670011       3.09038718       2.45396051      -0.11670011       0.14303109      -0.49339558
Br       5.69955259       2.75553323       2.80672380      -0.19515960      -0.19182287      -0.14063229
Br      -0.24469759       8.43330772       3.07148375      -0.24469759      -0.40876057       0.12412766
Br       5.72875415       8.94857556       2.90622609      -0.16595804       0.10650727      -0.04113001
Br       0.22700188       3.27805286       8.77652699       0.22700188       0.33069677      -0.06554130
Br       6.10830603       2.84093352       8.77028508       0.21359384      -0.10642257      -0.07178321
Br      -0.03057423       8.97764044       9.01362907      -0.03057423       0.13557215       0.17156078
Br       5.87503402       8.68464108       8.90960868      -0.01967817      -0.15742721       0.06754040
Br       2.77517062      -0.02758764       2.72353421      -0.17218548      -0.02758764      -0.22382188
Br       9.05878328      -0.05343149       3.14820864       0.21671499      -0.05343149       0.20085254
Br       3.10872132       5.89581081       3.20224572       0.16136522       0.00109862       0.25488963
Br       8.76685168       5.75266488       3.20095123      -0.07521661      -0.14204732       0.25359514
Br       2.89165549      -0.11171859       8.80547700      -0.05570061      -0.11171859      -0.03659129
Br       8.93700660       0.02424155       8.93241642       0.09493831       0.02424155       0.09034813
Br       2.98221208       5.96379962       8.61076789       0.03485598       0.06908743      -0.23130039
Br       8.95360388       5.75492155       8.70361725       0.11153559      -0.13979064      -0.13845103
Br       3.10892666       3.13678901      -0.29213172       0.16157057       0.18943292      -0.29213172
Br       8.96589636       2.95211197       0.09382432       0.12382808       0.00475588       0.09382432
Br       2.92625194       8.73104013      -0.07784300      -0.02110415      -0.11102816      -0.07784300
Br       8.70668000       8.69936369       0.19551030      -0.13538829      -0.14270460       0.19551030
Br       2.97315059       2.70628580       5.65923252       0.02579449      -0.24107030      -0.23547967
Br       9.14660211       3.02637179       5.81455359       0.30453383       0.07901569      -0.08015860
Br       3.20370448       9.01751844       5.82888976       0.25634839       0.17545015      -0.06582243
Br       9.19932000       9.13685743       5.98957515       0.35725171       0.29478914       0.09486296
40
Lattice="11.789424384493788 4.994228680623598e-17 7.707693397294342e-17 3.86384251277039e-17 11.789424384493786 1.074067569937025e-14 -3.701747836649174e-16 1.034220411604992e-14 11.7894243844938" Properties=species:S:1:pos:R:3:u_disp:R:3 system=cssnbr3_cubic base_model=mace_mp0 role=train_pool T=100.0 draw=11 n_tries=13 rms_disp_A=0.3032073880322979 min_pair_ratio=0.8253411416936738 nearest_heldout_A=0.2967948119703691 site_map_ok=1 nearest_heldout_src=cssnbr3_cubic_chgnet_q1d2-0-0-b0.extxyz#4 pbc="T T T"
Cs      -0.08345909       0.24120328      -0.15746280      -0.08345909       0.24120328      -0.15746280
Cs       5.92851837      -0.44394958       0.02134804       0.03380617      -0.44394958       0.02134804
Cs      -0.30438005       6.01801016       0.05322572      -0.30438005       0.12329796       0.05322572
Cs       6.05955576       5.69765159       0.21164597       0.16484357      -0.19706061       0.21164597
Cs       0.32651144       0.10923892       5.86959558       0.32651144       0.10923892      -0.02511662
Cs       5.93082402       0.13926552       6.00447542       0.03611183       0.13926552       0.10976322
Cs      -0.02401289       6.13368004       6.08586850      -0.02401289       0.23896785       0.19115631
Cs       5.96625290       5.79318078       6.12580465       0.07154071      -0.10153141       0.23109245
Sn       3.05058206       2.94378567       2.84340578       0.10322596      -0.00357043      -0.10395032
Sn       9.00476524       2.87392382       2.74112428       0.16269696      -0.07343227      -0.20623182
Sn       3.02302789       8.79819333       3.00284129       0.07567179      -0.04387496       0.05548520
Sn       8.94959753       8.79106320       2.99318438       0.10752924      -0.05100509       0.04582828
Sn       2.79780392       2.96531676       8.75601321      -0.14955218       0.01796066      -0.08605508
Sn       8.65720470       2.82518992       8.79759981      -0.18486358      -0.12216618      -0.04446848
Sn       2.95453963       8.88614949       8.94636141       0.00718353       0.04408120       0.10429312
Sn       8.84312697       8.91010257       8.76249535       0.00105868       0.06803428      -0.07957294
Br      -0.18934575       3.17501069       2.78169104      -0.18934575       0.22765459      -0.16566506
Br       5.77951870       2.94817424       2.26025244      -0.11519350       0.00081814      -0.68710365
Br       0.12204735       8.70693716       3.02031955       0.12204735      -0.13513113       0.07296346
Br       6.06591841       8.63731858       3.27405592       0.17120621      -0.20474971       0.32669982
Br      -0.27516552       2.94827751       8.86970318      -0.27516552       0.00092141       0.02763490
Br       5.69355111       2.94240980       8.63972030      -0.20116108      -0.00494630      -0.20234799
Br      -0.12433252       9.04115419       9.31379315      -0.12433252       0.19908591       0.47172486
Br       5.79070993       8.88466232       8.81341204      -0.10400227       0.04259404      -0.02865625
Br       2.69758963      -0.05075156       3.29484303      -0.24976647      -0.05075156       0.34748694
Br       9.06290005      -0.00943699       2.81286053       0.22083176      -0.00943699      -0.13449557
Br       3.04745869       5.83721038       3.01455210       0.10010259      -0.05750181       0.06719600
Br       8.95238091       5.80568506       2.67797953       0.11031262      -0.08902713      -0.26937657
Br       2.76082832       0.12699831       8.86697973      -0.18652777       0.12699831       0.02491144
Br       8.77801321      -0.02786509       8.79263649      -0.06405508      -0.02786509      -0.04943180
Br       2.79967360       6.02335518       8.72237001      -0.14768250       0.12864299      -0.11969828
Br       8.89964985       5.94978885       8.85101025       0.05758157       0.05507666       0.00894196
Br       3.01325514       3.20253319       0.09533331       0.06589904       0.25517710       0.09533331
Br       8.72010670       2.67628917      -0.17633154      -0.12196159      -0.27106692      -0.17633154
Br       3.29042024       8.80430270       0.09744203       0.34306414      -0.03776559       0.09744203
Br       8.92776510       8.75558982      -0.22263638       0.08569681      -0.08647847      -0.22263638
Br       3.14202393       2.93398541       6.08502355       0.19466784      -0.01337069       0.19031136
Br       8.54307553       2.91558756       5.70373682      -0.29899276      -0.03176853      -0.19097537
Br       2.70242676       9.08603156       5.98487659      -0.24492934       0.24396327       0.09016440
Br       9.14358355       8.64258355       5.73082566       0.30151526      -0.19948474      -0.16388653
40
Lattice="11.789424384493788 4.994228680623598e-17 7.707693397294342e-17 3.86384251277039e-17 11.789424384493786 1.074067569937025e-14 -3.701747836649174e-16 1.034220411604992e-14 11.7894243844938" Properties=species:S:1:pos:R:3:u_disp:R:3 system=cssnbr3_cubic base_model=mace_mp0 role=train_pool T=100.0 draw=12 n_tries=13 rms_disp_A=0.3052302875399547 min_pair_ratio=0.8062010806121167 nearest_heldout_A=0.2969789781903949 site_map_ok=1 nearest_heldout_src=cssnbr3_cubic_orb_v2_q1d2-1d2-0-b0.extxyz#4 pbc="T T T"
Cs      -0.13598701       0.09404274       0.21114274      -0.13598701       0.09404274       0.21114274
Cs       5.75890229      -0.57034759       0.04462581      -0.13580990      -0.57034759       0.04462581
Cs       0.17893019       5.86059764      -0.12256534       0.17893019      -0.03411456      -0.12256534
Cs       6.03944005       5.65002020       0.04063590       0.14472786      -0.24469199       0.04063590
Cs       0.12722070      -0.15331392       5.88608542       0.12722070      -0.15331392      -0.00862677
Cs       5.82414106       0.27863106       6.01140255      -0.07057113       0.27863106       0.11669035
Cs      -0.23374468       6.49874563       6.06449256      -0.23374468       0.60403343       0.16978037
Cs       6.51117266       5.84903407       5.82791780       0.61646047      -0.04567812      -0.06679439
Sn       3.02295813       2.99720722       2.91372572       0.07560203       0.04985112      -0.03363037
Sn       8.95039966       2.93221447       2.90442604       0.10833138      -0.01514163      -0.04293005
Sn       3.14922584       8.88867509       2.82560706       0.20186975       0.04660680      -0.12174903
Sn       9.01825493       8.81509369       2.93006067       0.17618664      -0.02697459      -0.01729543
Sn       2.79262905       2.98843856       8.86190105      -0.15472704       0.04108246       0.01983277
Sn       8.60051295       3.01167512       8.75015226      -0.24155534       0.06431903      -0.09191602
Sn       2.90681148       8.90548926       8.77893354      -0.04054462       0.06342097      -0.06313475
Sn       8.75606108       8.93327501       8.92107266      -0.08600721       0.09120672       0.07900437
Br       0.04864177       2.59298868       2.73218677       0.04864177      -0.35436742      -0.21516933
Br       5.92967320       2.94579307       2.97868589       0.03496101      -0.00156302       0.03132980
Br      -0.07289250       8.89110977       2.69505314      -0.07289250       0.04904148      -0.25230295
Br       5.85070134       8.58166962       2.63334370      -0.04401085      -0.26039866      -0.31401240
Br      -0.11101186       2.82355790       8.91237786      -0.11101186      -0.12379819       0.07030957
Br       5.81130593       3.15155010       9.05340712      -0.08340626       0.20419400       0.21133883
Br      -0.07957949       8.64034012       8.85845777      -0.07957949      -0.20172817       0.01638949
Br       5.81283004       9.19633505       8.84875665      -0.08188215       0.35426676       0.00668836
Br       3.26189122      -0.04656352       2.89215007       0.31453513      -0.04656352      -0.05520602
Br       8.89879386       0.08368514       3.14385401       0.05672557       0.08368514       0.19649792
Br       2.84790939       5.95622354       2.92487318      -0.09944671       0.06151135      -0.02248291
Br       9.05801065       5.94786635       3.13865926       0.21594236       0.05315416       0.19130317
Br       2.77207987       0.08649301       8.44507319      -0.17527622       0.08649301      -0.39699510
Br       9.01875845       0.03291436       8.84245559       0.17669016       0.03291436       0.00038730
Br       2.83560284       5.97217053       9.13038417      -0.11175325       0.07745834       0.28831589
Br       8.72043516       6.00868915       8.99745653      -0.12163313       0.11397696       0.15538825
Br       3.06706309       2.74212646       0.01166336       0.11970699      -0.20522964       0.01166336
Br       8.60483928       2.95492076       0.12272066      -0.23722901       0.00756466       0.12272066
Br       3.08148624       8.95468835       0.02412961       0.13413015       0.11262006       0.02412961
Br       8.69667563       8.93729695      -0.19728027      -0.14539266       0.09522866      -0.19728027
Br       2.66341265       2.89700839       5.95145471      -0.28394345      -0.05034771       0.05674251
Br       8.69914979       3.03590387       5.97339934      -0.14291850       0.08854777       0.07868715
Br       2.90187330       8.76338220       5.81153360      -0.04548279      -0.07868609      -0.08317859
Br       8.70135822       8.39587187       5.73308648      -0.14071007      -0.44619642      -0.16162571
40
Lattice="11.789424384493788 4.994228680623598e-17 7.707693397294342e-17 3.86384251277039e-17 11.789424384493786 1.074067569937025e-14 -3.701747836649174e-16 1.034220411604992e-14 11.7894243844938" Properties=species:S:1:pos:R:3:u_disp:R:3 system=cssnbr3_cubic base_model=mace_mp0 role=train_pool T=300.0 draw=0 n_tries=14 rms_disp_A=0.533688206232561 min_pair_ratio=0.714132159265841 nearest_heldout_A=0.5151600807934665 site_map_ok=1 nearest_heldout_src=cssnbr3_cubic_chgnet_q1d2-1d2-0-b0.extxyz#6 pbc="T T T"
Cs       0.22291114      -0.05280687       0.29756134       0.22291114      -0.05280687       0.29756134
Cs       5.96916805      -0.18347072       0.38207617       0.07445586      -0.18347072       0.38207617
Cs       0.43911550       6.27891936      -0.51909067       0.43911550       0.38420716      -0.51909067
Cs       5.98968781       5.82509735      -0.07802027       0.09497562      -0.06961485      -0.07802027
Cs      -0.50714782      -0.25654692       6.26020847      -0.50714782      -0.25654692       0.36549628
Cs       5.50068734      -0.14566173       6.18534225      -0.39402485      -0.14566173       0.29063006
Cs       0.25007903       5.95125198       6.03956737       0.25007903       0.05653979       0.14485518
Cs       5.61928510       5.25581268       6.00273260      -0.27542709      -0.63889951       0.10802041
Sn       2.89692186       2.52339102       2.77797026      -0.05043424      -0.42396508      -0.16938584
Sn       8.80248048       2.81479913       2.75200555      -0.03958781      -0.13255696      -0.19535054
Sn       2.90600843       8.49319362       3.29435953      -0.04134767      -0.34887467       0.34700344
Sn       8.90036602       8.86460124       2.76312433       0.05829774       0.02253295      -0.18423176
Sn       2.54299024       3.00163653       8.77838384      -0.40436586       0.05428044      -0.06368445
Sn       8.53784139       3.31320094       8.68656681      -0.30422690       0.36584484      -0.15550148
Sn       2.89895520       8.80134169       9.15157188      -0.04840090      -0.04072660       0.30950359
Sn       8.84766515       9.14419340       8.55776405       0.00559686       0.30212511      -0.28430424
Br      -0.15249986       2.14481785       3.16834708      -0.15249986      -0.80253825       0.22099098
Br       5.47348751       2.79246486       2.55456608      -0.42122468      -0.15489124      -0.39279001
Br       0.27152688       9.08248729       2.93703613       0.27152688       0.24041900      -0.01031997
Br       6.19999889       8.53125331       3.39820164       0.30528670      -0.31081498       0.45084554
Br      -0.01277558       3.43277358       8.60224794      -0.01277558       0.48541748      -0.23982035
Br       5.81426680       3.47299047       8.80479332      -0.08044539       0.52563437      -0.03727497
Br       0.43307777       8.85168350       9.03581498       0.43307777       0.00961521       0.19374669
Br       6.23215461       8.42828923       8.96797435       0.33744242      -0.41377906       0.12590607
Br       3.35503074      -0.35182766       2.61866055       0.40767464      -0.35182766      -0.32869554
Br       8.82078245      -0.06095104       2.49707249      -0.02128584      -0.06095104      -0.45028361
Br       3.01119466       5.77477113       2.54407792       0.06383857      -0.11994107      -0.40327818
Br       9.43653887       5.69532631       2.98315402       0.59447058      -0.19938588       0.03579792
Br       3.28959924       0.08297686       9.43339029       0.34224315       0.08297686       0.59132200
Br       8.40082077       0.47651029       8.23545098      -0.44124752       0.47651029      -0.60661731
Br       2.74791715       5.84446352       8.85789973      -0.19943895      -0.05024867       0.01583144
Br       8.72416367       6.23230033       8.95946359      -0.11790462       0.33758813       0.11739530
Br       3.00590492       2.84701284      -0.12802437       0.05854882      -0.10034325      -0.12802437
Br       8.84321567       2.80768333      -0.37616504       0.00114738      -0.13967277      -0.37616504
Br       3.28721451       8.92911172       0.12313627       0.33985842       0.08704343       0.12313627
Br       8.69440588       9.66096803       0.10700406      -0.14766241       0.81889974       0.10700406
Br       3.17515138       3.03381308       5.89283152       0.22779528       0.08645698      -0.00188068
Br       8.11903663       3.31984562       5.65297768      -0.72303166       0.37248953      -0.24173451
Br       3.11564951       9.02008877       5.97532521       0.16829341       0.17802048       0.08061302
Br       8.99137822       9.65189744       5.98803218       0.14930993       0.80982915       0.09331999
40
Lattice="11.789424384493788 4.994228680623598e-17 7.707693397294342e-17 3.86384251277039e-17 11.789424384493786 1.074067569937025e-14 -3.701747836649174e-16 1.034220411604992e-14 11.7894243844938" Properties=species:S:1:pos:R:3:u_disp:R:3 system=cssnbr3_cubic base_model=mace_mp0 role=train_pool T=300.0 draw=1 n_tries=14 rms_disp_A=0.5749980496785144 min_pair_ratio=0.6507490573726852 nearest_heldout_A=0.5281262985754581 site_map_ok=1 nearest_heldout_src=cssnbr3_cubic_chgnet_q0-0-1d2-b3.extxyz#9 pbc="T T T"
Cs      -0.06977840      -0.30563056      -0.35140609      -0.06977840      -0.30563056      -0.35140609
Cs       5.93048205      -0.22242561       0.36972454       0.03576986      -0.22242561       0.36972454
Cs      -0.36083320       6.06908275       0.07654631      -0.36083320       0.17437056       0.07654631
Cs       6.42245587       4.87373369       0.74132006       0.52774368      -1.02097850       0.74132006
Cs       0.79216415       0.06903949       5.58134230       0.79216415       0.06903949      -0.31336990
Cs       5.51284341      -0.64574387       5.90020156      -0.38186879      -0.64574387       0.00548937
Cs       0.66290943       5.30798291       5.96571477       0.66290943      -0.58672928       0.07100258
Cs       6.05050188       5.97675311       6.11306038       0.15578969       0.08204092       0.21834818
Sn       2.86601262       3.35575378       2.94516068      -0.08134348       0.40839769      -0.00219542
Sn       8.73676396       3.02345528       3.05665073      -0.10530433       0.07609919       0.10929463
Sn       2.45271806       9.08615683       2.91073378      -0.49463804       0.24408855      -0.03662232
Sn       8.46013819       9.07941170       3.01972448      -0.38193009       0.23734341       0.07236838
Sn       3.03877153       2.63706090       8.90196103       0.09141544      -0.31029519       0.05989274
Sn       8.97572849       2.94586982       8.80803684       0.13366020      -0.00148627      -0.03403145
Sn       2.97812531       8.62670212       8.90928659       0.03076921      -0.21536617       0.06721830
Sn       8.91955848       8.79214446       8.81680889       0.07749019      -0.04992383      -0.02525940
Br       0.33037529       3.76293460       2.42134211       0.33037529       0.81557851      -0.52601398
Br       5.99870523       3.67822877       3.13893732       0.10399303       0.73087267       0.19158122
Br      -0.05925393       9.78194008       2.79965539      -0.05925393       0.93987179      -0.14770071
Br       5.88876058       9.18678572       2.40733099      -0.00595161       0.34471743      -0.54002510
Br       0.08434344       2.86286617       8.40067470       0.08434344      -0.08448993      -0.44139359
Br       5.95979821       2.69023405       8.95656481       0.06508602      -0.25712205       0.11449652
Br      -0.18487751       8.11165135       8.56197127      -0.18487751      -0.73041694      -0.28009702
Br       5.65862941       8.83361823       8.84905811      -0.23608278      -0.00845006       0.00698982
Br       2.63405857      -0.00434776       3.18003444      -0.31329753      -0.00434776       0.23267834
Br       8.57935014       0.25314428       3.14082465      -0.26271815       0.25314428       0.19346855
Br       2.70998435       6.03242620       3.58219227      -0.23737174       0.13771400       0.63483618
Br       8.84668257       5.98852538       2.72330817       0.00461428       0.09381319      -0.22404792
Br       2.47487890       0.10439408       8.63970888      -0.47247719       0.10439408      -0.20235941
Br       8.82365083       0.04651056       8.90029207      -0.01841746       0.04651056       0.05822378
Br       3.21820508       5.95189715       8.82570101       0.27084898       0.05718496      -0.01636728
Br       8.81161616       6.09895433       8.51567738      -0.03045213       0.20424214      -0.32639091
Br       3.13508333       3.17557139       0.20609187       0.18772723       0.22821529       0.20609187
Br       8.76795342       3.29390964       0.15975012      -0.07411487       0.34655355       0.15975012
Br       2.01688500       8.56692017      -0.09205322      -0.93047109      -0.27514811      -0.09205322
Br       9.03586155       8.79775084      -0.52904508       0.19379326      -0.04431745      -0.52904508
Br       2.85348408       3.09301954       6.08244715      -0.09387201       0.14566344       0.18773495
Br       9.42922746       3.26128234       5.98325541       0.58715917       0.31392624       0.08854322
Br       2.98609716       9.14710094       5.91823783       0.03874106       0.30503265       0.02352564
Br       8.71383621       8.68641089       5.44929221      -0.12823208      -0.15565740      -0.44541998
40
Lattice="11.789424384493788 4.994228680623598e-17 7.707693397294342e-17 3.86384251277039e-17 11.789424384493786 1.074067569937025e-14 -3.701747836649174e-16 1.034220411604992e-14 11.7894243844938" Properties=species:S:1:pos:R:3:u_disp:R:3 system=cssnbr3_cubic base_model=mace_mp0 role=train_pool T=300.0 draw=2 n_tries=14 rms_disp_A=0.49142502014104356 min_pair_ratio=0.742214212522078 nearest_heldout_A=0.47329133228791204 site_map_ok=1 nearest_heldout_src=cssnbr3_cubic_orb_v2_q1d2-1d2-1d2-b2.extxyz#6 pbc="T T T"
Cs      -0.30069369       0.06011348       0.09585770      -0.30069369       0.06011348       0.09585770
Cs       5.84442524       0.37699923       0.10804613      -0.05028695       0.37699923       0.10804613
Cs       0.25653969       5.74101677      -0.10413903       0.25653969      -0.15369543      -0.10413903
Cs       5.09899175       6.36710704       0.50641847      -0.79572044       0.47239485       0.50641847
Cs       0.01402502       0.20190506       5.30624661       0.01402502       0.20190506      -0.58846559
Cs       6.06720608      -0.25481904       5.37089364       0.17249389      -0.25481904      -0.52381855
Cs      -0.06803948       5.46920051       6.16985098      -0.06803948      -0.42551168       0.27513879
Cs       5.94537138       5.79367203       6.12417578       0.05065919      -0.10104016       0.22946359
Sn       3.02615110       2.84826012       2.82608361       0.07879500      -0.09909598      -0.12127248
Sn       8.71017184       2.95596944       3.02686216      -0.13189645       0.00861335       0.07950606
Sn       2.86133445       9.00251689       2.95924637      -0.08602164       0.16044860       0.01189028
Sn       8.66680807       8.91806912       3.03691919      -0.17526022       0.07600083       0.08956309
Sn       2.98772288       3.03887412       8.72482060       0.04036678       0.09151803      -0.11724769
Sn       8.93463757       2.81095934       8.91539374       0.09256928      -0.13639676       0.07332545
Sn       3.08330911       9.07677265       8.89472854       0.13595301       0.23470436       0.05266025
Sn       8.95233297       8.71978375       8.91411475       0.11026468      -0.12228454       0.07204646
Br       0.29090359       2.44919105       2.99210198       0.29090359      -0.49816505       0.04474588
Br       6.17817182       3.29119173       2.58703539       0.28345963       0.34383563      -0.36032071
Br       0.08732228       9.47187328       2.92572025       0.08732228       0.62980499      -0.02163585
Br       5.79014765       8.87735752       2.81136362      -0.10456455       0.03528923      -0.13599247
Br       0.35724069       2.99404526       8.65777664       0.35724069       0.04668916      -0.18429165
Br       6.14515603       3.39008597       8.64666132       0.25044384       0.44272987      -0.19540697
Br      -0.11660069       8.31044492       8.89818108      -0.11660069      -0.53162337       0.05611279
Br       5.52785870       8.93145977       9.16880028      -0.36685349       0.08939148       0.32673199
Br       3.57197290       0.24603666       2.95396857       0.62461681       0.24603666       0.00661247
Br       8.28541995      -0.20355926       3.21501308      -0.55664834      -0.20355926       0.26765698
Br       2.79294230       6.11486442       2.55944440      -0.15441379       0.22015223      -0.38791170
Br       9.37031032       5.74767781       2.69193687       0.52824203      -0.14703438      -0.25541923
Br       2.65030302      -0.09921729       9.07088387      -0.29705308      -0.09921729       0.22881558
Br       9.47158143       0.09235021       9.05656743       0.62951314       0.09235021       0.21449914
Br       2.74766046       5.69273079       8.44071671      -0.19969563      -0.20198140      -0.40135158
Br       9.16764152       5.94753111       8.80262377       0.32557323       0.05281892      -0.03944451
Br       3.06333057       2.93765008      -0.00957377       0.11597447      -0.00970602      -0.00957377
Br       9.23003784       2.50715264      -0.35953919       0.38796955      -0.44020345      -0.35953919
Br       2.52834594       8.39463334       0.24034128      -0.41901016      -0.44743495       0.24034128
Br       8.64119697       9.37657308       0.20542914      -0.20087132       0.53450479       0.20542914
Br       2.61263244       2.90379267       5.95661028      -0.33472365      -0.04356343       0.06189809
Br       8.87613985       2.72748643       5.79377859       0.03407156      -0.21986967      -0.10093360
Br       3.38114410       8.78285787       6.12827917       0.43378800      -0.05921042       0.23356698
Br       8.34644481       8.39951482       6.25392308      -0.49562347      -0.44255347       0.35921089
40
Lattice="11.789424384493788 4.994228680623598e-17 7.707693397294342e-17 3.86384251277039e-17 11.789424384493786 1.074067569937025e-14 -3.701747836649174e-16 1.034220411604992e-14 11.7894243844938" Properties=species:S:1:pos:R:3:u_disp:R:3 system=cssnbr3_cubic base_model=mace_mp0 role=train_pool T=300.0 draw=3 n_tries=14 rms_disp_A=0.524374616238547 min_pair_ratio=0.6891128804776662 nearest_heldout_A=0.493294485103255 site_map_ok=1 nearest_heldout_src=cssnbr3_cubic_orb_v2_q1d2-1d2-0-b0.extxyz#7 pbc="T T T"
Cs       0.09206216      -0.32856021       0.42632920       0.09206216      -0.32856021       0.42632920
Cs       5.93482342       0.47212160      -0.04362582       0.04011122       0.47212160      -0.04362582
Cs      -0.49332246       5.25132526       0.63192074      -0.49332246      -0.64338693       0.63192074
Cs       5.78865894       5.85746664      -0.03610155      -0.10605326      -0.03724555      -0.03610155
Cs       0.17338808      -0.20812609       5.94012712       0.17338808      -0.20812609       0.04541493
Cs       5.89819406       0.67272210       6.04292279       0.00348186       0.67272210       0.14821060
Cs       0.97313610       6.02201705       5.40293072       0.97313610       0.12730486      -0.49178148
Cs       5.65774483       6.42474571       6.32684429      -0.23696736       0.53003352       0.43213210
Sn       2.98884098       2.97886466       2.75161561       0.04148488       0.03150856      -0.19574049
Sn       8.68536087       3.05257782       2.67731575      -0.15670741       0.10522172      -0.27004034
Sn       2.82157960       9.06838209       2.95182856      -0.12577649       0.22631380       0.00447246
Sn       8.59090387       8.85202392       3.08483427      -0.25116441       0.00995563       0.13747817
Sn       2.87793379       2.70156332       8.73327307      -0.06942231      -0.24579278      -0.10879522
Sn       8.80173144       2.99958097       8.49242023      -0.04033685       0.05222487      -0.34964806
Sn       2.87141630       8.77941461       8.94890588      -0.07593979      -0.06265367       0.10683759
Sn       9.05590684       8.85092294       9.08097239       0.21383855       0.00885465       0.23890410
Br      -0.37229052       3.32161190       2.75606189      -0.37229052       0.37425581      -0.19129421
Br       5.61949846       3.33213920       2.48675505      -0.27521373       0.38478310      -0.46060105
Br       0.27627744       9.20856351       3.03287629       0.27627744       0.36649522       0.08552019
Br       6.02137001       9.06917845       3.13577502       0.12665781       0.22711017       0.18841892
Br      -0.02671136       2.84087679       8.68451072      -0.02671136      -0.10647930      -0.15755757
Br       5.83725374       2.94155083       8.30767201      -0.05745846      -0.00580527      -0.53439627
Br      -0.16497566       9.12073498       9.33213712      -0.16497566       0.27866669       0.49006883
Br       5.64778585       8.16796527       9.19164252      -0.24692634      -0.67410302       0.34957423
Br       3.05445002      -0.10702075       3.43435803       0.10709392      -0.10702075       0.48700193
Br       8.78924451      -0.02060451       3.00744286      -0.05282378      -0.02060451       0.06008677
Br       2.84000926       5.87539761       2.59818730      -0.10734683      -0.01931458      -0.34916879
Br       9.00324904       5.91379852       2.81330851       0.16118075       0.01908633      -0.13404759
Br       3.28723173      -0.10801050       8.68726931       0.33987563      -0.10801050      -0.15479898
Br       9.03765619       0.02208622       8.30558550       0.19558790       0.02208622      -0.53648278
Br       2.52495212       5.68898637       9.60787606      -0.42240398      -0.20572582       0.76580777
Br       9.46525486       5.79920102       8.85139047       0.62318657      -0.09551117       0.00932218
Br       2.76077474       2.09955170      -0.15000674      -0.18658135      -0.84780440      -0.15000674
Br       8.75916483       2.80532596      -0.24380241      -0.08290346      -0.14203014      -0.24380241
Br       3.24378899       9.01481019       0.24314909       0.29643289       0.17274190       0.24314909
Br       8.62798794       8.94190392      -0.39376567      -0.21408035       0.09983564      -0.39376567
Br       2.84155636       2.82543453       5.84807426      -0.10579974      -0.12192157      -0.04663793
Br       8.76258106       3.10007091       5.55609152      -0.07948723       0.15271482      -0.33862068
Br       3.01286874       8.24244047       6.04619677       0.06551265      -0.59962782       0.15148458
Br       8.99308024       8.63879252       5.55356039       0.15101195      -0.20327577      -0.34115180
40
Lattice="11.789424384493788 4.994228680623598e-17 7.707693397294342e-17 3.86384251277039e-17 11.789424384493786 1.074067569937025e-14 -3.701747836649174e-16 1.034220411604992e-14 11.7894243844938" Properties=species:S:1:pos:R:3:u_disp:R:3 system=cssnbr3_cubic base_model=mace_mp0 role=train_pool T=300.0 draw=4 n_tries=14 rms_disp_A=0.47629074235270136 min_pair_ratio=0.6674696718776096 nearest_heldout_A=0.4583193005953187 site_map_ok=1 nearest_heldout_src=cssnbr3_cubic_chgnet_q0-0-0-b3.extxyz#6 pbc="T T T"
Cs      -0.20184230      -0.50451701       0.22415032      -0.20184230      -0.50451701       0.22415032
Cs       5.99602865       0.34420826      -0.04162711       0.10131646       0.34420826      -0.04162711
Cs       0.33268426       5.55731992       0.02167320       0.33268426      -0.33739227       0.02167320
Cs       6.58116565       5.26922991      -0.03949517       0.68645346      -0.62548228      -0.03949517
Cs      -0.56185296      -0.16930007       5.73207522      -0.56185296      -0.16930007      -0.16263697
Cs       5.93800133       0.10277477       6.44399816       0.04328913       0.10277477       0.54928596
Cs       0.61587037       5.09826507       5.82004394       0.61587037      -0.79644712      -0.07466826
Cs       5.71702953       6.13893369       5.76747053      -0.17768267       0.24422150      -0.12724166
Sn       2.92205922       2.92026262       2.86232384      -0.02529687      -0.02709347      -0.08503226
Sn       8.71965399       3.09179932       2.91666372      -0.12241430       0.14444322      -0.03069238
Sn       3.10928445       8.79951196       3.01552662       0.16192835      -0.04255633       0.06817053
Sn       9.00389834       8.96452088       2.89569343       0.16183005       0.12245259      -0.05166266
Sn       2.87745723       2.95295429       8.95199218      -0.06989886       0.00559819       0.10992389
Sn       8.64590500       3.27354247       8.82911402      -0.19616329       0.32618638      -0.01295427
Sn       2.68747570       8.93079185       8.92006051      -0.25988040       0.08872356       0.07799222
Sn       8.73293108       8.92789253       8.64477569      -0.10913721       0.08582424      -0.19729260
Br      -0.14088241       2.56114510       3.21992389      -0.14088241      -0.38621100       0.27256780
Br       6.07394508       2.65330002       2.84214199       0.17923289      -0.29405608      -0.10521411
Br      -0.20336849       8.76891468       3.41136768      -0.20336849      -0.07315361       0.46401158
Br       5.64897943       8.67398320       3.05267541      -0.24573276      -0.16808509       0.10531932
Br       0.11814842       3.05610427       9.16724506       0.11814842       0.10874818       0.32517677
Br       5.80066494       3.13738198       8.50467884      -0.09404725       0.19002588      -0.33738945
Br       0.01900155       8.55656476       9.27845139       0.01900155      -0.28550353       0.43638310
Br       5.89640906       9.17071452       9.17875451       0.00169687       0.32864623       0.33668623
Br       3.05295143       0.16522009       2.87902455       0.10559533       0.16522009      -0.06833154
Br       8.61312804       0.37288870       2.85727864      -0.22894025       0.37288870      -0.09007745
Br       3.06101680       6.18530716       2.65881823       0.11366070       0.29059496      -0.28853787
Br       9.12536428       6.13049531       2.07755106       0.28329599       0.23578312      -0.86980504
Br       2.97875770       0.17205737       8.74100035       0.03140160       0.17205737      -0.10106794
Br       8.74064764       0.46429820       8.86952359      -0.10142065       0.46429820       0.02745531
Br       3.09638049       5.98033801       8.41724588       0.14902440       0.08562582      -0.42482240
Br       8.65952886       6.29039001       8.92583448      -0.18253942       0.39567782       0.08376619
Br       2.95364229       2.95770906      -0.25742524       0.00628619       0.01035297      -0.25742524
Br       8.10213584       2.95640715      -0.31843858      -0.73993245       0.00905106      -0.31843858
Br       2.83622628       8.70053884       0.23850550      -0.11112981      -0.14152945       0.23850550
Br       9.23990883       9.07245667       0.23131763       0.39784054       0.23038838       0.23131763
Br       3.01435434       3.30646919       5.87731675       0.06699825       0.35911309      -0.01739544
Br       8.77520572       3.14765154       5.42800362      -0.06686257       0.20029544      -0.46670857
Br       3.02000910       8.44440327       6.21994414       0.07265301      -0.39766502       0.32523195
Br       8.69980447       8.82161182       5.99285346      -0.14226381      -0.02045647       0.09814127
40
Lattice="11.789424384493788 4.994228680623598e-17 7.707693397294342e-17 3.86384251277039e-17 11.789424384493786 1.074067569937025e-14 -3.701747836649174e-16 1.034220411604992e-14 11.7894243844938" Properties=species:S:1:pos:R:3:u_disp:R:3 system=cssnbr3_cubic base_model=mace_mp0 role=train_pool T=300.0 draw=5 n_tries=14 rms_disp_A=0.5949869571747569 min_pair_ratio=0.6950729567045228 nearest_heldout_A=0.5823164001339473 site_map_ok=1 nearest_heldout_src=cssnbr3_cubic_mace_mp0_q1d2-1d2-0-b0.extxyz#6 pbc="T T T"
Cs      -0.33815784      -0.19620070       0.27482830      -0.33815784      -0.19620070       0.27482830
Cs       4.98047812       0.28856547       0.17786717      -0.91423407       0.28856547       0.17786717
Cs       0.02387306       6.79193643      -0.15331733       0.02387306       0.89722423      -0.15331733
Cs       5.73981014       5.47367889      -0.41358673      -0.15490205      -0.42103330      -0.41358673
Cs      -0.36279600      -0.59289633       6.30953753      -0.36279600      -0.59289633       0.41482534
Cs       6.87116074       0.30449304       5.38197569       0.97644854       0.30449304      -0.51273650
Cs       0.41479707       5.55725437       6.10867827       0.41479707      -0.33745783       0.21396608
Cs       6.01226388       5.90696257       5.59487998       0.11755169       0.01225037      -0.29983221
Sn       2.73262231       3.15972928       3.06618084      -0.21473379       0.21237318       0.11882475
Sn       8.54753066       2.97142144       2.83503247      -0.29453763       0.02406534      -0.11232362
Sn       2.94114120       9.06241306       3.05034071      -0.00621490       0.22034477       0.10298462
Sn       8.94927638       8.77003098       3.14400950       0.10720809      -0.07203731       0.19665341
Sn       3.15337564       2.74369239       8.78253300       0.20601954      -0.20366371      -0.05953529
Sn       8.84202859       3.17174095       8.70645640      -0.00003970       0.22438485      -0.13561189
Sn       3.06577277       8.67530894       8.85627411       0.11841667      -0.16675935       0.01420583
Sn       8.79927706       9.10226210       8.86292442      -0.04279122       0.26019381       0.02085613
Br      -0.23390804       3.18048862       3.94635330      -0.23390804       0.23313253       0.99899720
Br       5.68464303       2.55837777       3.15455494      -0.21006917      -0.38897833       0.20719885
Br      -0.14061777       8.65680950       2.95420959      -0.14061777      -0.18525879       0.00685350
Br       5.87012096       9.57312449       3.05765046      -0.02459123       0.73105620       0.11029437
Br       0.14620942       2.86586746       8.55675532       0.14620942      -0.08148863      -0.28531297
Br       6.01976089       3.38586775       7.89797040       0.12504870       0.43851165      -0.94409789
Br       0.12939909       8.80932169       8.84033048       0.12939909      -0.03274660      -0.00173781
Br       5.93643592       9.33655556       8.70978568       0.04172373       0.49448728      -0.13228261
Br       2.48532536      -0.15230547       3.52623542      -0.46203074      -0.15230547       0.57887932
Br       9.38100174      -0.37336280       3.09868585       0.53893345      -0.37336280       0.15132975
Br       3.07406249       5.71159264       3.04967887       0.12670639      -0.18311955       0.10232277
Br       8.56296024       5.83793279       2.83283810      -0.27910805      -0.05677940      -0.11451799
Br       3.31899647      -0.10813232       9.01546301       0.37164038      -0.10813232       0.17339473
Br       8.61789474      -0.13836525       8.45981166      -0.22417355      -0.13836525      -0.38225662
Br       3.47544031       6.11480140       9.63966439       0.52808422       0.22008921       0.79759610
Br       8.64188895       5.66347206       8.91785537      -0.20017934      -0.23124013       0.07578708
Br       3.41204509       2.89369713      -0.05410597       0.46468899      -0.05365897      -0.05410597
Br       9.04433001       2.28025523      -0.18692005       0.20226172      -0.66710086      -0.18692005
Br       2.98682225       8.88213957       0.24337791       0.03946615       0.04007128       0.24337791
Br       9.02117468       8.59778986      -0.33010863       0.17910639      -0.24427843      -0.33010863
Br       2.75820302       3.41177732       5.71113048      -0.18915308       0.46442122      -0.18358171
Br       8.36292717       2.78758102       5.43351577      -0.47914111      -0.15977507      -0.46119643
Br       2.81531060       8.24378401       6.28208701      -0.13204549      -0.59828428       0.38737481
Br       9.10691322       9.20891745       5.41608245       0.26484494       0.36684916      -0.47862975
40
Lattice="11.789424384493788 4.994228680623598e-17 7.707693397294342e-17 3.86384251277039e-17 11.789424384493786 1.074067569937025e-14 -3.701747836649174e-16 1.034220411604992e-14 11.7894243844938" Properties=species:S:1:pos:R:3:u_disp:R:3 system=cssnbr3_cubic base_model=mace_mp0 role=train_pool T=300.0 draw=6 n_tries=14 rms_disp_A=0.547625447812541 min_pair_ratio=0.6816437055987637 nearest_heldout_A=0.5323108685866625 site_map_ok=1 nearest_heldout_src=cssnbr3_cubic_mattersim_q1d2-1d2-1d2-b3.extxyz#7 pbc="T T T"
Cs      -0.32862677      -0.04541658      -0.07353892      -0.32862677      -0.04541658      -0.07353892
Cs       5.76025311      -0.24881955       0.08749427      -0.13445909      -0.24881955       0.08749427
Cs      -0.29857565       5.31094993      -0.15719021      -0.29857565      -0.58376226      -0.15719021
Cs       5.25193885       6.90058070       0.24844794      -0.64277334       1.00586850       0.24844794
Cs       0.32794958       0.43802687       5.38611554       0.32794958       0.43802687      -0.50859666
Cs       6.04521766      -0.21839235       5.37510130       0.15050547      -0.21839235      -0.51961089
Cs       0.38453919       6.44676717       6.81725936       0.38453919       0.55205498       0.92254717
Cs       5.82717720       5.92770545       5.03222883      -0.06753499       0.03299326      -0.86248336
Sn       3.12446171       2.57720409       3.12200109       0.17710562      -0.37015201       0.17464500
Sn       9.21273458       2.89709007       3.01204886       0.37066629      -0.05026602       0.06469276
Sn       2.93057982       8.50423766       3.14137319      -0.01677627      -0.33783063       0.19401710
Sn       8.90906100       8.80527604       2.78291574       0.06699271      -0.03679225      -0.16444036
Sn       2.78216940       3.10680664       9.05123854      -0.16518670       0.15945054       0.20917026
Sn       8.59076472       3.17103894       8.78161097      -0.25130357       0.22368284      -0.06045732
Sn       2.93647233       9.04249286       9.11898594      -0.01088376       0.20042457       0.27691765
Sn       8.82555972       9.15109643       8.55645470      -0.01650857       0.30902814      -0.28561359
Br       0.61603350       2.72664464       3.02407766       0.61603350      -0.22071146       0.07672156
Br       6.46873917       2.96211652       3.18224595       0.57402697       0.01476042       0.23488986
Br       0.36616830       8.99272303       2.75705821       0.36616830       0.15065474      -0.19029788
Br       6.38733801       8.65026152       2.89131947       0.49262582      -0.19180676      -0.05603663
Br       0.05856141       2.90477220       8.71954493       0.05856141      -0.04258390      -0.12252336
Br       5.75271841       3.34700065       8.62120043      -0.14199379       0.39964455      -0.22086786
Br      -0.41949810       8.93713556       9.42834361      -0.41949810       0.09506727       0.58627532
Br       5.54248853       9.15451918       9.16266495      -0.35222366       0.31245089       0.32059666
Br       2.75072163      -0.35515451       3.15865264      -0.19663446      -0.35515451       0.21129655
Br       8.81704281      -0.23077314       2.88590055      -0.02502548      -0.23077314      -0.06145555
Br       2.97497284       5.59941863       2.68753404       0.02761674      -0.29529356      -0.25982206
Br       8.91546022       5.72566279       3.26820243       0.07339193      -0.16904940       0.32084633
Br       2.46172613       0.03176140       9.34145417      -0.48562997       0.03176140       0.49938588
Br       8.63367218       0.07074450       8.55193232      -0.20839611       0.07074450      -0.29013597
Br       2.92821771       5.91078820       9.66903603      -0.01913838       0.01607601       0.82696774
Br       9.09522081       6.00330957       8.42415558       0.25315253       0.10859737      -0.41791271
Br       3.04838705       2.52776561      -0.06262586       0.10103095      -0.41959049      -0.06262586
Br       9.07379468       2.65174986       0.12691073       0.23172639      -0.29560624       0.12691073
Br       3.20317186       8.82737347      -0.15474059       0.25581577      -0.01469482      -0.15474059
Br       8.76381317       8.32594463      -0.30373038      -0.07825512      -0.51612366      -0.30373038
Br       2.86590823       3.06419033       5.96498963      -0.08144787       0.11683423       0.07027743
Br       9.19132339       2.92409873       5.82015993       0.34925511      -0.02325736      -0.07455226
Br       2.92376677       8.68713973       5.77119986      -0.02358933      -0.15492856      -0.12351234
Br       8.25846448       8.75900363       5.78655004      -0.58360381      -0.08306466      -0.10816215
40
Lattice="11.789424384493788 4.994228680623598e-17 7.707693397294342e-17 3.86384251277039e-17 11.789424384493786 1.074067569937025e-14 -3.701747836649174e-16 1.034220411604992e-14 11.7894243844938" Properties=species:S:1:pos:R:3:u_disp:R:3 system=cssnbr3_cubic base_model=mace_mp0 role=train_pool T=300.0 draw=7 n_tries=14 rms_disp_A=0.655157375521559 min_pair_ratio=0.6504862439937584 nearest_heldout_A=0.6307381169373367 site_map_ok=1 nearest_heldout_src=cssnbr3_cubic_orb_v2_q1d2-1d2-1d2-b0.extxyz#6 pbc="T T T"
Cs       0.44447538      -0.03974861      -0.37812775       0.44447538      -0.03974861      -0.37812775
Cs       6.50733498      -0.84454793      -0.33001278       0.61262279      -0.84454793      -0.33001278
Cs      -0.55185803       5.81929417      -0.54114635      -0.55185803      -0.07541802      -0.54114635
Cs       5.07694195       5.34847507       0.17705876      -0.81777024      -0.54623712       0.17705876
Cs      -0.10243150       0.08147655       5.95188987      -0.10243150       0.08147655       0.05717768
Cs       5.68179609       0.58025631       6.61643533      -0.21291610       0.58025631       0.72172314
Cs      -0.11381583       5.89745303       5.79468882      -0.11381583       0.00274083      -0.10002338
Cs       5.52314602       5.94286085       4.64122394      -0.37156617       0.04814865      -1.25348825
Sn       3.14258877       3.08221191       3.32937371       0.19523267       0.13485581       0.38201762
Sn       8.84542331       2.87082753       2.92165613       0.00335502      -0.07652856      -0.02569996
Sn       2.96269199       9.04770106       3.30335251       0.01533589       0.20563277       0.35599642
Sn       8.83376706       8.88656805       2.69730920      -0.00830123       0.04449976      -0.25004690
Sn       3.16215182       3.01856501       9.21862055       0.21479573       0.07120891       0.37655227
Sn       8.91684939       2.82681155       8.85197815       0.07478110      -0.12054454       0.00990986
Sn       3.13728942       8.72879563       9.08082476       0.18993332      -0.11327266       0.23875647
Sn       8.96415691       8.66376572       8.47027914       0.12208862      -0.17830257      -0.37178914
Br      -0.19403437       3.04708846       2.88938639      -0.19403437       0.09973237      -0.05796970
Br       5.72524809       2.98374382       3.16110422      -0.16946410       0.03638772       0.21374813
Br      -0.37614502       8.45358535       3.40504213      -0.37614502      -0.38848293       0.45768603
Br       5.65556487       8.83783240       2.69182592      -0.23914732      -0.00423589      -0.25553017
Br      -0.13620076       2.49647534       8.96438506      -0.13620076      -0.45088075       0.12231677
Br       5.81438537       3.01455692       9.21551767      -0.08032682       0.06720082       0.37344938
Br       0.41997532       8.82845309       8.27851940       0.41997532      -0.01361519      -0.56354888
Br       6.19732590       8.37691698       8.98315596       0.30261371      -0.46515131       0.14108767
Br       2.58292628       0.31045569       3.23497464      -0.36442982       0.31045569       0.28761855
Br       8.84511715       0.32483036       2.60218971       0.00304886       0.32483036      -0.34516638
Br       3.09631874       6.38688275       3.51660068       0.14896264       0.49217056       0.56924458
Br       8.28968235       6.44691303       3.18713949      -0.55238594       0.55220084       0.23978340
Br       3.60230613       0.13162924       9.53071090       0.65495004       0.13162924       0.68864261
Br       8.44857397      -0.01845020       8.39724480      -0.39349431      -0.01845020      -0.44482349
Br       2.75161167       6.02222012       9.53197872      -0.19574442       0.12750793       0.68991043
Br       9.25983122       5.47302841       8.44353238       0.41776293      -0.42168378      -0.39853591
Br       3.44441556       3.15432066       0.30425216       0.49705946       0.20696456       0.30425216
Br       8.69561500       2.99431034      -0.05257927      -0.14645329       0.04695424      -0.05257927
Br       3.52552408       9.03504170       0.20753079       0.57816798       0.19297341       0.20753079
Br       8.93316443       9.39057023      -0.58934606       0.09109614       0.54850194      -0.58934606
Br       3.41826399       3.06662631       6.26672792       0.47090789       0.11927021       0.37201573
Br       8.69188595       2.06329715       5.92386339      -0.15018234      -0.88405895       0.02915120
Br       3.62530901       9.09619121       6.23563168       0.67795291       0.25412292       0.34091948
Br       8.23002518       9.34549154       5.24078534      -0.61204311       0.50342325      -0.65392685
40
Lattice="11.789424384493788 4.994228680623598e-17 7.707693397294342e-17 3.86384251277039e-17 11.789424384493786 1.074067569937025e-14 -3.701747836649174e-16 1.034220411604992e-14 11.7894243844938" Properties=species:S:1:pos:R:3:u_disp:R:3 system=cssnbr3_cubic base_model=mace_mp0 role=train_pool T=300.0 draw=8 n_tries=14 rms_disp_A=0.540849212422685 min_pair_ratio=0.7471464075792165 nearest_heldout_A=0.5296219914768385 site_map_ok=1 nearest_heldout_src=cssnbr3_cubic_orb_v2_q1d2-1d2-1d2-b2.extxyz#5 pbc="T T T"
Cs      -0.45516502      -0.10774220       0.13591148      -0.45516502      -0.10774220       0.13591148
Cs       6.39286667       0.47034635      -1.51591771       0.49815448       0.47034635      -1.51591771
Cs       0.19056665       5.77248694       0.36222849       0.19056665      -0.12222526       0.36222849
Cs       5.70360876       6.49875204       0.16516917      -0.19110343       0.60403985       0.16516917
Cs       0.34188532       0.47080881       5.96487132       0.34188532       0.47080881       0.07015913
Cs       5.60065379      -0.09716714       5.91085091      -0.29405840      -0.09716714       0.01613872
Cs       0.15679040       5.71324531       5.50780854       0.15679040      -0.18146688      -0.38690366
Cs       5.98006910       5.63116349       5.66082557       0.08535691      -0.26354871      -0.23388662
Sn       2.76819289       2.79429978       2.94709009      -0.17916321      -0.15305632      -0.00026601
Sn       8.65277696       2.93431785       3.06570698      -0.18929133      -0.01303825       0.11835088
Sn       2.87986119       8.70756414       2.91304990      -0.06749491      -0.13450415      -0.03430620
Sn       8.75397652       8.81254721       2.98402665      -0.08809177      -0.02952108       0.03667055
Sn       3.00012643       3.20333572       8.71884753       0.05277033       0.25597962      -0.12322075
Sn       8.86639340       3.09139540       8.85952407       0.02432511       0.14403931       0.01745579
Sn       2.86743610       9.05866767       8.88267966      -0.07991999       0.21659938       0.04061137
Sn       8.91116231       8.74325296       8.95372868       0.06909402      -0.09881533       0.11166039
Br      -0.23546659       2.73171358       3.30611153      -0.23546659      -0.21564251       0.35875543
Br       5.67679971       2.65157400       3.44466399      -0.21791248      -0.29578210       0.49730790
Br       0.08853810       8.94239170       3.31363008       0.08853810       0.10032341       0.36627398
Br       6.08683465       8.69915326       3.37054672       0.19212245      -0.14291503       0.42319062
Br      -0.27790161       3.27830889       8.41748914      -0.27790161       0.33095280      -0.42457915
Br       5.68191633       2.94574273       8.39916643      -0.21279587      -0.00161336      -0.44290186
Br       0.05734254       8.79558055       9.52896284       0.05734254      -0.04648774       0.68689455
Br       6.11431670       9.17715311       9.81364298       0.21960451       0.33508482       0.97157469
Br       3.25207610      -0.05635495       2.74890932       0.30472001      -0.05635495      -0.19844677
Br       8.77066440       0.09201612       3.56480909      -0.07140389       0.09201612       0.61745299
Br       3.16201435       5.88067635       2.85032928       0.21465825      -0.01403584      -0.09702681
Br       8.36475872       6.07692443       3.57232003      -0.47730956       0.18221224       0.62496393
Br       2.60663881      -0.14702064       8.72060726      -0.34071729      -0.14702064      -0.12146102
Br       8.93322057      -0.30765676       8.64874224       0.09115228      -0.30765676      -0.19332605
Br       3.00156780       5.69470451       8.23715657       0.05421171      -0.20000768      -0.60491171
Br       9.08627496       5.54414974       9.30276391       0.24420668      -0.35056246       0.46069563
Br       2.58566198       2.89866964      -0.16921527      -0.36169411      -0.04868645      -0.16921527
Br       8.80508812       2.77612225      -0.17964202      -0.03698017      -0.17123385      -0.17964202
Br       2.88640703       8.25352841      -0.09104636      -0.06094907      -0.58853988      -0.09104636
Br       9.47628765       8.90874943      -0.08919798       0.63421936       0.06668114      -0.08919798
Br       3.15484567       3.01135254       5.82305684       0.20748958       0.06399644      -0.07165535
Br       8.97960962       3.25715762       5.78519989       0.13754133       0.30980153      -0.10951230
Br       3.15325207       8.77832683       5.88523204       0.20589598      -0.06374146      -0.00948015
Br       8.61065793       8.44663110       5.74915044      -0.23141036      -0.39543719      -0.14556175
40
Lattice="11.789424384493788 4.994228680623598e-17 7.707693397294342e-17 3.86384251277039e-17 11.789424384493786 1.074067569937025e-14 -3.701747836649174e-16 1.034220411604992e-14 11.7894243844938" Properties=species:S:1:pos:R:3:u_disp:R:3 system=cssnbr3_cubic base_model=mace_mp0 role=train_pool T=300.0 draw=9 n_tries=14 rms_disp_A=0.5097935660443312 min_pair_ratio=0.6534335347537749 nearest_heldout_A=0.5016631642299975 site_map_ok=1 nearest_heldout_src=cssnbr3_cubic_chgnet_q0-0-1d2-b2.extxyz#6 pbc="T T T"
Cs      -0.14715479       0.12272854      -0.39140237      -0.14715479       0.12272854      -0.39140237
Cs       5.48989924       0.31269940       0.12310100      -0.40481295       0.31269940       0.12310100
Cs       0.20350595       6.07113289       0.13181297       0.20350595       0.17642070       0.13181297
Cs       5.58858256       5.48720648      -0.02724844      -0.30612963      -0.40750571      -0.02724844
Cs       0.54212571       0.21575616       6.27285861       0.54212571       0.21575616       0.37814642
Cs       6.03015044       0.19804152       5.48207057       0.13543825       0.19804152      -0.41264162
Cs      -0.79969085       6.02731641       6.14703823      -0.79969085       0.13260421       0.25232604
Cs       5.77203714       5.75846725       5.76270332      -0.12267506      -0.13624494      -0.13200888
Sn       2.94131571       3.10083779       3.08352343      -0.00604039       0.15348170       0.13616733
Sn       8.82266840       3.06467293       3.14294356      -0.01939989       0.11731683       0.19558747
Sn       3.18724410       8.75956069       2.79764277       0.23988801      -0.08250760      -0.14971332
Sn       9.04315430       8.91073553       3.03765456       0.20108601       0.06866724       0.09029846
Sn       3.04819844       2.89716838       9.11716735       0.10084234      -0.05018771       0.27509906
Sn       8.88582611       3.09604406       8.89302226       0.04375783       0.14868796       0.05095397
Sn       2.53022541       8.69598020       8.77577653      -0.41713068      -0.14608809      -0.06629176
Sn       8.43922617       9.09061677       8.94618608      -0.40284211       0.24854849       0.10411779
Br       0.15387438       3.33923093       2.75564100       0.15387438       0.39187484      -0.19171510
Br       6.33079627       2.99524838       2.77351652       0.43608407       0.04789228      -0.17383958
Br       0.48324698       8.93622784       2.65538680       0.48324698       0.09415955      -0.29196930
Br       6.51129701       8.15639393       3.21922788       0.61658482      -0.68567435       0.27187178
Br      -0.09400047       2.65284165       9.12805424      -0.09400047      -0.29451445       0.28598595
Br       5.73539944       2.41928642       8.96655616      -0.15931276      -0.52806967       0.12448787
Br      -0.07785169       9.47623938       8.74336401      -0.07785169       0.63417109      -0.09870428
Br       5.67953760       9.07243388       9.22560875      -0.21517459       0.23036559       0.38354046
Br       3.10040537      -0.00283851       3.11781765       0.15304928      -0.00283851       0.17046156
Br       8.71914102      -0.08738927       3.08693333      -0.12292727      -0.08738927       0.13957723
Br       3.48569706       5.71882738       2.56351578       0.53834097      -0.17588481      -0.38384031
Br       9.08090006       6.12089586       2.97216099       0.23883177       0.22618367       0.02480490
Br       2.77762470      -0.24829637       8.60741960      -0.16973140      -0.24829637      -0.23464868
Br       8.95994520       0.23475162       8.91326687       0.11787691       0.23475162       0.07119859
Br       2.65628862       5.60093520       8.05273680      -0.29106748      -0.29377699      -0.78933148
Br       8.95863915       6.21130810       8.76162686       0.11657086       0.31659591      -0.08044143
Br       3.54229937       2.20618035      -0.07633907       0.59494327      -0.74117574      -0.07633907
Br       8.83562376       2.98987459       0.20086408      -0.00644453       0.04251850       0.20086408
Br       2.92439114       8.20835427      -0.39413153      -0.02296496      -0.63371401      -0.39413153
Br       8.56263946       8.94193086       0.19995655      -0.27942883       0.09986258       0.19995655
Br       3.02139968       2.74271801       5.97016783       0.07404359      -0.20463808       0.07545564
Br       8.47012579       3.17587756       6.31163256      -0.37194250       0.22852146       0.41692037
Br       3.03531650       8.38040226       5.30581939       0.08796041      -0.46166603      -0.58889280
Br       8.92351283       8.95039249       6.01783401       0.08144454       0.10832420       0.12312182
40
Lattice="11.789424384493788 4.994228680623598e-17 7.707693397294342e-17 3.86384251277039e-17 11.789424384493786 1.074067569937025e-14 -3.701747836649174e-16 1.034220411604992e-14 11.7894243844938" Properties=species:S:1:pos:R:3:u_disp:R:3 system=cssnbr3_cubic base_model=mace_mp0 role=train_pool T=300.0 draw=10 n_tries=14 rms_disp_A=0.5806589868774962 min_pair_ratio=0.6223372827173238 nearest_heldout_A=0.5696917093018321 site_map_ok=1 nearest_heldout_src=cssnbr3_cubic_chgnet_q1d2-0-0-b0.extxyz#5 pbc="T T T"
Cs      -0.17005307      -0.14785436       0.10213806      -0.17005307      -0.14785436       0.10213806
Cs       5.92773711      -0.08750830      -0.00128072       0.03302492      -0.08750830      -0.00128072
Cs       0.51156361       5.68497903       0.41008321       0.51156361      -0.20973317       0.41008321
Cs       6.20252936       5.24651282      -0.60943234       0.30781717      -0.64819937      -0.60943234
Cs      -0.09325431       0.01979565       4.78536529      -0.09325431       0.01979565      -1.10934690
Cs       5.54443945      -0.36933115       6.54278257      -0.35027275      -0.36933115       0.64807038
Cs      -0.54480580       6.87629995       6.06122473      -0.54480580       0.98158776       0.16651254
Cs       6.47852089       5.14437672       6.24569657       0.58380870      -0.75033547       0.35098438
Sn       2.97972777       3.27235305       2.81070123       0.03237167       0.32499695      -0.13665486
Sn       8.70810344       2.96584348       2.99558900      -0.13396485       0.01848739       0.04823290
Sn       3.15323006       9.16855723       2.81517474       0.20587396       0.32648894      -0.13218136
Sn       8.85244834       9.12575865       2.94279249       0.01038005       0.28369036      -0.00456361
Sn       2.92884839       3.16558233       8.54955059      -0.01850771       0.21822624      -0.29251770
Sn       8.97118909       2.82111024       8.93259558       0.12912080      -0.12624586       0.09052729
Sn       2.84829305       8.87292544       8.78696623      -0.09906305       0.03085715      -0.05510206
Sn       8.93911469       8.82547526       8.97811530       0.09704640      -0.01659303       0.13604701
Br       0.24146925       2.93554424       2.95476697       0.24146925      -0.01181186       0.00741088
Br       6.10179712       3.35759766       3.33473013       0.20708493       0.41024156       0.38737403
Br       0.28320746       8.77608194       2.23214237       0.28320746      -0.06598635      -0.71521373
Br       6.30339680       9.00774434       2.79293507       0.40868461       0.16567605      -0.15442102
Br      -0.14295647       3.02797484       8.84801202      -0.14295647       0.08061874       0.00594373
Br       5.91292228       3.48254957       8.38262106       0.01821009       0.53519348      -0.45944723
Br       0.19712014       8.15662623       9.07458751       0.19712014      -0.68544206       0.23251923
Br       5.93622710       9.08543482       9.11099425       0.04151491       0.24336653       0.26892596
Br       3.36330100       0.28955473       2.93730684       0.41594490       0.28955473      -0.01004926
Br       8.31590946      -0.17269815       3.21658038      -0.52615883      -0.17269815       0.26922429
Br       2.40209471       6.28527560       2.43217813      -0.54526139       0.39056341      -0.51517797
Br       8.54138098       5.77950548       2.96977129      -0.30068731      -0.11520672       0.02241519
Br       2.79914765      -0.06706990       8.52422950      -0.14820844      -0.06706990      -0.31783879
Br       9.12195356      -0.04085659       9.77788640       0.27988527      -0.04085659       0.93581811
Br       2.96940979       5.73464241       8.73234194       0.02205369      -0.16006978      -0.10972635
Br       8.44619666       5.64292925       9.07908337      -0.39587163      -0.25178294       0.23701508
Br       2.97452101       2.66282986      -0.20439455       0.02716491      -0.28452623      -0.20439455
Br       8.50661385       3.18384414       0.33852531      -0.33545444       0.23648805       0.33852531
Br       2.92610782       8.88716673      -0.07023242      -0.02124828       0.04509844      -0.07023242
Br       8.54857588       9.20899564       0.41298911      -0.29349241       0.36692735       0.41298911
Br       2.52035813       2.73373230       5.74050359      -0.42699796      -0.21362379      -0.15420860
Br       8.37428455       2.63373271       6.13006713      -0.46778374      -0.31362339       0.23535493
Br       3.08577530       9.07280009       5.65170922       0.13841920       0.23073180      -0.24300297
Br       9.37162988       8.67088060       6.07957297       0.52956159      -0.17118769       0.18486078
40
Lattice="11.789424384493788 4.994228680623598e-17 7.707693397294342e-17 3.86384251277039e-17 11.789424384493786 1.074067569937025e-14 -3.701747836649174e-16 1.034220411604992e-14 11.7894243844938" Properties=species:S:1:pos:R:3:u_disp:R:3 system=cssnbr3_cubic base_model=mace_mp0 role=train_pool T=300.0 draw=11 n_tries=14 rms_disp_A=0.5877575055702295 min_pair_ratio=0.6986991817093555 nearest_heldout_A=0.5715758075161593 site_map_ok=1 nearest_heldout_src=cssnbr3_cubic_orb_v2_q1d2-0-1d2-b0.extxyz#6 pbc="T T T"
Cs      -0.42057087      -0.58392606      -0.65304539      -0.42057087      -0.58392606      -0.65304539
Cs       6.25807500      -0.74451912       0.16137790       0.36336281      -0.74451912       0.16137790
Cs       0.03433756       6.06895473       0.42792952       0.03433756       0.17424254       0.42792952
Cs       5.93366110       6.11082542      -0.75554840       0.03894891       0.21611323      -0.75554840
Cs      -0.13578549       0.68556932       5.21443114      -0.13578549       0.68556932      -0.68028105
Cs       6.17567067       0.38828006       6.06865679       0.28095847       0.38828006       0.17394460
Cs       0.13199988       5.19834460       5.83678267       0.13199988      -0.69636759      -0.05792953
Cs       6.11469671       5.88455699       5.57288130       0.21998452      -0.01015520      -0.32183089
Sn       3.22745338       2.74091543       2.95747073       0.28009728      -0.20644066       0.01011464
Sn       8.84533112       3.00410221       3.07068328       0.00326284       0.05674612       0.12332718
Sn       2.97241531       8.62820891       3.04326731       0.02505922      -0.21385938       0.09591122
Sn       8.97269429       8.69018093       3.01093884       0.13062600      -0.15188736       0.06358275
Sn       2.53769852       3.13881012       8.96585830      -0.40965758       0.19145403       0.12379001
Sn       8.21846102       3.07868858       9.04421239      -0.62360727       0.13133248       0.20214410
Sn       3.03980884       8.97880573       8.87500759       0.09245274       0.13673744       0.03293930
Sn       8.86876456       8.95043159       8.75473697       0.02669628       0.10836330      -0.08733132
Br      -0.08625010       3.19717805       3.25128960      -0.08625010       0.24982195       0.30393350
Br       5.92347133       2.55004686       3.55201877       0.02875914      -0.39730924       0.60466268
Br       0.38755869       8.28502618       2.28422183       0.38755869      -0.55704211      -0.66313427
Br       6.11799931       8.75945343       3.32679258       0.22328712      -0.08261486       0.37943649
Br      -0.12581525       3.09586419       9.22436581      -0.12581525       0.14850809       0.38229752
Br       5.76039353       2.99214659       8.43575939      -0.13431866       0.04479050      -0.40630890
Br       0.41992714       8.80451384       8.58128231       0.41992714      -0.03755445      -0.26078598
Br       6.45920392       8.97975441       8.58471348       0.56449173       0.13768612      -0.25735481
Br       2.48663694       0.31631804       3.04188511      -0.46071916       0.31631804       0.09452901
Br       9.07356990       0.16112469       2.66776482       0.23150161       0.16112469      -0.27959128
Br       3.33326654       6.25139551       3.30899064       0.38591044       0.35668332       0.36163454
Br       8.84914599       6.11024590       3.41415650       0.00707770       0.21553371       0.46680040
Br       2.99035103       0.03314897       9.13668643       0.04299493       0.03314897       0.29461814
Br       8.18023495       0.05001311       8.90104435      -0.66183333       0.05001311       0.05897606
Br       2.81070249       5.93120423       9.17158704      -0.13665361       0.03649204       0.32951875
Br       8.15380860       6.15520031       9.14895449      -0.68825969       0.26048812       0.30688621
Br       2.99729567       3.04810843       0.00511131       0.04993957       0.10075233       0.00511131
Br       8.16523433       3.08478929       0.06912791      -0.67683396       0.13743319       0.06912791
Br       3.44156124       8.36091549      -0.10494798       0.49420514      -0.48115280      -0.10494798
Br       8.94131035       8.95544343       0.12770114       0.09924206       0.11337514       0.12770114
Br       2.07869851       2.93948224       5.93577043      -0.86865758      -0.00787386       0.04105823
Br       8.45422293       3.14816624       5.87309533      -0.38784536       0.20081015      -0.02161686
Br       3.57341361       8.27753892       5.75550639       0.62605752      -0.56452937      -0.13920581
Br       9.36042205       9.27860660       6.19933327       0.51835376       0.43653831       0.30462108
40
Lattice="11.789424384493788 4.994228680623598e-17 7.707693397294342e-17 3.86384251277039e-17 11.789424384493786 1.074067569937025e-14 -3.701747836649174e-16 1.034220411604992e-14 11.7894243844938" Properties=species:S:1:pos:R:3:u_disp:R:3 system=cssnbr3_cubic base_model=mace_mp0 role=train_pool T=300.0 draw=12 n_tries=14 rms_disp_A=0.5446711464100518 min_pair_ratio=0.7043070111659264 nearest_heldout_A=0.5306053618945761 site_map_ok=1 nearest_heldout_src=cssnbr3_cubic_chgnet_q0-0-0-b1.extxyz#5 pbc="T T T"
Cs       0.14563870       0.03122785       0.54488793       0.14563870       0.03122785       0.54488793
Cs       5.58402644       0.17921724       0.14519889      -0.31068575       0.17921724       0.14519889
Cs       0.14312358       5.74980827       0.47861146       0.14312358      -0.14490392       0.47861146
Cs       5.30495323       6.05944779       0.08828441      -0.58975896       0.16473560       0.08828441
Cs      -0.15814635       0.59729110       6.17505141      -0.15814635       0.59729110       0.28033922
Cs       5.94496653      -0.26708532       5.66254941       0.05025434      -0.26708532      -0.23216278
Cs       0.22752705       5.80300996       5.58253074       0.22752705      -0.09170223      -0.31218146
Cs       5.93506257       6.18230026       6.84678345       0.04035037       0.28758807       0.95207126
Sn       3.10640737       3.02083551       2.53924289       0.15905127       0.07347941      -0.40811320
Sn       9.10619604       2.83942771       2.82374237       0.26412775      -0.10792838      -0.12361373
Sn       2.87922997       9.05530608       3.25972471      -0.06812613       0.21323779       0.31236862
Sn       8.60685180       8.89080804       3.18223224      -0.23521649       0.04873975       0.23487614
Sn       3.06406719       2.88156828       8.57846767       0.11671110      -0.06578781      -0.26360062
Sn       9.00428646       2.68924638       8.72641364       0.16221818      -0.25810972      -0.11565465
Sn       3.01176005       8.84859059       9.03319609       0.06440396       0.00652230       0.19112780
Sn       8.98671960       8.72614535       9.09110086       0.14465131      -0.11592294       0.24903257
Br      -0.40087470       3.18831084       2.04287583      -0.40087470       0.24095474      -0.90448026
Br       5.60269266       2.67162231       2.94960059      -0.29201953      -0.27573378       0.00224450
Br      -0.31202503       9.27742594       4.00404324      -0.31202503       0.43535765       1.05668714
Br       5.71369851       8.69103053       3.10708312      -0.18101368      -0.15103776       0.15972703
Br       0.14841888       2.94647961       8.48905776       0.14841888      -0.00087648      -0.35301053
Br       5.99527223       2.65429448       8.73353445       0.10056004      -0.29306162      -0.10853383
Br       0.15246658       9.12392204       8.53389802       0.15246658       0.28185375      -0.30817027
Br       6.01531507       8.39071295       8.78670790       0.12060287      -0.45135534      -0.05536039
Br       2.99589705      -0.22034737       2.44547942       0.04854096      -0.22034737      -0.50187667
Br       8.82381510      -0.14145505       2.88315021      -0.01825319      -0.14145505      -0.06420588
Br       2.71564755       5.80809542       2.40141152      -0.23170855      -0.08661678      -0.54594457
Br       8.84276876       5.53875332       2.40148553       0.00070047      -0.35595887      -0.54587057
Br       3.11031531      -0.12875188       8.99883350       0.16295921      -0.12875188       0.15676521
Br       9.09271619      -0.15074940       8.72482322       0.25064790      -0.15074940      -0.11724507
Br       2.81577244       5.79131418       8.58039797      -0.13158366      -0.10339802      -0.26167032
Br       9.49956918       5.73339317       8.52604927       0.65750089      -0.16131902      -0.31601902
Br       2.73123047       3.14137032      -0.09568181      -0.21612562       0.19401423      -0.09568181
Br       8.87252837       2.28226131      -0.08915764       0.03046008      -0.66509478      -0.08915764
Br       3.27019421       9.04689301       0.09775695       0.32283811       0.20482472       0.09775695
Br       8.82357648       9.27489278      -0.18449618      -0.01849181       0.43282450      -0.18449618
Br       2.81470737       3.69005532       5.78113290      -0.13264873       0.74269923      -0.11357929
Br       9.28877650       2.31115285       5.73503149       0.44670822      -0.63620325      -0.15968070
Br       2.88941324       9.37260023       5.92017159      -0.05794285       0.53053194       0.02545940
Br       8.24065155       8.64859191       5.77228929      -0.60141674      -0.19347638      -0.12242291
40
Lattice="11.789424384493788 4.994228680623598e-17 7.707693397294342e-17 3.86384251277039e-17 11.789424384493786 1.074067569937025e-14 -3.701747836649174e-16 1.034220411604992e-14 11.7894243844938" Properties=species:S:1:pos:R:3:u_disp:R:3 system=cssnbr3_cubic base_model=mace_mp0 role=train_pool T=600.0 draw=0 n_tries=34 rms_disp_A=0.7458160649115573 min_pair_ratio=0.6153366427544923 nearest_heldout_A=0.7212289599713559 site_map_ok=1 nearest_heldout_src=cssnbr3_cubic_chgnet_q0-0-1d2-b0.extxyz#8 pbc="T T T"
Cs       0.12977578      -1.11000620       0.77070622       0.12977578      -1.11000620       0.77070622
Cs       6.74320815       0.75909545      -0.25161786       0.84849596       0.75909545      -0.25161786
Cs      -0.19688931       5.62406775       0.64149185      -0.19688931      -0.27064444       0.64149185
Cs       6.36723857       6.16570690       0.23340783       0.47252638       0.27099470       0.23340783
Cs      -0.56605196       0.96097461       5.84582873      -0.56605196       0.96097461      -0.04888346
Cs       5.17750977      -0.82787354       6.21082404      -0.71720243      -0.82787354       0.31611185
Cs       0.34986790       5.55694052       5.84256512       0.34986790      -0.33777168      -0.05214707
Cs       5.29133648       5.99671757       5.74492523      -0.60337572       0.10200538      -0.14978696
Sn       2.98284062       3.15316164       3.12636613       0.03548452       0.20580554       0.17901004
Sn       9.05413427       2.87305377       2.80142066       0.21206598      -0.07430233      -0.14593543
Sn       2.57367497       9.24751830       2.73832335      -0.37368113       0.40545002      -0.20903275
Sn       8.30463401       8.83117278       3.03518943      -0.53743428      -0.01089551       0.08783334
Sn       2.74040436       3.13148565       9.20408246      -0.20695174       0.18412956       0.36201417
Sn       8.58917114       3.03294904       8.65012743      -0.25289715       0.08559295      -0.19194086
Sn       3.12121353       9.04610106       8.69053894       0.17385743       0.20403278      -0.15152935
Sn       8.84163315       8.93623391       8.82367752      -0.00043514       0.09416562      -0.01839076
Br       0.66675657       3.33773595       3.16935441       0.66675657       0.39037986       0.22199831
Br       6.74364986       3.13041017       3.35039945       0.84893766       0.18305407       0.40304336
Br      -0.07618712       8.64459053       2.87016859      -0.07618712      -0.19747776      -0.07718751
Br       5.77014119       9.05849454       2.89599367      -0.12457100       0.21642625      -0.05136243
Br      -0.19458837       3.29896991       8.87392688      -0.19458837       0.35161381       0.03185859
Br       5.68423522       2.42505969       8.58634984      -0.21047697      -0.52229640      -0.25571845
Br       0.52924220       8.88622305       9.24764574       0.52924220       0.04415477       0.40557745
Br       6.32079670       8.08766201       8.86281454       0.42608451      -0.75440628       0.02074626
Br       2.74098189       0.27338611       2.94664981      -0.20637421       0.27338611      -0.00070628
Br       9.70566297      -0.07519478       2.50953560       0.86359468      -0.07519478      -0.43782049
Br       2.93341347       6.01365156       2.77834741      -0.01394262       0.11893936      -0.16900869
Br       8.90162175       5.81660651       2.61769755       0.05955346      -0.07810568      -0.32965854
Br       2.47411795      -0.50960614       8.59311637      -0.47323815      -0.50960614      -0.24895192
Br       8.19679565      -0.79732681       8.34548668      -0.64527264      -0.79732681      -0.49658161
Br       3.02833050       5.72249110       8.57638539       0.08097441      -0.17222110      -0.26568290
Br       8.86650973       5.03378096       9.10054883       0.02444144      -0.86093123       0.25848055
Br       2.77893091       2.86594476       0.12492919      -0.16842518      -0.08141134       0.12492919
Br       9.36642868       2.59217261      -0.53290053       0.52436039      -0.35518349      -0.53290053
Br       2.97316173       9.16572096       0.28086715       0.02580564       0.32365268       0.28086715
Br       7.58683105       9.14546974      -0.52164618      -1.25523724       0.30340145      -0.52164618
Br       3.10010136       2.87016072       5.81192205       0.15274526      -0.07719538      -0.08279014
Br      10.35144284       3.36246087       5.61997478       1.50937455       0.41510478      -0.27473741
Br       2.77007561       9.46816458       6.11423606      -0.17728049       0.62609629       0.21952386
Br       8.55762780       9.20579415       5.37589124      -0.28444049       0.36372586      -0.51882095
40
Lattice="11.789424384493788 4.994228680623598e-17 7.707693397294342e-17 3.86384251277039e-17 11.789424384493786 1.074067569937025e-14 -3.701747836649174e-16 1.034220411604992e-14 11.7894243844938" Properties=species:S:1:pos:R:3:u_disp:R:3 system=cssnbr3_cubic base_model=mace_mp0 role=train_pool T=600.0 draw=1 n_tries=34 rms_disp_A=0.6800678822634936 min_pair_ratio=0.6327233511751581 nearest_heldout_A=0.660959443479369 site_map_ok=1 nearest_heldout_src=cssnbr3_cubic_mattersim_q1d2-0-0-b0.extxyz#8 pbc="T T T"
Cs       0.20341213      -0.25622167      -0.07012401       0.20341213      -0.25622167      -0.07012401
Cs       5.80634202       0.68108193      -0.31508835      -0.08837018       0.68108193      -0.31508835
Cs       0.13211607       5.74302669       0.93353621       0.13211607      -0.15168551       0.93353621
Cs       6.04981643       6.50495957       0.11789278       0.15510424       0.61024738       0.11789278
Cs       0.45381980       0.21863765       5.76976491       0.45381980       0.21863765      -0.12494728
Cs       5.76541516       0.68947484       5.52726037      -0.12929703       0.68947484      -0.36745182
Cs       0.55695266       5.46967335       6.24783762       0.55695266      -0.42503884       0.35312543
Cs       6.21545839       6.30081897       5.72152388       0.32074620       0.40610678      -0.17318831
Sn       3.08371375       2.95124040       2.94342670       0.13635766       0.00388430      -0.00392940
Sn       8.78296716       2.87443274       2.58767119      -0.05910113      -0.07292336      -0.35968490
Sn       2.99113321       8.74178944       3.26270907       0.04377711      -0.10027884       0.31535297
Sn       8.73976307       8.97197682       2.53302903      -0.10230521       0.12990853      -0.41432706
Sn       2.97241349       3.29855045       8.87578938       0.02505739       0.35119435       0.03372109
Sn       8.76326129       2.72332731       8.59566438      -0.07880700      -0.22402878      -0.24640391
Sn       3.11078537       9.34042764       9.09234255       0.16342928       0.49835935       0.25027426
Sn       8.84357221       8.92622135       8.45498523       0.00150392       0.08415307      -0.38708306
Br      -0.16527469       2.88701193       2.92444435      -0.16527469      -0.06034417      -0.02291175
Br       5.68230281       2.23722774       2.74168524      -0.21240938      -0.71012836      -0.20567086
Br       0.37913336       8.94289798       3.17975531       0.37913336       0.10082969       0.23239921
Br       6.16562990       8.58304500       3.42084820       0.27091771      -0.25902329       0.47349210
Br      -0.40774993       2.85405575       9.17845194      -0.40774993      -0.09330035       0.33638365
Br       5.59667025       2.98499459       8.77660181      -0.29804195       0.03763850      -0.06546648
Br      -0.31782581       9.03824307       9.51638932      -0.31782581       0.19617479       0.67432103
Br       5.37425051       8.76891536       8.07120535      -0.52046169      -0.07315293      -0.77086294
Br       2.43056858       0.05715554       2.61914532      -0.51678751       0.05715554      -0.32821078
Br       8.73147732      -0.31995183       2.62659895      -0.11059097      -0.31995183      -0.32075715
Br       3.04262954       5.89744906       3.09661108       0.09527344       0.00273687       0.14925498
Br       8.77868823       5.53369357       1.88757325      -0.06338006      -0.36101862      -1.05978284
Br       2.83313015      -0.39418126       8.71507792      -0.11422595      -0.39418126      -0.12699037
Br       8.64926573       0.09553522       9.31126390      -0.19280256       0.09553522       0.46919562
Br       3.17890086       5.63403758       8.30728221       0.23154476      -0.26067462      -0.53478608
Br       8.74332346       5.82974143       8.39780324      -0.09874483      -0.06497076      -0.44426505
Br       3.75213842       2.99684336       0.97153326       0.80478232       0.04948726       0.97153326
Br       8.41349518       1.99616540       0.14896100      -0.42857311      -0.95119069       0.14896100
Br       3.08947266       8.24365283       0.31832641       0.14211656      -0.59841546       0.31832641
Br       8.18008430       8.61305268      -0.04848396      -0.66198399      -0.22901560      -0.04848396
Br       3.38198316       2.62317723       6.86593178       0.43462707      -0.32417886       0.97121959
Br       7.78514459       2.37186373       5.74097503      -1.05692369      -0.57549237      -0.15373717
Br       2.78688562       8.89196507       6.37541940      -0.16047048       0.04989678       0.48070721
Br       8.94815416       9.58346812       5.36891145       0.10608587       0.74139983      -0.52580075
40
Lattice="11.789424384493788 4.994228680623598e-17 7.707693397294342e-17 3.86384251277039e-17 11.789424384493786 1.074067569937025e-14 -3.701747836649174e-16 1.034220411604992e-14 11.7894243844938" Properties=species:S:1:pos:R:3:u_disp:R:3 system=cssnbr3_cubic base_model=mace_mp0 role=train_pool T=600.0 draw=2 n_tries=34 rms_disp_A=0.7565916852439684 min_pair_ratio=0.6551591538123294 nearest_heldout_A=0.7439362439501563 site_map_ok=1 nearest_heldout_src=cssnbr3_cubic_chgnet_q0-0-1d2-b0.extxyz#6 pbc="T T T"
Cs       0.25030422      -0.47380231      -0.27778382       0.25030422      -0.47380231      -0.27778382
Cs       6.18622820       0.87897423      -1.18788923       0.29151601       0.87897423      -1.18788923
Cs      -0.29260673       5.22727263      -0.68493303      -0.29260673      -0.66743957      -0.68493303
Cs       5.95611023       5.11499535      -0.87653591       0.06139804      -0.77971684      -0.87653591
Cs      -0.66940265      -0.13248321       5.67038448      -0.66940265      -0.13248321      -0.22432771
Cs       5.15649768      -0.05322382       5.43503530      -0.73821452      -0.05322382      -0.45967689
Cs      -0.62282401       6.02216783       5.79642140      -0.62282401       0.12745564      -0.09829079
Cs       5.26537555       5.92639148       5.58392752      -0.62933664       0.03167929      -0.31078467
Sn       3.04987570       3.53412690       3.85266065       0.10251961       0.58677080       0.90530456
Sn       9.15591491       2.95602875       3.00954537       0.31384663       0.00867265       0.06218928
Sn       2.78266853       9.27875680       3.08785004      -0.16468756       0.43668851       0.14049395
Sn       8.27045161       8.69686277       3.30266770      -0.57161668      -0.14520552       0.35531160
Sn       3.50839978       3.04196179       9.52101586       0.56104369       0.09460570       0.67894758
Sn       9.32450137       2.83805076       8.80219349       0.48243309      -0.10930534      -0.03987480
Sn       2.95299601       8.86460286       9.08660064       0.00563992       0.02253457       0.24453235
Sn       8.85488807       8.71232515       9.17984414       0.01281978      -0.12974314       0.33777586
Br       0.22856053       3.43583193       3.24655858       0.22856053       0.48847584       0.29920249
Br       6.08513340       3.25509844       2.50453552       0.19042120       0.30774235      -0.44282058
Br      -0.14822137       9.02042034       3.93942016      -0.14822137       0.17835206       0.99206407
Br       5.59177323       8.86346533       4.01246892      -0.30293896       0.02139704       1.06511282
Br       0.21634896       3.22003776       8.21094598       0.21634896       0.27268167      -0.63112230
Br       5.75611895       2.84889590       8.61986824      -0.13859324      -0.09846020      -0.22220005
Br       0.45278226       8.59631336       9.83852358       0.45278226      -0.24575493       0.99645529
Br       6.46697687       8.52456401       8.92100213       0.57226468      -0.31750428       0.07893385
Br       3.13842282      -0.27316015       3.37834295       0.19106672      -0.27316015       0.43098685
Br       8.37828223       0.01157316       3.26464520      -0.46378606       0.01157316       0.31728910
Br       3.24031597       5.75755434       2.94040369       0.29295987      -0.13715786      -0.00695240
Br       8.20727991       5.79147341       2.82239692      -0.63478838      -0.10323879      -0.12495917
Br       2.84426685       0.75460700       8.54226610      -0.10308925       0.75460700      -0.29980219
Br       9.28557983       0.27914015       9.38601235       0.44351154       0.27914015       0.54394406
Br       3.68506680       6.10480659       8.82176396       0.73771071       0.21009440      -0.02030433
Br       9.28785541       6.00719660       9.32535122       0.44578712       0.11248440       0.48328293
Br       2.99066214       3.32972961      -0.32227797       0.04330605       0.38237351      -0.32227797
Br       9.58276643       2.40916046      -0.04129157       0.74069814      -0.53819564      -0.04129157
Br       2.47734158       9.00407512      -0.16419601      -0.47001452       0.16200684      -0.16419601
Br       8.60273181       8.79078456       0.18244015      -0.23933648      -0.05128373       0.18244015
Br       4.09629364       2.97163502       5.70465800       1.14893755       0.02427892      -0.19005420
Br       9.14525467       2.57386075       6.00014395       0.30318639      -0.37349534       0.10543176
Br       2.15272183       8.66443791       5.78436199      -0.79463427      -0.17763038      -0.11035020
Br       8.93497476       8.59353223       5.84060705       0.09290648      -0.24853606      -0.05410514
40
Lattice="11.789424384493788 4.994228680623598e-17 7.707693397294342e-17 3.86384251277039e-17 11.789424384493786 1.074067569937025e-14 -3.701747836649174e-16 1.034220411604992e-14 11.7894243844938" Properties=species:S:1:pos:R:3:u_disp:R:3 system=cssnbr3_cubic base_model=mace_mp0 role=train_pool T=600.0 draw=3 n_tries=34 rms_disp_A=0.6684738389245829 min_pair_ratio=0.6511620110291267 nearest_heldout_A=0.6545042529788331 site_map_ok=1 nearest_heldout_src=cssnbr3_cubic_chgnet_q1d2-1d2-1d2-b4.extxyz#7 pbc="T T T"
Cs      -0.00426728      -0.61564319      -0.74008579      -0.00426728      -0.61564319      -0.74008579
Cs       5.36441480      -0.44441853      -0.12613268      -0.53029739      -0.44441853      -0.12613268
Cs      -0.09687956       5.44585179       0.35838076      -0.09687956      -0.44886041       0.35838076
Cs       5.63593764       6.08087904      -0.10832555      -0.25877455       0.18616685      -0.10832555
Cs      -1.55233007      -0.03618991       6.24227948      -1.55233007      -0.03618991       0.34756729
Cs       6.42402627       0.14404726       5.84048567       0.52931408       0.14404726      -0.05422652
Cs       0.71800691       4.94905658       5.86902538       0.71800691      -0.94565561      -0.02568681
Cs       5.72377447       5.24432041       5.57496939      -0.17093773      -0.65039178      -0.31974280
Sn       2.96098549       3.15855241       2.84200895       0.01362940       0.21119631      -0.10534715
Sn       8.85961208       2.95070694       3.32324714       0.01754379       0.00335084       0.37589104
Sn       2.96328414       9.18297111       3.22839731       0.01592804       0.34090283       0.28104121
Sn       9.13727616       8.87614717       3.09005775       0.29520787       0.03407888       0.14270166
Sn       3.40887011       2.99302016       8.94844873       0.46151402       0.04566406       0.10638044
Sn       9.05799357       2.94058726       9.27259233       0.21592528      -0.00676883       0.43052404
Sn       2.86016772       8.97425084       8.71593251      -0.08718837       0.13218255      -0.12613578
Sn       8.95540598       8.91067357       9.05147479       0.11333769       0.06860528       0.20940650
Br       0.01906828       3.22647433       2.79069431       0.01906828       0.27911823      -0.15666178
Br       6.12500552       2.98544360       2.78412824       0.23029332       0.03808750      -0.16322786
Br      -0.33566683       9.42664388       3.11258279      -0.33566683       0.58457559       0.16522670
Br       5.70529475       8.89453464       3.29617119      -0.18941745       0.05246635       0.34881509
Br       0.04036168       1.94144464       9.24353181       0.04036168      -1.00591145       0.40146353
Br       6.18044394       3.34035893       9.02651937       0.28573175       0.39300283       0.18445108
Br      -0.55935948       9.29783014       8.70796687      -0.55935948       0.45576185      -0.13410142
Br       5.62631524       8.99833864       9.44735559      -0.26839696       0.15627035       0.60528730
Br       3.43010124       0.62972209       3.07416293       0.48274514       0.62972209       0.12680684
Br       8.98804664       0.27332384       2.89103866       0.14597835       0.27332384      -0.05631744
Br       3.26004927       6.44846885       2.57438578       0.31269317       0.55375666      -0.37297031
Br       9.09591724       5.87289285       2.63985266       0.25384896      -0.02181934      -0.30750344
Br       3.96278657       0.27983962       8.06752788       1.01543047       0.27983962      -0.77454040
Br       8.65217003       0.40848727       8.97425738      -0.18989826       0.40848727       0.13218909
Br       2.80301006       6.11126065       8.33772930      -0.14434604       0.21654845      -0.50433899
Br       8.26862714       5.86922413       8.55277822      -0.57344115      -0.02548806      -0.28929006
Br       3.00471713       3.03098380      -0.41175200       0.05736103       0.08362771      -0.41175200
Br       8.32254050       2.98355250       0.29841786      -0.51952779       0.03619641       0.29841786
Br       2.93933644       8.61681406      -0.37976363      -0.00801966      -0.22525423      -0.37976363
Br       8.90425930       9.39583289       0.57663135       0.06219101       0.55376461       0.57663135
Br       3.75757195       2.87262173       5.66061814       0.81021585      -0.07473437      -0.23409405
Br       8.91793444       2.57428533       5.89658369       0.07586615      -0.37307077       0.00187150
Br       2.95635637       8.62851614       5.61135760       0.00900028      -0.21355215      -0.28335459
Br       8.54787285       9.23090923       6.28014034      -0.29419544       0.38884094       0.38542815
40
Lattice="11.789424384493788 4.994228680623598e-17 7.707693397294342e-17 3.86384251277039e-17 11.789424384493786 1.074067569937025e-14 -3.701747836649174e-16 1.034220411604992e-14 11.7894243844938" Properties=species:S:1:pos:R:3:u_disp:R:3 system=cssnbr3_cubic base_model=mace_mp0 role=train_pool T=600.0 draw=4 n_tries=34 rms_disp_A=0.6954983508009277 min_pair_ratio=0.6311787319353849 nearest_heldout_A=0.6797348681782416 site_map_ok=1 nearest_heldout_src=cssnbr3_cubic_chgnet_q1d2-1d2-1d2-b1.extxyz#6 pbc="T T T"
Cs       0.39099542      -0.82212733      -0.05215202       0.39099542      -0.82212733      -0.05215202
Cs       5.75553011      -0.12792836      -0.34368122      -0.13918208      -0.12792836      -0.34368122
Cs       0.22302300       6.19366864      -0.14341746       0.22302300       0.29895645      -0.14341746
Cs       5.36818870       6.27047862       0.19732618      -0.52652349       0.37576643       0.19732618
Cs      -0.05362250      -0.05556829       7.18381817      -0.05362250      -0.05556829       1.28910598
Cs       5.89669088       0.58446654       5.36740431       0.00197869       0.58446654      -0.52730788
Cs      -0.36391474       5.33250484       5.62748673      -0.36391474      -0.56220735      -0.26722547
Cs       6.28948752       5.54512776       5.45764232       0.39477532      -0.34958444      -0.43706987
Sn       3.03692769       2.53705877       2.99282324       0.08957160      -0.41029733       0.04546714
Sn       8.79783062       2.78655386       2.76718060      -0.04423767      -0.16080224      -0.18017550
Sn       3.13694284       8.82529396       3.37330643       0.18958675      -0.01677433       0.42595034
Sn       9.03671860       8.80024733       3.03272864       0.19465031      -0.04182096       0.08537254
Sn       2.92257842       2.97042971       8.89237198      -0.02477768       0.02307362       0.05030369
Sn       8.65873726       3.09764037       8.86952476      -0.18333103       0.15028428       0.02745647
Sn       3.11145325       8.97898261       8.72303530       0.16409716       0.13691432      -0.11903299
Sn       8.86270718       8.86755090       8.86005854       0.02063889       0.02548261       0.01799025
Br      -0.06726143       2.49728175       2.57125934      -0.06726143      -0.45007435      -0.37609676
Br       5.74228378       2.76640837       2.77790196      -0.15242841      -0.18094773      -0.16945414
Br       0.20352585       8.18008652       2.97296429       0.20352585      -0.66198177       0.02560819
Br       5.95962746       8.88818637       3.27776130       0.06491527       0.04611809       0.33040520
Br       0.38614147       3.30401785       9.02259777       0.38614147       0.35666176       0.18052948
Br       6.13043741       3.38400558       8.23057451       0.23572522       0.43664949      -0.61149378
Br       0.27791425       9.39074756       9.51343200       0.27791425       0.54867927       0.67136371
Br       6.21693075       9.72856182       9.72168686       0.32221856       0.88649354       0.87961857
Br       3.14194532       0.15190276       2.94281484       0.19458923       0.15190276      -0.00454125
Br       8.21853816      -0.31481352       2.74209010      -0.62353013      -0.31481352      -0.20526599
Br       3.23976722       5.76979669       3.92741545       0.29241112      -0.12491550       0.98005935
Br       8.30112201       5.61627952       3.59259159      -0.54094628      -0.27843267       0.64523549
Br       3.12970419       0.71248101       8.06941436       0.18234809       0.71248101      -0.77265393
Br       8.62974798       0.30455075       8.41180747      -0.21232031       0.30455075      -0.43026082
Br       3.71673223       6.32012488       8.84590611       0.76937614       0.42541269       0.00383782
Br       8.92661769       6.40027970       8.25310770       0.08454940       0.50556751      -0.58896059
Br       3.57733311       2.07449822      -0.19123599       0.62997702      -0.87285788      -0.19123599
Br       8.39736951       3.36062746      -0.22817955      -0.44469878       0.41327136      -0.22817955
Br       2.37075089       8.50304547       0.27812933      -0.57660521      -0.33902281       0.27812933
Br       8.63885119       8.84390429      -0.10475280      -0.20321710       0.00183600      -0.10475280
Br       2.59753727       3.31725483       5.74806956      -0.34981883       0.36989873      -0.14664263
Br       8.73797170       2.63857575       5.69945100      -0.10409659      -0.30878035      -0.19526119
Br       3.11898449       9.03166008       6.27060480       0.17162840       0.18959180       0.37589261
Br       7.81874061       8.55631156       5.49698424      -1.02332768      -0.28575673      -0.39772796
40
Lattice="11.789424384493788 4.994228680623598e-17 7.707693397294342e-17 3.86384251277039e-17 11.789424384493786 1.074067569937025e-14 -3.701747836649174e-16 1.034220411604992e-14 11.7894243844938" Properties=species:S:1:pos:R:3:u_disp:R:3 system=cssnbr3_cubic base_model=mace_mp0 role=train_pool T=600.0 draw=5 n_tries=34 rms_disp_A=0.7122582200961137 min_pair_ratio=0.6494858291648337 nearest_heldout_A=0.6708759536143896 site_map_ok=1 nearest_heldout_src=cssnbr3_cubic_mattersim_q1d2-1d2-1d2-b3.extxyz#9 pbc="T T T"
Cs      -0.13226618       0.99030053       0.18597111      -0.13226618       0.99030053       0.18597111
Cs       5.66857477       0.46515290      -0.20464362      -0.22613742       0.46515290      -0.20464362
Cs      -0.56603538       6.06879522      -0.06431401      -0.56603538       0.17408303      -0.06431401
Cs       6.17483628       6.72273029       0.28730991       0.28012408       0.82801809       0.28730991
Cs      -0.07111077      -0.90487858       5.18855807      -0.07111077      -0.90487858      -0.70615412
Cs       5.28479163       0.07626316       6.63004557      -0.60992056       0.07626316       0.73533338
Cs       0.03383201       5.08971532       6.58414531       0.03383201      -0.80499687       0.68943312
Cs       6.05858551       5.49239106       4.87395278       0.16387332      -0.40232113      -1.02075941
Sn       2.96052235       2.51913975       2.84632961       0.01316625      -0.42821635      -0.10102649
Sn       8.83829931       2.82645347       2.95929316      -0.00376898      -0.12090263       0.01193706
Sn       3.35603598       8.69805123       3.13273313       0.40867988      -0.14401706       0.18537703
Sn       9.27354516       8.70871203       2.99001185       0.43147687      -0.13335626       0.04265575
Sn       2.79709478       3.00243004       8.78772330      -0.15026132       0.05507395      -0.05434499
Sn       8.55486122       3.17411917       8.81541382      -0.28720707       0.22676308      -0.02665447
Sn       2.92658460       8.68637170       8.95517342      -0.02077150      -0.15569659       0.11310514
Sn       8.67290663       8.88628552       9.04240693      -0.16916166       0.04421723       0.20033864
Br       0.13404110       2.02070348       3.46418379       0.13404110      -0.92665261       0.51682770
Br       6.04045182       2.85998570       3.08491640       0.14573963      -0.08737039       0.13756031
Br       0.48967704       8.70654208       3.07449490       0.48967704      -0.13552621       0.12713881
Br       6.09820902       9.02526072       3.32289179       0.20349683       0.18319243       0.37553569
Br      -0.25272105       3.32537204       8.84632295      -0.25272105       0.37801595       0.00425466
Br       5.56060167       2.57651998       8.17903245      -0.33411052      -0.37083612      -0.66303584
Br       0.00926366       8.37807217       8.96318344       0.00926366      -0.46399612       0.12111515
Br       5.78148097       9.21351923       8.79666626      -0.11323123       0.37145094      -0.04540203
Br       3.67131873       0.02352548       3.10283405       0.72396263       0.02352548       0.15547796
Br       8.56459249       0.08893914       3.04338319      -0.27747580       0.08893914       0.09602710
Br       2.98925869       6.28818833       2.89953073       0.04190259       0.39347613      -0.04782537
Br       8.49320636       5.96405113       3.47376008      -0.34886193       0.06933894       0.52640398
Br       3.38292804       0.03601638       8.77362332       0.43557194       0.03601638      -0.06844496
Br       7.88623953       0.17438144       9.62239899      -0.95582876       0.17438144       0.78033071
Br       2.77537203       6.14917526       8.76390004      -0.17198407       0.25446307      -0.07816825
Br       8.38725714       5.88762223       9.84888387      -0.45481114      -0.00708996       1.00681559
Br       2.66907219       2.67300911      -0.28364765      -0.27828390      -0.27434698      -0.28364765
Br       9.09676857       3.11011602       0.15563993       0.25470028       0.16275993       0.15563993
Br       3.51542871       8.81966083      -0.31726683       0.56807261      -0.02240746      -0.31726683
Br       9.31028699       8.50864282      -0.92963276       0.46821870      -0.33342547      -0.92963276
Br       2.62725180       3.08753358       5.48731137      -0.32010429       0.14017749      -0.40740082
Br       8.81851468       2.93703580       5.91550697      -0.02355361      -0.01032029       0.02079478
Br       3.82091498       9.07016843       5.18028367       0.87355888       0.22810014      -0.71442853
Br       9.57040717       9.24370559       5.03699932       0.72833888       0.40163730      -0.85771287
40
Lattice="11.789424384493788 4.994228680623598e-17 7.707693397294342e-17 3.86384251277039e-17 11.789424384493786 1.074067569937025e-14 -3.701747836649174e-16 1.034220411604992e-14 11.7894243844938" Properties=species:S:1:pos:R:3:u_disp:R:3 system=cssnbr3_cubic base_model=mace_mp0 role=train_pool T=600.0 draw=6 n_tries=34 rms_disp_A=0.7254643085307008 min_pair_ratio=0.6074138611963935 nearest_heldout_A=99.0 site_map_ok=0 nearest_heldout_src=none#-1 pbc="T T T"
Cs      -0.11526593       0.11011420      -0.43952090      -0.11526593       0.11011420      -0.43952090
Cs       6.06611095       0.23730751       0.45590152       0.17139876       0.23730751       0.45590152
Cs       0.84198254       5.50073260       0.51844213       0.84198254      -0.39397960       0.51844213
Cs       5.07424796       6.48926271       0.15668805      -0.82046423       0.59455052       0.15668805
Cs      -0.56307058       0.02675402       6.38037592      -0.56307058       0.02675402       0.48566372
Cs       5.27783928      -0.14176381       3.92795092      -0.61687292      -0.14176381      -1.96676127
Cs      -0.68734188       5.97330454       6.35726516      -0.68734188       0.07859235       0.46255297
Cs       6.19313569       5.93041147       6.88860406       0.29842349       0.03569928       0.99389187
Sn       2.83663129       3.01065380       3.16281869      -0.11072480       0.06329770       0.21546260
Sn       8.87026385       2.80230012       3.28819705       0.02819556      -0.14505597       0.34084095
Sn       2.90052199       8.92002383       2.97055676      -0.04683411       0.07795554       0.02320066
Sn       8.59303122       8.63256966       2.84411522      -0.24903706      -0.20949863      -0.10324088
Sn       3.40239117       2.91214485       8.70519183       0.45503507      -0.03521124      -0.13687646
Sn       9.15436142       2.97839644       8.94112946       0.31229313       0.03104034       0.09906117
Sn       3.39022127       8.95514983       8.85240076       0.44286517       0.11308154       0.01033247
Sn       8.99908734       9.02359056       8.66901736       0.15701905       0.18152227      -0.17305093
Br       0.20561320       2.94019343       3.08234915       0.20561320      -0.00716266       0.13499306
Br       6.24054926       2.79510534       2.95134328       0.34583707      -0.15225075       0.00398718
Br       0.18914319       8.38199617       2.83376609       0.18914319      -0.46007212      -0.11359000
Br       5.76921019       9.13860803       2.71561740      -0.12550200       0.29653974      -0.23173869
Br       0.27120383       2.24200657       9.27569888       0.27120383      -0.70534953       0.43363059
Br       5.88559805       2.99987582       8.21797972      -0.00911414       0.05251973      -0.62408857
Br       0.31077088       8.57588917       8.37922946       0.31077088      -0.26617912      -0.46283882
Br       6.11002771       9.20973055       8.95226403       0.21531552       0.36766226       0.11019574
Br       2.94136531      -0.29646100       2.75169901      -0.00599078      -0.29646100      -0.19565709
Br       8.99690175       0.16818000       3.75177699       0.15483346       0.16818000       0.80442089
Br       3.13942668       5.72567002       3.05782160       0.19207059      -0.16904218       0.11046551
Br       8.03589198       5.72107719       3.13742796      -0.80617631      -0.17363500       0.19007186
Br       3.42260198      -0.32476867       8.98774534       0.47524588      -0.32476867       0.14567705
Br       9.61114147       0.43257563       8.56611090       0.76907318       0.43257563      -0.27595739
Br       2.64658932       5.62691505       8.99398755      -0.30076678      -0.26779714       0.15191926
Br       8.50311617       6.41965783       8.42770020      -0.33895212       0.52494564      -0.41436809
Br       4.40187176       3.03079750       0.14720404       1.45451566       0.08344140       0.14720404
Br       9.21149125       2.65288767      -0.30986329       0.36942297      -0.29446842      -0.30986329
Br       2.28662737       8.49009433       0.18512292      -0.66072873      -0.35197395       0.18512292
Br       8.29467094       8.94153655      -0.66797456      -0.54739735       0.09946826      -0.66797456
Br       2.62025021       3.01738731       5.84254245      -0.32710589       0.07003121      -0.05216974
Br       8.37918282       3.32411180       5.37114751      -0.46288547       0.37675570      -0.52356468
Br       2.89752425       9.06393085       6.10020625      -0.04983185       0.22186256       0.20549405
Br       8.53478992       8.59236623       5.62450667      -0.30727837      -0.24970205      -0.27020552
40
Lattice="11.789424384493788 4.994228680623598e-17 7.707693397294342e-17 3.86384251277039e-17 11.789424384493786 1.074067569937025e-14 -3.701747836649174e-16 1.034220411604992e-14 11.7894243844938" Properties=species:S:1:pos:R:3:u_disp:R:3 system=cssnbr3_cubic base_model=mace_mp0 role=train_pool T=600.0 draw=7 n_tries=34 rms_disp_A=0.7085449942907804 min_pair_ratio=0.6150834396454996 nearest_heldout_A=0.6858763125899153 site_map_ok=1 nearest_heldout_src=cssnbr3_cubic_chgnet_q1d2-1d2-1d2-b4.extxyz#7 pbc="T T T"
Cs       0.99286262       0.60307837       0.32508425       0.99286262       0.60307837       0.32508425
Cs       6.11545018       0.02738667      -0.13028584       0.22073799       0.02738667      -0.13028584
Cs      -0.70952275       5.26533311      -0.74075812      -0.70952275      -0.62937908      -0.74075812
Cs       6.35885095       5.82630232       0.86457302       0.46413876      -0.06840988       0.86457302
Cs      -0.03589904      -0.18723066       5.88222563      -0.03589904      -0.18723066      -0.01248656
Cs       6.69196987       1.00222994       6.25599664       0.79725768       1.00222994       0.36128445
Cs       1.34744913       6.19030124       5.54931090       1.34744913       0.29558904      -0.34540130
Cs       6.21268625       5.82533556       6.31436975       0.31797405      -0.06937663       0.41965756
Sn       3.43383199       2.47275463       2.84443786       0.48647590      -0.47460146      -0.10291824
Sn       9.33847795       3.21911421       2.91343626       0.49640966       0.27175811      -0.03391984
Sn       2.70442666       8.55387758       2.84373696      -0.24292944      -0.28819071      -0.10361914
Sn       8.40458981       8.95541673       3.21624275      -0.43747848       0.11334845       0.26888666
Sn       2.84258694       2.97606816       8.77707273      -0.10476915       0.02871206      -0.06499555
Sn       8.62592922       3.07738654       9.03505526      -0.21613907       0.13003045       0.19298697
Sn       2.83163095       8.75929545       8.70320701      -0.11572515      -0.08277284      -0.13886128
Sn       8.53011916       8.98057874       9.00743887      -0.31194913       0.13851045       0.16537059
Br       0.19580412       2.51562380       1.98355364       0.19580412      -0.43173230      -0.96380245
Br       5.87800100       3.33576289       2.69043542      -0.01671119       0.38840679      -0.25692068
Br      -0.82121875       8.96719455       3.34328158      -0.82121875       0.12512626       0.39592548
Br       4.84005836       8.88064410       2.73863510      -1.05465383       0.03857582      -0.20872100
Br      -0.56518841       2.80311453       8.32272763      -0.56518841      -0.14424156      -0.51934065
Br       5.31252697       3.16274146       9.18356484      -0.58218522       0.21538537       0.34149655
Br      -0.25981043       8.94613124       8.28119325      -0.25981043       0.10406295      -0.56087504
Br       5.71679818       8.38420526       9.02961588      -0.17791401      -0.45786303       0.18754759
Br       3.06623920      -0.29437318       2.78929779       0.11888311      -0.29437318      -0.15805831
Br       8.34389864       0.10966766       2.94395533      -0.49816965       0.10966766      -0.00340077
Br       3.18102148       5.56494434       3.07357010       0.23366538      -0.32976785       0.12621400
Br       8.81406771       5.97199093       2.94441246      -0.02800058       0.07727874      -0.00294364
Br       3.07283274      -0.30482283       8.62764192       0.12547664      -0.30482283      -0.21442636
Br       7.93657352       0.41733694       8.41975649      -0.90549477       0.41733694      -0.42231180
Br       3.17978136       5.73708141       9.15741942       0.23242526      -0.15763078       0.31535113
Br       8.61372102       6.09558518       9.00354423      -0.22834726       0.20087299       0.16147594
Br       3.23828136       2.91768425      -0.09144924       0.29092526      -0.02967184      -0.09144924
Br       8.71215631       2.62541207       0.35430893      -0.12991198      -0.32194403       0.35430893
Br       2.64035332       9.00372767      -0.27229986      -0.30700277       0.16165939      -0.27229986
Br       9.28933268       8.96190123      -0.07870801       0.44726439       0.11983294      -0.07870801
Br       3.17333983       2.17933267       5.90848286       0.22598373      -0.76802342       0.01377067
Br       8.15742921       3.15982971       6.46338385      -0.68463908       0.21247362       0.56867166
Br       3.09393553       8.32228576       5.86631413       0.14657944      -0.51978253      -0.02839807
Br       8.10011919       9.05382842       5.70620852      -0.74194910       0.21176014      -0.18850367
40
Lattice="11.789424384493788 4.994228680623598e-17 7.707693397294342e-17 3.86384251277039e-17 11.789424384493786 1.074067569937025e-14 -3.701747836649174e-16 1.034220411604992e-14 11.7894243844938" Properties=species:S:1:pos:R:3:u_disp:R:3 system=cssnbr3_cubic base_model=mace_mp0 role=train_pool T=600.0 draw=8 n_tries=34 rms_disp_A=0.7390146287718891 min_pair_ratio=0.670231256621907 nearest_heldout_A=99.0 site_map_ok=0 nearest_heldout_src=none#-1 pbc="T T T"
Cs      -0.39614192      -1.00758657       0.04012532      -0.39614192      -1.00758657       0.04012532
Cs       6.79895565       0.63628649       0.12466282       0.90424346       0.63628649       0.12466282
Cs       0.65014631       5.85589014      -0.77730407       0.65014631      -0.03882205      -0.77730407
Cs       4.82883431       6.09261792      -0.25841515      -1.06587789       0.19790573      -0.25841515
Cs       0.78789943      -0.19648474       6.36520848       0.78789943      -0.19648474       0.47049629
Cs       6.63927126      -0.24438824       6.06295509       0.74455906      -0.24438824       0.16824290
Cs      -0.41118053       5.69493457       6.48861488      -0.41118053      -0.19977762       0.59390268
Cs       5.63531796       6.17428544       5.72209524      -0.25939423       0.27957324      -0.17261695
Sn       3.17225971       3.14857397       2.93105745       0.22490361       0.20121788      -0.01629865
Sn       9.03684132       3.34975292       2.65684968       0.19477303       0.40239682      -0.29050641
Sn       3.16500638       8.95039650       3.25139054       0.21765028       0.10832821       0.30403444
Sn       8.98975437       9.08489615       2.67845413       0.14768608       0.24282786      -0.26890196
Sn       3.05697095       2.78011847       8.64102428       0.10961485      -0.16723762      -0.20104401
Sn       8.81002451       3.23859421       8.77262806      -0.03204378       0.29123811      -0.06944023
Sn       2.93828860       8.81720686       8.97624691      -0.00906749      -0.02486143       0.13417863
Sn       8.55549718       9.15436510       8.48207252      -0.28657111       0.31229681      -0.35999576
Br       0.13736238       3.12364208       3.41932195       0.13736238       0.17628598       0.47196586
Br       5.89720596       2.95236314       2.75710045       0.00249377       0.00500705      -0.19025564
Br      -0.62727702       8.95219059       2.21487244      -0.62727702       0.11012230      -0.73248366
Br       5.49735107       8.56678529       3.07637840      -0.39736112      -0.27528300       0.12902230
Br      -0.23057651       3.36362324       8.70973289      -0.23057651       0.41626714      -0.13233540
Br       5.86352790       2.42314285       8.59344637      -0.03118429      -0.52421324      -0.24862192
Br      -0.35246669       8.58669637       8.44268406      -0.35246669      -0.25537191      -0.39938423
Br       5.64881766       8.62373939       8.38317305      -0.24589453      -0.21832890      -0.45889524
Br       4.14625350      -0.49153898       4.49159925       1.19889741      -0.49153898       1.54424315
Br       8.85352750       0.37959593       2.71920666       0.01145921       0.37959593      -0.22814943
Br       3.63262974       5.22688855       3.07659267       0.68527365      -0.66782364       0.12923658
Br       8.38980899       6.06740482       2.32805389      -0.45225930       0.17269263      -0.61930221
Br       2.84624475       0.16930781       9.23466859      -0.10111134       0.16930781       0.39260030
Br       8.46695558      -0.10651407       8.98604029      -0.37511271      -0.10651407       0.14397200
Br       3.25488743       6.22758810       9.22689009       0.30753133       0.33287591       0.38482180
Br       7.84925766       5.94512139       9.00337797      -0.99281063       0.05040920       0.16130968
Br       2.71944770       2.52553135       0.81880396      -0.22790840      -0.42182474       0.81880396
Br       8.99661119       2.94328768      -0.49166459       0.15454290      -0.00406842      -0.49166459
Br       2.70422068       8.15737078      -0.08091261      -0.24313542      -0.68469751      -0.08091261
Br       8.40233888       9.30051417       0.06199065      -0.43972941       0.45844588       0.06199065
Br       3.33465249       3.29612519       6.52454047       0.38729639       0.34876909       0.62982827
Br       8.56936649       2.58107034       5.61784020      -0.27270180      -0.36628576      -0.27687199
Br       2.67591331       8.71078908       5.63844554      -0.27144279      -0.13127921      -0.25626665
Br       8.78867259       9.29337082       5.96848525      -0.05339570       0.45130253       0.07377306
40
Lattice="11.789424384493788 4.994228680623598e-17 7.707693397294342e-17 3.86384251277039e-17 11.789424384493786 1.074067569937025e-14 -3.701747836649174e-16 1.034220411604992e-14 11.7894243844938" Properties=species:S:1:pos:R:3:u_disp:R:3 system=cssnbr3_cubic base_model=mace_mp0 role=train_pool T=600.0 draw=9 n_tries=34 rms_disp_A=0.8200675302602622 min_pair_ratio=0.6053822561803135 nearest_heldout_A=0.7859858078984419 site_map_ok=1 nearest_heldout_src=cssnbr3_cubic_chgnet_q0-0-1d2-b2.extxyz#9 pbc="T T T"
Cs       0.28675753      -0.06775213       0.02471585       0.28675753      -0.06775213       0.02471585
Cs       6.27987665      -0.38533141       0.63217233       0.38516445      -0.38533141       0.63217233
Cs      -0.78825656       6.58114638      -0.68526136      -0.78825656       0.68643419      -0.68526136
Cs       5.20976778       5.36370857       0.08140123      -0.68494442      -0.53100362       0.08140123
Cs      -0.39221748      -0.04372463       4.41210041      -0.39221748      -0.04372463      -1.48261178
Cs       6.42322025       0.12344678       5.47665904       0.52850806       0.12344678      -0.41805315
Cs       0.09159794       4.85477407       6.10331452       0.09159794      -1.03993812       0.20860232
Cs       6.72904663       5.70981661       6.39283115       0.83433444      -0.18489558       0.49811896
Sn       3.07610872       3.02956106       3.03411156       0.12875262       0.08220497       0.08675546
Sn       8.84506080       2.91063075       2.81495091       0.00299251      -0.03672535      -0.13240519
Sn       3.37022130       8.60278363       3.26662551       0.42286521      -0.23928466       0.31926942
Sn       9.04986193       8.70977828       2.71167708       0.20779364      -0.13229000      -0.23567902
Sn       2.39325895       3.03095846       8.90269491      -0.55409715       0.08360236       0.06062663
Sn       8.39133625       2.73679693       8.53101634      -0.45073203      -0.21055916      -0.31105195
Sn       2.91127956       8.96686939       8.94087188      -0.03607654       0.12480110       0.09880359
Sn       8.80308576       8.76565736       8.62113903      -0.03898253      -0.07641093      -0.22092926
Br      -0.02694961       3.24633425       3.00174111      -0.02694961       0.29897815       0.05438501
Br       5.97297698       3.11818784       2.58069282       0.07826478       0.17083175      -0.36666327
Br       0.13035028       8.57341774       3.03426563       0.13035028      -0.26865054       0.08690953
Br       5.91921069       9.52708653       3.07783813       0.02449850       0.68501824       0.13048204
Br      -0.07283194       3.59321799       8.80320616      -0.07283194       0.64586189      -0.03886213
Br       5.66978248       4.15593188       8.69584019      -0.22492971       1.20857578      -0.14622810
Br      -0.30796781       8.40230366       9.24456999      -0.30796781      -0.43976463       0.40250170
Br       5.81959714       9.22454589       9.53894877      -0.07511506       0.38247760       0.69688048
Br       4.20407474      -0.14619595       3.21705095       1.25671864      -0.14619595       0.26969486
Br       9.40420886      -0.36848757       2.89889941       0.56214058      -0.36848757      -0.04845668
Br       3.49740316       5.51149992       4.34702059       0.55004707      -0.38321228       1.39966449
Br       7.77908979       5.52173501       2.65742931      -1.06297850      -0.37297719      -0.28992679
Br       2.01513687       0.25334236       9.07812396      -0.93221923       0.25334236       0.23605567
Br       8.37770331       0.71399342       8.94195746      -0.46436497       0.71399342       0.09988917
Br       1.94840992       5.72708914       9.02363548      -0.99894617      -0.16762305       0.18156719
Br       8.67549783       6.31106290       8.06060831      -0.16657045       0.41635071      -0.78145998
Br       3.07003392       3.26794731       0.59579714       0.12267782       0.32059122       0.59579714
Br       9.22302008       2.36644163      -0.05076414       0.38095179      -0.58091447      -0.05076414
Br       3.06128099       8.39723265       0.39544852       0.11392490      -0.44483564       0.39544852
Br       8.96924255       9.42009630      -0.44335968       0.12717426       0.57802801      -0.44335968
Br       3.09863889       3.55334953       6.17245988       0.15128280       0.60599343       0.27774769
Br       8.38422415       2.43652529       5.60249064      -0.45784414      -0.51083081      -0.29222155
Br       3.67997431       8.95045225       6.32526782       0.73261821       0.10838396       0.43055563
Br       9.43977745       9.13809328       5.48989285       0.59770916       0.29602500      -0.40481934
40
Lattice="11.789424384493788 4.994228680623598e-17 7.707693397294342e-17 3.86384251277039e-17 11.789424384493786 1.074067569937025e-14 -3.701747836649174e-16 1.034220411604992e-14 11.7894243844938" Properties=species:S:1:pos:R:3:u_disp:R:3 system=cssnbr3_cubic base_model=mace_mp0 role=train_pool T=600.0 draw=10 n_tries=34 rms_disp_A=0.6312579449836271 min_pair_ratio=0.6792463806032812 nearest_heldout_A=0.6199000290992833 site_map_ok=1 nearest_heldout_src=cssnbr3_cubic_chgnet_q1d2-1d2-1d2-b1.extxyz#6 pbc="T T T"
Cs      -0.16146691      -0.23725950      -0.67622326      -0.16146691      -0.23725950      -0.67622326
Cs       6.82114990       0.16939463       0.29280046       0.92643771       0.16939463       0.29280046
Cs      -0.32976794       6.34319540      -0.66194887      -0.32976794       0.44848320      -0.66194887
Cs       5.29851117       4.86436335       0.34716964      -0.59620102      -1.03034884       0.34716964
Cs       0.22063163      -0.46992374       5.37484908       0.22063163      -0.46992374      -0.51986311
Cs       5.82013773      -0.10231203       6.33718546      -0.07457446      -0.10231203       0.44247327
Cs       0.39438726       5.87395570       5.55062326       0.39438726      -0.02075649      -0.34408893
Cs       5.06747065       6.02026617       6.22517096      -0.82724155       0.12555398       0.33045877
Sn       2.78256179       3.17104178       2.83601635      -0.16479431       0.22368568      -0.11133975
Sn       9.06338955       2.74138856       2.95451076       0.22132126      -0.20596754       0.00715466
Sn       3.16171203       8.96700406       3.17511611       0.21435593       0.12493577       0.22776002
Sn       9.05436457       8.70742253       2.92512690       0.21229628      -0.13464576      -0.02222920
Sn       2.38851304       3.08810173       8.86991351      -0.55884306       0.14074564       0.02784523
Sn       8.61865335       3.03621598       8.90686664      -0.22341494       0.08885988       0.06479835
Sn       3.20002950       9.09242667       8.90809336       0.25267340       0.25035838       0.06602508
Sn       8.97804410       8.92179716       8.91696116       0.13597582       0.07972887       0.07489287
Br       0.15648101       2.72094690       2.18565396       0.15648101      -0.22640920      -0.76170214
Br       6.12511914       3.58603461       3.16804283       0.23040695       0.63867851       0.22068674
Br       0.05402288       9.14824259       3.12542565       0.05402288       0.30617430       0.17806956
Br       6.11940913       9.03682966       2.85442820       0.22469694       0.19476137      -0.09292790
Br       0.05905610       3.35218146       8.75648444       0.05905610       0.40482537      -0.08558385
Br       5.99149414       2.70039366       9.29964845       0.09678195      -0.24696243       0.45758016
Br       0.31632886       9.27591427       8.81110037       0.31632886       0.43384598      -0.03096792
Br       6.12717220       9.35945336       9.36963856       0.23246001       0.51738508       0.52757028
Br       3.09012502      -0.19706851       3.57270831       0.14276892      -0.19706851       0.62535222
Br       9.12678414      -0.27786231       2.47724981       0.28471585      -0.27786231      -0.47010629
Br       2.96235618       5.73004889       3.13942353       0.01500008      -0.16466330       0.19206744
Br       9.50180161       5.82488336       2.42048439       0.65973332      -0.06982883      -0.52687171
Br       2.67345796      -0.25176241       8.65697743      -0.27389813      -0.25176241      -0.18509086
Br       9.34361162      -0.44305522       9.45330122       0.50154334      -0.44305522       0.61123293
Br       3.19797826       5.81954504       8.66393167       0.25062217      -0.07516715      -0.17813662
Br       8.76057281       5.60598501       8.67506740      -0.08149548      -0.28872718      -0.16700089
Br       2.73964485       2.88949506       0.36428010      -0.20771124      -0.05786104       0.36428010
Br       8.58173194       3.04345192      -0.26543164      -0.26033635       0.09609582      -0.26543164
Br       2.86004451       8.71244407      -0.26861556      -0.08731159      -0.12962422      -0.26861556
Br       9.39802915       8.41595602       0.62353909       0.55596086      -0.42611227       0.62353909
Br       2.00669827       3.13312156       5.98225448      -0.94065782       0.18576546       0.08754229
Br       8.93485161       3.28252982       5.76993240       0.09278333       0.33517372      -0.12477979
Br       2.26155365       9.02563143       5.70707179      -0.68580245       0.18356314      -0.18764040
Br       8.11767206       9.41569690       6.16681356      -0.72439623       0.57362862       0.27210137
40
Lattice="11.789424384493788 4.994228680623598e-17 7.707693397294342e-17 3.86384251277039e-17 11.789424384493786 1.074067569937025e-14 -3.701747836649174e-16 1.034220411604992e-14 11.7894243844938" Properties=species:S:1:pos:R:3:u_disp:R:3 system=cssnbr3_cubic base_model=mace_mp0 role=train_pool T=600.0 draw=11 n_tries=34 rms_disp_A=0.7156495281598748 min_pair_ratio=0.6647201818810652 nearest_heldout_A=0.6857258542080876 site_map_ok=1 nearest_heldout_src=cssnbr3_cubic_chgnet_q1d2-0-1d2-b3.extxyz#9 pbc="T T T"
Cs       0.53639741       0.25852630      -0.26548609       0.53639741       0.25852630      -0.26548609
Cs       6.16953287      -0.65554928      -0.08907854       0.27482067      -0.65554928      -0.08907854
Cs      -0.39102870       5.25692942      -0.00530519      -0.39102870      -0.63778277      -0.00530519
Cs       6.25255007       5.28941219      -0.11723224       0.35783788      -0.60530000      -0.11723224
Cs      -0.28854861      -1.42337791       6.21050176      -0.28854861      -1.42337791       0.31578957
Cs       5.92686607       0.89713919       5.22758322       0.03215388       0.89713919      -0.66712897
Cs       0.50592955       5.97830593       5.16858153       0.50592955       0.08359374      -0.72613066
Cs       6.69468023       6.36217898       6.32991127       0.79996803       0.46746679       0.43519908
Sn       2.66820232       3.16057935       3.13525488      -0.27915377       0.21322326       0.18789879
Sn       8.58442483       2.98624384       2.86491283      -0.25764346       0.03888774      -0.08244326
Sn       2.91673136       9.18024013       2.75875426      -0.03062473       0.33817184      -0.18860183
Sn       8.72589624       8.69372749       2.73033790      -0.11617204      -0.14834080      -0.21701819
Sn       3.12313064       2.98036646       8.89603526       0.17577455       0.03301036       0.05396698
Sn       9.23057358       2.81443949       8.71839058       0.38850530      -0.13291661      -0.12367771
Sn       2.94057040       9.00394999       8.66323434      -0.00678570       0.16188171      -0.17883394
Sn       8.54697838       8.84579345       8.75749421      -0.29508991       0.00372516      -0.08457408
Br      -0.17196515       3.12689377       3.36321633      -0.17196515       0.17953767       0.41586023
Br       5.89632995       2.98634269       2.72879261       0.00161775       0.03898659      -0.21856349
Br      -0.06868732       8.39131426       3.93412718      -0.06868732      -0.45075403       0.98677108
Br       5.85736220       8.81228201       3.28329974      -0.03734999      -0.02978628       0.33594364
Br      -0.25452027       2.23046953       9.03661355      -0.25452027      -0.71688657       0.19454526
Br       5.62478672       2.63545013       9.60941649      -0.26992548      -0.31190597       0.76734820
Br       0.37637886       9.11172575       9.44348036       0.37637886       0.26965746       0.60141208
Br       6.23964433       9.17875984       9.65780799       0.34493214       0.33669155       0.81573970
Br       2.65978727       0.41087890       2.89185747      -0.28756883       0.41087890      -0.05549863
Br       8.83612575       0.50324304       3.67921358      -0.00594254       0.50324304       0.73185748
Br       2.20420122       6.27032920       2.93179903      -0.74315488       0.37561701      -0.01555707
Br       8.35109418       6.46961491       2.44599815      -0.49097410       0.57490272      -0.50135795
Br       2.97780151       0.01423412       8.62383780       0.03044541       0.01423412      -0.21823049
Br       9.13137696      -0.01994396       7.99560000       0.28930867      -0.01994396      -0.84646829
Br       3.20861260       6.08275760       8.95153398       0.26125650       0.18804540       0.10946570
Br       8.86750608       6.15102226       9.20936499       0.02543779       0.25631007       0.36729670
Br       2.95703920       2.32416220       0.22654900       0.00968310      -0.62319389       0.22654900
Br       8.24281765       2.89467661      -0.58164012      -0.59925064      -0.05267949      -0.58164012
Br       2.89727678       9.08148635      -0.13003234      -0.05007931       0.23941807      -0.13003234
Br       9.10426360       8.87331612       0.13422320       0.26219531       0.03124783       0.13422320
Br       3.06110831       2.79676042       5.90717740       0.11375221      -0.15059568       0.01246521
Br       7.45292175       3.60660588       5.67240965      -1.38914654       0.65924978      -0.22230254
Br       3.35126778       9.23509414       5.68346529       0.40391168       0.39302586      -0.21124691
Br       8.67770113       8.65930940       5.99884373      -0.16436716      -0.18275889       0.10413154
40
Lattice="11.789424384493788 4.994228680623598e-17 7.707693397294342e-17 3.86384251277039e-17 11.789424384493786 1.074067569937025e-14 -3.701747836649174e-16 1.034220411604992e-14 11.7894243844938" Properties=species:S:1:pos:R:3:u_disp:R:3 system=cssnbr3_cubic base_model=mace_mp0 role=train_pool T=600.0 draw=12 n_tries=34 rms_disp_A=0.7583761767372577 min_pair_ratio=0.6422232274036722 nearest_heldout_A=0.7346958689655764 site_map_ok=1 nearest_heldout_src=cssnbr3_cubic_orb_v2_q1d2-1d2-0-b0.extxyz#7 pbc="T T T"
Cs       0.32570009      -0.22562392      -0.80993447       0.32570009      -0.22562392      -0.80993447
Cs       6.64234538      -0.01093885       0.57854054       0.74763319      -0.01093885       0.57854054
Cs       0.25189934       5.59578499       0.20983067       0.25189934      -0.29892720       0.20983067
Cs       5.95190316       5.98502693      -0.98366758       0.05719097       0.09031474      -0.98366758
Cs       0.29329126      -0.17692355       5.28301970       0.29329126      -0.17692355      -0.61169250
Cs       6.57720861       0.69092621       5.93776078       0.68249642       0.69092621       0.04304859
Cs       0.03699017       5.76626878       5.82030812       0.03699017      -0.12844342      -0.07440407
Cs       6.01239695       5.76163343       5.59912766       0.11768476      -0.13307876      -0.29558453
Sn       2.50618269       3.14828002       2.71053216      -0.44117340       0.20092392      -0.23682394
Sn       8.38487046       2.64991152       3.06540011      -0.45719783      -0.29744458       0.11804401
Sn       2.55095512       8.87417464       2.78603535      -0.39640098       0.03210635      -0.16132075
Sn       8.60619259       8.54695616       3.03434134      -0.23587570      -0.29511213       0.08698524
Sn       3.20365338       3.10376927       8.49375399       0.25629729       0.15641318      -0.34831430
Sn       9.19016403       2.90927385       9.22714852       0.34809574      -0.03808225       0.38508023
Sn       2.70743323       8.96868118       8.82755673      -0.23992286       0.12661290      -0.01451156
Sn       8.79551205       8.78684100       8.96607792      -0.04655623      -0.05522729       0.12400963
Br       0.15934566       3.48012912       2.18987542       0.15934566       0.53277303      -0.75748068
Br       6.03991961       3.07003893       3.38137240       0.14520742       0.12268283       0.43401630
Br      -0.56778186       8.30544845       3.06644658      -0.56778186      -0.53661984       0.11909049
Br       5.52663458       8.08608469       3.31380227      -0.36807761      -0.75598359       0.36644618
Br      -0.57015732       3.28260763       9.00441039      -0.57015732       0.33525153       0.16234210
Br       5.39906114       2.91131790       8.99607651      -0.49565105      -0.03603820       0.15400822
Br       0.61570157       8.30805522       9.22962767       0.61570157      -0.53401306       0.38755938
Br       6.44540522       8.82463007       9.59468308       0.55069302      -0.01743821       0.75261479
Br       2.17133833       0.08616238       2.43727202      -0.77601777       0.08616238      -0.51008408
Br       8.37411944      -0.32134918       3.14808000      -0.46794885      -0.32134918       0.20072390
Br       2.17298526       6.02723795       3.07776179      -0.77437083       0.13252576       0.13040569
Br       8.13094998       5.30238369       3.45753836      -0.71111831      -0.59232850       0.51018227
Br       3.38297200       0.40757391       8.41416997       0.43561591       0.40757391      -0.42789831
Br      10.02655010       0.73217978       8.15965956       1.18448181       0.73217978      -0.68240873
Br       3.13634826       6.36382733       9.88922495       0.18899216       0.46911514       1.04715666
Br       8.54833791       6.34046481      10.25983316      -0.29373038       0.44575262       1.41776488
Br       2.91383279       2.69003638       0.51920551      -0.03352330      -0.25731971       0.51920551
Br       8.46524752       2.75310212      -0.21999550      -0.37682077      -0.19425398      -0.21999550
Br       2.77569777       9.59889024      -0.05710994      -0.17165833       0.75682196      -0.05710994
Br       8.76786554       9.02862779      -0.01546705      -0.07420274       0.18655950      -0.01546705
Br       3.35442463       3.11790117       6.38830369       0.40706853       0.17054507       0.49359149
Br       8.97264815       2.82575963       5.26804494       0.13057986      -0.12159646      -0.62666725
Br       2.63440989       8.89654050       5.83290104      -0.31294621       0.05447221      -0.06181115
Br       8.64037621       8.34938460       5.86138757      -0.20169208      -0.49268368      -0.03332463
40
Lattice="11.789424384493788 4.994228680623598e-17 7.707693397294342e-17 3.86384251277039e-17 11.789424384493786 1.074067569937025e-14 -3.701747836649174e-16 1.034220411604992e-14 11.7894243844938" Properties=species:S:1:pos:R:3:u_disp:R:3 system=cssnbr3_cubic base_model=mace_mp0 role=train_pool T=600.0 draw=13 n_tries=34 rms_disp_A=0.7532990277238413 min_pair_ratio=0.6477787085626919 nearest_heldout_A=99.0 site_map_ok=0 nearest_heldout_src=none#-1 pbc="T T T"
Cs      -0.37955936       0.12250703      -0.44194556      -0.37955936       0.12250703      -0.44194556
Cs       5.66134853       0.21598658      -0.54750074      -0.23336367       0.21598658      -0.54750074
Cs       0.81439505       5.90346300      -0.87480122       0.81439505       0.00875081      -0.87480122
Cs       5.91500058       5.24337029       0.44704536       0.02028839      -0.65134190       0.44704536
Cs      -0.74667384      -0.08531209       6.01790684      -0.74667384      -0.08531209       0.12319465
Cs       5.97526266      -0.86997099       6.66447994       0.08055047      -0.86997099       0.76976774
Cs       0.77651054       6.18754429       4.19382085       0.77651054       0.29283210      -1.70089134
Cs       5.50812103       5.81527718       5.88366116      -0.38659116      -0.07943501      -0.01105104
Sn       2.83985985       3.18353772       2.96403368      -0.10749625       0.23618162       0.01667759
Sn       8.74531483       2.84356952       2.92738918      -0.09675346      -0.10378658      -0.01996692
Sn       2.49507450       9.16311607       2.67670493      -0.45228160       0.32104778      -0.27065116
Sn       8.44181102       8.78293648       2.95510268      -0.40025727      -0.05913181       0.00774659
Sn       3.06236241       3.06660076       8.95617859       0.11500631       0.11924467       0.11411030
Sn       8.94745556       2.86357328       8.87342713       0.10538727      -0.08378282       0.03135884
Sn       3.14637030       8.79373232       8.60620065       0.19901421      -0.04833596      -0.23586764
Sn       8.98160784       8.55555383       8.89787779       0.13953955      -0.28651445       0.05580950
Br      -0.03948251       3.69592922       2.81548180      -0.03948251       0.74857312      -0.13187430
Br       6.05950215       3.45652055       2.56541458       0.16478996       0.50916446      -0.38194152
Br      -0.41348050       8.28981914       2.98770529      -0.41348050      -0.55224915       0.04034919
Br       5.67738020       9.44923087       3.20349589      -0.21733199       0.60716258       0.25613979
Br      -0.31242509       2.64048951       9.31538977      -0.31242509      -0.30686659       0.47332148
Br       5.90254038       2.61547857       8.71705495       0.00782818      -0.33187753      -0.12501334
Br       0.14185993       8.80835145       9.01806341       0.14185993      -0.03371684       0.17599512
Br       5.94050860       8.29498073       9.05010559       0.04579640      -0.54708756       0.20803730
Br       2.27387034       0.28679976       3.49348585      -0.67348576       0.28679976       0.54612976
Br       8.63601460       0.06620134       2.99375604      -0.20605369       0.06620134       0.04639995
Br       3.25335926       6.33880173       2.80736509       0.30600317       0.44408954      -0.13999100
Br       8.13693868       5.96407166       3.20725033      -0.70512961       0.06935947       0.25989424
Br       3.39131481       0.11410091       8.63937047       0.44395872       0.11410091      -0.20269781
Br       8.78375642      -0.37475771       9.44799954      -0.05831186      -0.37475771       0.60593125
Br       3.19661533       6.31049852       8.73853013       0.24925924       0.41578633      -0.10353816
Br       8.34304054       5.47613475       9.39071201      -0.49902774      -0.41857745       0.54864373
Br       3.63955200       3.41961200       0.32849163       0.69219590       0.47225590       0.32849163
Br       9.65179116       2.12746912       1.04747077       0.80972287      -0.81988697       1.04747077
Br       3.11390816       9.16532175      -0.09648609       0.16655206       0.32325346      -0.09648609
Br       9.85498181       8.81611670       0.02033397       1.01291352      -0.02595159       0.02033397
Br       2.73511226       3.80534076       6.08964118      -0.21224384       0.85798466       0.19492899
Br       9.13861132       2.36855730       6.63919998       0.29654304      -0.57879879       0.74448778
Br       2.40435350       9.23216032       5.68114251      -0.54300259       0.39009203      -0.21356968
Br       9.21479899       9.12579172       5.95960295       0.37273070       0.28372343       0.06489076
