40
Lattice="8.113358670559476 -9.48256209502453e-19 1.1856955918959047e-18 1.4731444131804922e-16 8.113358670559487 -2.1213857306241463e-14 -1.6492255695243405e-16 -1.8377179618236488e-14 8.113358670559476" Properties=species:S:1:pos:R:3:u_disp:R:3 system=knbo3_cubic base_model=mace_mp0 role=train_pool T=100.0 draw=0 n_tries=13 rms_disp_A=0.11760636771238384 min_pair_ratio=0.9210913888771843 nearest_heldout_A=0.11651241766472342 site_map_ok=1 nearest_heldout_src=knbo3_cubic_orb_v2_q0-0-1d2-b1.extxyz#2 pbc="T T T"
K       -0.08819934       0.15261073       0.00612189      -0.08819934       0.15261073       0.00612189
K        4.11504342       0.00649042      -0.00411718       0.05836408       0.00649042      -0.00411718
K        0.04086125       4.05230011       0.06943653       0.04086125      -0.00437923       0.06943653
K        4.04660308       4.11348485       0.12181685      -0.01007625       0.05680551       0.12181685
K       -0.03789325      -0.06947659       4.06128279      -0.03789325      -0.06947659       0.00460345
K        4.07636668       0.01944920       3.96219514       0.01968734       0.01944920      -0.09448420
K       -0.00358264       4.15045647       4.01880976      -0.00358264       0.09377714      -0.03786958
K        4.02126249       4.06968443       4.04439054      -0.03541684       0.01300509      -0.01228879
Nb       1.99977090       1.92535528       2.05831536      -0.02856877      -0.10298438       0.02997570
Nb       6.07801427       1.99497534       2.05508580      -0.00700473      -0.03336432       0.02674613
Nb       2.01164166       6.05227886       2.00289847      -0.01669801      -0.03274015      -0.02544119
Nb       6.04602349       6.09100836       2.01097336      -0.03899551       0.00598936      -0.01736631
Nb       2.06104919       2.02542003       6.01184206       0.03270952      -0.00291964      -0.07317694
Nb       6.09499285       2.02462665       6.08273701       0.00997385      -0.00371301      -0.00228199
Nb       2.06975316       6.10385824       6.10391911       0.04141350       0.01883923       0.01890011
Nb       6.11209862       6.11066958       6.08388389       0.02707962       0.02565057      -0.00113511
O        3.96984857       1.80868312       2.02098867      -0.08683076      -0.21965655      -0.00735100
O       -0.01602257       2.08540593       2.09148017      -0.01602257       0.05706626       0.06314050
O        4.11773745       6.04635491       2.00704027       0.06105812      -0.03866409      -0.02129940
O        0.09406045       6.05762532       2.05227011       0.09406045      -0.02739369       0.02393044
O        3.99689357       2.14682060       6.23125414      -0.05978576       0.11848093       0.14623514
O       -0.12857799       2.01126158       5.86360482      -0.12857799      -0.01707808      -0.22141419
O        4.11905940       6.23012261       6.02791563       0.06238007       0.14510360      -0.05710338
O        0.01937202       6.22003493       6.08443463       0.01937202       0.13501592      -0.00058438
O        1.92547922      -0.01955086       2.06581511      -0.10286045      -0.01955086       0.03747544
O        6.20253419      -0.05916999       2.08409932       0.11751519      -0.05916999       0.05575965
O        1.98222932       4.05662556       2.14603381      -0.04611035      -0.00005377       0.11769414
O        6.08495914       4.02643356       1.97998831      -0.00005986      -0.03024577      -0.04835136
O        2.11888861      -0.07220076       5.99608414       0.09054895      -0.07220076      -0.08893487
O        6.07450746       0.12421094       6.08531810      -0.01051155       0.12421094       0.00029910
O        2.05410917       3.97446896       6.10945926       0.02576950      -0.08221037       0.02444026
O        6.06299285       4.11838135       5.95387235      -0.02202615       0.06170202      -0.13114665
O        1.95667859       1.99378534       0.01269154      -0.07166107      -0.03455433       0.01269154
O        6.11696302       2.16196468       0.00973285       0.03194402       0.13362501       0.00973285
O        2.09837618       6.15572916       0.02280469       0.07003652       0.07071015       0.02280469
O        6.10147097       6.05015887       0.10598019       0.01645197      -0.03486013       0.10598019
O        2.07303570       2.02712153       4.10406651       0.04469603      -0.00121814       0.04738717
O        5.97462916       1.92652171       3.99714286      -0.11038985      -0.10181795      -0.05953648
O        2.01354342       6.09129317       4.10385657      -0.01479624       0.00627416       0.04717724
O        6.14268110       6.04315911       4.10182190       0.05766210      -0.04185989       0.04514257
40
Lattice="8.113358670559476 -9.48256209502453e-19 1.1856955918959047e-18 1.4731444131804922e-16 8.113358670559487 -2.1213857306241463e-14 -1.6492255695243405e-16 -1.8377179618236488e-14 8.113358670559476" Properties=species:S:1:pos:R:3:u_disp:R:3 system=knbo3_cubic base_model=mace_mp0 role=train_pool T=100.0 draw=1 n_tries=13 rms_disp_A=0.09922934527068675 min_pair_ratio=0.9317316083132968 nearest_heldout_A=0.09844882888745388 site_map_ok=1 nearest_heldout_src=knbo3_cubic_mace_mp0_q0-1d2-1d2-b0.extxyz#2 pbc="T T T"
K        0.03437950      -0.02442783       0.05450319       0.03437950      -0.02442783       0.05450319
K        4.11442013      -0.05549222      -0.04775204       0.05774080      -0.05549222      -0.04775204
K       -0.03973193       4.10893962      -0.01272747      -0.03973193       0.05226028      -0.01272747
K        4.11012113       4.16548749       0.02997856       0.05344180       0.10880815       0.02997856
K        0.10346978      -0.01645778       3.97687026       0.10346978      -0.01645778      -0.07980908
K        4.10219682      -0.06137248       4.13988155       0.04551748      -0.06137248       0.08320222
K       -0.06819986       4.03303175       4.01542745      -0.06819986      -0.02364758      -0.04125189
K        4.06900813       4.03567101       4.06997548       0.01232880      -0.02100833       0.01329614
Nb       2.03640732       1.98871298       1.97627513       0.00806765      -0.03962669      -0.05206454
Nb       6.09966113       2.00165623       2.02778476       0.01464212      -0.02668343      -0.00055491
Nb       1.99970775       6.12875451       2.03562768      -0.02863191       0.04373550       0.00728802
Nb       6.06522958       6.08731538       2.04188919      -0.01978942       0.00229638       0.01354952
Nb       2.01309649       2.02269974       6.10037851      -0.01524318      -0.00563992       0.01535950
Nb       6.03937594       2.02727135       6.04168612      -0.04564306      -0.00106832      -0.04333288
Nb       2.05905467       6.07641478       6.09246134       0.03071501      -0.00860422       0.00744234
Nb       6.06298641       6.10432003       6.10292756      -0.02203260       0.01930103       0.01790856
O        4.11427831       2.08829574       1.92226219       0.05759898       0.05995607      -0.10607748
O       -0.09201757       1.99575965       2.09733066      -0.09201757      -0.03258002       0.06899099
O        4.08974584       6.12250929       2.01079133       0.03306650       0.03749029      -0.01754834
O       -0.00758506       6.12455958       2.14421173      -0.00758506       0.03954058       0.11587206
O        4.08099545       2.00246346       6.16470254       0.02431612      -0.02587621       0.07968353
O        0.05956248       1.97887110       6.13665566       0.05956248      -0.04946857       0.05163666
O        4.09279846       6.17566899       6.06219513       0.03611913       0.09064999      -0.02282387
O       -0.03726295       6.29445993       6.12528515      -0.03726295       0.20944093       0.04026614
O        1.99126914       0.04132012       1.97081475      -0.03707053       0.04132012      -0.05752491
O        6.01215004      -0.03120390       1.99109648      -0.07286896      -0.03120390      -0.03724318
O        1.98389921       4.14711817       2.16158201      -0.04444046       0.09043883       0.13324234
O        6.12207407       3.99512276       2.01171780       0.03705507      -0.06155658      -0.01662187
O        1.97987288       0.00277233       6.10616786      -0.04846679       0.00277233       0.02114885
O        6.14578262       0.03107639       6.06827666       0.06076362       0.03107639      -0.01674235
O        2.07022022       4.00943566       5.97001927       0.04188055      -0.04724367      -0.11499973
O        6.09589557       3.96359083       6.15036152       0.01087656      -0.09308851       0.06534251
O        2.00651882       2.10167465       0.07284721      -0.02182085       0.07333498       0.07284721
O        6.20135508       1.97208377       0.00133525       0.11633608      -0.05625590       0.00133525
O        1.99681103       6.09524235      -0.01418031      -0.03152864       0.01022335      -0.01418031
O        6.04359368       6.09704534      -0.05175853      -0.04142532       0.01202634      -0.05175853
O        2.07941986       1.90947398       4.01694031       0.05108019      -0.11886569      -0.03973902
O        5.97352827       2.03024060       4.14805186      -0.11149073       0.00190093       0.09137253
O        1.97259294       6.18677066       4.00824831      -0.05574673       0.10175165      -0.04843102
O        6.12436034       5.99484584       4.05978301       0.03934134      -0.09017316       0.00310368
40
Lattice="8.113358670559476 -9.48256209502453e-19 1.1856955918959047e-18 1.4731444131804922e-16 8.113358670559487 -2.1213857306241463e-14 -1.6492255695243405e-16 -1.8377179618236488e-14 8.113358670559476" Properties=species:S:1:pos:R:3:u_disp:R:3 system=knbo3_cubic base_model=mace_mp0 role=train_pool T=100.0 draw=2 n_tries=13 rms_disp_A=0.10524721226163704 min_pair_ratio=0.9317112197235825 nearest_heldout_A=0.10307022489640078 site_map_ok=1 nearest_heldout_src=knbo3_cubic_orb_v2_q0-0-0-b2.extxyz#2 pbc="T T T"
K       -0.00815709       0.03584822       0.07576995      -0.00815709       0.03584822       0.07576995
K        4.07486386      -0.03761022      -0.05882853       0.01818452      -0.03761022      -0.05882853
K       -0.08665672       3.98864635      -0.03886552      -0.08665672      -0.06803298      -0.03886552
K        4.07725819       4.07377487      -0.03627244       0.02057886       0.01709553      -0.03627244
K       -0.16336847       0.03318078       4.05374145      -0.16336847       0.03318078      -0.00293789
K        4.12809163       0.05281148       4.14467050       0.07141229       0.05281148       0.08799116
K        0.07644517       4.03972194       4.07255744       0.07644517      -0.01695739       0.01587811
K        4.02654208       3.94538946       4.09690670      -0.03013725      -0.11128987       0.04022736
Nb       2.03275465       2.02595677       1.97164298       0.00441498      -0.00238290      -0.05669669
Nb       6.11643220       1.99602141       2.03838726       0.03141320      -0.03231826       0.01004760
Nb       2.00183380       6.06677019       2.03374848      -0.02650587      -0.01824881       0.00540881
Nb       6.08845005       6.04796873       2.03121717       0.00343105      -0.03705028       0.00287751
Nb       1.95784188       2.04027402       6.04593772      -0.07049779       0.01193435      -0.03908128
Nb       6.06105650       2.10741358       6.08029606      -0.02396250       0.07907391      -0.00472294
Nb       1.98891493       6.09578182       6.10856154      -0.03942474       0.01076282       0.02354254
Nb       6.11649681       6.12966294       6.05530906       0.03147781       0.04464393      -0.02970994
O        4.15726573       2.07382979       2.05009216       0.10058639       0.04549012       0.02175250
O        0.06441466       2.03272065       2.13418646       0.06441466       0.00438098       0.10584679
O        4.12629690       6.08089768       2.02952962       0.06961756      -0.00412132       0.00118996
O       -0.03735398       6.13804903       1.98415994      -0.03735398       0.05303002      -0.04417973
O        4.10033599       2.06698237       6.07521168       0.04365665       0.03864270      -0.00980732
O        0.02467892       2.16826000       6.08040872       0.02467892       0.13992033      -0.00461029
O        4.10415857       6.09261970       6.09608178       0.04747923       0.00760069       0.01106278
O        0.03908799       6.14177948       6.01590285       0.03908799       0.05676048      -0.06911615
O        2.16600992       0.05175366       1.96052686       0.13767025       0.05175366      -0.06781281
O        6.10355606      -0.05458185       1.96810197       0.01853706      -0.05458185      -0.06023770
O        2.09762004       4.06718756       1.98676702       0.06928037       0.01050822      -0.04157265
O        6.17734086       3.97179081       2.16118767       0.09232186      -0.08488852       0.13284800
O        2.06289588       0.03436603       6.08180732       0.03455621       0.03436603      -0.00321169
O        6.14738362      -0.07344798       6.22913100       0.06236462      -0.07344798       0.14411199
O        2.03633860       4.08883205       6.07466894       0.00799893       0.03215271      -0.01035006
O        6.15105800       3.99480704       6.11332796       0.06603900      -0.06187230       0.02830896
O        2.06732753       2.07559915      -0.04297925       0.03898786       0.04725948      -0.04297925
O        6.13673084       2.10403554       0.10320024       0.05171184       0.07569587       0.10320024
O        1.98077403       6.05748730      -0.05005636      -0.04756564      -0.02753170      -0.05005636
O        6.02328728       5.96325864       0.03081302      -0.06173173      -0.12176037       0.03081302
O        2.08071301       1.96394408       4.01223329       0.05237334      -0.06439558      -0.04444604
O        6.07685816       1.94163842       4.19627717      -0.00816084      -0.08670125       0.13959784
O        1.92908282       6.10304384       3.98080824      -0.09925685       0.01802484      -0.07587110
O        6.08685800       5.95318425       4.17240683       0.00183900      -0.13183475       0.11572750
40
Lattice="8.113358670559476 -9.48256209502453e-19 1.1856955918959047e-18 1.4731444131804922e-16 8.113358670559487 -2.1213857306241463e-14 -1.6492255695243405e-16 -1.8377179618236488e-14 8.113358670559476" Properties=species:S:1:pos:R:3:u_disp:R:3 system=knbo3_cubic base_model=mace_mp0 role=train_pool T=100.0 draw=3 n_tries=13 rms_disp_A=0.11361439323371604 min_pair_ratio=0.9002506941236128 nearest_heldout_A=0.11165129116769619 site_map_ok=1 nearest_heldout_src=knbo3_cubic_mattersim_q0-0-1d2-b0.extxyz#2 pbc="T T T"
K        0.00024454      -0.03179505      -0.02535578       0.00024454      -0.03179505      -0.02535578
K        4.00335502       0.06369675       0.12930509      -0.05332432       0.06369675       0.12930509
K        0.02253236       4.04419941      -0.01839152       0.02253236      -0.01247992      -0.01839152
K        3.94413843       3.97026456      -0.01321283      -0.11254090      -0.08641477      -0.01321283
K        0.00038374      -0.01975675       4.07579782       0.00038374      -0.01975675       0.01911848
K        4.07333651       0.17970035       3.99263802       0.01665718       0.17970035      -0.06404131
K       -0.06004973       3.99117200       4.02332202      -0.06004973      -0.06550734      -0.03335731
K        4.14924051       4.16243703       4.09036405       0.09256118       0.10575769       0.03368472
Nb       1.98493843       2.00034231       2.07058426      -0.04340124      -0.02799736       0.04224459
Nb       6.04068505       2.03575048       2.04141292      -0.04433395       0.00741081       0.01307326
Nb       2.05457064       6.06715297       2.03500599       0.02623098      -0.01786604       0.00666632
Nb       6.05281879       6.11106785       1.98907574      -0.03220021       0.02604885      -0.03926393
Nb       1.99827401       2.03241690       6.06587170      -0.03006565       0.00407723      -0.01914730
Nb       6.09405109       2.01681374       6.08900942       0.00903208      -0.01152592       0.00399041
Nb       2.09535625       6.04656104       6.10775495       0.06701658      -0.03845796       0.02273595
Nb       6.11470112       6.03743898       6.07596542       0.02968212      -0.04758002      -0.00905359
O        4.00614308       1.98023370       1.86006620      -0.05053625      -0.04810597      -0.16827347
O       -0.04491749       1.97066556       2.13779942      -0.04491749      -0.05767411       0.10945976
O        4.09927741       6.20845935       2.12307711       0.04259807       0.12344035       0.09473744
O       -0.01803356       6.04561437       1.96023984      -0.01803356      -0.03940464      -0.06809983
O        4.05659612       2.11386849       6.06519000      -0.00008321       0.08552883      -0.01982901
O        0.04399188       1.99242018       5.96048228       0.04399188      -0.03591949      -0.12453673
O        4.15783038       6.13864483       6.05544826       0.10115105       0.05362583      -0.02957074
O        0.10864141       6.11850091       6.24432586       0.10864141       0.03348191       0.15930685
O        1.96476525       0.00438497       2.11930724      -0.06357442       0.00438497       0.09096757
O        6.07909214      -0.14258585       1.99725150      -0.00592686      -0.14258585      -0.03108817
O        2.08099139       4.04337202       2.04699472       0.05265172      -0.01330731       0.01865505
O        6.09921380       4.04017686       2.00895948       0.01419480      -0.01650248      -0.01938019
O        2.09227070       0.03702980       6.02446061       0.06393103       0.03702980      -0.06055840
O        6.13088634       0.14321750       6.07177955       0.04586733       0.14321750      -0.01323946
O        1.98663868       4.05283995       6.08624590      -0.04170099      -0.00383939       0.00122690
O        6.07035553       4.11499623       6.05903549      -0.01466348       0.05831689      -0.02598351
O        1.98982348       1.95218543       0.00868578      -0.03851618      -0.07615424       0.00868578
O        6.10505879       2.20019804      -0.11045830       0.02003978       0.17185837      -0.11045830
O        2.13625172       6.06728458       0.04698747       0.10791205      -0.01773442       0.04698747
O        5.95468642       6.13704942      -0.02475037      -0.13033259       0.05203042      -0.02475037
O        2.12375246       2.07421067       3.92893961       0.09541280       0.04587100      -0.12773973
O        6.05611366       2.03647655       4.00417271      -0.02890534       0.00813688      -0.05250662
O        2.12395425       6.08287314       4.14884244       0.09561458      -0.00214586       0.09216310
O        6.06353181       6.01085357       4.11932044      -0.02148719      -0.07416543       0.06264110
40
Lattice="8.113358670559476 -9.48256209502453e-19 1.1856955918959047e-18 1.4731444131804922e-16 8.113358670559487 -2.1213857306241463e-14 -1.6492255695243405e-16 -1.8377179618236488e-14 8.113358670559476" Properties=species:S:1:pos:R:3:u_disp:R:3 system=knbo3_cubic base_model=mace_mp0 role=train_pool T=100.0 draw=4 n_tries=13 rms_disp_A=0.10275490787956046 min_pair_ratio=0.9175144689282291 nearest_heldout_A=0.1003329564099493 site_map_ok=1 nearest_heldout_src=knbo3_cubic_sevennet0_q0-0-1d2-b0.extxyz#2 pbc="T T T"
K        0.02338747       0.06289806      -0.05603630       0.02338747       0.06289806      -0.05603630
K        4.10334875       0.04971509      -0.06513389       0.04666941       0.04971509      -0.06513389
K        0.08251114       3.98252960       0.08818196       0.08251114      -0.07414974       0.08818196
K        4.12654110       4.00422449       0.01093386       0.06986176      -0.05245485       0.01093386
K       -0.08616659      -0.04240377       4.09416551      -0.08616659      -0.04240377       0.03748618
K        3.97309896      -0.00159765       4.02636974      -0.08358038      -0.00159765      -0.03030960
K        0.00514625       4.05417345       4.04586475       0.00514625      -0.00250589      -0.01081458
K        4.03729146       4.13633325       4.05812513      -0.01938787       0.07965391       0.00144580
Nb       2.03094878       2.04420550       2.02848585       0.00260911       0.01586584       0.00014618
Nb       6.05825799       2.04123691       2.01654362      -0.02676101       0.01289724      -0.01179605
Nb       2.01951652       6.07777353       2.06631515      -0.00882314      -0.00724548       0.03797548
Nb       6.08829204       6.10580094       2.04371404       0.00327303       0.02078194       0.01537438
Nb       2.03863102       2.00264725       6.09633982       0.01029135      -0.02569241       0.01132082
Nb       6.12254650       1.99694121       6.03995759       0.03752749      -0.03139846      -0.04506141
Nb       2.04034914       6.06132105       6.14160311       0.01200947      -0.02369795       0.05658411
Nb       6.06028382       6.09017911       6.08820051      -0.02473518       0.00516011       0.00318150
O        4.14597601       2.17038983       1.94634373       0.08929667       0.14205016      -0.08199594
O       -0.01005562       1.99043551       2.06516511      -0.01005562      -0.03790415       0.03682544
O        3.96277418       5.97634426       2.09286160      -0.09390516      -0.10867474       0.06452193
O       -0.01630896       6.24240216       2.01140602      -0.01630896       0.15738315      -0.01693365
O        4.02138375       1.97641706       6.06866802      -0.03529559      -0.05192261      -0.01635098
O       -0.00003744       1.93662215       5.96542615      -0.00003744      -0.09171751      -0.11959286
O        4.03628605       6.09094288       6.06529005      -0.02039329       0.00592388      -0.01972895
O       -0.02135514       6.03346937       6.09857268      -0.02135514      -0.05154963       0.01355368
O        2.21237358       0.02176943       2.05995232       0.18403391       0.02176943       0.03161265
O        5.99437800       0.07328234       2.01963109      -0.09064101       0.07328234      -0.00870858
O        1.91701158       4.15800715       1.96719459      -0.11132809       0.10132782      -0.06114508
O        6.13148892       4.08148107       1.94148485       0.04646992       0.02480173      -0.08685482
O        2.07307719      -0.03354628       6.01977652       0.04473752      -0.03354628      -0.06524248
O        6.22593396      -0.02021788       6.07779938       0.14091496      -0.02021788      -0.00721962
O        2.02970412       3.96245173       6.00183375       0.00136446      -0.09422761      -0.08318526
O        6.16910264       4.03343142       6.10180324       0.08408364      -0.02324791       0.01678424
O        2.05082379       1.97611730       0.02041905       0.02248412      -0.05222237       0.02041905
O        5.97657763       2.00356164       0.01611933      -0.10844137      -0.02477802       0.01611933
O        2.12852187       6.13027639      -0.03103505       0.10018220       0.04525739      -0.03103505
O        5.99468374       6.14736973      -0.01284801      -0.09033526       0.06235072      -0.01284801
O        2.00243995       2.07487274       4.11077563      -0.02589971       0.04653307       0.05409629
O        5.98279806       2.05943350       4.09511878      -0.10222094       0.03109383       0.03843944
O        2.02670440       6.04761996       4.09977725      -0.00163527      -0.03739905       0.04309792
O        5.97405884       6.14738115       3.99803278      -0.11096016       0.06236215      -0.05864655
40
Lattice="8.113358670559476 -9.48256209502453e-19 1.1856955918959047e-18 1.4731444131804922e-16 8.113358670559487 -2.1213857306241463e-14 -1.6492255695243405e-16 -1.8377179618236488e-14 8.113358670559476" Properties=species:S:1:pos:R:3:u_disp:R:3 system=knbo3_cubic base_model=mace_mp0 role=train_pool T=100.0 draw=5 n_tries=13 rms_disp_A=0.09081182720131087 min_pair_ratio=0.9234878741201258 nearest_heldout_A=0.08999240773478152 site_map_ok=1 nearest_heldout_src=knbo3_cubic_sevennet0_q0-0-1d2-b0.extxyz#2 pbc="T T T"
K        0.00984930       0.03014362       0.03965251       0.00984930       0.03014362       0.03965251
K        4.04702849      -0.03301409      -0.10714407      -0.00965085      -0.03301409      -0.10714407
K        0.01498387       4.10064753       0.06655132       0.01498387       0.04396820       0.06655132
K        4.08156409       4.05105261      -0.02043489       0.02488476      -0.00562672      -0.02043489
K       -0.00677621       0.10811256       3.97545551      -0.00677621       0.10811256      -0.08122383
K        4.04845084       0.05187905       4.02721560      -0.00822850       0.05187905      -0.02946373
K        0.09893068       3.98635803       4.10865273       0.09893068      -0.07032130       0.05197339
K        4.04257630       4.07499948       4.04028408      -0.01410303       0.01832014      -0.01639526
Nb       2.03626296       2.04125924       1.98021538       0.00792330       0.01291958      -0.04812429
Nb       6.03665798       2.03048848       2.05759316      -0.04836102       0.00214881       0.02925349
Nb       1.99583670       6.10500504       2.08588001      -0.03250297       0.01998604       0.05754035
Nb       6.08534876       6.07739449       2.05755034       0.00032976      -0.00762451       0.02921067
Nb       1.99421155       2.03284556       6.05667379      -0.03412812       0.00450589      -0.02834521
Nb       6.08734992       1.99341705       6.09325811       0.00233092      -0.03492262       0.00823911
Nb       2.04363945       6.10798308       6.06652840       0.01529978       0.02296408      -0.01849060
Nb       6.11993672       6.04316380       6.06145770       0.03491772      -0.04185521      -0.02356131
O        4.05167574       2.09152657       2.01927498      -0.00500359       0.06318690      -0.00906469
O        0.02900971       2.02120805       2.01471997       0.02900971      -0.00713161      -0.01361969
O        4.15505037       6.05770475       1.99898804       0.09837104      -0.02731426      -0.02935163
O        0.01280376       6.22053412       2.01829122       0.01280376       0.13551512      -0.01004845
O        4.02352137       2.09888861       6.05651041      -0.03315797       0.07054894      -0.02850859
O       -0.03660756       1.95860328       6.21493640      -0.03660756      -0.06973639       0.12991740
O        4.13199036       6.00541524       6.09221938       0.07531103      -0.07960376       0.00720037
O        0.03036747       6.03882988       6.07304852       0.03036747      -0.04618912      -0.01197048
O        2.09926657      -0.10247639       1.93955146       0.07092690      -0.10247639      -0.08878821
O        6.04260912       0.06057711       2.08276106      -0.04240988       0.06057711       0.05442139
O        2.06849707       4.02358787       2.09321269       0.04015740      -0.03309146       0.06487302
O        6.11246440       4.06319932       2.03462101       0.02744539       0.00651999       0.00628134
O        2.00231685      -0.13351877       6.12242564      -0.02602282      -0.13351877       0.03740664
O        6.05560682       0.00154574       6.03692150      -0.02941219       0.00154574      -0.04809751
O        1.95851144       3.99527690       6.18744982      -0.06982823      -0.06140244       0.10243082
O        6.09625573       4.04391484       6.15042693       0.01123672      -0.01276450       0.06540792
O        2.00571366       1.98346407      -0.01378004      -0.02262601      -0.04487560      -0.01378004
O        6.01050911       1.95715209      -0.02481756      -0.07450989      -0.07118758      -0.02481756
O        2.10864722       6.00875190       0.10165856       0.08030755      -0.07626710       0.10165856
O        6.10358974       6.18871981      -0.04100179       0.01857074       0.10370081      -0.04100179
O        2.02122241       1.94592660       4.03644495      -0.00711726      -0.08241307      -0.02023439
O        6.02144081       2.08954074       4.05936984      -0.06357819       0.06120107       0.00269050
O        2.04028246       6.09548360       4.06119535       0.01194279       0.01046460       0.00451602
O        6.03497775       6.19619122       4.02171296      -0.05004125       0.11117221      -0.03496637
40
Lattice="8.113358670559476 -9.48256209502453e-19 1.1856955918959047e-18 1.4731444131804922e-16 8.113358670559487 -2.1213857306241463e-14 -1.6492255695243405e-16 -1.8377179618236488e-14 8.113358670559476" Properties=species:S:1:pos:R:3:u_disp:R:3 system=knbo3_cubic base_model=mace_mp0 role=train_pool T=100.0 draw=6 n_tries=13 rms_disp_A=0.10207016571787479 min_pair_ratio=0.9229781102650857 nearest_heldout_A=0.09980933756234035 site_map_ok=1 nearest_heldout_src=knbo3_cubic_mattersim_q0-1d2-1d2-b0.extxyz#3 pbc="T T T"
K        0.09088449       0.02479594       0.01457811       0.09088449       0.02479594       0.01457811
K        4.06461328       0.03834628       0.03392667       0.00793395       0.03834628       0.03392667
K       -0.00464300       3.90198000       0.06292228      -0.00464300      -0.15469934       0.06292228
K        4.04038392       4.10207965      -0.02913723      -0.01629542       0.04540031      -0.02913723
K       -0.02605837      -0.00196287       4.07259451      -0.02605837      -0.00196287       0.01591518
K        4.05789291       0.03712618       4.04114293       0.00121358       0.03712618      -0.01553641
K       -0.06593314       4.05881762       4.16144988      -0.06593314       0.00213829       0.10477055
K        4.06516197       3.98826197       4.10335161       0.00848263      -0.06841736       0.04667228
Nb       1.96249983       2.05961445       2.02486578      -0.06583984       0.03127478      -0.00347388
Nb       6.02415999       1.99750625       2.08231332      -0.06085901      -0.03083342       0.05397365
Nb       2.06329260       6.12108711       2.00934385       0.03495293       0.03606811      -0.01899582
Nb       6.07631727       6.09578776       1.95367157      -0.00870173       0.01076875      -0.07466809
Nb       2.07278753       2.03757083       6.06505768       0.04444786       0.00923116      -0.01996132
Nb       6.13547040       2.05072571       6.09976766       0.05045139       0.02238605       0.01474866
Nb       2.05856402       6.09770109       6.09278585       0.03022435       0.01268209       0.00776684
Nb       6.08798143       6.05693585       6.05105403       0.00296242      -0.02808315      -0.03396498
O        4.08636669       2.02072863       2.05198633       0.02968736      -0.00761104       0.02364667
O        0.04851367       2.12002623       2.09903757       0.04851367       0.09168656       0.07069790
O        4.04458349       6.16076573       2.08268612      -0.01209585       0.07574672       0.05434646
O       -0.16936764       6.08846062       2.08231275      -0.16936764       0.00344161       0.05397308
O        4.05897449       2.05282479       6.10335723       0.00229515       0.02448512       0.01833822
O       -0.06746179       2.06698283       6.00460780      -0.06746179       0.03864316      -0.08041120
O        4.06074030       6.04648577       6.04142291       0.00406096      -0.03853323      -0.04359609
O        0.03696547       6.17482820       6.01019344       0.03696547       0.08980920      -0.07482556
O        1.99164337      -0.02497826       1.94370114      -0.03669629      -0.02497826      -0.08463852
O        5.99498029       0.05739148       1.93936624      -0.09003872       0.05739148      -0.08897342
O        2.01880812       3.99290052       2.03535193      -0.00953155      -0.06377881       0.00701226
O        6.07904998       4.03759193       1.86694735      -0.00596903      -0.01908740      -0.16139232
O        2.05618521       0.05138087       6.07045670       0.02784554       0.05138087      -0.01456230
O        6.17524841      -0.02576580       6.02379267       0.09022940      -0.02576580      -0.06122633
O        2.04301701       4.11347806       6.17782067       0.01467735       0.05679872       0.09280166
O        6.06683761       4.06968713       6.20599136      -0.01818139       0.01300780       0.12097235
O        2.00541930       1.96695543       0.06161090      -0.02292036      -0.06138424       0.06161090
O        6.17280859       1.83695933      -0.01295149       0.08778959      -0.19138033      -0.01295149
O        2.01240287       6.06360765       0.06034480      -0.01593680      -0.02141135       0.06034480
O        6.06292063       6.04481547      -0.02165532      -0.02209837      -0.04020353      -0.02165532
O        1.97960126       2.01453693       4.09427049      -0.04873841      -0.01380274       0.03759115
O        6.17361488       2.03167683       3.96879791       0.08859588       0.00333716      -0.08788143
O        2.04999613       6.06316749       4.14033053       0.02165647      -0.02185151       0.08365119
O        6.00203585       5.92920920       3.96474709      -0.08298315      -0.15580981      -0.09193224
40
Lattice="8.113358670559476 -9.48256209502453e-19 1.1856955918959047e-18 1.4731444131804922e-16 8.113358670559487 -2.1213857306241463e-14 -1.6492255695243405e-16 -1.8377179618236488e-14 8.113358670559476" Properties=species:S:1:pos:R:3:u_disp:R:3 system=knbo3_cubic base_model=mace_mp0 role=train_pool T=100.0 draw=7 n_tries=13 rms_disp_A=0.09346424599180203 min_pair_ratio=0.9314042321728484 nearest_heldout_A=0.09170772277310929 site_map_ok=1 nearest_heldout_src=knbo3_cubic_orb_v2_q1d2-0-0-b0.extxyz#2 pbc="T T T"
K       -0.03820958      -0.04726816       0.04333475      -0.03820958      -0.04726816       0.04333475
K        4.12503086       0.00888479      -0.00175713       0.06835153       0.00888479      -0.00175713
K       -0.10823490       4.02354781      -0.00022067      -0.10823490      -0.03313153      -0.00022067
K        3.93512432       4.08591478      -0.05455892      -0.12155501       0.02923545      -0.05455892
K       -0.04109540      -0.07229837       4.11950827      -0.04109540      -0.07229837       0.06282893
K        4.11481089      -0.00502455       4.07527078       0.05813156      -0.00502455       0.01859145
K       -0.04948178       4.05704906       4.05605450      -0.04948178       0.00036973      -0.00062484
K        4.13039357       4.12177929       4.08595346       0.07371423       0.06509996       0.02927412
Nb       2.05295206       2.08338717       2.05123790       0.02461239       0.05504750       0.02289823
Nb       6.12718458       2.04356125       1.95717124       0.04216558       0.01522158      -0.07116843
Nb       2.07075107       6.09910771       2.03214529       0.04241140       0.01408870       0.00380562
Nb       6.05310932       6.09093045       2.06278467      -0.03190968       0.00591144       0.03444500
Nb       2.08457502       2.00208485       6.05983168       0.05623535      -0.02625481      -0.02518732
Nb       6.09360942       2.01301748       6.01435267       0.00859042      -0.01532219      -0.07066633
Nb       2.02095990       6.10918296       6.06198323      -0.00737977       0.02416395      -0.02303577
Nb       6.07645359       6.04995669       6.11970684      -0.00856541      -0.03506231       0.03468783
O        4.02308933       2.04012360       2.11015331      -0.03359001       0.01178394       0.08181364
O       -0.04569308       1.92218661       1.98380051      -0.04569308      -0.10615306      -0.04453916
O        4.02286697       6.06474165       2.10252893      -0.03381237      -0.02027736       0.07418927
O       -0.04041833       6.11251563       2.01605354      -0.04041833       0.02749663      -0.01228613
O        3.98019742       1.91175994       6.13037668      -0.07648192      -0.11657973       0.04535767
O       -0.03100494       2.01662052       6.04882464      -0.03100494      -0.01171914      -0.03619436
O        4.03162146       6.12900557       6.04996192      -0.02505788       0.04398656      -0.03505708
O        0.00069628       6.07506939       6.09845429       0.00069628      -0.00994961       0.01343529
O        2.16457327      -0.00608474       2.07802964       0.13623360      -0.00608474       0.04968997
O        6.04544920       0.02996366       1.94516372      -0.03956980       0.02996366      -0.08317595
O        1.97094035       4.00083855       2.12177273      -0.05739931      -0.05584078       0.09343307
O        6.09539384       4.11016847       2.05716704       0.01037484       0.05348913       0.02882737
O        1.99529575      -0.01155426       6.11113140      -0.03304391      -0.01155426       0.02611240
O        6.00161866       0.04526268       6.16031408      -0.08340034       0.04526268       0.07529508
O        2.06176916       4.15639431       5.96550047       0.03342949       0.09971497      -0.11951853
O        6.08156358       4.10970183       6.03545336      -0.00345542       0.05302250      -0.04956564
O        2.04965594       1.96757764       0.01054980       0.02131627      -0.06076203       0.01054980
O        6.06190407       2.04942344       0.04816243      -0.02311493       0.02108377       0.04816243
O        2.09863396       6.13288840       0.14344899       0.07029430       0.04786939       0.14344899
O        6.04977313       6.01150726      -0.05183719      -0.03524587      -0.07351174      -0.05183719
O        1.99123385       2.03092446       4.07809908      -0.03710581       0.00258479       0.02141974
O        6.01569898       1.93318231       4.00513373      -0.06932002      -0.09515735      -0.05154561
O        1.98063429       6.18378451       4.13452351      -0.04770538       0.09876550       0.07784417
O        6.18253497       6.03040732       4.06123081       0.09751597      -0.05461168       0.00455147
40
Lattice="8.113358670559476 -9.48256209502453e-19 1.1856955918959047e-18 1.4731444131804922e-16 8.113358670559487 -2.1213857306241463e-14 -1.6492255695243405e-16 -1.8377179618236488e-14 8.113358670559476" Properties=species:S:1:pos:R:3:u_disp:R:3 system=knbo3_cubic base_model=mace_mp0 role=train_pool T=100.0 draw=8 n_tries=13 rms_disp_A=0.08454721370497453 min_pair_ratio=0.9370801146727807 nearest_heldout_A=0.08259018941716627 site_map_ok=1 nearest_heldout_src=knbo3_cubic_mace_mp0_q0-1d2-1d2-b0.extxyz#2 pbc="T T T"
K       -0.00323510      -0.00746111      -0.02167692      -0.00323510      -0.00746111      -0.02167692
K        4.05662217      -0.00277350       0.05124026      -0.00005717      -0.00277350       0.05124026
K       -0.03148406       4.07952448      -0.03062142      -0.03148406       0.02284514      -0.03062142
K        4.11476717       4.06829269       0.04103664       0.05808783       0.01161335       0.04103664
K        0.07977445      -0.01494327       4.04160577       0.07977445      -0.01494327      -0.01507357
K        4.10682805       0.02867179       4.00823571       0.05014872       0.02867179      -0.04844362
K       -0.04771984       4.07097440       4.06365100      -0.04771984       0.01429507       0.00697166
K        4.08455757       4.08207137       4.08486560       0.02787824       0.02539203       0.02818626
Nb       2.01869612       2.03360100       2.06405808      -0.00964355       0.00526133       0.03571842
Nb       6.08836455       2.01836097       2.01670285       0.00334554      -0.00997870      -0.01163682
Nb       1.98493381       6.10004301       2.02725722      -0.04340586       0.01502401      -0.00108245
Nb       6.10459952       6.04249440       1.99056067       0.01958051      -0.04252461      -0.03777899
Nb       2.03371140       2.00133726       6.12805279       0.00537173      -0.02700241       0.04303379
Nb       6.07563052       2.01467889       6.06511181      -0.00938848      -0.01366078      -0.01990719
Nb       2.08738609       6.09381565       6.10310490       0.05904642       0.00879665       0.01808590
Nb       6.09783528       6.12305730       6.11669146       0.01281627       0.03803830       0.03167245
O        4.02073207       2.02520212       1.97813319      -0.03594726      -0.00313755      -0.05020647
O       -0.07150609       1.99363944       1.94597128      -0.07150609      -0.03470022      -0.08236839
O        4.13578607       6.05208163       2.05653283       0.07910674      -0.03293737       0.02819317
O        0.03535474       6.08702395       2.01882907       0.03535474       0.00200494      -0.00951059
O        3.98933373       2.01746248       6.05335763      -0.06734561      -0.01087719      -0.03166137
O        0.03221246       2.11343797       6.00777664       0.03221246       0.08509830      -0.07724236
O        3.98760365       6.05286009       6.08826895      -0.06907568      -0.03215891       0.00324995
O       -0.05211228       6.09285800       6.09792615      -0.05211228       0.00783899       0.01290715
O        2.02774919       0.02501533       2.08924975      -0.00059047       0.02501533       0.06091008
O        6.10798880      -0.02125524       1.99116195       0.02296980      -0.02125524      -0.03717771
O        2.02092641       4.14921526       1.89277281      -0.00741326       0.09253592      -0.13556686
O        6.17131592       4.06508646       1.98179575       0.08629692       0.00840712      -0.04654392
O        2.00700748       0.03001918       6.02164553      -0.02133219       0.03001918      -0.06337347
O        6.11053810      -0.04129501       6.20774265       0.02551910      -0.04129501       0.12272365
O        1.95608074       4.11126626       6.05120739      -0.07225892       0.05458693      -0.03381161
O        6.05618861       3.98694196       6.06921958      -0.02883040      -0.06973738      -0.01579942
O        1.93651378       2.00613536      -0.02681959      -0.09182588      -0.02220431      -0.02681959
O        6.02074535       1.98223099       0.11508597      -0.06427366      -0.04610868       0.11508597
O        2.03682115       6.23401771      -0.06411932       0.00848149       0.14899871      -0.06411932
O        6.04641923       6.06161366      -0.05738329      -0.03859977      -0.02340534      -0.05738329
O        1.91618507       2.06455293       3.99764641      -0.11215459       0.03621326      -0.05903293
O        5.99890890       1.97495777       4.11044551      -0.08611010      -0.05338190       0.05376617
O        1.98684463       6.01870158       4.08608750      -0.04149504      -0.06631742       0.02940816
O        6.11092152       6.01333325       4.05524924       0.02590252      -0.07168575      -0.00143010
40
Lattice="8.113358670559476 -9.48256209502453e-19 1.1856955918959047e-18 1.4731444131804922e-16 8.113358670559487 -2.1213857306241463e-14 -1.6492255695243405e-16 -1.8377179618236488e-14 8.113358670559476" Properties=species:S:1:pos:R:3:u_disp:R:3 system=knbo3_cubic base_model=mace_mp0 role=train_pool T=100.0 draw=9 n_tries=13 rms_disp_A=0.11012916584400904 min_pair_ratio=0.918031986498605 nearest_heldout_A=0.10890062161605261 site_map_ok=1 nearest_heldout_src=knbo3_cubic_mace_mp0_q0-1d2-1d2-b0.extxyz#2 pbc="T T T"
K       -0.06028411      -0.10338222       0.15412292      -0.06028411      -0.10338222       0.15412292
K        4.15024823       0.00189320       0.04858655       0.09356889       0.00189320       0.04858655
K       -0.03841281       4.12979142      -0.01111407      -0.03841281       0.07311208      -0.01111407
K        3.98683073       4.08454617      -0.05453183      -0.06984861       0.02786683      -0.05453183
K        0.12929428       0.00525690       4.13249412       0.12929428       0.00525690       0.07581479
K        4.08192530      -0.03660788       3.95470722       0.02524596      -0.03660788      -0.10197211
K        0.06735878       4.15223147       4.00744541       0.06735878       0.09555214      -0.04923393
K        4.09924575       4.12341468       4.02146673       0.04256641       0.06673535      -0.03521261
Nb       1.99196404       2.02300870       2.02660536      -0.03637562      -0.00533097      -0.00173431
Nb       6.08642158       2.02350459       2.03166169       0.00140258      -0.00483507       0.00332202
Nb       1.97270466       6.13949991       1.98172971      -0.05563501       0.05448091      -0.04660996
Nb       6.04006070       6.07571002       2.09599428      -0.04495830      -0.00930898       0.06765461
Nb       1.98517114       1.96562892       6.10673075      -0.04316853      -0.06271075       0.02171175
Nb       6.12059202       2.02850458       6.03871062       0.03557302       0.00016492      -0.04630839
Nb       2.09895343       6.08959049       6.06890899       0.07061376       0.00457149      -0.01611001
Nb       6.11857162       6.11405698       6.13659072       0.03355262       0.02903798       0.05157171
O        4.02480941       2.03780166       2.04526533      -0.03186993       0.00946200       0.01692566
O       -0.04450549       2.01604428       1.99315805      -0.04450549      -0.01229539      -0.03518162
O        4.04766452       6.13823655       2.16622233      -0.00901481       0.05321754       0.13788267
O        0.01904074       5.99093361       2.06362104       0.01904074      -0.09408540       0.03528137
O        4.10440252       2.02009743       5.90157036       0.04772319      -0.00824224      -0.18344864
O        0.04137823       1.96213343       6.06766229       0.04137823      -0.06620624      -0.01735672
O        4.00871689       6.04393326       6.08316445      -0.04796244      -0.04108574      -0.00185456
O        0.01030841       6.02162679       6.22914631       0.01030841      -0.06339221       0.14412730
O        2.04792921      -0.00109309       1.87117765       0.01958955      -0.00109309      -0.15716202
O        5.98394189      -0.07341652       2.13380991      -0.10107711      -0.07341652       0.10547024
O        1.94430753       4.02209722       1.88485953      -0.08403214      -0.03458212      -0.14348013
O        5.96609948       4.00376939       2.02519879      -0.11891952      -0.05290994      -0.00314087
O        2.08483937      -0.00565083       5.97702539       0.05649970      -0.00565083      -0.10799361
O        6.11674206      -0.02716664       6.07942126       0.03172306      -0.02716664      -0.00559774
O        2.01452804       4.05215518       6.00076039      -0.01381163      -0.00452415      -0.08425861
O        6.15472776       4.04202824       6.10492968       0.06970876      -0.01465109       0.01991068
O        2.02340434       2.06489265      -0.07577176      -0.00493533       0.03655298      -0.07577176
O        6.06995563       1.97388599       0.04814889      -0.01506337      -0.05445367       0.04814889
O        2.12460648       6.19894004       0.00035502       0.09626682       0.11392103       0.00035502
O        6.06572984       6.15581900       0.07033206      -0.01928916       0.07080000       0.07033206
O        1.97835176       1.99562910       3.97274011      -0.04998791      -0.03271056      -0.08393922
O        6.05496818       2.04721325       4.06370637      -0.03005082       0.01887358       0.00702703
O        1.98682500       6.12125105       3.99106074      -0.04151467       0.03623205      -0.06561860
O        6.06819595       5.97845316       4.17684686      -0.01682306      -0.10656585       0.12016753
40
Lattice="8.113358670559476 -9.48256209502453e-19 1.1856955918959047e-18 1.4731444131804922e-16 8.113358670559487 -2.1213857306241463e-14 -1.6492255695243405e-16 -1.8377179618236488e-14 8.113358670559476" Properties=species:S:1:pos:R:3:u_disp:R:3 system=knbo3_cubic base_model=mace_mp0 role=train_pool T=100.0 draw=10 n_tries=13 rms_disp_A=0.08662883536388348 min_pair_ratio=0.9226033920777917 nearest_heldout_A=0.0858033889846365 site_map_ok=1 nearest_heldout_src=knbo3_cubic_chgnet_q0-0-0-b0.extxyz#1 pbc="T T T"
K        0.06022145      -0.07126351      -0.01919449       0.06022145      -0.07126351      -0.01919449
K        4.03027505       0.04288214       0.07861638      -0.02640429       0.04288214       0.07861638
K        0.03928753       4.14714147      -0.04106010       0.03928753       0.09046214      -0.04106010
K        4.03202365       4.12510754       0.11445911      -0.02465568       0.06842820       0.11445911
K        0.04517870       0.05990124       4.02157407       0.04517870       0.05990124      -0.03510526
K        4.08256316      -0.07668211       3.99891303       0.02588383      -0.07668211      -0.05776630
K       -0.03595583       4.04797773       4.10987868      -0.03595583      -0.00870160       0.05319935
K        4.13272876       4.01277555       4.05488181       0.07604943      -0.04390379      -0.00179753
Nb       2.03761833       2.00964720       1.96736729       0.00927866      -0.01869247      -0.06097238
Nb       6.07796441       2.03231843       2.04866506      -0.00705459       0.00397876       0.02032539
Nb       2.02159628       6.01937573       2.02022493      -0.00674339      -0.06564327      -0.00811474
Nb       6.08951393       6.11583409       2.00303717       0.00449493       0.03081509      -0.02530249
Nb       2.05093386       2.03803293       6.15383592       0.02259419       0.00969326       0.06881692
Nb       6.07678573       2.03863312       6.11131810      -0.00823327       0.01029346       0.02629910
Nb       2.02571805       6.08719492       6.12359230      -0.00262162       0.00217592       0.03857330
Nb       6.03977133       6.12989388       6.04902631      -0.04524768       0.04487488      -0.03599269
O        4.01015798       1.99915600       1.97635413      -0.04652135      -0.02918367      -0.05198553
O       -0.00194484       2.01483602       1.98367878      -0.00194484      -0.01350364      -0.04466089
O        4.04429078       6.05248823       2.07870611      -0.01238856      -0.03253077       0.05036645
O       -0.01715166       5.98252657       1.86474700      -0.01715166      -0.10249244      -0.16359267
O        4.05743038       2.05748326       6.11593083       0.00075104       0.02914359       0.03091183
O       -0.01805006       2.03261331       6.05767517      -0.01805006       0.00427364      -0.02734383
O        4.03980643       6.03773763       6.11008206      -0.01687291      -0.04728137       0.02506306
O       -0.01981617       6.11651614       6.00121317      -0.01981617       0.03149714      -0.08380583
O        2.00092849      -0.10778895       2.06766780      -0.02741117      -0.10778895       0.03932814
O        5.96095479       0.01438685       2.08180939      -0.12406421       0.01438685       0.05346973
O        2.02877061       3.96682064       2.03929502       0.00043094      -0.08985869       0.01095535
O        6.03548114       4.07205493       1.98418919      -0.04953786       0.01537559      -0.04415048
O        2.00800520       0.00958707       6.07736916      -0.02033447       0.00958707      -0.00764985
O        6.05996185      -0.02897782       6.06207941      -0.02505716      -0.02897782      -0.02293959
O        2.03813782       4.05913966       6.17177315       0.00979815       0.00246033       0.08675415
O        6.03565465       4.03244803       5.96178579      -0.04936436      -0.02423131      -0.12323321
O        2.11088293       2.09404231       0.02864608       0.08254326       0.06570264       0.02864608
O        6.15364450       2.01789827      -0.04611533       0.06862550      -0.01044140      -0.04611533
O        1.98677756       6.02377777      -0.01345997      -0.04156211      -0.06124123      -0.01345997
O        6.05119064       6.06812662      -0.01316027      -0.03382836      -0.01689239      -0.01316027
O        2.13134128       2.00808122       4.09128328       0.10300161      -0.02025845       0.03460394
O        6.11148792       2.08847515       4.01053394       0.02646891       0.06013548      -0.04614539
O        2.04733461       6.06195902       4.01537978       0.01899494      -0.02305998      -0.04129956
O        6.08299745       6.20923630       4.06565471      -0.00202155       0.12421730       0.00897537
40
Lattice="8.113358670559476 -9.48256209502453e-19 1.1856955918959047e-18 1.4731444131804922e-16 8.113358670559487 -2.1213857306241463e-14 -1.6492255695243405e-16 -1.8377179618236488e-14 8.113358670559476" Properties=species:S:1:pos:R:3:u_disp:R:3 system=knbo3_cubic base_model=mace_mp0 role=train_pool T=100.0 draw=11 n_tries=13 rms_disp_A=0.09933072866950542 min_pair_ratio=0.931646595130468 nearest_heldout_A=0.09717807821731017 site_map_ok=1 nearest_heldout_src=knbo3_cubic_mace_mp0_q0-0-0-b0.extxyz#2 pbc="T T T"
K       -0.01247174       0.08938213       0.04329564      -0.01247174       0.08938213       0.04329564
K        4.04635625      -0.05603325      -0.00569643      -0.01032308      -0.05603325      -0.00569643
K       -0.01790997       4.01333955       0.03464821      -0.01790997      -0.04333979       0.03464821
K        4.00453918       3.95433698      -0.04151908      -0.05214015      -0.10234236      -0.04151908
K       -0.01372300       0.03362057       4.08521650      -0.01372300       0.03362057       0.02853717
K        3.98894537       0.05993775       4.13980623      -0.06773397       0.05993775       0.08312689
K       -0.00706283       4.15443251       4.02658528      -0.00706283       0.09775317      -0.03009406
K        4.06009216       4.05620490       4.15091059       0.00341283      -0.00047444       0.09423126
Nb       2.03202785       1.99949230       1.97835402       0.00368818      -0.02884737      -0.04998565
Nb       6.12574793       1.99984029       2.02100912       0.04072893      -0.02849937      -0.00733054
Nb       1.96387937       6.09427244       1.99335655      -0.06446030       0.00925344      -0.03498312
Nb       6.04434602       6.07895024       2.01080786      -0.04067298      -0.00606876      -0.01753181
Nb       2.02150977       2.00205815       6.15660976      -0.00682990      -0.02628152       0.07159076
Nb       6.07949404       2.08033206       6.10067669      -0.00552497       0.05199239       0.01565769
Nb       2.09031507       6.02848782       6.12469976       0.06197540      -0.05653119       0.03968076
Nb       6.11197309       6.12738122       6.09098016       0.02695409       0.04236221       0.00596116
O        4.09316815       1.95031984       1.90611858       0.03648882      -0.07801983      -0.12222109
O        0.01418683       1.98014508       1.97931629       0.01418683      -0.04819459      -0.04902338
O        4.01080502       6.14834812       2.01592552      -0.04587431       0.06332912      -0.01241414
O       -0.04681397       6.08705191       2.04483994      -0.04681397       0.00203291       0.01650027
O        4.13877620       2.10952562       6.07174024       0.08209686       0.08118596      -0.01327876
O        0.03569240       2.01957544       5.95658227       0.03569240      -0.00876423      -0.12843673
O        3.98185057       6.03888049       5.97093608      -0.07482877      -0.04613851      -0.11408292
O       -0.05559058       6.19166415       6.20363505      -0.05559058       0.10664515       0.11861604
O        1.98293721      -0.00600601       2.09966679      -0.04540246      -0.00600601       0.07132713
O        6.09954768      -0.03009688       1.92257413       0.01452868      -0.03009688      -0.10576554
O        2.08338218       4.04728470       1.94630438       0.05504251      -0.00939464      -0.08203529
O        6.10643312       4.01815855       2.09036111       0.02141412      -0.03852079       0.06202144
O        2.09452641       0.03020517       6.02453242       0.06618674       0.03020517      -0.06048659
O        6.08497112       0.05977144       6.18443001      -0.00004788       0.05977144       0.09941101
O        1.92169023       4.12247299       6.03851772      -0.10664944       0.06579365      -0.04650128
O        6.20396773       4.13664001       6.13231590       0.11894873       0.07996067       0.04729689
O        2.14103051       1.95418992      -0.05226756       0.11269085      -0.07414975      -0.05226756
O        6.12482442       1.99338027      -0.05045483       0.03980541      -0.03495940      -0.05045483
O        2.03500412       6.04281565      -0.06538447       0.00666445      -0.04220335      -0.06538447
O        6.08595843       6.04619567      -0.06597376       0.00093943      -0.03882334      -0.06597376
O        2.14459323       2.11627064       4.03185668       0.11625357       0.08793097      -0.02482265
O        6.06817748       1.94236784       4.05452195      -0.01684152      -0.08597182      -0.00215738
O        2.00812302       6.09731686       3.96838310      -0.02021664       0.01229786      -0.08829623
O        6.11912469       6.09275636       4.08650347       0.03410569       0.00773736       0.02982414
40
Lattice="8.113358670559476 -9.48256209502453e-19 1.1856955918959047e-18 1.4731444131804922e-16 8.113358670559487 -2.1213857306241463e-14 -1.6492255695243405e-16 -1.8377179618236488e-14 8.113358670559476" Properties=species:S:1:pos:R:3:u_disp:R:3 system=knbo3_cubic base_model=mace_mp0 role=train_pool T=100.0 draw=12 n_tries=13 rms_disp_A=0.10354947978414986 min_pair_ratio=0.9003933865084732 nearest_heldout_A=0.10237161376934464 site_map_ok=1 nearest_heldout_src=knbo3_cubic_mattersim_q0-1d2-1d2-b0.extxyz#2 pbc="T T T"
K       -0.04201966       0.03078860      -0.00033428      -0.04201966       0.03078860      -0.00033428
K        4.03879186       0.01670772      -0.06671520      -0.01788747       0.01670772      -0.06671520
K        0.06548769       4.03158394       0.04094843       0.06548769      -0.02509540       0.04094843
K        3.98782932       4.03536831      -0.03294479      -0.06885002      -0.02131103      -0.03294479
K       -0.01133048       0.01108708       4.06611497      -0.01133048       0.01108708       0.00943563
K        4.10280645      -0.05625171       4.01965201       0.04612712      -0.05625171      -0.03702732
K       -0.04281821       3.97810297       4.13572269      -0.04281821      -0.07857637       0.07904335
K        4.09972675       3.98505199       4.05844176       0.04304741      -0.07162735       0.00176243
Nb       2.01733385       2.06410005       2.05068659      -0.01100582       0.03576038       0.02234692
Nb       6.02535162       2.02656532       2.03557112      -0.05966738      -0.00177435       0.00723145
Nb       2.05957080       6.09152444       2.07013088       0.03123114       0.00650544       0.04179121
Nb       6.10505708       6.08260493       1.96193181       0.02003807      -0.00241407      -0.06640786
Nb       2.05449940       2.04060257       6.08038575       0.02615973       0.01226291      -0.00463326
Nb       6.10757285       2.06867793       6.08927756       0.02255385       0.04033827       0.00425856
Nb       2.06803373       6.09448496       6.10955403       0.03969406       0.00946596       0.02453503
Nb       6.07215950       6.06623991       6.07305870      -0.01285951      -0.01877909      -0.01196030
O        4.14495506       2.05449081       1.96497516       0.08827572       0.02615114      -0.06336451
O        0.00430740       1.89261769       2.05708417       0.00430740      -0.13572197       0.02874450
O        4.00667461       5.98454217       1.96231942      -0.05000472      -0.10047683      -0.06602025
O        0.05097436       6.07742753       2.02196637       0.05097436      -0.00759147      -0.00637330
O        3.87356387       2.15633664       6.19438139      -0.18311547       0.12799697       0.10936239
O       -0.02866925       2.11582466       6.04723565      -0.02866925       0.08748500      -0.03778336
O        4.02975979       6.11682830       5.95462729      -0.02691954       0.03180929      -0.13039171
O       -0.03011401       6.20733423       5.99493764      -0.03011401       0.12231523      -0.09008136
O        2.13412513      -0.02464567       2.02539557       0.10578546      -0.02464567      -0.00294410
O        5.97446029      -0.08065122       1.87290714      -0.11055872      -0.08065122      -0.15543253
O        2.05496236       4.02735226       2.13552929       0.02662269      -0.02932708       0.10718963
O        6.15643106       4.03408091       2.04627126       0.07141205      -0.02259843       0.01793159
O        2.02080865       0.06867855       6.19704410      -0.00753101       0.06867855       0.11202510
O        5.99378009       0.01513229       6.13562809      -0.09123891       0.01513229       0.05060908
O        2.01125046       4.12838899       6.09234034      -0.01708920       0.07170965       0.00732134
O        6.01112397       4.05087334       6.12098409      -0.07389503      -0.00580600       0.03596509
O        1.92164625       2.09729460      -0.02079459      -0.10669342       0.06895493      -0.02079459
O        6.08145708       2.04222439      -0.02593857      -0.00356192       0.01388473      -0.02593857
O        1.98762822       5.96896773       0.02294730      -0.04071144      -0.11605128       0.02294730
O        6.17974049       6.06691791      -0.03453131       0.09472149      -0.01810109      -0.03453131
O        2.08625084       1.94381119       4.10517170       0.05791117      -0.08452847       0.04849237
O        6.06449098       1.96916806       4.15656521      -0.02052802      -0.05917161       0.09988588
O        2.07694104       6.11199662       4.04294798       0.04860137       0.02697762      -0.01373135
O        6.07003633       6.11088167       3.97818721      -0.01498267       0.02586267      -0.07849212
40
Lattice="8.113358670559476 -9.48256209502453e-19 1.1856955918959047e-18 1.4731444131804922e-16 8.113358670559487 -2.1213857306241463e-14 -1.6492255695243405e-16 -1.8377179618236488e-14 8.113358670559476" Properties=species:S:1:pos:R:3:u_disp:R:3 system=knbo3_cubic base_model=mace_mp0 role=train_pool T=300.0 draw=0 n_tries=13 rms_disp_A=0.15452187477270102 min_pair_ratio=0.876149499516308 nearest_heldout_A=0.15367942785705418 site_map_ok=1 nearest_heldout_src=knbo3_cubic_orb_v2_q1d2-1d2-0-b0.extxyz#2 pbc="T T T"
K       -0.09224874      -0.01328641      -0.05165483      -0.09224874      -0.01328641      -0.05165483
K        4.06463256       0.09540251       0.13775966       0.00795322       0.09540251       0.13775966
K        0.15991644       4.17503767      -0.20765602       0.15991644       0.11835834      -0.20765602
K        4.11823656       4.03822951      -0.06892523       0.06155722      -0.01844982      -0.06892523
K        0.03973704       0.00437666       4.12486345       0.03973704       0.00437666       0.06818412
K        4.16159578       0.06036458       3.98483821       0.10491645       0.06036458      -0.07184113
K       -0.04463109       4.06198061       4.04181739      -0.04463109       0.00530128      -0.01486194
K        4.05274666       3.92610608       4.15131740      -0.00393268      -0.13057326       0.09463807
Nb       2.07349309       2.03825157       1.96851225       0.04515342       0.00991190      -0.05982741
Nb       6.12148564       2.07148161       2.05843052       0.03646664       0.04314194       0.03009085
Nb       2.05825055       6.06714185       1.95987015       0.02991088      -0.01787716      -0.06846951
Nb       6.11471129       6.02685755       2.14766643       0.02969229      -0.05816146       0.11932676
Nb       1.95221247       2.01347381       6.10775715      -0.07612720      -0.01486586       0.02273815
Nb       6.01900171       2.02259677       6.08109304      -0.06601729      -0.00574289      -0.00392596
Nb       2.06288011       6.05876001       5.99681571       0.03454044      -0.02625899      -0.08820330
Nb       6.03727338       6.12692459       6.14429850      -0.04774563       0.04190558       0.05927949
O        4.07199984       1.73680849       2.04094266       0.01532050      -0.29153118       0.01260300
O       -0.01022833       1.99598906       1.92472029      -0.01022833      -0.03235061      -0.10361938
O        4.12271199       6.07725366       2.16886568       0.06603265      -0.00776534       0.14052602
O        0.05648292       6.09489578       1.94729371       0.05648292       0.00987677      -0.08104596
O        4.02389159       2.03666556       6.01309277      -0.03278775       0.00832589      -0.07192623
O        0.01917721       2.14438286       6.25069483       0.01917721       0.11604319       0.16567582
O        4.02379710       6.21762070       6.00819663      -0.03288223       0.13260169      -0.07682237
O       -0.04364867       6.20170118       6.13031953      -0.04364867       0.11668217       0.04530053
O        2.08628480      -0.07602496       1.90368950       0.05794513      -0.07602496      -0.12465017
O        6.14356296       0.01740016       2.18531846       0.05854396       0.01740016       0.15697879
O        2.03516780       3.88902060       1.98262443       0.00682813      -0.16765874      -0.04571524
O        6.07828135       4.04226102       2.29262195      -0.00673766      -0.01441832       0.26428229
O        2.05912556      -0.00575574       6.13273042       0.03078589      -0.00575574       0.04771142
O        5.93042539       0.12845551       6.08999143      -0.15459362       0.12845551       0.00497242
O        1.95256301       4.01960783       5.93439164      -0.07577666      -0.03707150      -0.15062736
O        6.08346339       4.17756713       6.13114390      -0.00155561       0.12088780       0.04612490
O        2.17797703       1.93405230      -0.05616894       0.14963736      -0.09428736      -0.05616894
O        5.82549619       2.12032053       0.08507600      -0.25952281       0.09198086       0.08507600
O        1.93670874       5.96547926      -0.01981532      -0.09163093      -0.11953974      -0.01981532
O        5.95466147       6.03152028       0.03548648      -0.13035753      -0.05349872       0.03548648
O        1.87071465       2.01731411       4.03304468      -0.15762501      -0.01102556      -0.02363466
O        6.11567015       2.20394650       4.12849673       0.03065115       0.17560684       0.07181739
O        2.01344597       6.02490160       3.97827601      -0.01489369      -0.06011740      -0.07840332
O        6.11784010       6.00358849       4.02808404       0.03282110      -0.08143051      -0.02859529
40
Lattice="8.113358670559476 -9.48256209502453e-19 1.1856955918959047e-18 1.4731444131804922e-16 8.113358670559487 -2.1213857306241463e-14 -1.6492255695243405e-16 -1.8377179618236488e-14 8.113358670559476" Properties=species:S:1:pos:R:3:u_disp:R:3 system=knbo3_cubic base_model=mace_mp0 role=train_pool T=300.0 draw=1 n_tries=13 rms_disp_A=0.1199616405419331 min_pair_ratio=0.9007116737287417 nearest_heldout_A=0.118194668690765 site_map_ok=1 nearest_heldout_src=knbo3_cubic_mattersim_q0-0-0-b0.extxyz#2 pbc="T T T"
K       -0.04900430      -0.11639256       0.02794603      -0.04900430      -0.11639256       0.02794603
K        4.04016452      -0.01189695       0.04354651      -0.01651481      -0.01189695       0.04354651
K        0.04004023       4.15089418       0.00336032       0.04004023       0.09421484       0.00336032
K        4.07023555       3.99125944       0.19225889       0.01355621      -0.06541990       0.19225889
K        0.23066325       0.12703379       4.06740830       0.23066325       0.12703379       0.01072897
K        4.10994535      -0.05277858       3.96389467       0.05326602      -0.05277858      -0.09278467
K       -0.00410869       4.09682545       3.99222169      -0.00410869       0.04014612      -0.06445764
K        4.19550201       3.96242313       4.07299353       0.13882268      -0.09425621       0.01631420
Nb       2.02962717       2.01719992       2.04227607       0.00128750      -0.01113974       0.01393640
Nb       6.06820433       1.96842971       2.02730914      -0.01681467      -0.05990996      -0.00103053
Nb       1.95663448       6.06379046       2.03814651      -0.07170518      -0.02122854       0.00980684
Nb       6.01310004       6.07901913       1.97652936      -0.07191897      -0.00599987      -0.05181031
Nb       2.04216629       2.06126229       6.10756088       0.01382662       0.03292262       0.02254188
Nb       6.09863756       1.98094629       6.11843348       0.01361855      -0.04739338       0.03341448
Nb       1.99283950       6.11497594       6.07917455      -0.03550017       0.02995694      -0.00584446
Nb       6.11770783       6.08922231       6.05631291       0.03268883       0.00420331      -0.02870609
O        4.01073857       1.97485550       2.14398551      -0.04594077      -0.05348417       0.11564585
O        0.06666994       2.04211927       2.01001067       0.06666994       0.01377960      -0.01832900
O        3.98504492       6.16753817       2.00641902      -0.07163442       0.08251917      -0.02192065
O       -0.05277404       6.09129046       2.13301676      -0.05277404       0.00627145       0.10467709
O        4.08923769       1.97910434       6.00937424       0.03255836      -0.04923533      -0.07564476
O       -0.01948814       2.11870166       6.10151649      -0.01948814       0.09036200       0.01649749
O        4.03541298       6.11984125       6.01162582      -0.02126635       0.03482225      -0.07339319
O       -0.02725909       6.15639888       6.09183734      -0.02725909       0.07137988       0.00681833
O        2.01547247      -0.08849178       1.84938134      -0.01286720      -0.08849178      -0.17895833
O        5.93500001       0.07678747       2.07336023      -0.15001899       0.07678747       0.04502057
O        2.04617310       4.05052099       1.95001214       0.01783343      -0.00615834      -0.07832753
O        6.06210794       4.12936341       1.92172764      -0.02291106       0.07268407      -0.10661202
O        1.93745536       0.02430864       6.08226837      -0.09088431       0.02430864      -0.00275063
O        6.26223842       0.10079754       6.11790531       0.17721942       0.10079754       0.03288631
O        2.07494722       4.07445929       6.21111307       0.04660755       0.01777995       0.12609407
O        6.05720734       4.10160168       6.13255919      -0.02781166       0.04492235       0.04754019
O        2.13319923       2.10697430      -0.03432504       0.10485956       0.07863463      -0.03432504
O        6.07164307       2.03939631      -0.06394756      -0.01337593       0.01105664      -0.06394756
O        2.04983229       6.18903806      -0.07473084       0.02149263       0.10401906      -0.07473084
O        5.98322730       6.13788304       0.03260029      -0.10179170       0.05286403       0.03260029
O        2.05739062       1.95406693       4.04496035       0.02905095      -0.07427274      -0.01171899
O        6.19252728       2.06276482       4.05173458       0.10750827       0.03442515      -0.00494475
O        1.96759870       5.99134120       3.98416711      -0.06074096      -0.09367780      -0.07251223
O        5.98719109       6.18318799       4.05710166      -0.09782791       0.09816899       0.00042233
40
Lattice="8.113358670559476 -9.48256209502453e-19 1.1856955918959047e-18 1.4731444131804922e-16 8.113358670559487 -2.1213857306241463e-14 -1.6492255695243405e-16 -1.8377179618236488e-14 8.113358670559476" Properties=species:S:1:pos:R:3:u_disp:R:3 system=knbo3_cubic base_model=mace_mp0 role=train_pool T=300.0 draw=2 n_tries=13 rms_disp_A=0.1352368013935802 min_pair_ratio=0.8797229100224153 nearest_heldout_A=0.133924166537789 site_map_ok=1 nearest_heldout_src=knbo3_cubic_chgnet_q0-0-0-b0.extxyz#2 pbc="T T T"
K       -0.02819683      -0.09607363      -0.03413164      -0.02819683      -0.09607363      -0.03413164
K        3.99855341       0.04107384      -0.09620357      -0.05812592       0.04107384      -0.09620357
K       -0.01182779       4.07260913       0.04804638      -0.01182779       0.01592980       0.04804638
K        4.04289080       4.09592844       0.17257208      -0.01378854       0.03924910       0.17257208
K       -0.07624509       0.01881605       4.04184784      -0.07624509       0.01881605      -0.01483149
K        3.98408515      -0.00122846       4.17069856      -0.07259419      -0.00122846       0.11401923
K        0.10417570       4.03418771       4.17476086       0.10417570      -0.02249162       0.11808152
K        4.05583911       4.00133421       4.00847329      -0.00084022      -0.05534513      -0.04820604
Nb       2.02251826       2.00279316       2.04798885      -0.00582141      -0.02554651       0.01964918
Nb       6.03346400       1.98903805       1.96226052      -0.05155501      -0.03930162      -0.06607915
Nb       2.05371137       6.15390927       2.10945308       0.02537171       0.06889027       0.08111341
Nb       6.08565844       6.02484185       2.06763194       0.00063944      -0.06017715       0.03929227
Nb       2.03435552       2.05866462       6.10499174       0.00601586       0.03032495       0.01997274
Nb       6.15512348       2.05701322       6.08156415       0.07010447       0.02867355      -0.00345485
Nb       2.03345503       6.09227415       6.03572924       0.00511536       0.00725515      -0.04928976
Nb       6.07584339       6.13699144       6.03613020      -0.00917561       0.05197244      -0.04888880
O        4.13012369       1.91415831       1.82540004       0.07344435      -0.11418136      -0.20293963
O        0.06938532       1.86174193       2.04404662       0.06938532      -0.16659774       0.01570695
O        4.07197100       6.02772245       1.98738231       0.01529166      -0.05729656      -0.04095735
O        0.06377355       5.97180674       2.06518339       0.06377355      -0.11321226       0.03684373
O        3.92874002       2.07800017       6.17010520      -0.12793931       0.04966050       0.08508620
O       -0.01044813       2.01269890       5.91227538      -0.01044813      -0.01564076      -0.17274363
O        4.00916612       6.31448077       5.94152580      -0.04751321       0.22946177      -0.14349320
O       -0.01720847       6.13860475       5.93722291      -0.01720847       0.05358574      -0.14779609
O        2.09921245      -0.15485702       2.02787554       0.07087278      -0.15485702      -0.00046413
O        6.17089679       0.06716303       2.12949393       0.08587779       0.06716303       0.10115427
O        2.18109328       3.93404505       2.11482826       0.15275361      -0.12263428       0.08648859
O        6.06378912       4.06136226       1.96407604      -0.02122988       0.00468293      -0.06426363
O        1.99123884       0.01550946       6.12296287      -0.03710082       0.01550946       0.03794387
O        6.11895381      -0.04556389       6.06636792       0.03393481      -0.04556389      -0.01865108
O        2.09013282       4.12793106       6.07973628       0.06179315       0.07125173      -0.00528272
O        6.07037210       4.02072360       6.14415796      -0.01464690      -0.03595574       0.05913896
O        1.86409059       2.02170255      -0.07041319      -0.16424908      -0.00663712      -0.07041319
O        6.14426735       2.00953902      -0.03230613       0.05924835      -0.01880065      -0.03230613
O        2.00336027       6.08282907      -0.00159627      -0.02497939      -0.00218993      -0.00159627
O        6.02431971       6.11735738       0.01503461      -0.06069929       0.03233838       0.01503461
O        2.07897675       1.98689345       3.90020104       0.05063708      -0.04144622      -0.15647829
O        6.10543876       2.26663405       4.11993095       0.02041976       0.23829438       0.06325161
O        1.89193143       6.15027227       4.03187685      -0.13640824       0.06525327      -0.02480249
O        6.13844889       5.93907201       4.04906983       0.05342989      -0.14594699      -0.00760951
40
Lattice="8.113358670559476 -9.48256209502453e-19 1.1856955918959047e-18 1.4731444131804922e-16 8.113358670559487 -2.1213857306241463e-14 -1.6492255695243405e-16 -1.8377179618236488e-14 8.113358670559476" Properties=species:S:1:pos:R:3:u_disp:R:3 system=knbo3_cubic base_model=mace_mp0 role=train_pool T=300.0 draw=3 n_tries=13 rms_disp_A=0.13205303065577131 min_pair_ratio=0.8991050942392698 nearest_heldout_A=0.13132294497297048 site_map_ok=1 nearest_heldout_src=knbo3_cubic_mattersim_q0-0-0-b0.extxyz#2 pbc="T T T"
K        0.12243229       0.02594832      -0.15169374       0.12243229       0.02594832      -0.15169374
K        3.99390684       0.11639552       0.07053420      -0.06277250       0.11639552       0.07053420
K       -0.04474208       3.95142000       0.10572496      -0.04474208      -0.10525933       0.10572496
K        4.00941488       4.11149917      -0.08170954      -0.04726446       0.05481983      -0.08170954
K       -0.15682556       0.06757146       3.98230173      -0.15682556       0.06757146      -0.07437760
K        4.10973594      -0.22367877       4.15441061       0.05305660      -0.22367877       0.09773127
K        0.18895638       4.17151828       4.09691202       0.18895638       0.11483895       0.04023269
K        4.13584999       3.96402855       4.10639652       0.07917066      -0.09265078       0.04971719
Nb       2.05185909       2.05845222       2.00172524       0.02351942       0.03011256      -0.02661443
Nb       6.06991501       1.99986448       2.03696094      -0.01510399      -0.02847519       0.00862127
Nb       1.98122822       6.15045875       2.02273900      -0.04711145       0.06543974      -0.00560067
Nb       6.07766828       6.05678240       2.02547014      -0.00735073      -0.02823660      -0.00286953
Nb       1.95091485       2.00063844       6.07745836      -0.07742482      -0.02770122      -0.00756064
Nb       6.12994994       2.02794742       6.08150494       0.04493094      -0.00039225      -0.00351406
Nb       2.02962073       6.10474858       6.07908239       0.00128107       0.01972958      -0.00593661
Nb       6.14173267       6.06298907       6.14487168       0.05671367      -0.02202993       0.05985268
O        4.04383155       2.06344727       1.97017777      -0.01284778       0.03510761      -0.05816189
O       -0.08859669       1.94446555       2.06071816      -0.08859669      -0.08387412       0.03237849
O        4.04210134       6.09600204       1.94732395      -0.01457800       0.01098304      -0.08101572
O       -0.10884432       6.15519643       1.84950778      -0.10884432       0.07017743      -0.17883189
O        4.05969774       1.96681563       6.10446079       0.00301840      -0.06152404       0.01944179
O       -0.15067720       2.16793524       6.10771177      -0.15067720       0.13959558       0.02269277
O        3.98043344       6.16443766       6.06713494      -0.07624590       0.07941866      -0.01788406
O       -0.06519496       5.99188747       6.08601250      -0.06519496      -0.09313154       0.00099350
O        2.07074964       0.01173993       2.14396365       0.04240997       0.01173993       0.11562398
O        6.09881237      -0.14087684       2.07217270       0.01379337      -0.14087684       0.04383304
O        2.10578181       4.05138233       2.05678703       0.07744214      -0.00529701       0.02844736
O        6.12611388       4.02886560       2.11391522       0.04109488      -0.02781373       0.08557555
O        2.04739333       0.05254675       5.98092221       0.01905366       0.05254675      -0.10409679
O        6.28278986       0.09817037       6.08086070       0.19777086       0.09817037      -0.00415831
O        2.10963199       4.05728172       6.05567095       0.08129232       0.00060239      -0.02934805
O        6.07823799       4.07656717       6.10036235      -0.00678102       0.01988783       0.01534335
O        2.03629078       2.05181476      -0.02784617       0.00795111       0.02347509      -0.02784617
O        6.21978746       2.10774256       0.06473470       0.13476846       0.07940289       0.06473470
O        1.91681324       6.12793204      -0.09942943      -0.11152643       0.04291304      -0.09942943
O        6.04895567       6.02063632       0.00920705      -0.03606333      -0.06438269       0.00920705
O        2.01512578       2.03625690       4.10616810      -0.01321389       0.00791723       0.04948877
O        6.09565054       1.99502024       4.02232089       0.01063154      -0.03331943      -0.03435844
O        1.87596965       6.12967452       3.92018348      -0.15237002       0.04465552      -0.13649586
O        6.08943832       5.93226934       4.10820190       0.00441932      -0.15274967       0.05152257
40
Lattice="8.113358670559476 -9.48256209502453e-19 1.1856955918959047e-18 1.4731444131804922e-16 8.113358670559487 -2.1213857306241463e-14 -1.6492255695243405e-16 -1.8377179618236488e-14 8.113358670559476" Properties=species:S:1:pos:R:3:u_disp:R:3 system=knbo3_cubic base_model=mace_mp0 role=train_pool T=300.0 draw=4 n_tries=13 rms_disp_A=0.13292766756728847 min_pair_ratio=0.8582004584734119 nearest_heldout_A=0.12933772039971175 site_map_ok=1 nearest_heldout_src=knbo3_cubic_mattersim_q0-1d2-1d2-b0.extxyz#3 pbc="T T T"
K        0.03473598      -0.01917379      -0.07624296       0.03473598      -0.01917379      -0.07624296
K        4.04353517      -0.25782807       0.05232336      -0.01314416      -0.25782807       0.05232336
K        0.11695953       4.07970601      -0.19284834       0.11695953       0.02302668      -0.19284834
K        3.95016327       3.96847218      -0.09106408      -0.10651607      -0.08820715      -0.09106408
K       -0.03622969       0.00547668       4.15699674      -0.03622969       0.00547668       0.10031741
K        4.14214488       0.03451871       4.06525796       0.08546555       0.03451871       0.00857863
K       -0.14811984       4.03289599       4.03208458      -0.14811984      -0.02378335      -0.02459476
K        3.89234212       4.15825545       4.01461735      -0.16433722       0.10157611      -0.04206199
Nb       2.02907332       2.04615117       2.02875054       0.00073365       0.01781151       0.00041087
Nb       6.03266286       2.04197278       2.03529279      -0.05235614       0.01363312       0.00695312
Nb       2.10199773       6.11192755       2.02340809       0.07365806       0.02690855      -0.00493158
Nb       6.17525794       6.09525842       2.04904045       0.09023894       0.01023941       0.02070079
Nb       2.07808286       2.02068018       6.14621263       0.04974319      -0.00765949       0.06119362
Nb       6.10220010       2.07059082       6.14873858       0.01718110       0.04225115       0.06371957
Nb       1.97689226       6.07632601       6.04401364      -0.05144741      -0.00869299      -0.04100536
Nb       6.14683079       6.12158259       6.04439804       0.06181179       0.03656359      -0.04062096
O        4.17158990       1.98670951       2.04660828       0.11491057      -0.04163016       0.01826861
O        0.00657422       2.11727377       2.02457726       0.00657422       0.08893410      -0.00376241
O        3.83975221       6.20018686       2.07373568      -0.21692713       0.11516785       0.04539601
O       -0.11135913       5.94709778       2.06007683      -0.11135913      -0.13792122       0.03173717
O        4.02655808       1.94209327       6.02211313      -0.03012125      -0.08624640      -0.06290587
O       -0.08402705       1.98781206       6.25879612      -0.08402705      -0.04052761       0.17377712
O        4.02473202       6.03446511       6.07562558      -0.03194732      -0.05055389      -0.00939342
O       -0.10193564       5.98787703       6.16899626      -0.10193564      -0.09714197       0.08397726
O        2.01194249       0.02752288       2.07080916      -0.01639718       0.02752288       0.04246949
O        6.16747737      -0.05447400       1.88205622       0.08245837      -0.05447400      -0.14628345
O        2.01749845       4.05875156       2.04641421      -0.01084121       0.00207223       0.01807454
O        6.05736352       4.12421102       2.01297952      -0.02765548       0.06753168      -0.01536015
O        2.04557801      -0.03940219       6.14376600       0.01723834      -0.03940219       0.05874699
O        6.13568987       0.00387665       6.08082042       0.05067087       0.00387665      -0.00419858
O        1.94445577       3.91852053       6.22644553      -0.08388389      -0.13815881       0.14142653
O        5.90928086       4.09128732       6.09117685      -0.17573814       0.03460798       0.00615784
O        2.14149985       1.98393629       0.09608644       0.11316018      -0.04440337       0.09608644
O        6.08827469       1.98536966       0.03194829       0.00325569      -0.04297000       0.03194829
O        2.00623171       6.16010588      -0.09524814      -0.02210796       0.07508688      -0.09524814
O        6.04421562       6.10660196      -0.09446653      -0.04080338       0.02158296      -0.09446653
O        2.05286355       1.99752631       4.11764887       0.02452388      -0.03081336       0.06096953
O        6.11316886       2.10769199       3.99935644       0.02814985       0.07935233      -0.05732289
O        1.98378669       6.01048414       4.01645781      -0.04455298      -0.07453486      -0.04022152
O        6.10656387       6.23540341       4.04015233       0.02154486       0.15038441      -0.01652701
40
Lattice="8.113358670559476 -9.48256209502453e-19 1.1856955918959047e-18 1.4731444131804922e-16 8.113358670559487 -2.1213857306241463e-14 -1.6492255695243405e-16 -1.8377179618236488e-14 8.113358670559476" Properties=species:S:1:pos:R:3:u_disp:R:3 system=knbo3_cubic base_model=mace_mp0 role=train_pool T=300.0 draw=5 n_tries=13 rms_disp_A=0.14203687254044975 min_pair_ratio=0.8833808593713123 nearest_heldout_A=0.1393153483014711 site_map_ok=1 nearest_heldout_src=knbo3_cubic_mattersim_q0-1d2-1d2-b0.extxyz#3 pbc="T T T"
K        0.01893419       0.03872245       0.08769402       0.01893419       0.03872245       0.08769402
K        4.17150481       0.08155396      -0.01082356       0.11482547       0.08155396      -0.01082356
K       -0.10572931       4.14121680      -0.16476736      -0.10572931       0.08453747      -0.16476736
K        3.98344704       4.11052231      -0.06047684      -0.07323230       0.05384298      -0.06047684
K        0.10875685      -0.00867728       4.11635740       0.10875685      -0.00867728       0.05967806
K        4.09738102       0.00664052       3.87157459       0.04070168       0.00664052      -0.18510474
K       -0.23348404       4.03792742       4.09183831      -0.23348404      -0.01875191       0.03515897
K        4.13931288       3.94264819       3.97278139       0.08263355      -0.11403114      -0.08389794
Nb       1.93379615       2.01224944       2.04213682      -0.09454352      -0.01609023       0.01379715
Nb       5.97940693       2.05979872       2.04508038      -0.10561207       0.03145906       0.01674071
Nb       2.08670336       6.06254315       2.09572114       0.05836370      -0.02247585       0.06738147
Nb       6.14096031       6.02251708       1.97448845       0.05594131      -0.06250192      -0.05385122
Nb       2.04095093       2.01479917       6.08609120       0.01261126      -0.01354050       0.00107220
Nb       6.07684823       2.00992577       6.06380536      -0.00817078      -0.01841390      -0.02121365
Nb       2.03711786       6.06525862       6.19281450       0.00877819      -0.01976039       0.10779550
Nb       6.06544482       6.08847001       6.05056721      -0.01957418       0.00345101      -0.03445179
O        4.02969377       2.03766349       1.97034192      -0.02698557       0.00932382      -0.05799775
O        0.08484200       2.00436803       2.11825514       0.08484200      -0.02397164       0.08991548
O        4.08514788       6.13259771       2.07298864       0.02846854       0.04757870       0.04464897
O        0.00415801       6.17985658       2.22205134       0.00415801       0.09483758       0.19371167
O        4.06292713       1.96780459       5.99849168       0.00624779      -0.06053507      -0.08652733
O       -0.03243817       1.98346166       5.96681580      -0.03243817      -0.04487801      -0.11820320
O        4.18778223       6.00240432       6.04704143       0.13110290      -0.08261468      -0.03797757
O        0.06127941       6.08762487       6.11286423       0.06127941       0.00260586       0.02784522
O        2.16831151      -0.08642891       2.05140244       0.13997184      -0.08642891       0.02306277
O        6.13360601       0.18034016       2.06366827       0.04858700       0.18034016       0.03532860
O        2.09833916       3.97255352       2.03863028       0.06999949      -0.08412582       0.01029062
O        6.00034566       4.16751865       1.99820719      -0.08467334       0.11083932      -0.03013247
O        2.04894296      -0.01334753       6.23672221       0.02060329      -0.01334753       0.15170320
O        6.07747098      -0.05939128       5.97521374      -0.00754802      -0.05939128      -0.10980526
O        1.96223461       4.02204867       6.18415072      -0.06610506      -0.03463066       0.09913172
O        6.13349984       4.18046975       5.95847408       0.04848084       0.12379042      -0.12654492
O        1.93377413       1.96915453       0.00467374      -0.09456554      -0.05918514       0.00467374
O        6.07402801       2.20262530      -0.07760025      -0.01099100       0.17428564      -0.07760025
O        2.16866101       6.03616356       0.10397593       0.14032134      -0.04885544       0.10397593
O        6.04052929       6.16532586       0.02301308      -0.04448971       0.08030686       0.02301308
O        2.05592109       2.03135401       4.19465288       0.02758142       0.00301434       0.13797355
O        6.14166012       2.19504981       4.03283501       0.05664112       0.16671015      -0.02384432
O        2.20564761       5.98101867       4.13351685       0.17730795      -0.10400033       0.07683751
O        6.05651411       6.17519690       3.92656517      -0.02850489       0.09017790      -0.13011417
40
Lattice="8.113358670559476 -9.48256209502453e-19 1.1856955918959047e-18 1.4731444131804922e-16 8.113358670559487 -2.1213857306241463e-14 -1.6492255695243405e-16 -1.8377179618236488e-14 8.113358670559476" Properties=species:S:1:pos:R:3:u_disp:R:3 system=knbo3_cubic base_model=mace_mp0 role=train_pool T=300.0 draw=6 n_tries=13 rms_disp_A=0.1677077581463217 min_pair_ratio=0.8608249337158427 nearest_heldout_A=0.16300805592068804 site_map_ok=1 nearest_heldout_src=knbo3_cubic_mattersim_q0-1d2-1d2-b0.extxyz#3 pbc="T T T"
K       -0.04620476      -0.04741792       0.03697558      -0.04620476      -0.04741792       0.03697558
K        3.96182756      -0.12259649      -0.06537486      -0.09485177      -0.12259649      -0.06537486
K        0.06949508       4.10119778      -0.10793750       0.06949508       0.04451844      -0.10793750
K        3.99010834       4.05505064       0.03799929      -0.06657099      -0.00162870       0.03799929
K       -0.02488657      -0.02678910       4.15688537      -0.02488657      -0.02678910       0.10020603
K        4.07185180      -0.00422687       4.12112333       0.01517247      -0.00422687       0.06444400
K        0.03141053       4.01818863       4.08696534       0.03141053      -0.03849070       0.03028601
K        4.13698552       4.14970793       3.96870443       0.08030619       0.09302860      -0.08797490
Nb       1.97482448       2.10092693       2.13374496      -0.05351519       0.07258726       0.10540530
Nb       5.98702525       2.01165728       2.04555773      -0.09799375      -0.01668239       0.01721806
Nb       2.06862117       6.09646868       2.03401212       0.04028151       0.01144968       0.00567245
Nb       6.11481148       6.13313224       2.00978927       0.02979248       0.04811324      -0.01855040
Nb       2.06488636       2.01285047       6.13296597       0.03654670      -0.01548920       0.04794697
Nb       6.15311633       2.02346340       6.07740178       0.06809732      -0.00487627      -0.00761723
Nb       1.96160180       6.11431771       6.01388645      -0.06673787       0.02929870      -0.07113255
Nb       6.05676691       6.05809737       6.14462634      -0.02825209      -0.02692163       0.05960734
O        4.07930044       2.10917526       1.88942095       0.02262111       0.08083559      -0.13891871
O        0.09690803       2.12345045       2.08463734       0.09690803       0.09511079       0.05629768
O        4.17271159       6.08041690       1.94802350       0.11603225      -0.00460210      -0.08031617
O        0.09241298       6.08950193       2.01027775       0.09241298       0.00448293      -0.01806192
O        3.87524280       2.12685942       6.15142810      -0.18143653       0.09851975       0.06640910
O       -0.14656355       2.09052381       5.95738093      -0.14656355       0.06218414      -0.12763807
O        4.21104173       5.96521211       6.04788430       0.15436239      -0.11980690      -0.03713471
O        0.07280025       6.11578327       6.00029159       0.07280025       0.03076427      -0.08472741
O        2.20690658      -0.08235235       2.25307526       0.17856692      -0.08235235       0.22473559
O        5.99156012      -0.00146012       1.81847015      -0.09345889      -0.00146012      -0.20986952
O        2.16662793       4.09480927       2.09814610       0.13828826       0.03812994       0.06980643
O        6.09515495       4.02565076       1.90365462       0.01013594      -0.03102858      -0.12468505
O        1.82601098       0.08269556       6.03666069      -0.20232869       0.08269556      -0.04835831
O        6.13259088      -0.04268435       6.22079745       0.04757187      -0.04268435       0.13577844
O        2.11612690       4.13675237       6.04723215       0.08778724       0.08007304      -0.03778685
O        6.09420729       3.93844766       5.83310106       0.00918829      -0.11823168      -0.25191794
O        1.79835724       1.82982549       0.07048839      -0.22998243      -0.19851418       0.07048839
O        6.19072383       2.05159421      -0.01858429       0.10570482       0.02325454      -0.01858429
O        2.03579647       5.98444465      -0.05532345       0.00745680      -0.10057435      -0.05532345
O        6.25655956       5.96739309      -0.23652853       0.17154056      -0.11762591      -0.23652853
O        2.03853076       1.96703814       4.20573946       0.01019109      -0.06130152       0.14906012
O        5.90222375       1.81606071       3.99231351      -0.18279526      -0.21227896      -0.06436583
O        2.14028968       6.23495634       4.11812248       0.11195002       0.14993734       0.06144315
O        6.19317935       6.11662000       3.93126231       0.10816034       0.03160100      -0.12541703
40
Lattice="8.113358670559476 -9.48256209502453e-19 1.1856955918959047e-18 1.4731444131804922e-16 8.113358670559487 -2.1213857306241463e-14 -1.6492255695243405e-16 -1.8377179618236488e-14 8.113358670559476" Properties=species:S:1:pos:R:3:u_disp:R:3 system=knbo3_cubic base_model=mace_mp0 role=train_pool T=300.0 draw=7 n_tries=13 rms_disp_A=0.1458942381294617 min_pair_ratio=0.8771006971978094 nearest_heldout_A=0.14253599505812764 site_map_ok=1 nearest_heldout_src=knbo3_cubic_sevennet0_q0-0-0-b0.extxyz#3 pbc="T T T"
K        0.02062414       0.07062056       0.13405470       0.02062414       0.07062056       0.13405470
K        4.09771627       0.09425931       0.07860404       0.04103694       0.09425931       0.07860404
K       -0.03816061       4.17777116      -0.09631922      -0.03816061       0.12109183      -0.09631922
K        4.13092816       3.92241049      -0.04985001       0.07424883      -0.13426884      -0.04985001
K       -0.11660847       0.00286528       3.80056212      -0.11660847       0.00286528      -0.25611722
K        3.96616588      -0.07511271       4.18354190      -0.09051346      -0.07511271       0.12686256
K       -0.08135777       4.14100874       4.05977409      -0.08135777       0.08432941       0.00309476
K        3.95316992       3.92857338       4.06381247      -0.10350941      -0.12810596       0.00713313
Nb       2.09276789       2.07257575       2.02065163       0.06442822       0.04423609      -0.00768803
Nb       6.09569801       2.07794166       2.03172475       0.01067901       0.04960200       0.00338508
Nb       2.12038934       6.06033247       1.94546560       0.09204967      -0.02468653      -0.08287407
Nb       6.07314468       6.14362926       2.00213096      -0.01187433       0.05861025      -0.02620871
Nb       2.01530628       2.00699178       6.15695265      -0.01303339      -0.02134789       0.07193365
Nb       6.10367685       2.03802998       6.04628139       0.01865784       0.00969031      -0.03873761
Nb       2.04435429       6.03187481       6.07742605       0.01601463      -0.05314419      -0.00759296
Nb       6.10641065       6.11622019       6.07949522       0.02139165       0.03120119      -0.00552378
O        4.00578102       1.97456343       1.84076465      -0.05089831      -0.05377624      -0.18757502
O        0.00113708       1.87445685       2.12324977       0.00113708      -0.15388282       0.09491010
O        4.01193355       5.96707790       2.03301262      -0.04474579      -0.11794110       0.00467296
O        0.03435756       6.07776384       2.17901173       0.03435756      -0.00725516       0.15067207
O        4.05937471       2.09497704       6.22897593       0.00269537       0.06663737       0.14395693
O       -0.04539507       1.97881962       6.10568119      -0.04539507      -0.04952004       0.02066219
O        4.09816210       6.07081083       6.05562508       0.04148276      -0.01420817      -0.02939392
O        0.03036701       6.11052419       6.13891681       0.03036701       0.02550518       0.05389781
O        2.17201257      -0.06439792       1.95960919       0.14367291      -0.06439792      -0.06873047
O        5.87462869      -0.08060596       2.16142698      -0.21039031      -0.08060596       0.13308731
O        2.15595551       4.02046147       2.05369260       0.12761584      -0.03621786       0.02535293
O        6.10241835       4.02884363       1.91853565       0.01739935      -0.02783571      -0.10980402
O        1.95203315       0.04218955       6.09450919      -0.07630652       0.04218955       0.00949018
O        6.04621712      -0.04793856       5.88871751      -0.03880189      -0.04793856      -0.19630149
O        1.90139187       4.14548788       6.18656300      -0.12694779       0.08880855       0.10154399
O        6.07652461       4.04642804       6.20351266      -0.00849439      -0.01025129       0.11849365
O        1.90463585       1.89838252       0.02148787      -0.12370382      -0.12995715       0.02148787
O        6.12489538       1.86713466       0.06181635       0.03987637      -0.16120501       0.06181635
O        2.09126506       6.10360024       0.12018930       0.06292539       0.01858124       0.12018930
O        6.03513332       6.22343610       0.03294581      -0.04988569       0.13841710       0.03294581
O        2.05917034       2.20515561       4.09619332       0.03083068       0.17681594       0.03951398
O        5.99658021       1.97982946       4.10467150      -0.08843879      -0.04851021       0.04799216
O        2.04468451       5.97884944       4.13600918       0.01634485      -0.10616957       0.07932985
O        5.96778753       6.00376543       4.05867397      -0.11723148      -0.08125358       0.00199463
40
Lattice="8.113358670559476 -9.48256209502453e-19 1.1856955918959047e-18 1.4731444131804922e-16 8.113358670559487 -2.1213857306241463e-14 -1.6492255695243405e-16 -1.8377179618236488e-14 8.113358670559476" Properties=species:S:1:pos:R:3:u_disp:R:3 system=knbo3_cubic base_model=mace_mp0 role=train_pool T=300.0 draw=8 n_tries=13 rms_disp_A=0.15698969285640024 min_pair_ratio=0.8946292868180653 nearest_heldout_A=0.15594139118718703 site_map_ok=1 nearest_heldout_src=knbo3_cubic_mattersim_q0-0-1d2-b0.extxyz#2 pbc="T T T"
K        0.23113640       0.03740209       0.02593691       0.23113640       0.03740209       0.02593691
K        3.94844382      -0.02142162      -0.08263640      -0.10823552      -0.02142162      -0.08263640
K        0.25191858       4.00120327       0.00170772       0.25191858      -0.05547606       0.00170772
K        3.96609526       4.17058669      -0.00961302      -0.09058407       0.11390735      -0.00961302
K       -0.02967731       0.13449860       4.27866510      -0.02967731       0.13449860       0.22198577
K        4.19755486      -0.16642050       4.02373952       0.14087552      -0.16642050      -0.03293982
K       -0.11430302       4.08728636       3.99956867      -0.11430302       0.03060703      -0.05711067
K        4.18883684       4.00550077       4.11330422       0.13215750      -0.05117857       0.05662488
Nb       2.00552691       1.97293003       2.19077150      -0.02281276      -0.05540963       0.16243183
Nb       6.11927104       1.99985878       1.95973370       0.03425204      -0.02848088      -0.06860597
Nb       2.03470966       6.11568483       2.06257316       0.00636999       0.03066582       0.03423349
Nb       6.10437883       6.02950416       1.93738194       0.01935983      -0.05551484      -0.09095772
Nb       2.00162597       2.05304544       6.06601889      -0.02671370       0.02470577      -0.01900012
Nb       6.05971071       2.09671109       6.07981970      -0.02530829       0.06837143      -0.00519931
Nb       1.94437142       6.03407007       6.06420754      -0.08396824      -0.05094893      -0.02081146
Nb       6.03577962       6.15430820       6.01256971      -0.04923938       0.06928920      -0.07244929
O        4.01457414       1.91150387       1.98712110      -0.04210520      -0.11683580      -0.04121857
O       -0.00581225       1.80497441       1.98990825      -0.00581225      -0.22336526      -0.03843142
O        4.08578315       5.80452774       1.96561997       0.02910381      -0.28049126      -0.06271970
O       -0.03175068       6.05805784       1.95050320      -0.03175068      -0.02696116      -0.07783646
O        4.06074390       2.14282297       6.05829393       0.00406457       0.11448331      -0.02672507
O       -0.01093756       2.03455723       6.16033485      -0.01093756       0.00621756       0.07531585
O        4.08419656       6.20591374       6.08172893       0.02751723       0.12089474      -0.00329008
O        0.04209770       6.06858006       6.04280036       0.04209770      -0.01643895      -0.04221865
O        2.07045170      -0.09332120       2.11782406       0.04211204      -0.09332120       0.08948440
O        6.18827351       0.04934762       2.09592980       0.10325451       0.04934762       0.06759013
O        1.96893260       3.94560264       2.21928664      -0.05940706      -0.11107670       0.19094697
O        6.19064936       4.06496027       1.96553764       0.10563036       0.00828094      -0.06280202
O        1.91523680       0.12999502       6.06838875      -0.11310287       0.12999502      -0.01663026
O        5.96638234       0.09183659       5.93669245      -0.11863666       0.09183659      -0.14832655
O        2.01936384       4.13620896       5.92210323      -0.00897583       0.07952962      -0.16291578
O        6.10691533       4.18785861       6.11129481       0.02189633       0.13117928       0.02627581
O        2.15046948       1.94357851      -0.02064939       0.12212982      -0.08476116      -0.02064939
O        6.13288039       1.96631363       0.10293285       0.04786138      -0.06202604       0.10293285
O        2.03394445       6.07116808       0.03907312       0.00560478      -0.01385092       0.03907312
O        6.16503975       6.27284356       0.01994135       0.08002074       0.18782456       0.01994135
O        1.96233548       2.08532918       4.09063826      -0.06600419       0.05698951       0.03395892
O        5.95509824       2.10695705       4.16344296      -0.12992076       0.07861738       0.10676362
O        1.93326355       6.03515584       4.14052310      -0.09507612      -0.04986316       0.08384377
O        5.98525588       6.03970152       4.08803368      -0.09976313      -0.04531748       0.03135435
40
Lattice="8.113358670559476 -9.48256209502453e-19 1.1856955918959047e-18 1.4731444131804922e-16 8.113358670559487 -2.1213857306241463e-14 -1.6492255695243405e-16 -1.8377179618236488e-14 8.113358670559476" Properties=species:S:1:pos:R:3:u_disp:R:3 system=knbo3_cubic base_model=mace_mp0 role=train_pool T=300.0 draw=9 n_tries=13 rms_disp_A=0.14601494247109156 min_pair_ratio=0.8584871954989357 nearest_heldout_A=0.14442993117224623 site_map_ok=1 nearest_heldout_src=knbo3_cubic_orb_v2_q1d2-0-0-b1.extxyz#3 pbc="T T T"
K       -0.01267435       0.06057666      -0.08060635      -0.01267435       0.06057666      -0.08060635
K        3.99147021       0.19509889      -0.00192282      -0.06520913       0.19509889      -0.00192282
K       -0.07267143       3.96456297      -0.00943961      -0.07267143      -0.09211637      -0.00943961
K        3.95131816       4.14580040       0.04208188      -0.10536117       0.08912106       0.04208188
K       -0.01315755      -0.01417968       4.09402421      -0.01315755      -0.01417968       0.03734487
K        4.05335647       0.10030271       4.07844021      -0.00332286       0.10030271       0.02176088
K       -0.05521651       4.12677852       4.04381008      -0.05521651       0.07009918      -0.01286925
K        4.14545141       3.91677326       4.03360945       0.08877207      -0.13990607      -0.02306989
Nb       1.99513469       1.99560469       2.02370775      -0.03320498      -0.03273498      -0.00463192
Nb       6.11281020       2.03406004       1.96050468       0.02779120       0.00572037      -0.06783499
Nb       2.06892310       6.01382609       2.08742162       0.04058343      -0.07119291       0.05908195
Nb       6.13280136       6.10374163       2.02627660       0.04778235       0.01872263      -0.00206307
Nb       2.02802606       2.07976909       6.06073316      -0.00031360       0.05142942      -0.02428584
Nb       5.98189976       2.03245712       6.02162991      -0.10311925       0.00411745      -0.06338909
Nb       2.05639699       6.06121453       6.16544469       0.02805732      -0.02380447       0.08042569
Nb       6.05263180       6.06898786       6.13808228      -0.03238721      -0.01603114       0.05306328
O        4.02788025       2.03963126       1.85081620      -0.02879909       0.01129159      -0.17752347
O        0.02401577       1.97521340       1.98219572       0.02401577      -0.05312627      -0.04614395
O        4.06097492       6.11462348       2.26506153       0.00429559       0.02960447       0.23672186
O       -0.01755918       5.98619763       1.96874125      -0.01755918      -0.09882137      -0.05959842
O        4.10764487       2.02536629       6.07974435       0.05096553      -0.00297338      -0.00527466
O        0.02867040       2.09929978       5.90314556       0.02867040       0.07096011      -0.18187344
O        4.06866505       6.14101358       6.22297556       0.01198572       0.05599458       0.13795656
O        0.02712068       5.94055089       6.28243616       0.02712068      -0.14446812       0.19741715
O        2.10571663      -0.06405919       2.00404078       0.07737696      -0.06405919      -0.02429889
O        6.07280558      -0.03728667       1.93081852      -0.01221342      -0.03728667      -0.09752114
O        2.14306299       3.99706602       2.07056789       0.11472332      -0.05961332       0.04222822
O        6.26703221       4.07113603       1.90277607       0.18201321       0.01445670      -0.12556360
O        2.06082940      -0.04720313       6.18671666       0.03248973      -0.04720313       0.10169765
O        6.20817112       0.03026053       6.04845610       0.12315212       0.03026053      -0.03656291
O        2.05266746       3.93394459       5.92296630       0.02432779      -0.12273474      -0.16205270
O        6.00806970       4.06244040       6.21942565      -0.07694930       0.00576107       0.13440665
O        2.07719747       2.02428231      -0.03901997       0.04885781      -0.00405735      -0.03901997
O        6.15944425       2.13967010      -0.10411019       0.07442525       0.11133043      -0.10411019
O        2.17036964       5.84591357      -0.00389912       0.14202998      -0.23910543      -0.00389912
O        5.85426344       6.24930746       0.07494251      -0.23075556       0.16428845       0.07494251
O        2.15915932       1.94288918       4.00295998       0.13081966      -0.08545049      -0.05371936
O        6.09873275       2.07659984       4.00848399       0.01371375       0.04826018      -0.04819535
O        2.03037783       6.12061564       4.13836441       0.00203817       0.03559664       0.08168507
O        6.06601070       6.17908267       4.10394675      -0.01900830       0.09406367       0.04726741
40
Lattice="8.113358670559476 -9.48256209502453e-19 1.1856955918959047e-18 1.4731444131804922e-16 8.113358670559487 -2.1213857306241463e-14 -1.6492255695243405e-16 -1.8377179618236488e-14 8.113358670559476" Properties=species:S:1:pos:R:3:u_disp:R:3 system=knbo3_cubic base_model=mace_mp0 role=train_pool T=300.0 draw=10 n_tries=13 rms_disp_A=0.15235839158246803 min_pair_ratio=0.8735725368029525 nearest_heldout_A=0.1501083722063279 site_map_ok=1 nearest_heldout_src=knbo3_cubic_mace_mp0_q0-0-1d2-b0.extxyz#3 pbc="T T T"
K        0.02658491       0.12872792       0.06897020       0.02658491       0.12872792       0.06897020
K        4.07928327      -0.03349378      -0.04032514       0.02260393      -0.03349378      -0.04032514
K       -0.00998755       4.22134961       0.06496952      -0.00998755       0.16467027       0.06496952
K        4.07757883       3.94515144      -0.01383348       0.02089950      -0.11152789      -0.01383348
K       -0.08863549       0.09888301       4.12571165      -0.08863549       0.09888301       0.06903232
K        3.94497565      -0.00833471       4.05832832      -0.11170369      -0.00833471       0.00164898
K        0.10129073       4.13475797       4.07565997       0.10129073       0.07807863       0.01898064
K        3.96462195       3.96487757       3.98905458      -0.09205739      -0.09180177      -0.06762476
Nb       2.01207692       1.96455144       2.04999325      -0.01626275      -0.06378823       0.02165358
Nb       6.15239121       2.05323512       2.02587481       0.06737221       0.02489546      -0.00246486
Nb       2.03361970       6.05193272       1.99681357       0.00528003      -0.03308628      -0.03152609
Nb       6.11215151       6.14233935       2.06597976       0.02713250       0.05732035       0.03764009
Nb       2.04793313       2.00637915       6.12408670       0.01959346      -0.02196051       0.03906769
Nb       6.14391765       2.07229090       6.06310121       0.05889865       0.04395123      -0.02191780
Nb       1.97748808       5.98896063       6.08643920      -0.05085159      -0.09605837       0.00142020
Nb       6.07042626       6.11614661       6.07373561      -0.01459275       0.03112761      -0.01128339
O        4.01217013       1.92402980       1.92948451      -0.04450920      -0.10430987      -0.09885516
O       -0.06637552       2.04123198       2.17198550      -0.06637552       0.01289231       0.14364583
O        3.91653647       6.08604033       2.03041818      -0.14014287       0.00102132       0.00207852
O       -0.01752106       6.14726396       2.09587502      -0.01752106       0.06224496       0.06753535
O        4.03119313       1.85072865       5.91419955      -0.02548620      -0.17761102      -0.17081945
O       -0.01694168       2.24473387       5.89178043      -0.01694168       0.21639420      -0.19323857
O        4.11645657       5.98668375       6.19932513       0.05977724      -0.09833526       0.11430613
O        0.12859969       6.00078003       6.06179815       0.12859969      -0.08423897      -0.02322085
O        1.87633296       0.02803207       1.86540338      -0.15200671       0.02803207      -0.16293629
O        6.04115897       0.03124884       1.99665339      -0.04386004       0.03124884      -0.03168628
O        1.97789250       4.12093497       2.14748898      -0.05044717       0.06425563       0.11914931
O        6.16809845       4.19513587       2.20605679       0.08307945       0.13845653       0.17771713
O        1.87025286      -0.00125095       6.21816614      -0.15808681      -0.00125095       0.13314714
O        6.22081457      -0.15249562       6.09042900       0.13579557      -0.15249562       0.00541000
O        2.12119345       3.91387501       5.91740297       0.09285378      -0.14280432      -0.16761603
O        6.08509544       4.07483629       6.02559253       0.00007644       0.01815696      -0.05942647
O        1.99871817       2.14308778      -0.07627478      -0.02962150       0.11474811      -0.07627478
O        6.21840294       2.02545581      -0.11078383       0.13338394      -0.00288385      -0.11078383
O        1.87625755       5.86940199      -0.00765961      -0.15208212      -0.21561702      -0.00765961
O        6.16384188       6.11435316       0.00026166       0.07882288       0.02933415       0.00026166
O        2.07385050       1.90077816       3.94171445       0.04551083      -0.12756150      -0.11496489
O        6.10741433       2.12858574       3.98748590       0.02239533       0.10024607      -0.06919344
O        2.01993251       6.08706079       4.09874266      -0.00840716       0.00204178       0.04206332
O        5.96958580       6.15718942       4.09998119      -0.11543320       0.07217041       0.04330186
40
Lattice="8.113358670559476 -9.48256209502453e-19 1.1856955918959047e-18 1.4731444131804922e-16 8.113358670559487 -2.1213857306241463e-14 -1.6492255695243405e-16 -1.8377179618236488e-14 8.113358670559476" Properties=species:S:1:pos:R:3:u_disp:R:3 system=knbo3_cubic base_model=mace_mp0 role=train_pool T=300.0 draw=11 n_tries=13 rms_disp_A=0.15771148500105206 min_pair_ratio=0.8658820409481954 nearest_heldout_A=0.15655262393321345 site_map_ok=1 nearest_heldout_src=knbo3_cubic_mattersim_q0-1d2-1d2-b0.extxyz#2 pbc="T T T"
K       -0.21122750       0.00723153      -0.03419385      -0.21122750       0.00723153      -0.03419385
K        4.13575260       0.06719493       0.06445459       0.07907326       0.06719493       0.06445459
K        0.02550354       4.13524651      -0.06032794       0.02550354       0.07856717      -0.06032794
K        4.05737867       4.05694920      -0.05146153       0.00069933       0.00026986      -0.05146153
K        0.09453646       0.01253785       4.00056784       0.09453646       0.01253785      -0.05611149
K        4.20273990      -0.08159697       4.20469681       0.14606057      -0.08159697       0.14801747
K        0.21937848       3.96265386       4.06185109       0.21937848      -0.09402548       0.00517176
K        4.02391384       4.12367071       4.08815272      -0.03276550       0.06699137       0.03147338
Nb       2.02910793       1.98246921       2.05911498       0.00076826      -0.04587045       0.03077531
Nb       6.00056947       2.05396164       2.08770661      -0.08444953       0.02562198       0.05936694
Nb       2.03726781       6.09545008       1.92269653       0.00892814       0.01043107      -0.10564314
Nb       6.09517848       6.01422724       2.00962496       0.01015948      -0.07079177      -0.01871471
Nb       2.06691091       2.00980966       6.14250334       0.03857125      -0.01853001       0.05748434
Nb       6.11937178       2.10819072       6.11813915       0.03435277       0.07985105       0.03312015
Nb       2.02532932       6.18873698       6.06199569      -0.00301035       0.10371798      -0.02302331
Nb       6.05464953       6.04832285       6.08115951      -0.03036947      -0.03669615      -0.00385949
O        4.06858925       2.05736976       2.01139254       0.01190992       0.02903009      -0.01694713
O        0.04481664       1.99072852       1.99431266       0.04481664      -0.03761115      -0.03402701
O        3.95090687       5.90530173       2.19801178      -0.10577246      -0.17971727       0.16967211
O       -0.16347095       6.18198921       2.06545245      -0.16347095       0.09697021       0.03711278
O        4.04337956       2.17773758       6.13721173      -0.01329978       0.14939792       0.05219273
O        0.01743292       2.09218331       5.97452111       0.01743292       0.06384364      -0.11049789
O        3.99463481       6.04859736       5.97816534      -0.06204453      -0.03642164      -0.10685367
O       -0.10750784       6.26044560       6.27727517      -0.10750784       0.17542659       0.19225617
O        2.06183679      -0.09175488       1.77139358       0.03349712      -0.09175488      -0.25694609
O        5.83902012       0.03604209       1.98568353      -0.24599888       0.03604209      -0.04265614
O        1.87849924       4.07124117       1.88704335      -0.14984043       0.01456184      -0.14129632
O        6.18177960       4.07694093       2.02055157       0.09676060       0.02026159      -0.00778810
O        2.04887052      -0.06478010       5.89653945       0.02053085      -0.06478010      -0.18847956
O        6.11146503      -0.03714588       6.01456267       0.02644603      -0.03714588      -0.07045633
O        1.96341136       4.04112229       5.99294775      -0.06492831      -0.01555704      -0.09207125
O        6.18746707       3.97124430       6.24451337       0.10244807      -0.08543504       0.15949436
O        2.03682634       1.95847964      -0.07219794       0.00848667      -0.06986003      -0.07219794
O        6.17505073       1.96171106      -0.01072882       0.09003173      -0.06662861      -0.01072882
O        1.99675599       6.16911617       0.11813807      -0.03158368       0.08409717       0.11813807
O        5.87167111       5.95136815       0.07443638      -0.21334789      -0.13365085       0.07443638
O        2.05968193       1.95270115       3.97135569       0.03134226      -0.07563851      -0.08532365
O        6.17790165       2.04669549       4.08877874       0.09288265       0.01835582       0.03209940
O        1.90190966       5.95854820       4.12893192      -0.12643001      -0.12647081       0.07225259
O        6.15304595       6.00081162       4.09904648       0.06802694      -0.08420739       0.04236715
40
Lattice="8.113358670559476 -9.48256209502453e-19 1.1856955918959047e-18 1.4731444131804922e-16 8.113358670559487 -2.1213857306241463e-14 -1.6492255695243405e-16 -1.8377179618236488e-14 8.113358670559476" Properties=species:S:1:pos:R:3:u_disp:R:3 system=knbo3_cubic base_model=mace_mp0 role=train_pool T=300.0 draw=12 n_tries=13 rms_disp_A=0.14368813940985803 min_pair_ratio=0.9002301562433961 nearest_heldout_A=0.14243735855459638 site_map_ok=1 nearest_heldout_src=knbo3_cubic_orb_v2_q0-1d2-0-b1.extxyz#2 pbc="T T T"
K       -0.18131493      -0.00085425      -0.12606302      -0.18131493      -0.00085425      -0.12606302
K        4.05280056      -0.00569470      -0.04681594      -0.00387878      -0.00569470      -0.04681594
K       -0.18563605       4.16615252      -0.09348772      -0.18563605       0.10947318      -0.09348772
K        4.04634096       3.92107850       0.12059337      -0.01033837      -0.13560084       0.12059337
K       -0.04409356      -0.03998895       4.11601017      -0.04409356      -0.03998895       0.05933084
K        4.14350344       0.04472923       4.09072588       0.08682411       0.04472923       0.03404654
K        0.01835551       4.00069408       3.91628767       0.01835551      -0.05598526      -0.14039166
K        4.02649165       4.05689147       4.01685766      -0.03018769       0.00021213      -0.03982167
Nb       2.00898738       2.02743760       2.06050993      -0.01935229      -0.00090207       0.03217026
Nb       6.08747565       1.91378719       2.02201147       0.00245665      -0.11455248      -0.00632819
Nb       2.05678120       6.04901922       1.93673117       0.02844154      -0.03599978      -0.09160849
Nb       6.07265746       6.05651853       2.08589044      -0.01236154      -0.02850047       0.05755077
Nb       1.97233250       2.10834215       6.09582917      -0.05600716       0.08000249       0.01081016
Nb       6.04835265       2.06071664       6.10507190      -0.03666635       0.03237697       0.02005289
Nb       2.08218644       6.18804036       6.10127856       0.05384677       0.10302135       0.01625955
Nb       6.14813026       6.08076079       6.12884697       0.06311126      -0.00425821       0.04382797
O        4.10619552       1.97718716       1.99176732       0.04951618      -0.05115251      -0.03657235
O       -0.01028706       1.97907303       2.03065329      -0.01028706      -0.04926664       0.00231362
O        4.09198244       6.09917023       2.06806973       0.03530310       0.01415123       0.03973006
O        0.04107621       6.06752189       1.92072331       0.04107621      -0.01749712      -0.10761636
O        4.14490693       1.88653986       6.14327110       0.08822760      -0.14179980       0.05825210
O        0.14716976       2.16149912       6.10727481       0.14716976       0.13315945       0.02225580
O        4.18262188       6.20723067       6.12195068       0.12594254       0.12221167       0.03693168
O        0.00953219       6.07637966       6.16594046       0.00953219      -0.00863934       0.08092146
O        1.96133706      -0.06790393       2.10286753      -0.06700260      -0.06790393       0.07452786
O        5.98070562       0.01951528       2.10412506      -0.10431339       0.01951528       0.07578539
O        2.14370221       3.91155316       1.89253737       0.11536254      -0.14512617      -0.13580229
O        6.11961685       4.09850310       1.96838002       0.03459785       0.04182377      -0.05995965
O        2.08512480       0.02443254       5.94217066       0.05678513       0.02443254      -0.14284834
O        6.21045155      -0.03419364       6.04471602       0.12543254      -0.03419364      -0.04030298
O        2.02271004       4.15599330       6.32902343      -0.00562962       0.09931397       0.24400443
O        5.95695052       4.01727401       6.09888614      -0.12806848      -0.03940533       0.01386714
O        1.92527688       1.92569900      -0.03264474      -0.10306278      -0.10264066      -0.03264474
O        6.15493694       1.91396098      -0.02058422       0.06991794      -0.11437868      -0.02058422
O        2.03435861       6.32722164       0.08606014       0.00601894       0.24220264       0.08606014
O        6.10153782       6.12586705       0.02013037       0.01651882       0.04084805       0.02013037
O        2.02878889       2.21464676       3.96248534       0.00044922       0.18630709      -0.09419399
O        6.21199648       2.00633520       4.01679748       0.12697748      -0.02200447      -0.03988186
O        2.04293524       5.89211835       4.11373626       0.01459557      -0.19290065       0.05705692
O        6.15964527       6.17142264       4.04325402       0.07462627       0.08640364      -0.01342532
40
Lattice="8.113358670559476 -9.48256209502453e-19 1.1856955918959047e-18 1.4731444131804922e-16 8.113358670559487 -2.1213857306241463e-14 -1.6492255695243405e-16 -1.8377179618236488e-14 8.113358670559476" Properties=species:S:1:pos:R:3:u_disp:R:3 system=knbo3_cubic base_model=mace_mp0 role=train_pool T=600.0 draw=0 n_tries=14 rms_disp_A=0.17876252255716202 min_pair_ratio=0.8461473778650354 nearest_heldout_A=0.17562306816242773 site_map_ok=1 nearest_heldout_src=knbo3_cubic_mace_mp0_q0-0-1d2-b0.extxyz#3 pbc="T T T"
K        0.06557206       0.03461578       0.05367651       0.06557206       0.03461578       0.05367651
K        4.14340924      -0.04598067       0.19301967       0.08672990      -0.04598067       0.19301967
K        0.07948087       3.97085624      -0.03373701       0.07948087      -0.08582310      -0.03373701
K        4.04946125       3.91710191      -0.07213711      -0.00721809      -0.13957742      -0.07213711
K        0.08612119       0.00475868       3.92207102       0.08612119       0.00475868      -0.13460831
K        4.01783331       0.10378391       4.07975592      -0.03884603       0.10378391       0.02307659
K       -0.21891532       4.21949880       4.09173562      -0.21891532       0.16281947       0.03505629
K        4.02579202       3.87279306       3.99125116      -0.03088731      -0.18388628      -0.06542818
Nb       1.98873338       2.09093656       1.99246864      -0.03960629       0.06259689      -0.03587102
Nb       6.06759938       2.03241430       2.03778236      -0.01741962       0.00407463       0.00944269
Nb       2.06797125       6.17408085       2.01015794       0.03963158       0.08906185      -0.01818173
Nb       6.14051942       6.13408338       1.95225136       0.05550041       0.04906437      -0.07608831
Nb       2.05064356       1.92089102       6.04610672       0.02230389      -0.10744864      -0.03891229
Nb       6.06644521       2.12405089       6.12754844      -0.01857379       0.09571122       0.04252944
Nb       2.04901202       6.01136294       6.10951372       0.02067235      -0.07365606       0.02449472
Nb       5.97772459       6.16039840       6.11048928      -0.10729441       0.07537940       0.02547028
O        4.13369145       1.93937582       1.98687149       0.07701212      -0.08896385      -0.04146818
O        0.04798724       2.04526218       2.22005093       0.04798724       0.01692251       0.19171126
O        3.96341305       6.23306987       2.01871089      -0.09326629       0.14805087      -0.00962878
O       -0.15917859       6.22471814       1.86879822      -0.15917859       0.13969914      -0.15954145
O        4.12821695       2.06149924       6.05889622       0.07153761       0.03315958      -0.02612278
O        0.14175504       2.09639230       6.02610718       0.14175504       0.06805263      -0.05891182
O        4.04906665       5.89523282       6.03285828      -0.00761268      -0.18978618      -0.05216072
O       -0.04555451       6.10808386       5.99966806      -0.04555451       0.02306486      -0.08535094
O        1.93503260      -0.14080071       2.09923719      -0.09330707      -0.14080071       0.07089753
O        5.98838898      -0.09330341       2.20551431      -0.09663003      -0.09330341       0.17717464
O        2.15016900       4.03339782       1.80163305       0.12182934      -0.02328152      -0.22670662
O        6.00991397       3.98046161       1.86631673      -0.07510503      -0.07621772      -0.16202294
O        2.21929645      -0.03506306       6.07412097       0.19095678      -0.03506306      -0.01089804
O        6.04078751       0.02501324       6.08886885      -0.04423149       0.02501324       0.00384984
O        2.18266306       3.97639925       6.27750112       0.15432340      -0.08028009       0.19248212
O        6.05786537       3.95342392       6.24276567      -0.02715363      -0.10325541       0.15774666
O        1.96041561       1.83701505       0.08160394      -0.06792406      -0.19132462       0.08160394
O        6.18219205       1.73297570       0.11183768       0.09717304      -0.29536397       0.11183768
O        2.01751336       6.07475355       0.05198248      -0.01082631      -0.01026546       0.05198248
O        5.94254319       6.23745841       0.02216527      -0.14247582       0.15243941       0.02216527
O        2.13687334       2.09209708       3.97595071       0.10853367       0.06375742      -0.08072862
O        6.14219460       2.27640965       4.13050970       0.05717560       0.24806998       0.07383036
O        1.98165050       5.92429794       4.17213118      -0.04668916      -0.16072106       0.11545184
O        6.13290216       5.88915815       4.11186456       0.04788315      -0.19586085       0.05518523
40
Lattice="8.113358670559476 -9.48256209502453e-19 1.1856955918959047e-18 1.4731444131804922e-16 8.113358670559487 -2.1213857306241463e-14 -1.6492255695243405e-16 -1.8377179618236488e-14 8.113358670559476" Properties=species:S:1:pos:R:3:u_disp:R:3 system=knbo3_cubic base_model=mace_mp0 role=train_pool T=600.0 draw=1 n_tries=14 rms_disp_A=0.19185366443569676 min_pair_ratio=0.841523660363514 nearest_heldout_A=0.1873182106312258 site_map_ok=1 nearest_heldout_src=knbo3_cubic_sevennet0_q0-0-1d2-b0.extxyz#3 pbc="T T T"
K        0.06405261       0.17446447       0.05709880       0.06405261       0.17446447       0.05709880
K        4.25054412      -0.08983777      -0.03830544       0.19386478      -0.08983777      -0.03830544
K        0.08028868       3.87926437      -0.03018045       0.08028868      -0.17741497      -0.03018045
K        3.95960655       4.09370016       0.24780116      -0.09707278       0.03702083       0.24780116
K        0.18406302       0.01931446       4.24744229       0.18406302       0.01931446       0.19076296
K        4.12540352       0.04494382       4.10994528       0.06872419       0.04494382       0.05326595
K        0.08866709       4.13567518       3.81208273       0.08866709       0.07899585      -0.24459660
K        3.85394030       3.97392618       4.05773080      -0.20273904      -0.08275316       0.00105147
Nb       2.04969323       2.07908460       1.98057296       0.02135357       0.05074493      -0.04776671
Nb       6.07970875       2.00093262       2.08088445      -0.00531026      -0.02740705       0.05254478
Nb       1.99593753       6.12860243       1.99186491      -0.03240213       0.04358343      -0.03647476
Nb       6.01742822       6.03861464       1.98810208      -0.06759078      -0.04640437      -0.04023759
Nb       2.03211804       1.87231648       6.14347448       0.00377838      -0.15602318       0.05845547
Nb       6.13196855       2.13841707       6.08076922       0.04694955       0.11007740      -0.00424978
Nb       1.93936906       5.94876039       6.04492739      -0.08897061      -0.13625861      -0.04009162
Nb       6.07143795       6.22361647       5.93949031      -0.01358105       0.13859746      -0.14552869
O        4.24622649       2.14146673       2.18815959       0.18954715       0.11312707       0.15981992
O        0.26725647       2.20208336       2.04882575       0.26725647       0.17374369       0.02048609
O        4.04086915       6.23671272       2.03209510      -0.01581018       0.15169371       0.00375544
O       -0.06996411       6.30613173       1.89362412      -0.06996411       0.22111273      -0.13471554
O        3.97173354       1.97053041       6.05028354      -0.08494579      -0.05780926      -0.03473546
O       -0.11117397       2.12785113       6.24265675      -0.11117397       0.09951146       0.15763775
O        3.99990844       5.89132255       6.06392668      -0.05677089      -0.19369645      -0.02109232
O       -0.07547358       6.10597957       5.91225108      -0.07547358       0.02096056      -0.17276792
O        2.14128469      -0.01575679       2.11703788       0.11294502      -0.01575679       0.08869821
O        5.92372457       0.10018490       2.19969466      -0.16129443       0.10018490       0.17135499
O        2.16088397       3.95425525       1.85159008       0.13254430      -0.10242408      -0.17674959
O        5.97521314       4.25352357       2.09012315      -0.10980587       0.19684424       0.06178348
O        2.04597069      -0.07261138       6.14165762       0.01763102      -0.07261138       0.05663862
O        6.05138715       0.02591703       5.94971673      -0.03363185       0.02591703      -0.13530227
O        1.98913293       3.98217642       6.24872327      -0.03920674      -0.07450292       0.16370426
O        6.07770130       3.92315599       6.14810302      -0.00731771      -0.13352334       0.06308402
O        2.09378930       1.92727372       0.09520066       0.06544963      -0.10106595       0.09520066
O        6.20707519       1.79598917       0.02304657       0.12205619      -0.23235049       0.02304657
O        1.83485595       5.96763175      -0.02269224      -0.19348372      -0.11738725      -0.02269224
O        6.09733588       6.23876827       0.02247221       0.01231688       0.15374926       0.02247221
O        1.97242896       2.05304670       4.17275380      -0.05591071       0.02470704       0.11607446
O        6.15349496       2.06433888       4.01183405       0.06847596       0.03599921      -0.04484529
O        2.01348151       5.92671689       4.07097803      -0.01485816      -0.15830212       0.01429870
O        5.98661244       6.14941112       4.18342885      -0.09840656       0.06439211       0.12674951
40
Lattice="8.113358670559476 -9.48256209502453e-19 1.1856955918959047e-18 1.4731444131804922e-16 8.113358670559487 -2.1213857306241463e-14 -1.6492255695243405e-16 -1.8377179618236488e-14 8.113358670559476" Properties=species:S:1:pos:R:3:u_disp:R:3 system=knbo3_cubic base_model=mace_mp0 role=train_pool T=600.0 draw=2 n_tries=14 rms_disp_A=0.20233641535123623 min_pair_ratio=0.8100504150178419 nearest_heldout_A=0.20130917949959176 site_map_ok=1 nearest_heldout_src=knbo3_cubic_mattersim_q0-1d2-1d2-b0.extxyz#2 pbc="T T T"
K        0.00030477       0.05023268      -0.08333229       0.00030477       0.05023268      -0.08333229
K        4.04591691      -0.04276860      -0.21005765      -0.01076243      -0.04276860      -0.21005765
K        0.13886918       4.11381080       0.30724545       0.13886918       0.05713147       0.30724545
K        4.29742153       3.89694171      -0.21350548       0.24074220      -0.15973763      -0.21350548
K       -0.13385726       0.07902089       4.22632285      -0.13385726       0.07902089       0.16964352
K        4.03156328      -0.03545743       3.96114590      -0.02511605      -0.03545743      -0.09553343
K        0.22765352       4.01797470       4.06891886       0.22765352      -0.03870464       0.01223953
K        4.10749271       4.04902346       4.11668232       0.05081338      -0.00765588       0.06000298
Nb       2.03406373       2.06426454       2.08224423       0.00572406       0.03592488       0.05390456
Nb       6.07502566       2.03694183       2.11247981      -0.00999335       0.00860216       0.08414015
Nb       2.07568723       6.01730436       1.95070841       0.04734756      -0.06771464      -0.07763126
Nb       6.02800697       6.06916310       1.99326260      -0.05701204      -0.01585590      -0.03507706
Nb       2.10981651       2.13003187       6.26176189       0.08147684       0.10169220       0.17674289
Nb       6.08562214       2.04244974       6.06364833       0.00060314       0.01411007      -0.02137067
Nb       1.93466185       6.14251171       6.01413480      -0.09367781       0.05749270      -0.07088421
Nb       6.01816605       6.02986271       6.05574156      -0.06685295      -0.05515629      -0.02927744
O        4.12761868       1.98689537       2.15172705       0.07093934      -0.04144429       0.12338738
O       -0.05241136       1.94681314       2.21679032      -0.05241136      -0.08152653       0.18845066
O        4.00701609       6.02242669       1.94640463      -0.04966325      -0.06259231      -0.08193503
O       -0.01306343       6.09850098       1.87861272      -0.01306343       0.01348197      -0.14972695
O        4.03864517       2.36075633       6.17577534      -0.01803416       0.33241666       0.09075634
O       -0.13619483       2.25132452       6.23847071      -0.13619483       0.22298485       0.15345170
O        4.06635594       6.18655278       6.08484818       0.00967660       0.10153377      -0.00017083
O       -0.03458686       6.34862288       5.90945560      -0.03458686       0.26360388      -0.17556341
O        2.18045762      -0.10472453       1.98706284       0.15211796      -0.10472453      -0.04127682
O        6.04739322      -0.15131991       2.06885719      -0.03762578      -0.15131991       0.04051752
O        1.94166834       3.92775449       1.97907492      -0.08667132      -0.12892485      -0.04926474
O        6.13185737       4.08839919       1.95222696       0.04683837       0.03171986      -0.07611271
O        2.11894340      -0.06711064       6.10253697       0.09060373      -0.06711064       0.01751796
O        5.84061415       0.13163983       6.26188145      -0.24440486       0.13163983       0.17686245
O        1.96083386       3.94771853       6.05830294      -0.06750581      -0.10896080      -0.02671607
O        6.04514700       4.09472644       6.01031945      -0.03987201       0.03804711      -0.07469955
O        2.07867347       2.08572740      -0.01304512       0.05033380       0.05738773      -0.01304512
O        5.99343021       2.02639176       0.03481472      -0.09158879      -0.00194791       0.03481472
O        1.98282782       5.74359861      -0.17338316      -0.04551185      -0.34142039      -0.17338316
O        6.00020209       5.92050874      -0.01315275      -0.08481691      -0.16451026      -0.01315275
O        1.74029540       1.98994539       3.84948953      -0.28804426      -0.03839428      -0.20718981
O        6.22540685       2.05633674       4.06004355       0.14038784       0.02799707       0.00336421
O        2.19886547       5.91860463       3.90988477       0.17052581      -0.16641438      -0.14679456
O        5.98593110       6.10353950       4.11910712      -0.09908790       0.01852050       0.06242778
40
Lattice="8.113358670559476 -9.48256209502453e-19 1.1856955918959047e-18 1.4731444131804922e-16 8.113358670559487 -2.1213857306241463e-14 -1.6492255695243405e-16 -1.8377179618236488e-14 8.113358670559476" Properties=species:S:1:pos:R:3:u_disp:R:3 system=knbo3_cubic base_model=mace_mp0 role=train_pool T=600.0 draw=3 n_tries=14 rms_disp_A=0.20466091989489166 min_pair_ratio=0.8472269043172519 nearest_heldout_A=0.201163284122642 site_map_ok=1 nearest_heldout_src=knbo3_cubic_mace_mp0_q0-1d2-1d2-b0.extxyz#3 pbc="T T T"
K        0.16555506       0.07896278      -0.12753934       0.16555506       0.07896278      -0.12753934
K        4.01683253      -0.20505367      -0.08574954      -0.03984680      -0.20505367      -0.08574954
K        0.07328518       4.15277824      -0.12352501       0.07328518       0.09609891      -0.12352501
K        4.19583326       3.80374349       0.05523247       0.13915393      -0.25293585       0.05523247
K        0.12807968      -0.00810422       4.10656845       0.12807968      -0.00810422       0.04988911
K        4.10355392       0.27343617       4.25416633       0.04687459       0.27343617       0.19748699
K       -0.00656634       4.06165971       4.06865474      -0.00656634       0.00498038       0.01197540
K        3.94205871       3.86194635       3.76571350      -0.11462062      -0.19473298      -0.29096584
Nb       2.19198524       2.08237255       2.00292637       0.16364557       0.05403288      -0.02541330
Nb       6.15863818       1.96370270       2.07673019       0.07361918      -0.06463697       0.04839052
Nb       1.87675616       6.09602110       2.10658091      -0.15158351       0.01100210       0.07824124
Nb       5.92427158       6.01678599       1.97223563      -0.16074743      -0.06823301      -0.05610404
Nb       2.04242224       2.13800417       6.13341066       0.01408257       0.10966451       0.04839166
Nb       6.02014540       1.99489216       6.13327881      -0.06487361      -0.03344751       0.04825981
Nb       2.00784953       6.13611823       6.13993327      -0.02049014       0.05109923       0.05491426
Nb       6.05633280       6.02944078       6.06955189      -0.02868621      -0.05557822      -0.01546711
O        4.05404595       2.02929255       2.04140931      -0.00263339       0.00095288       0.01306964
O       -0.05319457       1.84358676       2.04573593      -0.05319457      -0.18475291       0.01739626
O        4.11961632       5.89643586       1.96181332       0.06293699      -0.18858314      -0.06652635
O        0.05593790       6.06526332       2.14241945       0.05593790      -0.01975568       0.11407978
O        4.10357335       1.91815463       6.30550331       0.04689401      -0.11018504       0.22048431
O       -0.01366098       2.19603241       6.19382929      -0.01366098       0.16769275       0.10881029
O        4.04392109       6.33590665       6.06945222      -0.01275825       0.25088765      -0.01556678
O       -0.11600271       6.27005423       5.85970852      -0.11600271       0.18503523      -0.22531048
O        2.21270181       0.04389290       2.12305314       0.18436214       0.04389290       0.09471347
O        6.13942553      -0.12711085       1.79428774       0.05440653      -0.12711085      -0.23405193
O        2.09726151       4.10831450       2.03059805       0.06892184       0.05163517       0.00225838
O        5.93077847       3.98405251       2.09670810      -0.15424053      -0.07262683       0.06836843
O        1.78515034       0.11175154       6.17417018      -0.24318933       0.11175154       0.08915118
O        6.13630906       0.17134896       5.89429827       0.05129006       0.17134896      -0.19072074
O        2.11558118       4.06691058       6.21142960       0.08724151       0.01023124       0.12641060
O        6.07437681       4.15708287       5.99874408      -0.01064219       0.10040353      -0.08627492
O        2.14421017       2.17263260       0.11543947       0.11587051       0.14429294       0.11543947
O        5.89945761       2.00766359      -0.00832051      -0.18556140      -0.02067608      -0.00832051
O        2.03490106       6.12623581      -0.08256195       0.00656139       0.04121681      -0.08256195
O        6.10007435       5.95780427      -0.24462588       0.01505534      -0.12721473      -0.24462588
O        2.13860817       2.22023288       4.14561645       0.11026851       0.19189321       0.08893711
O        6.01470635       2.03582980       4.08555426      -0.07031265       0.00749013       0.02887492
O        2.14424353       5.87068143       4.03566421       0.11590387      -0.21433757      -0.02101513
O        6.03022522       6.15557747       3.85674772      -0.05479378       0.07055847      -0.19993161
40
Lattice="8.113358670559476 -9.48256209502453e-19 1.1856955918959047e-18 1.4731444131804922e-16 8.113358670559487 -2.1213857306241463e-14 -1.6492255695243405e-16 -1.8377179618236488e-14 8.113358670559476" Properties=species:S:1:pos:R:3:u_disp:R:3 system=knbo3_cubic base_model=mace_mp0 role=train_pool T=600.0 draw=4 n_tries=14 rms_disp_A=0.22882920883252517 min_pair_ratio=0.830520939016603 nearest_heldout_A=0.22004742478850725 site_map_ok=1 nearest_heldout_src=knbo3_cubic_mace_mp0_q0-0-1d2-b0.extxyz#4 pbc="T T T"
K        0.10014900       0.06115596      -0.07068143       0.10014900       0.06115596      -0.07068143
K        3.93404217       0.00246791      -0.06572153      -0.12263716       0.00246791      -0.06572153
K        0.01777740       3.97090594      -0.08109668       0.01777740      -0.08577340      -0.08109668
K        4.22951693       4.11900702      -0.03136015       0.17283760       0.06232768      -0.03136015
K        0.08961234      -0.01407693       4.12100214       0.08961234      -0.01407693       0.06432280
K        4.10470013       0.09328552       4.16562858       0.04802079       0.09328552       0.10894924
K       -0.17453640       3.87928097       3.97864982      -0.17453640      -0.17739837      -0.07802952
K        4.09086160       4.13489917       4.26893517       0.03418226       0.07821983       0.21225583
Nb       1.96374948       2.01246886       2.08542891      -0.06459019      -0.01587081       0.05708924
Nb       6.02573549       1.99766510       2.06075193      -0.05928352      -0.03067457       0.03241226
Nb       2.09476715       6.06746032       2.04812165       0.06642749      -0.01755868       0.01978198
Nb       6.04455566       6.04189604       1.90803624      -0.04046334      -0.04312296      -0.12030343
Nb       1.91843757       1.99234106       6.11123993      -0.10990209      -0.03599861       0.02622093
Nb       6.01168744       2.05838322       6.14787130      -0.07333156       0.03004356       0.06285230
Nb       2.05266464       6.05056758       6.12265407       0.02432498      -0.03445142       0.03763506
Nb       6.19706782       6.21814077       5.95754581       0.11204881       0.13312177      -0.12747319
O        3.83817446       2.05384520       1.89621588      -0.21850488       0.02550553      -0.13212378
O       -0.33713796       1.83142450       2.04634114      -0.33713796      -0.19691516       0.01800147
O        4.13352923       5.88892140       2.25485483       0.07684989      -0.19609760       0.22651516
O        0.10384000       6.33591063       2.15758558       0.10384000       0.25089162       0.12924592
O        4.19661781       2.21659133       6.24769244       0.13993848       0.18825166       0.16267343
O        0.14233727       1.87742943       5.87739657       0.14233727      -0.15091024      -0.20762243
O        4.15156743       6.14411736       6.25653244       0.09488809       0.05909836       0.17151344
O        0.07351925       5.99322351       6.04810521       0.07351925      -0.09179550      -0.03691379
O        2.02374596       0.09152213       1.94269699      -0.00459371       0.09152213      -0.08564268
O        5.90078508      -0.11224838       1.75104320      -0.18423392      -0.11224838      -0.27729647
O        1.84304196       4.07693537       2.08339417      -0.18529771       0.02025604       0.05505450
O        6.08421937       4.09112371       1.98815779      -0.00079963       0.03444437      -0.04018187
O        2.10509891       0.00646102       6.27395092       0.07675924       0.00646102       0.18893191
O        6.23770084      -0.03111499       6.09535412       0.15268183      -0.03111499       0.01033512
O        2.14668951       4.14423066       6.13494989       0.11834985       0.08755132       0.04993088
O        6.36712814       3.89879223       5.76890308       0.28210913      -0.15788710      -0.31611592
O        1.77019853       2.11355098       0.03918496      -0.25814114       0.08521131       0.03918496
O        6.15133348       2.12315699      -0.21331905       0.06631448       0.09481732      -0.21331905
O        2.03089101       6.47852506       0.25471534       0.00255134       0.39350606       0.25471534
O        6.12591913       5.83038447      -0.04039436       0.04090012      -0.25463454      -0.04039436
O        2.04545737       2.00591495       4.13241037       0.01711771      -0.02242471       0.07573104
O        6.03401892       1.78769367       3.83688518      -0.05100008      -0.24064600      -0.21979416
O        2.09497135       6.25241232       4.19073829       0.06663169       0.16739332       0.13405895
O        6.30638834       6.06966725       4.03532761       0.22136934      -0.01535175      -0.02135173
40
Lattice="8.113358670559476 -9.48256209502453e-19 1.1856955918959047e-18 1.4731444131804922e-16 8.113358670559487 -2.1213857306241463e-14 -1.6492255695243405e-16 -1.8377179618236488e-14 8.113358670559476" Properties=species:S:1:pos:R:3:u_disp:R:3 system=knbo3_cubic base_model=mace_mp0 role=train_pool T=600.0 draw=5 n_tries=14 rms_disp_A=0.20995995489032532 min_pair_ratio=0.8048925184458874 nearest_heldout_A=0.2083169882234238 site_map_ok=1 nearest_heldout_src=knbo3_cubic_chgnet_q0-0-0-b0.extxyz#2 pbc="T T T"
K        0.08008425      -0.17321890      -0.17219616       0.08008425      -0.17321890      -0.17219616
K        4.05934098      -0.05931439      -0.13820215       0.00266164      -0.05931439      -0.13820215
K        0.19913368       3.82199196       0.05002566       0.19913368      -0.23468737       0.05002566
K        4.03539315       4.29014836       0.01679221      -0.02128618       0.23346902       0.01679221
K       -0.13419536      -0.09607436       4.32450105      -0.13419536      -0.09607436       0.26782172
K        3.90565677      -0.16040445       4.05559026      -0.15102256      -0.16040445      -0.00108907
K       -0.03872062       4.38773865       4.14433389      -0.03872062       0.33105931       0.08765456
K        4.01309685       4.17140066       3.91001563      -0.04358249       0.11472132      -0.14666371
Nb       2.03158610       1.96618746       2.05490721       0.00324643      -0.06215221       0.02656754
Nb       6.11354383       2.03571403       2.19659525       0.02852483       0.00737436       0.16825558
Nb       1.96043087       6.00215704       1.92961849      -0.06790880      -0.08286196      -0.09872118
Nb       6.10807708       6.13498293       2.03400764       0.02305808       0.04996392       0.00566797
Nb       2.11096403       2.01395278       6.02853089       0.08262437      -0.01438688      -0.05648811
Nb       6.10196982       2.18102503       6.11578218       0.01695082       0.15268536       0.03076317
Nb       2.01419729       6.08583567       5.96972220      -0.01414237       0.00081666      -0.11529680
Nb       6.06309012       6.22005270       6.12813722      -0.02192888       0.13503369       0.04311822
O        4.17594298       2.02075292       2.14272358       0.11926364      -0.00758675       0.11438391
O        0.13041755       1.91645739       2.06221325       0.13041755      -0.11188228       0.03387358
O        3.98568449       5.97663582       2.04213339      -0.07099485      -0.10838318       0.01379372
O        0.00664406       5.92709453       1.94304764       0.00664406      -0.15792447      -0.08529203
O        4.14456971       1.99390309       5.98518572       0.08789038      -0.03443658      -0.09983329
O        0.09753852       2.25161281       6.09792211       0.09753852       0.22327315       0.01290310
O        3.92581430       6.16341454       6.13028702      -0.13086504       0.07839554       0.04526802
O       -0.08574029       5.96982910       5.82526060      -0.08574029      -0.11518991      -0.25975840
O        1.98141933      -0.10735597       1.76916452      -0.04692034      -0.10735597      -0.25917514
O        6.09132588      -0.21941058       2.04133098       0.00630687      -0.21941058       0.01299131
O        1.92628741       4.06776483       2.02526162      -0.10205226       0.01108550      -0.00307805
O        6.18975952       3.92871490       2.16036025       0.10474052      -0.12796443       0.13202058
O        1.93540221      -0.05460018       6.12750735      -0.09293746      -0.05460018       0.04248835
O        6.05799851      -0.02836931       6.33040077      -0.02702050      -0.02836931       0.24538177
O        1.97438522       4.06321006       6.15907980      -0.05395445       0.00653073       0.07406080
O        5.77444375       3.97456327       6.23495842      -0.31057525      -0.08211606       0.14993942
O        2.24403078       2.06200167       0.03589758       0.21569111       0.03366200       0.03589758
O        6.18975391       2.14285606      -0.03496812       0.10473491       0.11451639      -0.03496812
O        1.86353905       5.93705175      -0.11690564      -0.16480062      -0.14796726      -0.11690564
O        6.19298315       6.05926680      -0.04105492       0.10796415      -0.02575221      -0.04105492
O        1.98449946       1.96007331       4.10472371      -0.04384021      -0.06826636       0.04804437
O        6.42129833       1.77683023       4.02810850       0.33627933      -0.25150944      -0.02857083
O        1.88382378       6.26040380       4.03029669      -0.14451588       0.17538479      -0.02638264
O        6.01025988       6.11668597       4.11582520      -0.07475912       0.03166697       0.05914586
40
Lattice="8.113358670559476 -9.48256209502453e-19 1.1856955918959047e-18 1.4731444131804922e-16 8.113358670559487 -2.1213857306241463e-14 -1.6492255695243405e-16 -1.8377179618236488e-14 8.113358670559476" Properties=species:S:1:pos:R:3:u_disp:R:3 system=knbo3_cubic base_model=mace_mp0 role=train_pool T=600.0 draw=6 n_tries=14 rms_disp_A=0.178121475096135 min_pair_ratio=0.8907797292613696 nearest_heldout_A=0.17519647720171985 site_map_ok=1 nearest_heldout_src=knbo3_cubic_mace_mp0_q0-0-0-b0.extxyz#3 pbc="T T T"
K        0.00385767       0.15437064       0.04332042       0.00385767       0.15437064       0.04332042
K        4.10468717       0.15611720      -0.02571154       0.04800783       0.15611720      -0.02571154
K        0.07076732       3.99621391       0.10560152       0.07076732      -0.06046543       0.10560152
K        4.13875093       4.05837600      -0.00029905       0.08207159       0.00169667      -0.00029905
K        0.15456582       0.09339298       3.91684576       0.15456582       0.09339298      -0.13983358
K        4.23230403      -0.17790094       4.06337395       0.17562469      -0.17790094       0.00669462
K        0.00970407       4.08901600       4.15438933       0.00970407       0.03233666       0.09770999
K        3.96436623       4.11593537       4.13661674      -0.09231310       0.05925603       0.07993740
Nb       2.10363276       2.06894227       2.08408818       0.07529309       0.04060260       0.05574851
Nb       6.09905283       2.04975706       2.00618349       0.01403383       0.02141739      -0.02215618
Nb       2.07812045       6.02052746       1.99892347       0.04978079      -0.06449155      -0.02941620
Nb       6.13760614       6.12141305       2.03949278       0.05258714       0.03639405       0.01115312
Nb       2.08910147       2.03653779       6.04911964       0.06076180       0.00819812      -0.03589936
Nb       6.00702747       1.97647929       6.11833172      -0.07799153      -0.05186038       0.03331271
Nb       1.92053372       6.01757837       6.11897212      -0.10780594      -0.06744063       0.03395311
Nb       5.95528844       6.02501288       6.11484025      -0.12973056      -0.06000612       0.02982125
O        4.08230098       2.08280790       2.02872312       0.02562165       0.05446824       0.00038345
O        0.03876554       1.93007888       1.95240990       0.03876554      -0.09826079      -0.07592976
O        3.96490952       5.99089242       2.29981771      -0.09176982      -0.09412658       0.27147804
O       -0.08714135       5.98462743       1.84069681      -0.08714135      -0.10039157      -0.18764286
O        4.16926145       2.13161067       5.98525632       0.11258211       0.10327100      -0.09976268
O        0.07886923       1.97533547       5.96046489       0.07886923      -0.05300420      -0.12455411
O        4.02399317       6.13088492       5.89788107      -0.03268617       0.04586591      -0.18713793
O       -0.11330028       6.01661119       6.04045442      -0.11330028      -0.06840781      -0.04456458
O        2.01234033       0.06154990       1.97991754      -0.01599933       0.06154990      -0.04842213
O        5.87907131      -0.00275513       1.94248023      -0.20594770      -0.00275513      -0.08585944
O        1.91274811       3.99981502       2.22564467      -0.11559155      -0.05686432       0.19730501
O        6.24403340       3.98573480       1.96300816       0.15901440      -0.07094453      -0.06533150
O        2.15027427       0.05313985       6.15614942       0.12193460       0.05313985       0.07113042
O        5.93979767       0.11661774       6.09303468      -0.14522133       0.11661774       0.00801567
O        2.03185629       4.07215654       5.87867435       0.00351663       0.01547721      -0.20634465
O        5.81619733       4.18059654       6.18209323      -0.26882167       0.12391720       0.09707423
O        2.03650677       2.15975955      -0.09718319       0.00816710       0.13141989      -0.09718319
O        5.93381097       2.18863638       0.04812322      -0.15120803       0.16029671       0.04812322
O        2.04383543       6.02627515      -0.10497913       0.01549576      -0.05874385      -0.10497913
O        5.94015673       6.11818648      -0.01998316      -0.14486227       0.03316748      -0.01998316
O        2.12227635       1.82706543       4.02301999       0.09393668      -0.20127423      -0.03365935
O        6.23243538       2.09111341       4.11132071       0.14741638       0.06277375       0.05464138
O        1.73204772       6.19671081       3.93600454      -0.29629195       0.11169181      -0.12067480
O        6.20952041       5.98031107       3.95710371       0.12450141      -0.10470793      -0.09957563
40
Lattice="8.113358670559476 -9.48256209502453e-19 1.1856955918959047e-18 1.4731444131804922e-16 8.113358670559487 -2.1213857306241463e-14 -1.6492255695243405e-16 -1.8377179618236488e-14 8.113358670559476" Properties=species:S:1:pos:R:3:u_disp:R:3 system=knbo3_cubic base_model=mace_mp0 role=train_pool T=600.0 draw=7 n_tries=14 rms_disp_A=0.1876231574268642 min_pair_ratio=0.8692176880632339 nearest_heldout_A=0.1834793098044096 site_map_ok=1 nearest_heldout_src=knbo3_cubic_chgnet_q0-0-0-b0.extxyz#3 pbc="T T T"
K        0.04851197       0.08369223      -0.00229769       0.04851197       0.08369223      -0.00229769
K        4.00764356       0.18224801       0.09962068      -0.04903577       0.18224801       0.09962068
K       -0.01291218       4.26575163      -0.13363796      -0.01291218       0.20907229      -0.13363796
K        4.10411219       4.29133037      -0.01965896       0.04743286       0.23465104      -0.01965896
K       -0.10562611      -0.00942324       4.01042193      -0.10562611      -0.00942324      -0.04625740
K        4.07518247       0.08169936       4.12473874       0.01850313       0.08169936       0.06805941
K       -0.03121791       4.01743622       4.24999580      -0.03121791      -0.03924312       0.19331646
K        3.98974804       3.93194836       4.35765562      -0.06693130      -0.12473098       0.30097628
Nb       1.97204288       2.01647667       2.00349537      -0.05629679      -0.01186300      -0.02484430
Nb       6.13179144       2.05166200       2.04519048       0.04677244       0.02332233       0.01685081
Nb       1.95917788       6.12550930       2.08114570      -0.06916179       0.04049030       0.05280604
Nb       6.11527346       5.92489755       1.97212422       0.03025445      -0.16012145      -0.05621544
Nb       1.84994065       1.99728583       6.06125294      -0.17839902      -0.03105384      -0.02376606
Nb       6.01204412       1.96007796       6.10242455      -0.07297489      -0.06826171       0.01740555
Nb       2.12761932       6.11318376       6.11831306       0.09927965       0.02816475       0.03329406
Nb       6.27711125       6.10048188       6.06130398       0.19209225       0.01546288      -0.02371502
O        4.05675060       1.94378688       1.99504052       0.00007126      -0.08455279      -0.03329914
O       -0.02566391       1.88416024       1.82210832      -0.02566391      -0.14417943      -0.20623135
O        4.14010385       6.08376952       1.99825556       0.08342452      -0.00124949      -0.03008411
O        0.11513401       6.13143454       2.04450980       0.11513401       0.04641554       0.01617013
O        3.97729669       2.01649699       6.16640741      -0.07938265      -0.01184268       0.08138840
O       -0.14880390       1.99311356       5.98938919      -0.14880390      -0.03522611      -0.09562981
O        4.03205833       6.15276874       6.17774844      -0.02462101       0.06774974       0.09272944
O        0.03900163       6.16058710       6.16909358       0.03900163       0.07556809       0.08407458
O        2.12885524       0.00193832       1.81867170       0.10051557       0.00193832      -0.20966797
O        6.26511236      -0.11364933       1.98674407       0.18009336      -0.11364933      -0.04159560
O        2.05359013       4.05936161       1.88380145       0.02525047       0.00268228      -0.14453822
O        6.17070263       4.00593100       1.80397596       0.08568363      -0.05074833      -0.22436371
O        2.08409898       0.07946646       6.16358872       0.05575931       0.07946646       0.07856972
O        6.26506068      -0.02200557       6.09059027       0.18004168      -0.02200557       0.00557127
O        1.94222482       4.16134360       5.93097590      -0.08611485       0.10466426      -0.15404310
O        6.24322807       3.98500062       6.10110891       0.15820907      -0.07167872       0.01608991
O        1.89106027       2.11980436      -0.05057385      -0.13727940       0.09146469      -0.05057385
O        6.09385586       1.81009593      -0.25616248       0.00883685      -0.21824374      -0.25616248
O        2.10533635       6.01019224       0.05456463       0.07699669      -0.07482676       0.05456463
O        6.11903797       5.96750791       0.00325567       0.03401896      -0.11751110       0.00325567
O        1.75207579       2.14316579       4.01571149      -0.27626388       0.11482612      -0.04096784
O        5.92829622       1.89204935       3.84547131      -0.15672278      -0.13629031      -0.21120803
O        2.16113687       6.20072328       4.08804479       0.13279720       0.11570427       0.03136546
O        6.16268733       5.90791084       4.21437735       0.07766833      -0.17710816       0.15769801
40
Lattice="8.113358670559476 -9.48256209502453e-19 1.1856955918959047e-18 1.4731444131804922e-16 8.113358670559487 -2.1213857306241463e-14 -1.6492255695243405e-16 -1.8377179618236488e-14 8.113358670559476" Properties=species:S:1:pos:R:3:u_disp:R:3 system=knbo3_cubic base_model=mace_mp0 role=train_pool T=600.0 draw=8 n_tries=14 rms_disp_A=0.17505754797712933 min_pair_ratio=0.8654131273964165 nearest_heldout_A=0.1692508433769498 site_map_ok=1 nearest_heldout_src=knbo3_cubic_mace_mp0_q0-0-1d2-b0.extxyz#3 pbc="T T T"
K       -0.06714816      -0.15626952      -0.03157909      -0.06714816      -0.15626952      -0.03157909
K        4.07366591       0.09866377      -0.12334743       0.01698657       0.09866377      -0.12334743
K        0.21873623       3.78894760       0.20217090       0.21873623      -0.26773174       0.20217090
K        4.13300403       4.07162231      -0.10116025       0.07632470       0.01494297      -0.10116025
K        0.04133862       0.21970247       4.01600851       0.04133862       0.21970247      -0.04067083
K        4.09462984       0.02763594       4.14227022       0.03795050       0.02763594       0.08559089
K        0.05717318       3.87497665       4.16773233       0.05717318      -0.18170269       0.11105299
K        4.04671494       4.18205603       3.99530613      -0.00996439       0.12537670      -0.06137321
Nb       2.13043925       1.90027739       1.96051234       0.10209959      -0.12806228      -0.06782733
Nb       6.08711991       2.10304715       2.07160678       0.00210091       0.07470748       0.04326711
Nb       2.07321003       6.00002626       2.01146700       0.04487037      -0.08499274      -0.01687267
Nb       6.09907650       6.23244341       2.05225916       0.01405750       0.14742440       0.02391950
Nb       2.02423970       2.04703099       6.05920758      -0.00409997       0.01869132      -0.02581143
Nb       6.05707470       1.99012459       6.14913411      -0.02794431      -0.03821508       0.06411510
Nb       1.95655657       6.11221455       6.03798616      -0.07178310       0.02719555      -0.04703284
Nb       6.00377967       6.04189255       6.06178708      -0.08123933      -0.04312646      -0.02323192
O        4.08591289       2.20324133       2.06271772       0.02923355       0.17490166       0.03437805
O       -0.12896654       1.93927480       2.04788339      -0.12896654      -0.08906487       0.01954372
O        3.92427870       6.16736479       2.08912718      -0.13240063       0.08234579       0.06078751
O       -0.17870814       6.11865628       2.04014641      -0.17870814       0.03363728       0.01180674
O        4.15540400       2.13595997       6.01488638       0.09872466       0.10762030      -0.07013263
O        0.01357353       2.20793509       6.09177592       0.01357353       0.17959542       0.00675692
O        4.06383545       6.17717934       6.19379533       0.00715612       0.09216034       0.10877633
O        0.04199470       6.21655589       6.09128839       0.04199470       0.13153689       0.00626938
O        1.99328648       0.09580848       1.81830677      -0.03505319       0.09580848      -0.21003290
O        6.11315778      -0.01126871       2.09248893       0.02813878      -0.01126871       0.06414926
O        1.96351772       4.08107485       1.94369865      -0.06482195       0.02439551      -0.08464101
O        5.96426084       4.02410946       2.06198405      -0.12075816      -0.03256988       0.03364438
O        1.96538652       0.02026599       6.18617665      -0.06295315       0.02026599       0.10115765
O        6.11385071       0.09922896       6.00728384       0.02883170       0.09922896      -0.07773516
O        2.27747381       3.99353217       6.01593728       0.24913414      -0.06314717      -0.06908173
O        6.09246221       3.98936457       6.20747431       0.00744321      -0.06731476       0.12245531
O        2.03661948       1.91504246      -0.14564985       0.00827981      -0.11329721      -0.14564985
O        5.91997607       1.99620661      -0.06420661      -0.16504294      -0.03213306      -0.06420661
O        1.89907078       5.92819333       0.17109608      -0.12926889      -0.15682567       0.17109608
O        5.96370926       6.13456226       0.10920571      -0.12130974       0.04954326       0.10920571
O        2.02368226       1.78260055       3.90081773      -0.00465740      -0.24573911      -0.15586161
O        6.21292678       2.07079009       4.04019437       0.12790778       0.04245042      -0.01648497
O        1.88951185       6.13700405       4.16942158      -0.13882782       0.05198504       0.11274225
O        5.94716603       6.15581474       4.17560733      -0.13785298       0.07079574       0.11892799
40
Lattice="8.113358670559476 -9.48256209502453e-19 1.1856955918959047e-18 1.4731444131804922e-16 8.113358670559487 -2.1213857306241463e-14 -1.6492255695243405e-16 -1.8377179618236488e-14 8.113358670559476" Properties=species:S:1:pos:R:3:u_disp:R:3 system=knbo3_cubic base_model=mace_mp0 role=train_pool T=600.0 draw=9 n_tries=14 rms_disp_A=0.16730497318704318 min_pair_ratio=0.86514449719784 nearest_heldout_A=0.16557727244289913 site_map_ok=1 nearest_heldout_src=knbo3_cubic_orb_v2_q1d2-0-0-b0.extxyz#3 pbc="T T T"
K        0.00121004      -0.06195608      -0.14174664       0.00121004      -0.06195608      -0.14174664
K        4.04849904      -0.34564955      -0.18435568      -0.00818029      -0.34564955      -0.18435568
K       -0.00901125       4.22773646       0.00214717      -0.00901125       0.17105712       0.00214717
K        3.95951031       3.99362928       0.04804248      -0.09716903      -0.06305006       0.04804248
K        0.00671829       0.00295316       3.94850261       0.00671829       0.00295316      -0.10817672
K        4.27057384       0.12055103       3.98796086       0.21389451       0.12055103      -0.06871848
K        0.12733852       4.09447408       4.18577439       0.12733852       0.03779474       0.12909505
K        3.72955941       4.04802061       4.07076563      -0.32711992      -0.00865872       0.01408630
Nb       2.00943870       2.02834611       1.94059654      -0.01890097       0.00000644      -0.08774313
Nb       6.11008159       2.08425625       1.87439797       0.02506259       0.05591658      -0.15394170
Nb       2.04735115       6.19142885       2.13103886       0.01901148       0.10640984       0.10269919
Nb       6.10719766       6.08520386       2.04742186       0.02217865       0.00018486       0.01908220
Nb       1.97592899       1.92889925       6.12404319      -0.05241068      -0.09944042       0.03902418
Nb       6.10144328       1.98144702       6.06939183       0.01642428      -0.04689265      -0.01562717
Nb       2.08197205       6.07924500       6.18603037       0.05363239      -0.00577400       0.10101137
Nb       6.09620609       6.03132171       6.15008177       0.01118709      -0.05369729       0.06506277
O        4.10778457       2.07949807       1.86048922       0.05110523       0.05115840      -0.16785045
O        0.00104107       2.02880847       1.92676996       0.00104107       0.00046880      -0.10156971
O        3.93914728       5.90043811       2.13930852      -0.11753205      -0.18458090       0.11096885
O       -0.11547192       6.13040035       2.14290306      -0.11547192       0.04538135       0.11456339
O        4.00536930       2.15368384       6.14863733      -0.05131003       0.12534418       0.06361833
O       -0.11934946       2.27284071       6.08299010      -0.11934946       0.24450104      -0.00202890
O        4.09460317       6.07274470       6.11691454       0.03792383      -0.01227430       0.03189554
O        0.07810688       6.00621781       6.25729218       0.07810688      -0.07880119       0.17227317
O        2.06721251      -0.04245216       2.13317961       0.03887284      -0.04245216       0.10483995
O        6.23383027      -0.00500748       1.89100035       0.14881127      -0.00500748      -0.13733932
O        1.90107845       4.05672728       1.97837830      -0.12726121       0.00004795      -0.04996136
O        5.99660184       4.10061513       1.92194897      -0.08841716       0.04393580      -0.10639070
O        1.99929997       0.02496530       6.12681095      -0.02903969       0.02496530       0.04179195
O        6.08963195       0.05790262       6.04618714       0.00461295       0.05790262      -0.03883186
O        1.88833631       4.15927170       6.20369550      -0.14000335       0.10259236       0.11867649
O        6.15522836       4.08420229       6.24294416       0.07020935       0.02752296       0.15792516
O        1.99302354       2.10671409       0.12111473      -0.03531613       0.07837442       0.12111473
O        6.11631536       1.91506862       0.02181226       0.03129636      -0.11327104       0.02181226
O        2.03099448       6.09732566      -0.07700582       0.00265481       0.01230666      -0.07700582
O        6.04535906       6.09494179      -0.00079186      -0.03965994       0.00992279      -0.00079186
O        2.11694278       1.97208235       4.15977748       0.08860312      -0.05625732       0.10309815
O        6.04871779       2.13578647       3.91853449      -0.03630122       0.10744680      -0.13814484
O        2.15010299       6.14668904       4.10045807       0.12176332       0.06167004       0.04377874
O        6.09288857       6.19460900       4.02291232       0.00786956       0.10959000      -0.03376701
40
Lattice="8.113358670559476 -9.48256209502453e-19 1.1856955918959047e-18 1.4731444131804922e-16 8.113358670559487 -2.1213857306241463e-14 -1.6492255695243405e-16 -1.8377179618236488e-14 8.113358670559476" Properties=species:S:1:pos:R:3:u_disp:R:3 system=knbo3_cubic base_model=mace_mp0 role=train_pool T=600.0 draw=10 n_tries=14 rms_disp_A=0.18765255276941434 min_pair_ratio=0.8472587790898152 nearest_heldout_A=0.18608405578793577 site_map_ok=1 nearest_heldout_src=knbo3_cubic_mace_mp0_q0-0-0-b0.extxyz#2 pbc="T T T"
K        0.04347493       0.05810311       0.04709363       0.04347493       0.05810311       0.04709363
K        3.90893858      -0.10869068       0.02173238      -0.14774076      -0.10869068       0.02173238
K        0.08351862       3.92967442      -0.00155572       0.08351862      -0.12700492      -0.00155572
K        4.18377632       4.08720089       0.03440862       0.12709699       0.03052155       0.03440862
K       -0.30100493       0.07512320       4.15290703      -0.30100493       0.07512320       0.09622770
K        4.15959662      -0.10705589       4.05474244       0.10291728      -0.10705589      -0.00193689
K       -0.15666705       4.02859519       3.75902173      -0.15666705      -0.02808415      -0.29765760
K        4.23343987       4.00372936       4.13039989       0.17676053      -0.05294997       0.07372055
Nb       2.07623953       1.96390467       2.20353721       0.04789986      -0.06443500       0.17519754
Nb       6.09471940       2.08424525       2.07461454       0.00970040       0.05590559       0.04627488
Nb       2.03126019       6.07069852       2.03636015       0.00292052      -0.01432048       0.00802048
Nb       6.14506602       6.21676877       1.91658365       0.06004701       0.13174977      -0.11175601
Nb       1.95963614       1.99965261       6.20343779      -0.06870353      -0.02868706       0.11841878
Nb       6.02986275       2.09001191       6.15525031      -0.05515625       0.06167225       0.07023131
Nb       2.07145495       6.00358310       5.97841882       0.04311528      -0.08143590      -0.10660018
Nb       6.09525361       6.11351454       6.03385571       0.01023460       0.02849554      -0.05116329
O        4.21300875       2.09765125       2.25311246       0.15632941       0.06931158       0.22477279
O       -0.04472594       2.15737024       1.89515810      -0.04472594       0.12903057      -0.13318157
O        4.04064291       6.09952877       1.89132027      -0.01603643       0.01450977      -0.13701940
O       -0.04122032       5.98397445       1.70581436      -0.04122032      -0.10104455      -0.32252531
O        4.03307357       2.01015873       6.07828666      -0.02360576      -0.01818094      -0.00673234
O        0.03181909       2.13943081       6.06160249       0.03181909       0.11109114      -0.02341652
O        4.03027333       5.91799074       5.86015743      -0.02640601      -0.16702826      -0.22486157
O        0.00857077       6.08865796       5.97208984       0.00857077       0.00363895      -0.11292917
O        1.93100542       0.01581629       2.10265512      -0.09733425       0.01581629       0.07431545
O        5.97195124       0.12004052       1.89044631      -0.11306776       0.12004052      -0.13789336
O        2.17623833       3.98675225       2.21815169       0.14789866      -0.06992709       0.18981203
O        6.00093436       4.09888547       2.02487942      -0.08408464       0.04220613      -0.00346025
O        1.87006593      -0.00087970       5.99416124      -0.15827373      -0.00087970      -0.09085776
O        5.94057568      -0.02873881       6.02293849      -0.14444332      -0.02873881      -0.06208051
O        1.94915578       4.03742854       6.09412761      -0.07918389      -0.01925079       0.00910860
O        5.82146523       4.04739158       6.15882303      -0.26355377      -0.00928776       0.07380403
O        2.27105421       1.98022547       0.08001130       0.24271454      -0.04811420       0.08001130
O        6.06277079       2.03442036      -0.06087966      -0.02224821       0.00608069      -0.06087966
O        2.23592309       5.96815874      -0.04338277       0.20758342      -0.11686026      -0.04338277
O        6.05825017       6.22068403      -0.17699257      -0.02676884       0.13566503      -0.17699257
O        1.94822717       2.01448382       4.17689989      -0.08011250      -0.01385585       0.12022056
O        6.31237956       1.98604846       4.08133086       0.22736056      -0.04229121       0.02465152
O        2.08784288       6.21922407       4.00346352       0.05950321       0.13420506      -0.05321581
O        6.10870502       6.05785616       4.05471951       0.02368602      -0.02716285      -0.00195982
40
Lattice="8.113358670559476 -9.48256209502453e-19 1.1856955918959047e-18 1.4731444131804922e-16 8.113358670559487 -2.1213857306241463e-14 -1.6492255695243405e-16 -1.8377179618236488e-14 8.113358670559476" Properties=species:S:1:pos:R:3:u_disp:R:3 system=knbo3_cubic base_model=mace_mp0 role=train_pool T=600.0 draw=11 n_tries=14 rms_disp_A=0.21608574568138483 min_pair_ratio=0.8562206038928839 nearest_heldout_A=0.20505164764863837 site_map_ok=1 nearest_heldout_src=knbo3_cubic_sevennet0_q0-0-1d2-b0.extxyz#4 pbc="T T T"
K       -0.09006841      -0.07660533      -0.11507009      -0.09006841      -0.07660533      -0.11507009
K        3.93359256       0.09305975      -0.19851295      -0.12308677       0.09305975      -0.19851295
K       -0.14729739       3.83005027       0.11076920      -0.14729739      -0.22662906       0.11076920
K        4.21300145       4.20990635       0.11604858       0.15632211       0.15322702       0.11604858
K       -0.03262076       0.25165549       4.37035049      -0.03262076       0.25165549       0.31367116
K        4.07413045       0.05376954       3.97285405       0.01745112       0.05376954      -0.08382528
K       -0.12424405       3.96120664       4.09181452      -0.12424405      -0.09547269       0.03513518
K        4.24456558       4.08566816       4.06240565       0.18788624       0.02898882       0.00572631
Nb       2.06296463       2.04084893       2.02688043       0.03462496       0.01250927      -0.00145924
Nb       6.11958280       1.97292146       2.01152456       0.03456379      -0.05541821      -0.01681511
Nb       1.99773768       6.12890070       2.05489354      -0.03060199       0.04388170       0.02655387
Nb       6.20492143       6.17685758       1.96073708       0.11990243       0.09183858      -0.06760259
Nb       2.05981878       2.05454957       6.11467684       0.03147911       0.02620991       0.02965783
Nb       6.12740649       1.99841313       6.06012213       0.04238749      -0.02992654      -0.02489687
Nb       2.03327825       5.97296871       6.14962498       0.00493859      -0.11205029       0.06460597
Nb       6.02389307       5.98001361       6.05659130      -0.06112593      -0.10500539      -0.02842770
O        4.07207529       2.14608193       2.26896800       0.01539596       0.11774226       0.24062833
O       -0.04634347       2.35407907       2.07128299      -0.04634347       0.32573941       0.04294332
O        4.07827505       6.26014599       1.94438466       0.02159571       0.17512699      -0.08395501
O       -0.02498909       6.22247039       2.05675133      -0.02498909       0.13745139       0.02841166
O        4.13093105       2.00871069       6.02900810       0.07425171      -0.01962898      -0.05601090
O        0.05848299       1.94489058       6.27451871       0.05848299      -0.08344909       0.18949971
O        3.89231534       5.88972975       5.91480962      -0.16436400      -0.19528925      -0.17020938
O       -0.13197689       6.04900185       6.10777987      -0.13197689      -0.03601715       0.02276087
O        2.04336038       0.11489624       1.68405538       0.01502072       0.11489624      -0.34428429
O        6.30694929       0.19685048       2.02093289       0.22193029       0.19685048      -0.00740678
O        1.89182952       4.17249856       1.98935970      -0.13651014       0.11581923      -0.03897997
O        6.18326348       4.35494267       1.90877269       0.09824447       0.29826334      -0.11956698
O        2.15844941      -0.03419678       6.08446507       0.13010975      -0.03419678      -0.00055394
O        6.04953450      -0.06963499       6.15332959      -0.03548450      -0.06963499       0.06831059
O        1.98059361       3.89094086       5.93366764      -0.04774606      -0.16573847      -0.15135137
O        6.00510783       3.93116585       6.24832058      -0.07991117      -0.12551349       0.16330158
O        2.00576728       2.17771120       0.02974753      -0.02257239       0.14937153       0.02974753
O        5.94357213       1.90916920       0.18697574      -0.14144687      -0.11917046       0.18697574
O        2.01397856       5.75089971      -0.08117000      -0.01436111      -0.33411930      -0.08117000
O        5.78383022       6.19515114      -0.22577091      -0.30118879       0.11013214      -0.22577091
O        1.92649110       1.89728807       4.03811175      -0.10184857      -0.13105160      -0.01856759
O        6.09693574       2.05636655       4.10471481       0.01191673       0.02802689       0.04803547
O        1.98566963       5.99273346       3.99683802      -0.04267004      -0.09228554      -0.05984132
O        6.08688378       6.02000252       4.05097954       0.00186478      -0.06501649      -0.00569979
40
Lattice="8.113358670559476 -9.48256209502453e-19 1.1856955918959047e-18 1.4731444131804922e-16 8.113358670559487 -2.1213857306241463e-14 -1.6492255695243405e-16 -1.8377179618236488e-14 8.113358670559476" Properties=species:S:1:pos:R:3:u_disp:R:3 system=knbo3_cubic base_model=mace_mp0 role=train_pool T=600.0 draw=12 n_tries=14 rms_disp_A=0.19742752026417532 min_pair_ratio=0.84638073379729 nearest_heldout_A=0.19690104218800925 site_map_ok=1 nearest_heldout_src=knbo3_cubic_orb_v2_q0-1d2-0-b1.extxyz#2 pbc="T T T"
K       -0.04219491       0.23178841      -0.13054428      -0.04219491       0.23178841      -0.13054428
K        4.08739027      -0.12720864      -0.03946373       0.03071094      -0.12720864      -0.03946373
K       -0.09808250       3.98404808       0.22622846      -0.09808250      -0.07263126       0.22622846
K        4.00640977       4.01765766      -0.01478859      -0.05026956      -0.03902168      -0.01478859
K        0.10110617      -0.05129787       4.09881335       0.10110617      -0.05129787       0.04213401
K        3.97152208      -0.07928085       4.06308758      -0.08515725      -0.07928085       0.00640825
K       -0.04084121       4.07635973       3.72331708      -0.04084121       0.01968040      -0.33336225
K        4.01079914       4.08453325       4.13065811      -0.04588019       0.02785391       0.07397877
Nb       2.06060855       2.02802108       2.03137352       0.03226888      -0.00031859       0.00303385
Nb       6.06305116       2.04063214       2.09894919      -0.02196784       0.01229247       0.07060952
Nb       2.10867743       6.08866435       1.96862613       0.08033776       0.00364534      -0.05971354
Nb       6.16342996       6.05553794       2.04942928       0.07841096      -0.02948106       0.02108961
Nb       2.01068784       2.08411356       6.10105280      -0.01765183       0.05577389       0.01603380
Nb       6.03278678       1.99044564       6.15561523      -0.05223223      -0.03789403       0.07059623
Nb       1.97987143       6.08867884       6.02889413      -0.04846824       0.00365984      -0.05612487
Nb       6.10128721       6.07584346       6.08077055       0.01626820      -0.00917555      -0.00424845
O        4.05743093       2.00888491       1.95588814       0.00075159      -0.01945475      -0.07245153
O        0.06599224       1.94165546       2.10959152       0.06599224      -0.08668421       0.08125186
O        4.00056917       5.97127392       1.90699876      -0.05611016      -0.11374509      -0.12134090
O       -0.03746788       6.10088277       2.16163033      -0.03746788       0.01586376       0.13329067
O        4.10333312       2.04057837       6.08531677       0.04665379       0.01223870       0.00029777
O       -0.00532679       2.12382708       6.22042310      -0.00532679       0.09548741       0.13540409
O        4.03951491       5.74565968       6.39347249      -0.01716443      -0.33935932       0.30845348
O        0.02946092       6.02536241       5.98359144       0.02946092      -0.05965659      -0.10142757
O        2.19452676      -0.12613357       2.02211055       0.16618709      -0.12613357      -0.00622912
O        5.95146207       0.09449345       2.06039541      -0.13355693       0.09449345       0.03205574
O        2.04823918       3.94327101       1.84144672       0.01989951      -0.11340832      -0.18689295
O        6.00184330       3.99724231       2.05939455      -0.08317570      -0.05943703       0.03105488
O        2.03224179      -0.08495443       5.80692524       0.00390213      -0.08495443      -0.27809377
O        5.90427868       0.16171438       6.07107081      -0.18074033       0.16171438      -0.01394819
O        2.00117415       4.06199057       6.05667668      -0.02716552       0.00531123      -0.02834233
O        5.99499887       4.17223153       6.16154856      -0.09002013       0.11555219       0.07652955
O        2.03566359       1.99578472      -0.05559092       0.00732392      -0.03255495      -0.05559092
O        6.01155898       2.26173494       0.19429743      -0.07346002       0.23339528       0.19429743
O        1.78151207       6.20499493      -0.03735593      -0.24682760       0.11997593      -0.03735593
O        6.39211963       6.38393102       0.05626154       0.30710062       0.29891202       0.05626154
O        2.15470123       2.13994491       3.97929514       0.12636157       0.11160524      -0.07738420
O        6.01101045       2.19294353       4.11655375      -0.07400855       0.16460386       0.05987442
O        2.28760434       5.89101965       4.02314228       0.25926467      -0.19399935      -0.03353705
O        6.25183043       6.11417346       4.01867153       0.16681143       0.02915446      -0.03800781
40
Lattice="8.113358670559476 -9.48256209502453e-19 1.1856955918959047e-18 1.4731444131804922e-16 8.113358670559487 -2.1213857306241463e-14 -1.6492255695243405e-16 -1.8377179618236488e-14 8.113358670559476" Properties=species:S:1:pos:R:3:u_disp:R:3 system=knbo3_cubic base_model=mace_mp0 role=train_pool T=600.0 draw=13 n_tries=14 rms_disp_A=0.22501517510549254 min_pair_ratio=0.8079919262195346 nearest_heldout_A=0.21678654956105528 site_map_ok=1 nearest_heldout_src=knbo3_cubic_sevennet0_q0-0-1d2-b0.extxyz#4 pbc="T T T"
K       -0.23026735      -0.05208743      -0.18895253      -0.23026735      -0.05208743      -0.18895253
K        4.30000468      -0.18456475       0.06494748       0.24332534      -0.18456475       0.06494748
K       -0.11249227       4.04332978      -0.12516561      -0.11249227      -0.01334956      -0.12516561
K        4.39553492       4.01718035       0.07953590       0.33885559      -0.03949899       0.07953590
K       -0.19722742       0.05498828       4.06997449      -0.19722742       0.05498828       0.01329515
K        4.14011368       0.34249519       4.02552933       0.08343434       0.34249519      -0.03115000
K        0.00847566       3.94116973       4.38986434       0.00847566      -0.11550960       0.33318500
K        3.77621501       3.95522813       4.25079157      -0.28046433      -0.10145121       0.19411224
Nb       1.88272259       2.06510357       2.08394201      -0.14561707       0.03676390       0.05560234
Nb       6.04502773       2.08929745       2.04790816      -0.03999128       0.06095778       0.01956849
Nb       2.03087786       6.15497920       2.04216932       0.00253820       0.06996020       0.01382965
Nb       6.07508170       6.07580710       2.00877859      -0.00993731      -0.00921191      -0.01956108
Nb       2.15405555       2.04584846       6.18044631       0.12571589       0.01750879       0.09542731
Nb       6.16100899       2.04580841       5.95755021       0.07598999       0.01746875      -0.12746879
Nb       2.05678023       6.07383244       6.06343621       0.02844057      -0.01118657      -0.02158279
Nb       6.08452629       5.97735530       6.09270649      -0.00049272      -0.10766370       0.00768749
O        4.04279745       2.08186247       1.97636702      -0.01388189       0.05352280      -0.05197265
O        0.00044118       2.33197860       2.18926736       0.00044118       0.30363893       0.16092769
O        4.22010262       6.26722160       1.74094434       0.16342328       0.18220260      -0.28739533
O       -0.01273049       6.13165580       2.24059227      -0.01273049       0.04663679       0.21225260
O        3.95682431       1.91903129       5.91223889      -0.09985503      -0.10930838      -0.17278011
O       -0.07434931       1.91823881       6.07914157      -0.07434931      -0.11010086      -0.00587743
O        4.25863543       5.91482101       6.15086181       0.20195610      -0.17019799       0.06584281
O        0.10820152       5.97905653       5.93462675       0.10820152      -0.10596247      -0.15039225
O        1.97632134       0.12996471       2.08413989      -0.05201833       0.12996471       0.05580022
O        6.19522896       0.00025885       1.91418738       0.11020996       0.00025885      -0.11415229
O        2.04464628       4.28203360       2.04735643       0.01630661       0.22535426       0.01901676
O        5.83969032       3.98518143       1.89206457      -0.24532868      -0.07149791      -0.13627510
O        2.08972575      -0.11345957       6.02925922       0.06138608      -0.11345957      -0.05575978
O        6.14731865      -0.05661939       6.01345568       0.06229965      -0.05661939      -0.07156332
O        2.22467641       3.86072087       5.98504661       0.19633674      -0.19595847      -0.09997240
O        6.23841370       3.84237964       6.04420146       0.15339470      -0.21429969      -0.04081754
O        2.00380388       1.99903936       0.03749564      -0.02453579      -0.02930031       0.03749564
O        5.95188382       2.17667833      -0.12081183      -0.13313519       0.14833866      -0.12081183
O        1.91102599       6.14495368       0.06224219      -0.11731368       0.05993468       0.06224219
O        6.12953517       5.93404172      -0.12462113       0.04451617      -0.15097728      -0.12462113
O        1.76775670       2.10534817       3.98032593      -0.26058297       0.07700850      -0.07635341
O        6.08669992       2.03257037       3.90408750       0.00168092       0.00423070      -0.15259184
O        2.21452308       6.12371256       4.14067575       0.18618341       0.03869356       0.08399641
O        5.95728031       5.97605358       4.05356495      -0.12773869      -0.10896543      -0.00311439
