40
Lattice="8.114870309777642 1.0311789206707726e-07 -1.6384903408977124e-07 1.0311785748845261e-07 8.114869930248256 2.242601906454912e-07 -1.638490223110111e-07 2.2426020397351547e-07 8.11487040810358" Properties=species:S:1:pos:R:3:u_disp:R:3 system=knbo3_cubic base_model=chgnet role=train_pool T=100.0 draw=0 n_tries=13 rms_disp_A=0.18340318345518725 min_pair_ratio=0.8180739044091361 nearest_heldout_A=0.16977925659481702 site_map_ok=1 nearest_heldout_src=knbo3_cubic_orb_v2_q1d2-0-1d2-b0.extxyz#5 pbc="T T T"
K        4.09617443      -0.03870901       3.92886570       0.03873938      -0.03870950      -0.12856942
K        8.05153907      -0.01465066       4.07016962      -0.06333113      -0.01465120       0.01273458
K        4.06956809       4.11904298       4.06966021       0.01213298       0.06160752       0.01222498
K        8.14114498       3.99852801       4.09148816       0.02627472      -0.05890750       0.03405301
K        4.09630554      -0.03147666       8.09705155       0.03887057      -0.03147727      -0.01781878
K        7.93407615      -0.06009108       8.12781889      -0.18079398      -0.06009174       0.01294865
K        4.13608112       4.09640518       8.06310403       0.07864610       0.03896961      -0.05176641
K        8.18382067       4.10547623       8.14027154       0.06895049       0.04804061       0.02540119
Nb       1.85992271       2.19777793       1.74620039      -0.16879477       0.16906017      -0.28251730
Nb       5.94416865       1.74530169       2.03069642      -0.14198398      -0.28341612       0.00197881
Nb       2.05948385       6.18869861       2.00883800       0.03076632       0.10254588      -0.01987980
Nb       6.22605688       5.81331937       2.33381365       0.13990419      -0.27283341       0.30509593
Nb       2.25694561       1.96891822       5.84982529       0.22822822      -0.05979965      -0.23632761
Nb       6.30444224       2.33106932       6.10227278       0.21828969       0.30235140       0.01611996
Nb       1.88299991       5.97022805       6.06380262      -0.14571753      -0.11592479      -0.02235039
Nb       5.93331088       6.33476362       6.29064545      -0.15284171       0.24861073       0.20449252
O       -0.00414794       1.93991970       2.09001942      -0.00414808      -0.08879725       0.06130170
O        4.17075847       2.06877803       2.02905551       0.11332318       0.04006104       0.00033787
O       -0.02870943       6.09071908       1.97646140      -0.02870962       0.00456717      -0.05225644
O        4.11466685       6.01520587       1.95438965       0.05723151      -0.07094609      -0.07432811
O       -0.06988163       1.92387502       6.12670682      -0.06988168      -0.10484203       0.04055389
O        4.07083980       1.97602597       6.20562438       0.01340459      -0.05269114       0.11947153
O       -0.03528239       6.06538682       6.16923829      -0.03528250      -0.02076520       0.08308525
O        4.04034478       5.99838110       6.06044532      -0.01709049      -0.08777098      -0.02570763
O        2.02983324       4.11331556       2.14297117       0.00111583       0.05588067       0.11425361
O        6.22743415       4.08731046       2.07369279       0.14128159       0.02987551       0.04497531
O        2.08765376       8.11753927       2.21164812       0.05893629       0.00266941       0.18293045
O        6.14011529       8.10597675       1.92416982       0.05396267      -0.00889316      -0.10454777
O        2.01437928       4.03799403       6.21911449      -0.01433805      -0.01944098       0.13296173
O        6.04981926       4.06261954       5.95211463      -0.03633323       0.00518449      -0.13403805
O        2.06807369       8.09254550       6.24842852       0.03935631      -0.02232447       0.16227564
O        6.13044391       8.07545750       5.96320040       0.04429137      -0.03941252      -0.12295239
O        1.93213240       2.06387925       4.07501911      -0.09658526       0.03516140       0.01758393
O        5.92919549       2.12407278       4.10254963      -0.15695732       0.09535487       0.04511453
O        2.12240151       6.00928691       4.09016924       0.09368381      -0.07686591       0.03273394
O        6.06873952       6.11564065       3.95808574      -0.01741333       0.02948778      -0.09934947
O        1.93108008       1.92207219       8.14394785      -0.09763749      -0.10664578       0.02907746
O        6.07378451       2.11888843       8.06615124      -0.01236821       0.09017041      -0.04871907
O        2.02512958       5.98257342       8.17375921      -0.00358804      -0.10357951       0.05888871
O        5.96668616       6.10958858       8.09141227      -0.11946662       0.02343560      -0.02345815
40
Lattice="8.114870309777642 1.0311789206707726e-07 -1.6384903408977124e-07 1.0311785748845261e-07 8.114869930248256 2.242601906454912e-07 -1.638490223110111e-07 2.2426020397351547e-07 8.11487040810358" Properties=species:S:1:pos:R:3:u_disp:R:3 system=knbo3_cubic base_model=chgnet role=train_pool T=100.0 draw=1 n_tries=13 rms_disp_A=0.17782958982587072 min_pair_ratio=0.8559101673760022 nearest_heldout_A=0.1553903780226144 site_map_ok=1 nearest_heldout_src=knbo3_cubic_sevennet0_q0-1d2-1d2-b0.extxyz#5 pbc="T T T"
K        4.11353893      -0.05622809       4.01322656       0.05610388      -0.05622858      -0.04420856
K        8.18555040       0.07979966       3.98572344       0.07068020       0.07979912      -0.07171160
K        4.01792421       4.00896959       4.09580801      -0.03951089      -0.04846587       0.03837278
K        8.09774065       4.12757999       4.11356856      -0.01712960       0.07014448       0.05613341
K        4.06683781       0.06969453       8.05408720       0.00940284       0.06969393      -0.06078312
K        8.09360004       0.02639483       8.21914993      -0.02127008       0.02639417       0.10427969
K        4.01076174       4.07227975       8.03327921      -0.04667328       0.01484418      -0.08159123
K        8.17910232       4.00895816       8.06365677       0.06423214      -0.04847746      -0.05121359
Nb       2.21409356       1.93623639       2.25195781       0.18537608      -0.09248137       0.22324012
Nb       6.24873065       1.90341822       2.03273111       0.16257803      -0.12529959       0.00401350
Nb       1.76541204       5.97237184       2.02162006      -0.26330548      -0.11378088      -0.00709774
Nb       5.82733690       5.94488124       1.84330984      -0.25881578      -0.14127154      -0.18540789
Nb       1.90810781       1.90611379       6.31426920      -0.12060959      -0.12260408       0.22811631
Nb       5.94534528       2.30104398       6.04763589      -0.14080726       0.27232605      -0.03851693
Nb       2.31131694       5.92822654       6.03125303       0.28259950      -0.15792630      -0.05489998
Nb       6.32182762       6.33986335       5.89416880       0.23567502       0.25371046      -0.19198413
O       -0.06195378       2.09472868       2.00896934      -0.06195392       0.06601174      -0.01974838
O        3.98368741       2.04822137       2.08570104      -0.07374789       0.01950437       0.05698339
O       -0.08507308       5.96022555       2.07257539      -0.08507327      -0.12592636       0.04385755
O        4.02174282       6.22450041       2.17023492      -0.03569252       0.13834845       0.14151716
O       -0.02667587       2.00869347       6.01255324      -0.02667592      -0.02002359      -0.07359969
O        4.10127486       2.16410021       6.17084905       0.04383965       0.13538311       0.08469621
O       -0.06796941       6.19097886       6.08217173      -0.06796951       0.10482684      -0.00398131
O        4.05262788       6.15482555       6.06738587      -0.00480738       0.06867348      -0.01876709
O        2.15759335       4.05832042       2.04235197       0.12887594       0.00088552       0.01363441
O        6.04564891       4.10168694       2.13425492      -0.04050366       0.04425199       0.10553744
O        2.04718007       8.15183328       1.95833781       0.01846260       0.03696342      -0.07037986
O        6.03923184       8.20315919       2.05331262      -0.04692078       0.08828928       0.02459503
O        1.84099429       4.11223696       6.17696116      -0.18772304       0.05480195       0.09080840
O        6.23821764       4.14314818       6.12839278       0.15206515       0.08571312       0.04224009
O        2.09546618       8.18291433       6.01275204       0.06674880       0.06804436      -0.07340084
O        6.10027074       8.15308005       6.16288876       0.01411820       0.03821002       0.07673596
O        1.98891542       2.04426365       3.97030253      -0.03980223       0.01554580      -0.08713266
O        5.87574476       2.10600572       4.08092060      -0.21040805       0.07728782       0.02348549
O        2.03042786       6.08260157       4.10830337       0.00171015      -0.00355125       0.05086807
O        6.05724746       6.15730704       4.07796933      -0.02890539       0.07115417       0.02053411
O        1.96305702       2.04409947       8.08783456      -0.06566055       0.01538150      -0.02703583
O        6.12141836       2.15372484       8.12045327       0.03526564       0.12500682       0.00558296
O        1.86344383       6.06489558       8.10935021      -0.16527379      -0.02125735      -0.00552029
O        6.10069060       6.05948673       8.11480371       0.01453783      -0.02666625      -0.00006671
40
Lattice="8.114870309777642 1.0311789206707726e-07 -1.6384903408977124e-07 1.0311785748845261e-07 8.114869930248256 2.242601906454912e-07 -1.638490223110111e-07 2.2426020397351547e-07 8.11487040810358" Properties=species:S:1:pos:R:3:u_disp:R:3 system=knbo3_cubic base_model=chgnet role=train_pool T=100.0 draw=2 n_tries=13 rms_disp_A=0.1397842133427967 min_pair_ratio=0.8591012419094178 nearest_heldout_A=0.12996806154978843 site_map_ok=1 nearest_heldout_src=knbo3_cubic_orb_v2_q1d2-1d2-0-b0.extxyz#4 pbc="T T T"
K        3.99151925      -0.03847949       3.94669451      -0.06591580      -0.03847999      -0.11074062
K        8.04445988       0.02350981       4.09544517      -0.07041032       0.02350926       0.03801013
K        4.08721404       4.00195012       4.05737584       0.02977893      -0.05548534      -0.00005939
K        8.16148399       4.10576493       4.09877020       0.04661373       0.04832943       0.04133505
K        4.06263243      -0.05264211       8.06121889       0.00519746      -0.05264272      -0.05365143
K        8.14027562       0.00709718       8.19460126       0.02540550       0.00709653       0.07973102
K        3.92050109       4.10202320       8.05174047      -0.13693393       0.04458763      -0.06312996
K        8.10948958       4.09557609       8.09442667      -0.00538059       0.03814047      -0.02044368
Nb       1.91981724       2.12081200       2.25994906      -0.10890023       0.09209424       0.23123136
Nb       5.99094777       2.01854763       1.84624496      -0.09520486      -0.01017019      -0.18247265
Nb       2.12316944       6.16375593       2.03441919       0.09445191       0.07760321       0.00570138
Nb       6.12951281       6.02571794       2.04749623       0.04336013      -0.06043484       0.01877851
Nb       2.08040682       1.92259440       6.30513509       0.05168943      -0.10612348       0.21898219
Nb       6.18488490       2.01920955       5.89826244       0.09873235      -0.00950837      -0.18789038
Nb       2.01104573       6.06987399       6.07536646      -0.01767172      -0.01627885      -0.01078655
Nb       5.99275020       6.06578788       6.12767950      -0.09340240      -0.02036501       0.04152657
O        0.03751720       1.95186537       2.04432366       0.03751706      -0.07685157       0.01560594
O        4.12178102       2.02561302       2.05591557       0.06434573      -0.00310398       0.02719793
O       -0.04841244       6.00069729       2.05873075      -0.04841263      -0.08545462       0.03001292
O        4.02676308       5.92391084       2.04156087      -0.03067226      -0.16224112       0.01284311
O        0.01608998       2.16373401       6.06802408       0.01608993       0.13501695      -0.01812885
O        4.03896703       1.99684287       6.11007552      -0.01846818      -0.03187424       0.02392267
O        0.01387598       6.22199767       6.05046355       0.01387587       0.13584565      -0.03568949
O        4.10419160       6.09593230       5.95098490       0.04675633       0.00978023      -0.13516806
O        2.01386906       3.90193464       1.89424915      -0.01484835      -0.15550025      -0.13446841
O        6.12116644       4.06177444       1.97721624       0.03501388       0.00433949      -0.05150124
O        2.07527464       8.08381195       2.01196415       0.04655718      -0.03105791      -0.01675352
O        6.22874331       8.05813883       1.82030883       0.14259069      -0.05673108      -0.20840876
O        1.98562196       4.10406541       6.14133184      -0.04309537       0.04663041       0.05517907
O        6.13846841       4.07030875       6.04370295       0.05231592       0.01287369      -0.04244973
O        2.30441834       8.22905661       6.06652098       0.27570096       0.11418664      -0.01963190
O        6.14294595       8.19688361       6.03042491       0.05679341       0.08201358      -0.05572789
O        2.04983333       2.08832127       4.06351011       0.02111568       0.05960341       0.00607493
O        6.12358451       2.00168281       4.06135242       0.03743171      -0.02703510       0.00391732
O        1.95398462       6.16032766       4.02618038      -0.07473309       0.07417484      -0.03125492
O        6.15098843       6.27813223       4.07315107       0.06483558       0.19197936       0.01571585
O        1.90125054       2.04282274       8.03460203      -0.12746703       0.01410477      -0.08026836
O        6.16115867       2.07816833       8.16949170       0.07500595       0.04945031       0.05462139
O        1.95990518       6.14080338       8.11648254      -0.06881244       0.05465045       0.00161204
O        6.10263948       6.00339019       8.13064993       0.01648671      -0.08276279       0.01577951
40
Lattice="8.114870309777642 1.0311789206707726e-07 -1.6384903408977124e-07 1.0311785748845261e-07 8.114869930248256 2.242601906454912e-07 -1.638490223110111e-07 2.2426020397351547e-07 8.11487040810358" Properties=species:S:1:pos:R:3:u_disp:R:3 system=knbo3_cubic base_model=chgnet role=train_pool T=100.0 draw=3 n_tries=13 rms_disp_A=0.15715017592641786 min_pair_ratio=0.8475615176591743 nearest_heldout_A=0.1396761943542407 site_map_ok=1 nearest_heldout_src=knbo3_cubic_orb_v2_q0-0-1d2-b0.extxyz#5 pbc="T T T"
K        4.08794751       0.01539644       4.09866653       0.03051246       0.01539595       0.04123141
K        7.99016625      -0.01232158       4.23748067      -0.12470396      -0.01232212       0.18004564
K        4.10515153       3.97871506       4.04599692       0.04771643      -0.07872040      -0.01143831
K        8.16303580       4.04575002       4.08513185       0.04816554      -0.01168549       0.02769670
K        4.07962327       0.06055533       8.21281139       0.02218830       0.06055472       0.09794107
K        8.16908891      -0.03913408       8.07334848       0.05421879      -0.03913473      -0.04152176
K        3.99525448       3.96371680       8.03896725      -0.06218054      -0.09371877      -0.07590318
K        8.01164914       4.06431847       8.06409247      -0.10322104       0.00688285      -0.05077788
Nb       1.86358240       2.15276314       2.10060827      -0.16513508       0.12404538       0.07189058
Nb       5.94908496       2.16357991       2.02827103      -0.13706767       0.13486210      -0.00044658
Nb       2.10652069       6.22759821       1.78735708       0.07780316       0.14144548      -0.24136072
Nb       6.18124179       6.20655318       2.18834401       0.09508911       0.12040040       0.15962628
Nb       2.03507654       1.84271151       6.17157556       0.00635914      -0.18600637       0.08542266
Nb       6.08529733       1.94132811       6.07548404      -0.00085522      -0.08738981      -0.01066878
Nb       2.19656681       5.86650248       5.88449345       0.16784936      -0.21965036      -0.20165956
Nb       6.23125128       5.98598334       6.25809908       0.14509868      -0.10016955       0.17194616
O        0.01345897       1.94766784       2.01510232       0.01345883      -0.08104911      -0.01361540
O        4.00207444       2.04983101       1.91948670      -0.05536085       0.02111401      -0.10923095
O       -0.04342142       6.02026245       1.99006410      -0.04342161      -0.06588946      -0.03865374
O        4.12513826       5.96925588       2.05579160       0.06770291      -0.11689608       0.02707385
O        0.04877083       1.98573056       6.09989024       0.04877077      -0.04298650       0.01373731
O        4.02723345       2.24104066       6.00001227      -0.03020176       0.21232355      -0.08614058
O       -0.13853567       6.27309191       6.06466606      -0.13853578       0.18693989      -0.02148698
O        4.02406723       6.21436552       6.11432504      -0.03336803       0.12821344       0.02817208
O        1.98557830       4.06233762       1.95385447      -0.04313911       0.00490272      -0.07486310
O        6.18707209       4.02730245       1.98034403       0.10091952      -0.03013249      -0.04837345
O        2.01905820       8.19517480       1.89870918      -0.00965926       0.08030494      -0.13000849
O        6.07020083       8.10516690       1.96681666      -0.01595179      -0.00970301      -0.06190093
O        1.88581415       4.18610236       6.07486090      -0.14290318       0.12866736      -0.01129187
O        6.14037951       4.09691283       6.00731865       0.05422703       0.03947777      -0.07883403
O        1.94487956       8.23452592       6.13830527      -0.08383782       0.11965595       0.05215239
O        5.91334657       8.10944042       6.19388338      -0.17280597      -0.00542960       0.10773058
O        2.01643474       2.02318197       4.05346833      -0.01228291      -0.00553588      -0.00396686
O        6.09540115       2.05985556       4.01504360       0.00924834       0.03113766      -0.04239151
O        1.93978125       6.15396502       4.05613126      -0.08893645       0.06781220      -0.00130404
O        5.89956015       6.04008273       4.00725883      -0.18659270      -0.04607014      -0.05017639
O        2.01184879       2.13155606       8.09505414      -0.01686878       0.10283809      -0.01981625
O        6.00821648       2.08120386       8.10839308      -0.07793625       0.05248584      -0.00647723
O        1.99997287       6.14803821       8.13809440      -0.02874475       0.06188527       0.02322390
O        6.08740082       6.04614359       8.05075060       0.00124804      -0.04000939      -0.06411982
40
Lattice="8.114870309777642 1.0311789206707726e-07 -1.6384903408977124e-07 1.0311785748845261e-07 8.114869930248256 2.242601906454912e-07 -1.638490223110111e-07 2.2426020397351547e-07 8.11487040810358" Properties=species:S:1:pos:R:3:u_disp:R:3 system=knbo3_cubic base_model=chgnet role=train_pool T=100.0 draw=4 n_tries=13 rms_disp_A=0.1681674269912535 min_pair_ratio=0.821390095754285 nearest_heldout_A=0.1450081511077455 site_map_ok=1 nearest_heldout_src=knbo3_cubic_sevennet0_q0-1d2-1d2-b0.extxyz#5 pbc="T T T"
K        4.04629002       0.02301249       4.10523646      -0.01114503       0.02301199       0.04780134
K        8.12743378      -0.03631546       4.14520139       0.01256357      -0.03631600       0.08776636
K        4.13615083       4.11111322       4.15179248       0.07871573       0.05367776       0.09435725
K        8.06961084       4.10069320       3.96798387      -0.04525942       0.04325769      -0.08945128
K        3.98136000      -0.11781772       8.12268426      -0.07607497      -0.11781832       0.00781393
K        8.06467595      -0.01437093       8.16042267      -0.05019418      -0.01437158       0.04555243
K        4.07089400       4.18683790       8.14630326       0.01345898       0.12940233       0.03143283
K        8.16539083       4.09789140       8.13897626       0.05052065       0.04045578       0.02410591
Nb       2.17697459       1.93364711       1.96500412       0.14825712      -0.09507065      -0.06371357
Nb       6.19122356       1.96743160       2.03071600       0.10507093      -0.06128621       0.00199839
Nb       1.76788324       6.00409278       1.95009725      -0.26083429      -0.08205994      -0.07862055
Nb       5.82493842       6.08558276       2.21386328      -0.26121426      -0.00057002       0.18514556
Nb       1.86800875       2.20752062       6.01408574      -0.16070864       0.17880275      -0.07206715
Nb       5.90475751       2.05041030       6.10364048      -0.18139503       0.02169237       0.01748766
Nb       2.40152366       6.19231206       6.00192164       0.37280621       0.10615922      -0.08423137
Nb       6.37936596       6.07271728       6.25579347       0.29321336      -0.01343561       0.16964055
O        0.03257393       2.06396635       1.98830775       0.03257379       0.03524940      -0.04040997
O        4.07547946       1.87542926       1.95010096       0.01804416      -0.15328773      -0.07861668
O       -0.04382450       6.00799840       1.87994403      -0.04382469      -0.07815351      -0.14877381
O        4.07260072       6.20061794       1.91491193       0.01516537       0.11446598      -0.11380583
O       -0.03724520       1.97950912       5.92012693      -0.03724525      -0.04920793      -0.16602600
O        4.04307576       1.90541719       6.14479464      -0.01435946      -0.12329992       0.05864180
O       -0.01330363       6.03356934       6.00200994      -0.01330374      -0.05258268      -0.08414310
O        4.05245828       5.98268278       5.91675551      -0.00497698      -0.10346929      -0.16939745
O        2.11669778       4.01517548       2.00275291       0.08798037      -0.04225942      -0.02596465
O        5.98083409       4.03449849       1.90137725      -0.10531847      -0.02293645      -0.12734023
O        2.07138862       8.02573875       2.16985983       0.04267115      -0.08913111       0.14114215
O        6.16412020       8.10764508       2.02497676       0.07796759      -0.00722483      -0.00374083
O        2.01393746       4.02005038       6.01101974      -0.01477988      -0.03738462      -0.07513303
O        5.90762339       4.07836384       6.11921294      -0.17852910       0.02092878       0.03306026
O        2.01576107       8.09812756       6.17662924      -0.01295632      -0.01674241       0.09047637
O        5.94183468       8.12082916       6.05292985      -0.14431785       0.00595914      -0.03322294
O        2.09937266       2.09669481       3.99201483       0.07065501       0.06797695      -0.06542036
O        6.08085330       1.93476745       4.01774460      -0.00529951      -0.09395046      -0.03969051
O        1.94992264       6.13368223       3.97812012      -0.07879507       0.04752941      -0.07931518
O        6.16721368       5.99622025       4.00382894       0.08106083      -0.08993262      -0.05360627
O        1.97509912       2.09013438       8.15300679      -0.05361844       0.06141642       0.03813640
O        6.16506767       2.06569719       8.13096751       0.07891495       0.03697917       0.01609720
O        2.06109589       5.98720592       8.01227058       0.03237827      -0.09894701      -0.10259992
O        6.00254791       6.14281603       8.09587876      -0.08360486       0.05666305      -0.01899166
40
Lattice="8.114870309777642 1.0311789206707726e-07 -1.6384903408977124e-07 1.0311785748845261e-07 8.114869930248256 2.242601906454912e-07 -1.638490223110111e-07 2.2426020397351547e-07 8.11487040810358" Properties=species:S:1:pos:R:3:u_disp:R:3 system=knbo3_cubic base_model=chgnet role=train_pool T=100.0 draw=5 n_tries=13 rms_disp_A=0.14743831580535466 min_pair_ratio=0.8340081330772101 nearest_heldout_A=0.13403582961525573 site_map_ok=1 nearest_heldout_src=knbo3_cubic_orb_v2_q0-0-1d2-b0.extxyz#4 pbc="T T T"
K        4.07535682       0.00301118       4.07785594       0.01792177       0.00301069       0.02042082
K        8.16719550      -0.06317912       4.08020825       0.05232530      -0.06317966       0.02277321
K        3.95760455       4.04352738       4.04819547      -0.09983055      -0.01390807      -0.00923976
K        8.10619841       4.13536682       4.06667553      -0.00867185       0.07793131       0.00924038
K        3.97016606       0.06266348       8.08919159      -0.08726891       0.06266288      -0.02567873
K        8.08755799      -0.02464193       8.02513109      -0.02731213      -0.02464259      -0.08973915
K        4.11056942       4.07486564       8.11696634       0.05313440       0.01743007       0.00209590
K        8.20170898       4.00174337       8.14406123       0.08683881      -0.05569225       0.02919087
Nb       1.95913128       2.08526768       2.07181245      -0.06958620       0.05654992       0.04309476
Nb       6.01843774       2.10249880       2.07435194      -0.06771489       0.07378098       0.04563432
Nb       1.94027830       6.16412230       2.22664417      -0.08843922       0.07796957       0.19792636
Nb       5.99190618       6.16666395       1.77677890      -0.09424650       0.08051117      -0.25193883
Nb       2.29737392       1.87867086       6.17364751       0.26865653      -0.15004701       0.08749462
Nb       6.33941389       1.93212044       6.07188565       0.25326135      -0.09659748      -0.01426717
Nb       2.01884095       5.94267414       6.28167768      -0.00987649      -0.14347870       0.19552467
Nb       5.98492187       6.00436690       5.87686272      -0.10123073      -0.08178599      -0.20929021
O       -0.01518478       1.98896536       2.00264542      -0.01518492      -0.03975158      -0.02607231
O        4.07619025       2.06075259       1.99229727       0.01875495       0.03203560      -0.03642038
O        0.01935464       6.10837331       1.94396983       0.01935445       0.02222140      -0.08474801
O        4.13056437       6.20494413       2.02599518       0.07312902       0.11879217      -0.00272258
O       -0.09144596       2.09065452       6.11343856      -0.09144602       0.06193747       0.02728563
O        3.97628978       2.14743054       6.07711399      -0.08114543       0.11871343      -0.00903886
O        0.00771172       6.14026324       6.09919218       0.00771161       0.05411122       0.01303914
O        4.03497972       6.18781664       6.13256680      -0.02245554       0.10166457       0.04641384
O        2.11519028       4.11720954       1.95939220       0.08647287       0.05977464      -0.06932536
O        6.22711453       4.05785993       2.00688235       0.14096196       0.00042499      -0.02183513
O        1.98286075       8.16646260       2.05458262      -0.04585671       0.05159275       0.02586495
O        6.22726956       8.07044249       2.04495292       0.14111694      -0.04442743       0.01623533
O        1.96520984       4.06158808       6.09465503      -0.06350749       0.00415307       0.00850226
O        6.07665725       4.12470599       6.04536597      -0.00949523       0.06727094      -0.04078671
O        1.87546326       8.16799038       6.01492285      -0.15325412       0.05312041      -0.07123002
O        5.90699236       8.13969499       6.02595261      -0.17916017       0.02482497      -0.06020019
O        1.94857112       2.16940773       4.06555760      -0.08014653       0.14068988       0.00812241
O        5.93933028       2.10943120       3.99603259      -0.14682253       0.08071329      -0.06140251
O        2.04665870       6.05841328       4.04447546       0.01794100      -0.02773954      -0.01295984
O        6.01257565       6.10227565       4.06078566      -0.07357721       0.01612278       0.00335044
O        1.97703196       2.07182821       8.13163145      -0.05168561       0.04311024       0.01676106
O        5.92599346       2.00831898       8.09640774      -0.16015926      -0.02039904      -0.01846257
O        2.17495913       6.18907528       8.06579348       0.14624151       0.10292235      -0.04907702
O        6.11239747       6.11866963       8.06673256       0.02624469       0.03251665      -0.04813786
40
Lattice="8.114870309777642 1.0311789206707726e-07 -1.6384903408977124e-07 1.0311785748845261e-07 8.114869930248256 2.242601906454912e-07 -1.638490223110111e-07 2.2426020397351547e-07 8.11487040810358" Properties=species:S:1:pos:R:3:u_disp:R:3 system=knbo3_cubic base_model=chgnet role=train_pool T=100.0 draw=6 n_tries=13 rms_disp_A=0.15562378764486925 min_pair_ratio=0.8271322062965878 nearest_heldout_A=0.1425665856453238 site_map_ok=1 nearest_heldout_src=knbo3_cubic_sevennet0_q0-1d2-1d2-b0.extxyz#4 pbc="T T T"
K        4.10220329      -0.06998030       4.16993607       0.04476824      -0.06998079       0.11250095
K        8.18471871      -0.04807569       4.05090412       0.06984851      -0.04807624      -0.00653092
K        4.01199613       4.08028713       4.08320959      -0.04543897       0.02285167       0.02577436
K        8.00910015       4.15169325       4.02253225      -0.10577011       0.09425774      -0.03490290
K        4.11829094      -0.01381402       8.10532744       0.06085597      -0.01381463      -0.00954289
K        8.13794778       0.07488269       8.16404786       0.02307766       0.07488204       0.04917761
K        3.97546424       4.05767581       8.14360805      -0.08197078       0.00024024       0.02873762
K        8.08259260       4.06650960       8.11396481      -0.03227758       0.00907398      -0.00090554
Nb       2.23294852       2.00080279       2.02718149       0.20423105      -0.02791497      -0.00153620
Nb       6.22127728       2.13647699       1.84045408       0.13512466       0.10775918      -0.18826353
Nb       1.79660233       6.02472901       2.30436781      -0.23211519      -0.06142372       0.27565001
Nb       5.81574915       6.15947687       1.97641769      -0.27040353       0.07332409      -0.05230003
Nb       1.97693967       2.16725388       6.12788511      -0.05177772       0.13853601       0.04173222
Nb       6.09139411       1.91054549       5.89837993       0.00524156      -0.11817243      -0.18777289
Nb       2.12883694       6.26090498       6.28724820       0.10011949       0.17475214       0.20109519
Nb       6.17619309       5.95319075       6.04448027       0.09004049      -0.13296214      -0.04167265
O       -0.02106936       1.98047112       2.09205637      -0.02106950      -0.04824582       0.06333865
O        4.05801443       1.93185792       2.09009480       0.00057913      -0.09685908       0.06137715
O        0.00827498       6.08231081       2.09817232       0.00827480      -0.00384110       0.06945448
O        4.15254627       5.97388037       2.09910468       0.09511092      -0.11227159       0.07038692
O        0.03527896       2.05796945       6.00200594       0.03527890       0.02925239      -0.08414699
O        4.03858559       1.91959168       6.11353256      -0.01884962      -0.10912543       0.02737971
O        0.02448230       6.05938568       5.95051029       0.02448220      -0.02676634      -0.13564275
O        3.93491634       6.21005552       5.97319522      -0.12251892       0.12390344      -0.11295774
O        2.10797324       3.99671838       1.85263218       0.07925582      -0.06071651      -0.17608538
O        6.12174366       3.95357113       1.96429809       0.03559110      -0.10386381      -0.06441939
O        2.03257271       7.96031937       2.12922531       0.00385525      -0.15455049       0.10050763
O        6.02754821       8.05062754       1.95671669      -0.05860441      -0.06424237      -0.07200091
O        2.08276546       3.98957831       6.06594571       0.05404813      -0.06785670      -0.02020706
O        6.08014860       4.09263455       6.12490582      -0.00600389       0.03519950       0.03875314
O        1.92435526       8.11056573       6.04514476      -0.10436212      -0.00430424      -0.04100811
O        6.09822874       8.13388432       6.07745965       0.01207620       0.01901430      -0.00869315
O        2.08546979       1.91270795       3.97789824       0.05675213      -0.11600990      -0.07953695
O        6.03549550       2.05845259       3.95228014      -0.05065731       0.02973469      -0.10515496
O        2.03122370       5.89807891       3.96147563       0.00250600      -0.18807391      -0.09595967
O        6.16849131       6.04765934       4.09723723       0.08233846      -0.03849354       0.03980201
O        2.06860407       1.91836411       8.07798611       0.03988650      -0.11035386      -0.03688428
O        6.15187071       2.02324736       8.11220109       0.06571798      -0.00547066      -0.00266922
O        2.06475572       6.15399718       8.07568877       0.03603810       0.06784425      -0.03918174
O        6.11339157       6.02890531       8.04436451       0.02723879      -0.05724768      -0.07050591
40
Lattice="8.114870309777642 1.0311789206707726e-07 -1.6384903408977124e-07 1.0311785748845261e-07 8.114869930248256 2.242601906454912e-07 -1.638490223110111e-07 2.2426020397351547e-07 8.11487040810358" Properties=species:S:1:pos:R:3:u_disp:R:3 system=knbo3_cubic base_model=chgnet role=train_pool T=100.0 draw=7 n_tries=13 rms_disp_A=0.17582525734777443 min_pair_ratio=0.8052166378023273 nearest_heldout_A=0.1556674347350203 site_map_ok=1 nearest_heldout_src=knbo3_cubic_orb_v2_q1d2-1d2-0-b0.extxyz#5 pbc="T T T"
K        4.11742342       0.02117814       4.06904776       0.05998837       0.02117765       0.01161264
K        8.10436794      -0.07689699       3.99922390      -0.01050226      -0.07689753      -0.05821114
K        4.13866534       4.15695897       4.08542701       0.08123023       0.09952352       0.02799178
K        8.22686377       4.08507513       4.13814659       0.11199351       0.02763962       0.08071144
K        4.09521464      -0.02054111       8.12184980       0.03777967      -0.02054172       0.00697947
K        8.09205925       0.09335235       8.15395451      -0.02281087       0.09335170       0.03908427
K        3.97469096       4.01183877       8.09218736      -0.08274406      -0.04559680      -0.02268308
K        8.10206610       4.14716612       8.02746794      -0.01280407       0.08973050      -0.08740241
Nb       2.03118822       2.31889125       2.10470198       0.00247074       0.29017349       0.07598429
Nb       6.15764092       2.03011830       1.91197462       0.07148829       0.00140049      -0.11674299
Nb       2.15516964       6.37090392       1.73164861       0.12645211       0.28475120      -0.29706920
Nb       6.22419798       6.08775366       2.17842871       0.13804530       0.00160088       0.14971098
Nb       1.92459932       1.82469018       6.15232268      -0.10411807      -0.20402770       0.06616978
Nb       5.99839035       2.05250487       6.05771563      -0.08776220       0.02378694      -0.02843718
Nb       1.92658203       5.94145133       5.82944631      -0.10213541      -0.14470151      -0.25670670
Nb       6.02171337       6.11084342       6.31891688      -0.06443923       0.02469053       0.23276395
O       -0.00609673       2.13456311       2.05439751      -0.00609687       0.10584617       0.02567979
O        3.99853937       1.88931272       2.21519136      -0.05889592      -0.13940428       0.18647372
O       -0.05127501       5.98501259       2.02211335      -0.05127520      -0.10113932      -0.00660449
O        4.04398346       6.12806756       2.02937219      -0.01345189       0.04191560       0.00065443
O        0.08305162       1.96621777       6.24281194       0.08305157      -0.06249929       0.15665901
O        4.09119052       1.94053256       6.15294258       0.03375531      -0.08818455       0.06678974
O        0.04195973       6.05602004       6.17308432       0.04195962      -0.03013198       0.08693127
O        4.07001967       6.04302833       6.10881835       0.01258441      -0.04312374       0.02266539
O        1.99394176       3.97383667       2.10169135      -0.03477565      -0.08359822       0.07297379
O        5.93976717       3.93086295       2.07743303      -0.14638540      -0.12657200       0.04871555
O        1.76136207       7.92044176       2.06684388      -0.26735539      -0.19442810       0.03812621
O        6.04560567       8.01409914       2.00453785      -0.04054695      -0.10077077      -0.02417974
O        2.09862605       3.96530017       6.10698698       0.06990872      -0.09213484       0.02083421
O        5.91810848       3.96085631       6.16821374      -0.16804401      -0.09657875       0.08206106
O        2.08199442       8.06011936       6.11409409       0.05327704      -0.05475061       0.02794122
O        6.01724031       8.05403205       6.14516782      -0.06891223      -0.06083797       0.05901503
O        1.99891420       1.89029514       4.08640138      -0.02980345      -0.13842271       0.02896619
O        6.16140544       1.88488591       4.10258127       0.07525263      -0.14383200       0.04514617
O        2.10375371       5.97350129       4.04245562       0.07503601      -0.11265153      -0.01497968
O        6.03510645       5.98775143       4.07090446      -0.05104640      -0.09840144       0.01346924
O        2.10911306       1.82509075       8.23165278       0.08039549      -0.20362722       0.11678239
O        6.08787249       1.92160307       8.18834826       0.00171976      -0.10711495       0.07347795
O        2.14864317       6.02458595       8.03116511       0.11992555      -0.06156698      -0.08370540
O        6.09580041       6.00537688       8.08795600       0.00964764      -0.08077610      -0.02691442
40
Lattice="8.114870309777642 1.0311789206707726e-07 -1.6384903408977124e-07 1.0311785748845261e-07 8.114869930248256 2.242601906454912e-07 -1.638490223110111e-07 2.2426020397351547e-07 8.11487040810358" Properties=species:S:1:pos:R:3:u_disp:R:3 system=knbo3_cubic base_model=chgnet role=train_pool T=100.0 draw=8 n_tries=13 rms_disp_A=0.17384812713270886 min_pair_ratio=0.8014872435750492 nearest_heldout_A=0.15617458810452955 site_map_ok=1 nearest_heldout_src=knbo3_cubic_orb_v2_q1d2-1d2-0-b0.extxyz#5 pbc="T T T"
K        4.04366314       0.05294196       4.02238414      -0.01377191       0.05294147      -0.03505098
K        8.17702409      -0.01677199       4.06842487       0.06215389      -0.01677254       0.01098983
K        4.07281597       4.06581426       4.08549381       0.01538087       0.00837880       0.02805857
K        8.11853339       3.98587262       4.03738389       0.00366314      -0.07156289      -0.02005127
K        4.06963152       0.08221554       8.10779161       0.01219655       0.08221493      -0.00707872
K        8.19568801       0.00863487       8.08383487       0.08081789       0.00863421      -0.03103537
K        4.17495981       4.10716534       8.19685013       0.11752479       0.04972977       0.08197969
K        8.16867788       4.00798846       8.03919231       0.05380771      -0.04944716      -0.07567804
Nb       2.03169027       2.31612894       2.25384304       0.00297280       0.28741118       0.22512535
Nb       6.11305905       1.97484632       1.87226208       0.02690643      -0.05387149      -0.15645553
Nb       2.23755074       6.40500910       1.86195297       0.20883321       0.31885638      -0.16676484
Nb       6.30426368       6.03351158       2.13734250       0.21811100      -0.05264119       0.10862478
Nb       2.06657067       1.87998480       6.25457552       0.03785327      -0.14873308       0.16842262
Nb       6.12624644       1.99355559       5.93871443       0.04009389      -0.03516233      -0.14743839
Nb       1.77375942       5.88839043       5.85759625      -0.25495802      -0.19776241      -0.22855676
Nb       5.87475162       6.04609301       6.15453641      -0.21140098      -0.04005988       0.06838348
O       -0.04621066       1.83835870       2.03688597      -0.04621080      -0.19035825       0.00816824
O        4.00759032       2.01603310       2.00752519      -0.04984497      -0.01268389      -0.02119245
O       -0.19042614       6.03815365       2.00008363      -0.19042633      -0.04799826      -0.02863421
O        3.94894502       6.05128277       2.12686649      -0.10849032      -0.03486920       0.09814874
O        0.09248163       2.14164410       6.16465169       0.09248157       0.11292704       0.07849876
O        4.03235226       2.11114568       6.19231049      -0.02508295       0.08242857       0.10615764
O       -0.03921102       6.12071031       6.07235228      -0.03921113       0.03455828      -0.01380077
O        3.99843831       6.09537332       6.06322641      -0.05899695       0.00922125      -0.02292655
O        2.00229006       4.10548948       2.18774114      -0.02642736       0.04805459       0.15902358
O        6.03297383       3.99748419       2.12629522      -0.05317874      -0.05995075       0.09757774
O        1.94422958       8.18992993       2.14081688      -0.08448788       0.07506007       0.11209920
O        5.88134572       8.01041486       2.12060695      -0.20480690      -0.10445505       0.09188936
O        1.99452319       4.01938965       6.13473641      -0.03419414      -0.03804536       0.04858365
O        6.17156534       4.10847682       6.15240494       0.08541286       0.05104176       0.06625226
O        1.93619551       8.09718833       6.01814497      -0.09252188      -0.01768164      -0.06800791
O        6.02839659       8.14238915       6.07610575      -0.05775595       0.02751913      -0.01004705
O        2.04146795       2.06566395       3.99466108       0.01275030       0.03694609      -0.06277410
O        6.16114542       1.92569092       4.14167431       0.07499262      -0.10302698       0.08423921
O        1.91008186       6.04460966       4.06106157      -0.11863584      -0.04154315       0.00362627
O        6.04431910       5.98283386       4.02304677      -0.04183375      -0.10331901      -0.03438844
O        2.04261754       2.02934592       8.16891660       0.01389997       0.00062796       0.05404621
O        6.09262436       1.90564077       8.19246454       0.00647164      -0.12307724       0.07759423
O        1.90003135       5.99103181       8.13209631      -0.12868627      -0.09512112       0.01722581
O        5.95291377       5.97006272       8.13759092      -0.13323900      -0.11609027       0.02272050
40
Lattice="8.114870309777642 1.0311789206707726e-07 -1.6384903408977124e-07 1.0311785748845261e-07 8.114869930248256 2.242601906454912e-07 -1.638490223110111e-07 2.2426020397351547e-07 8.11487040810358" Properties=species:S:1:pos:R:3:u_disp:R:3 system=knbo3_cubic base_model=chgnet role=train_pool T=100.0 draw=9 n_tries=13 rms_disp_A=0.13857306336070394 min_pair_ratio=0.8293507854206773 nearest_heldout_A=0.1149329421569822 site_map_ok=1 nearest_heldout_src=knbo3_cubic_mace_mp0_q0-0-1d2-b0.extxyz#5 pbc="T T T"
K        4.00272732      -0.03055286       4.03245853      -0.05470773      -0.03055336      -0.02497659
K        8.16211278       0.00057471       4.03453087       0.04724257       0.00057417      -0.02290416
K        3.96054814       4.15321839       4.04029315      -0.09688696       0.09578294      -0.01714209
K        8.10560383       4.02177358       4.09676170      -0.00926643      -0.03566192       0.03932655
K        4.06251937      -0.00091067       8.06978822       0.00508440      -0.00091127      -0.04508211
K        8.11251239       0.02087429       8.09751363      -0.00235774       0.02087363      -0.01735661
K        4.03319662       4.09658169       8.17914456      -0.02423840       0.03914612       0.06427412
K        8.12800693       4.01827257       8.08266022       0.01313676      -0.03916305      -0.03221013
Nb       2.16832568       2.03115938       2.11602697       0.13960821       0.00244162       0.08730928
Nb       6.24381929       2.00566498       1.96072244       0.15766666      -0.02305284      -0.06799518
Nb       2.17813000       6.12233330       2.15962593       0.14941247       0.03618057       0.13090813
Nb       6.21164974       6.01403208       1.94398282       0.12549706      -0.07212069      -0.08473490
Nb       1.89803509       1.93190613       6.14664679      -0.13068230      -0.09681174       0.06049389
Nb       5.96843297       2.15007926       5.99997187      -0.11771958       0.12136134      -0.08618095
Nb       1.91484009       5.98031027       6.19214820      -0.11387735      -0.10584256       0.10599519
Nb       5.98069636       6.19282599       5.94853522      -0.10545624       0.10667310      -0.13761771
O       -0.10985087       1.97858942       1.95069871      -0.10985101      -0.05012753      -0.07801901
O        3.84653750       2.14074325       2.06639062      -0.21089779       0.11202625       0.03767298
O       -0.01900652       6.02034571       2.06753889      -0.01900671      -0.06580620       0.03882106
O        4.05397925       6.04473851       2.11717447      -0.00345610      -0.04141346       0.08845672
O        0.08596829       1.95157504       6.08206908       0.08596823      -0.07714202      -0.00408385
O        4.08980024       1.85242024       6.10249090       0.03236503      -0.17629687       0.01633805
O        0.05992690       6.05433189       6.14633114       0.05992679      -0.03182013       0.06017809
O        4.07131059       6.12779456       6.16739097       0.01387533       0.04164248       0.08123801
O        1.79438303       4.12493266       1.98030283      -0.23433439       0.06749777      -0.04841473
O        5.99394502       4.11907959       2.05560170      -0.09220755       0.06164464       0.02688422
O        1.91053423       8.12700208       2.07529092      -0.11818323       0.01213222       0.04657324
O        5.91109078       8.08882897       2.07257748      -0.17506184      -0.02604094       0.04385989
O        2.24501183       4.05920482       6.12493346       0.21629450       0.00176981       0.03878070
O        6.17145221       4.02429029       6.08096632       0.08529972      -0.03314477      -0.00518637
O        2.01052524       8.08430849       6.05536142      -0.01819214      -0.03056148      -0.03079145
O        6.12761816       8.11255670       6.07297438       0.04146562      -0.00231332      -0.01317842
O        1.97313749       2.16834811       4.00238877      -0.05558016       0.13963025      -0.05504642
O        6.14227152       2.03753392       4.03486184       0.05611871       0.00881602      -0.02257327
O        2.10742327       6.14403899       3.95452449       0.07870557       0.05788617      -0.10291081
O        6.06044534       6.07861864       4.14983043      -0.02570752      -0.00753423       0.09239521
O        2.00259565       2.05199346       8.10005576      -0.02612192       0.02327549      -0.01481463
O        6.08422088       1.97627776       8.07999605      -0.00193184      -0.05244026      -0.03487425
O        2.17421427       6.24486078       8.09446206       0.14549665       0.15870785      -0.02040844
O        6.05276775       6.05437228       8.06350951      -0.03338503      -0.03178071      -0.05136091
40
Lattice="8.114870309777642 1.0311789206707726e-07 -1.6384903408977124e-07 1.0311785748845261e-07 8.114869930248256 2.242601906454912e-07 -1.638490223110111e-07 2.2426020397351547e-07 8.11487040810358" Properties=species:S:1:pos:R:3:u_disp:R:3 system=knbo3_cubic base_model=chgnet role=train_pool T=100.0 draw=10 n_tries=13 rms_disp_A=0.12337212279991464 min_pair_ratio=0.8758086293554056 nearest_heldout_A=0.11882314772791523 site_map_ok=1 nearest_heldout_src=knbo3_cubic_orb_v2_q0-0-1d2-b0.extxyz#3 pbc="T T T"
K        4.07729507      -0.06574978       4.06297248       0.01986002      -0.06575027       0.00553736
K        8.01539894      -0.07954663       4.10494898      -0.09947127      -0.07954717       0.04751394
K        4.04836256       4.03859330       4.11682506      -0.00907255      -0.01884216       0.05938983
K        8.11277032       4.07855293       4.00930551      -0.00209994       0.02111743      -0.04812964
K        4.00534486      -0.10343160       8.05961394      -0.05209011      -0.10343220      -0.05525639
K        8.11888152       0.03374492       8.08958623       0.00401139       0.03374426      -0.02528401
K        4.06697092       4.02292689       8.23617593       0.00953590      -0.03450868       0.12130549
K        8.10143995       4.14391843       8.08627477      -0.01343022       0.08648281      -0.02859559
Nb       2.10568446       2.23085043       2.05968672       0.07696698       0.20213267       0.03096903
Nb       6.11278505       2.03944498       2.08829169       0.02663242       0.01072716       0.05957408
Nb       1.99845394       6.24685857       1.99730055      -0.03026358       0.16070584      -0.03141725
Nb       6.06933057       6.04365933       1.97761236      -0.01682211      -0.04249345      -0.05110536
Nb       2.08568583       1.82457849       6.07417841       0.05696843      -0.20413938      -0.01197449
Nb       6.09354356       2.04774477       6.21053342       0.00739102       0.01902685       0.12438060
Nb       2.01367014       5.91746789       6.04386079      -0.01504730      -0.16868494      -0.04229222
Nb       6.05367810       6.11483536       6.07351447      -0.03247450       0.02868247      -0.01263846
O       -0.07407598       2.07423434       2.01024813      -0.07407612       0.04551740      -0.01846959
O        4.05701186       2.10403707       1.93560896      -0.00042343       0.07532007      -0.09310869
O       -0.00709877       6.04670325       2.03329636      -0.00709896      -0.03944866       0.00457852
O        4.14019534       6.05656753       1.99628821       0.08276000      -0.02958444      -0.03242954
O       -0.00817511       2.13182802       6.04814301      -0.00817516       0.10311097      -0.03800992
O        3.99974694       1.98244837       6.09138932      -0.05768827      -0.04626874       0.00523648
O        0.04669520       6.16200272       6.13392771       0.04669510       0.07585070       0.04777467
O        4.08395553       6.07404527       6.09713066       0.02652027      -0.01210680       0.01097770
O        1.92796933       4.11600939       2.11999970      -0.10074809       0.05857450       0.09128214
O        6.02155179       4.03630195       1.91465854      -0.06460077      -0.02113300      -0.11405894
O        1.99886232       8.02361948       2.00228995      -0.02985514      -0.09125037      -0.02642772
O        6.05351954       8.16487364       1.95690962      -0.03263308       0.05000373      -0.07180797
O        2.15129895       4.12736448       6.06395218       0.12258162       0.06992947      -0.02220058
O        6.17729523       4.08049750       5.93689705       0.09114274       0.02306244      -0.14925564
O        1.97683599       8.10464039       6.19114013      -0.05188139      -0.01022958       0.10498726
O        6.17037566       8.09017221       6.04254375       0.08422313      -0.02469781      -0.04360904
O        2.04197344       1.85123964       4.02081517       0.01325579      -0.17747822      -0.03662002
O        5.95246229       2.03143623       4.00613441      -0.13369052       0.00271832      -0.05130070
O        2.04326009       6.08951678       4.09164302       0.01454239       0.00336396       0.03420773
O        6.19077546       6.22697931       4.03469966       0.10462261       0.14082644      -0.02273555
O        1.91740033       2.11229073       8.14226917      -0.11131724       0.08357276       0.02739878
O        5.96102794       2.09982511       7.98487681      -0.12512479       0.07110709      -0.12999350
O        2.14194946       6.10503709       8.14250673       0.11323184       0.01888416       0.02763622
O        6.10680849       6.07471204       8.04359290       0.02065571      -0.01144094      -0.07127752
40
Lattice="8.114870309777642 1.0311789206707726e-07 -1.6384903408977124e-07 1.0311785748845261e-07 8.114869930248256 2.242601906454912e-07 -1.638490223110111e-07 2.2426020397351547e-07 8.11487040810358" Properties=species:S:1:pos:R:3:u_disp:R:3 system=knbo3_cubic base_model=chgnet role=train_pool T=100.0 draw=11 n_tries=13 rms_disp_A=0.2272856506610407 min_pair_ratio=0.7314978242043587 nearest_heldout_A=0.20883781068892732 site_map_ok=1 nearest_heldout_src=knbo3_cubic_orb_v2_q1d2-0-0-b1.extxyz#5 pbc="T T T"
K        4.07375826      -0.04190131       4.04971908       0.01632321      -0.04190180      -0.00771604
K        8.20136865      -0.13634814       4.03506837       0.08649844      -0.13634869      -0.02236667
K        4.08015573       3.99380415       4.07141986       0.02272063      -0.06363131       0.01398462
K        8.14128337       4.04399186       4.01465890       0.02641311      -0.01344365      -0.04277625
K        3.99565984      -0.01458758       8.13337076      -0.06177513      -0.01458819       0.01850043
K        8.00557115       0.10237804       8.02768618      -0.10929898       0.10237739      -0.08718407
K        4.16380296       4.10738131       8.26152148       0.10636794       0.04994574       0.14665104
K        8.14949711       4.07266297       8.16536996       0.03462693       0.01522735       0.05049960
Nb       1.76401361       2.04154312       1.56956467      -0.26470386       0.01282536      -0.45915303
Nb       5.86291882       2.06707242       2.23384491      -0.22323381       0.03835460       0.20512730
Nb       2.06310343       6.07167449       2.45636924       0.03438591      -0.01447824       0.42765143
Nb       6.12208501       6.13176071       1.86802028       0.03593233       0.04560794      -0.16069744
Nb       2.00425678       1.74929123       5.66727879      -0.02446061      -0.27942664      -0.41887410
Nb       6.08404126       2.20564647       6.25628337      -0.00211129       0.17692854       0.17013055
Nb       2.33015700       5.82091773       6.56049729       0.30143956      -0.26523511       0.47434428
Nb       6.34748683       6.21948946       5.91269749       0.26133423       0.13333657      -0.17345544
O       -0.05163960       2.13895484       1.99357946      -0.05163973       0.11023790      -0.03513827
O        4.00020703       2.04951524       2.15459366      -0.05722826       0.02079824       0.12587602
O       -0.08593514       6.07701721       1.85286554      -0.08593533      -0.00913470      -0.17585230
O        4.00771673       6.12430113       2.04535238      -0.04971862       0.03814916       0.01663462
O        0.03824238       2.09016278       6.16558280       0.03824233       0.06144572       0.07942987
O        4.02801422       1.96253083       5.89778919      -0.02942099      -0.06618628      -0.18836366
O       -0.09927601       6.14768071       6.00047983      -0.09927611       0.06152869      -0.08567322
O        3.95182520       6.17811281       6.04953363      -0.10561007       0.09196073      -0.03661933
O        1.95483799       4.15825135       1.90417286      -0.07387942       0.10081645      -0.12454470
O        6.06233520       4.08119315       2.27209805      -0.02381736       0.02375820       0.24338058
O        1.93544322       8.16540825       1.88131926      -0.09327425       0.05053839      -0.14739841
O        6.02361113       8.11798435       2.10177352      -0.06254149       0.00311444       0.07305593
O        2.00021390       4.16054878       6.05764046      -0.02850343       0.10311378      -0.02851231
O        6.12585508       4.14852233       6.04496676       0.03970259       0.09108727      -0.04118593
O        1.94737241       8.14994670       6.15778422      -0.08134497       0.03507673       0.07163135
O        6.11154477       8.19428731       6.11629466       0.02539223       0.07941729       0.03014187
O        1.96786487       1.99358835       3.91931161      -0.06085278      -0.03512950      -0.13812358
O        6.21282117       2.05339471       4.06597686       0.12666836       0.02467681       0.00854176
O        1.99243535       6.20945695       3.93227047      -0.03628235       0.12330413      -0.12516483
O        5.99183848       6.22376833       4.08578079      -0.09431438       0.13761546       0.02834557
O        2.15897352       2.11774447       8.09196564       0.13025595       0.08902651      -0.02290475
O        6.10556393       2.07747232       8.05464527       0.01941121       0.04875430      -0.06022503
O        1.79230328       6.08358766       8.11520946      -0.23641435      -0.00256527       0.00033896
O        5.99010848       6.03804584       8.09926070      -0.09604430      -0.04810714      -0.01560972
40
Lattice="8.114870309777642 1.0311789206707726e-07 -1.6384903408977124e-07 1.0311785748845261e-07 8.114869930248256 2.242601906454912e-07 -1.638490223110111e-07 2.2426020397351547e-07 8.11487040810358" Properties=species:S:1:pos:R:3:u_disp:R:3 system=knbo3_cubic base_model=chgnet role=train_pool T=100.0 draw=12 n_tries=13 rms_disp_A=0.16106985168945487 min_pair_ratio=0.7967152060925068 nearest_heldout_A=0.15581334007163294 site_map_ok=1 nearest_heldout_src=knbo3_cubic_orb_v2_q0-1d2-0-b0.extxyz#4 pbc="T T T"
K        4.06573013       0.03954574       4.07636465       0.00829508       0.03954524       0.01892953
K        8.05876559      -0.00437488       4.03794747      -0.05610462      -0.00437542      -0.01948757
K        4.05964342       4.01750961       3.94554330       0.00220832      -0.03992585      -0.11189193
K        8.04285213       4.09552023       4.14549911      -0.07201813       0.03808472       0.08806396
K        4.02888297      -0.16141032       8.11906051      -0.02855200      -0.16141092       0.00419019
K        8.00433861       0.14518720       8.21421238      -0.11053151       0.14518655       0.09934214
K        4.11517829       4.05957491       8.14981522       0.05774327       0.00213934       0.03494479
K        8.19910526       4.11277047       8.13232438       0.08423509       0.05533485       0.01745403
Nb       2.02693143       1.99252701       2.02772345      -0.00178605      -0.03619075      -0.00099425
Nb       6.07458907       1.90691297       2.33075258      -0.01156356      -0.12180485       0.30203497
Nb       2.07778585       6.00659980       2.09122600       0.04906833      -0.07955293       0.06250819
Nb       6.13405244       5.96951362       1.64054218       0.04789976      -0.11663915      -0.38817555
Nb       2.05040676       2.26472294       6.11991110       0.02168937       0.23600507       0.03375820
Nb       6.14446819       1.94103603       6.33957279       0.05831565      -0.08768189       0.25341997
Nb       1.90935131       6.36103347       6.15909442      -0.11936613       0.27488064       0.07294141
Nb       6.02964849       5.99629524       5.74512659      -0.05650411      -0.08985765      -0.34102633
O       -0.08946451       2.09382989       1.93375809      -0.08946465       0.06511295      -0.09495963
O        3.98234817       2.07540378       1.98444521      -0.07508712       0.04668679      -0.04427244
O        0.03931139       6.09280858       2.07057372       0.03931120       0.00665667       0.04185588
O        4.06672638       6.05424292       2.03294073       0.00929103      -0.03190904       0.00422298
O        0.01740960       1.92192299       6.05925408       0.01740955      -0.10679406      -0.02689885
O        4.07578037       2.01491339       5.98847648       0.01834516      -0.01380372      -0.09767636
O        0.02923838       5.97054124       6.19790226       0.02923827      -0.11561078       0.11174922
O        4.08205180       6.12840960       6.01662679       0.02461654       0.04225752      -0.06952617
O        2.13369472       4.07428363       2.10346210       0.10497731       0.01684874       0.07474454
O        6.12227224       4.02912892       2.05665933       0.03611967      -0.02830602       0.02794185
O        2.09380760       8.12112420       1.93238584       0.06509013       0.00625435      -0.09633183
O        6.04278907       8.13590090       1.98931882      -0.04336355       0.02103099      -0.03939877
O        2.08453999       4.01081475       6.09147768       0.05582265      -0.04662026       0.00532491
O        6.11377245       4.03084421       6.11703631       0.02761996      -0.02659085       0.03088363
O        2.07361546       8.09277782       6.16238452       0.04489808      -0.02209215       0.07623164
O        6.09667204       8.11836758       6.14012120       0.01051950       0.00349755       0.05396840
O        1.96615426       1.96487126       4.01889884      -0.06256339      -0.06384659      -0.03853634
O        5.98007935       2.13098738       3.95420385      -0.10607345       0.10226947      -0.10323125
O        2.03078017       6.12366182       4.06269746       0.00206247       0.03750900       0.00526216
O        6.23557225       6.16514820       4.04137968       0.14941939       0.07899533      -0.01605554
O        1.98407046       2.04036409       8.16063214      -0.04464711       0.01164612       0.04576175
O        6.01723532       2.04674727       8.02080687      -0.06891740       0.01802925      -0.09406344
O        2.14178579       6.12142656       8.04354992       0.11306817       0.03527363      -0.07132058
O        6.17993187       5.98843188       8.13986484       0.09377909      -0.09772110       0.02499442
40
Lattice="8.114870309777642 1.0311789206707726e-07 -1.6384903408977124e-07 1.0311785748845261e-07 8.114869930248256 2.242601906454912e-07 -1.638490223110111e-07 2.2426020397351547e-07 8.11487040810358" Properties=species:S:1:pos:R:3:u_disp:R:3 system=knbo3_cubic base_model=chgnet role=train_pool T=300.0 draw=0 n_tries=13 rms_disp_A=0.23084037526923173 min_pair_ratio=0.7207803836968052 nearest_heldout_A=0.19820954209445046 site_map_ok=1 nearest_heldout_src=knbo3_cubic_orb_v2_q0-0-1d2-b1.extxyz#6 pbc="T T T"
K        4.00660678       0.05354298       4.08982894      -0.05082827       0.05354248       0.03239382
K        7.92166756      -0.04001302       4.00172923      -0.19320264      -0.04001356      -0.05570581
K        4.04267653       3.99679066       4.15103474      -0.01475857      -0.06064480       0.09359951
K        8.33165383       4.09608408       4.02806571       0.21678357       0.03864857      -0.02936944
K        4.14456863       0.20510037       7.98465240       0.08713366       0.20509976      -0.13021792
K        8.09312561       0.03403224       8.21828145      -0.02174452       0.03403158       0.10341121
K        4.02869515       3.97476746       8.12577196      -0.02873987      -0.08266811       0.01090152
K        8.13856751       4.06319222       7.99950488       0.02369734       0.00575660      -0.11536548
Nb       1.60580267       2.12251557       2.06239836      -0.42291480       0.09379781       0.03368067
Nb       5.66611843       1.71729488       1.80608058      -0.42003420      -0.31142293      -0.22263703
Nb       1.94217405       6.16823892       1.91189144      -0.08654348       0.08208619      -0.11682636
Nb       5.97993006       5.75404401       2.22918276      -0.10622262      -0.33210877       0.20046504
Nb       2.08676418       1.82555019       6.13761668       0.05804679      -0.20316768       0.05146378
Nb       6.16820999       2.23439071       5.91952399       0.08205745       0.20567278      -0.16662882
Nb       2.41427274       5.91176155       5.95246764       0.38555529      -0.17439128      -0.13368537
Nb       6.39082406       6.35037682       6.30791193       0.30467146       0.26422393       0.22175900
O        0.16516292       2.12067193       2.31291101       0.16516278       0.09195498       0.28419328
O        4.16794842       2.09322045       1.96955155       0.11051313       0.06450345      -0.05916609
O       -0.00124279       6.11629271       2.04648172      -0.00124298       0.03014080       0.01776388
O        4.08570854       6.22414020       2.10818775       0.02827320       0.13798824       0.07947000
O       -0.01844998       2.08043800       6.16398624      -0.01845003       0.05172094       0.07783331
O        4.09431378       1.99447162       6.13071795       0.03687857      -0.03424549       0.04456510
O        0.13011430       6.28990333       6.21346642       0.13011419       0.20375131       0.12731338
O        4.16508321       6.17258007       6.11950662       0.10764795       0.08642800       0.03335366
O        2.01594576       4.11730626       2.13087439      -0.01277165       0.05987137       0.10215683
O        6.18445921       4.14420326       2.00661216       0.09830664       0.08676831      -0.02210532
O        2.04005494       8.19144785       1.86861073       0.01133748       0.07657799      -0.16010694
O        6.17635957       8.22874439       2.16920865       0.09020695       0.11387448       0.14049106
O        2.06455160       4.08212094       5.91737613       0.03583427       0.02468594      -0.16877663
O        6.11274927       4.12770234       6.18766110       0.02659678       0.07026728       0.10150842
O        2.03230019       8.22104574       6.15555419       0.00358281       0.10617577       0.06940131
O        6.12943889       8.17659893       6.06124488       0.04328636       0.06172891      -0.02490792
O        2.16782517       2.08352560       3.97097290       0.13910752       0.05480775      -0.08646229
O        6.08620461       1.92768429       4.14934932       0.00005180      -0.10103361       0.09191422
O        2.07534450       6.28011934       4.11946407       0.04662680       0.19396652       0.06202877
O        6.18419714       6.03753183       4.16508398       0.09804428      -0.04862104       0.10764876
O        2.04966554       2.28946077       8.11134600       0.02094797       0.26074281      -0.00352439
O        6.06949824       2.11693070       8.18998209      -0.01665448       0.08821268       0.07511178
O        2.13883219       6.12477709       8.21974226       0.11011457       0.03862416       0.10487175
O        5.98045618       6.17090573       8.10997419      -0.10569659       0.08475275      -0.00489623
40
Lattice="8.114870309777642 1.0311789206707726e-07 -1.6384903408977124e-07 1.0311785748845261e-07 8.114869930248256 2.242601906454912e-07 -1.638490223110111e-07 2.2426020397351547e-07 8.11487040810358" Properties=species:S:1:pos:R:3:u_disp:R:3 system=knbo3_cubic base_model=chgnet role=train_pool T=300.0 draw=1 n_tries=13 rms_disp_A=0.21204847863334833 min_pair_ratio=0.8644099816149861 nearest_heldout_A=0.2002043239014851 site_map_ok=1 nearest_heldout_src=knbo3_cubic_orb_v2_q0-1d2-0-b0.extxyz#5 pbc="T T T"
K        4.13495341      -0.18124954       4.06785486       0.07751836      -0.18125004       0.01041974
K        8.24324304       0.03623849       4.04830368       0.12837284       0.03623795      -0.00913136
K        3.93994141       3.98512535       4.14470367      -0.11749369      -0.07231011       0.08726844
K        8.01713693       4.05156418       4.32492994      -0.09773333      -0.00587133       0.26749479
K        4.10134180       0.10176717       8.00637943       0.04390683       0.10176657      -0.10849090
K        8.14843679      -0.16866258       8.16523109       0.03356667      -0.16866324       0.05036085
K        4.17701121       4.17918186       7.96146887       0.11957619       0.12174629      -0.15340157
K        8.03087694       4.20899806       8.00084496      -0.08399324       0.15156244      -0.11402539
Nb       1.98896486       2.07283793       2.18775353      -0.03975262       0.04412016       0.15903584
Nb       6.06145981       1.91363103       1.68475151      -0.02469282      -0.11508679      -0.34396611
Nb       1.89326139       6.12679443       2.08893981      -0.13545614       0.04064170       0.06022201
Nb       5.98845963       5.88811464       2.15114469      -0.09769305      -0.19803814       0.12242697
Nb       2.06272888       2.17840077       6.25666131       0.03401149       0.14968290       0.17050841
Nb       6.17309515       2.00001685       5.79295340       0.08694260      -0.02870108      -0.29319942
Nb       2.04618731       6.23907951       6.21739946       0.01746987       0.15292667       0.13124645
Nb       6.11398674       6.04060747       6.18400401       0.02783414      -0.04554542       0.09785108
O       -0.00913767       1.98868912       1.82905693      -0.00913781      -0.04002782      -0.19966080
O        4.00056462       2.21666899       1.98524562      -0.05687067       0.18795199      -0.04347202
O        0.08949073       6.16513141       1.95806413       0.08949054       0.07897950      -0.07065371
O        4.11541996       5.89389998       2.03558002       0.05798462      -0.19225198       0.00686227
O       -0.13546766       2.22194967       6.11348096      -0.13546771       0.19323261       0.02732803
O        3.96660997       1.98237926       6.16012348      -0.09082524      -0.04633785       0.07397063
O        0.15448115       5.98442084       6.11424542       0.15448104      -0.10173119       0.02809238
O        4.20114744       6.03944821       6.05190083       0.14371218      -0.04670386      -0.03425213
O        1.91336859       4.12846642       1.84957908      -0.11534882       0.07103152      -0.17913848
O        6.18237273       4.11269558       2.04978386       0.09622017       0.05526064       0.02106638
O        2.25775993       8.18808395       1.81915255       0.22904247       0.07321409      -0.20956512
O        5.88566520       8.12293395       2.05838659      -0.20048742       0.00806404       0.02966900
O        2.23931282       4.01468022       6.00649027       0.21059549      -0.04275479      -0.07966249
O        6.13105668       4.03183078       6.13890973       0.04490420      -0.02560428       0.05275705
O        2.11287521       8.10764837       6.17820140       0.08415782      -0.00722160       0.09204852
O        6.19322254       8.00897441       6.20309609       0.10707000      -0.10589561       0.11694330
O        1.73106269       1.93549407       3.95318335      -0.29765496      -0.09322378      -0.10425183
O        5.91382647       1.96089320       3.89516547      -0.17232634      -0.06782470      -0.16226963
O        2.15585784       6.11675398       4.00787238       0.12714014       0.03060116      -0.04956292
O        6.39709952       6.16965356       4.14586978       0.31094667       0.08350069       0.08843456
O        1.91987405       2.15152109       8.00659175      -0.10884352       0.12280313      -0.10827864
O        5.87523806       2.03105948       8.05985265      -0.21091467       0.00234146      -0.05501766
O        2.14948874       6.08873508       8.07125795       0.12077112       0.00258215      -0.04361255
O        6.21670140       5.98717681       8.23793424       0.13054863      -0.09897617       0.12306382
40
Lattice="8.114870309777642 1.0311789206707726e-07 -1.6384903408977124e-07 1.0311785748845261e-07 8.114869930248256 2.242601906454912e-07 -1.638490223110111e-07 2.2426020397351547e-07 8.11487040810358" Properties=species:S:1:pos:R:3:u_disp:R:3 system=knbo3_cubic base_model=chgnet role=train_pool T=300.0 draw=2 n_tries=13 rms_disp_A=0.236790197975873 min_pair_ratio=0.6386709632783373 nearest_heldout_A=0.2109315718458589 site_map_ok=1 nearest_heldout_src=knbo3_cubic_orb_v2_q1d2-0-0-b1.extxyz#6 pbc="T T T"
K        4.02099096      -0.05666578       4.06897789      -0.03644409      -0.05666627       0.01154277
K        8.03237900      -0.03528563       4.14406092      -0.08249121      -0.03528617       0.08662588
K        4.09648855       4.24772335       4.15573613       0.03905345       0.19028790       0.09830089
K        8.03394849       3.99137853       4.08476584      -0.08092176      -0.06605697       0.02733069
K        4.18633694       0.20825439       8.15150612       0.12890197       0.20825379       0.03663580
K        8.26876083       0.10587592       8.33648738       0.15389071       0.10587526       0.22161714
K        3.96793190       3.97712936       7.98937553      -0.08950312      -0.08030621      -0.12549491
K        7.96339025       4.06967854       8.10631889      -0.15147993       0.01224292      -0.00855146
Nb       2.11190323       1.95647251       1.90818550       0.08318576      -0.07224525      -0.12053220
Nb       6.18731158       2.07166295       1.70531063       0.10115895       0.04294514      -0.32340699
Nb       2.26727403       6.00392966       2.42803822       0.23855650      -0.08222307       0.39932042
Nb       6.34642703       6.15415324       2.06468435       0.26027435       0.06800047       0.03596663
Nb       1.72023240       2.10775423       5.97138538      -0.30848499       0.07903636      -0.11476752
Nb       5.72186119       1.81331459       5.73960085      -0.36429136      -0.21540333      -0.34655197
Nb       2.08872790       6.23028898       6.59045991       0.06001046       0.14413614       0.50430690
Nb       6.10223892       5.87838446       6.10383999       0.01608633      -0.20776843       0.01768706
O       -0.05144990       2.15944396       2.11100780      -0.05145004       0.13072702       0.08229008
O        3.94994974       2.32003899       2.14583400      -0.10748555       0.29132200       0.11711635
O       -0.05110123       6.18381812       1.94126589      -0.05110142       0.09766621      -0.08745195
O        4.09991139       6.17262898       1.82790090       0.04247604       0.08647702      -0.20081686
O        0.03058025       1.94669368       6.07478481       0.03058020      -0.08202338      -0.01136812
O        4.08981222       2.03719508       6.02629533       0.03237701       0.00847797      -0.05985751
O       -0.06616996       6.17668794       5.85849714      -0.06617007       0.09053592      -0.22765591
O        4.07370479       6.01074997       5.97713410       0.01626953      -0.07540210      -0.10901886
O        1.94377232       4.19872390       1.90416869      -0.08494510       0.14128901      -0.12454887
O        6.08846946       4.12105961       1.98834078       0.00231689       0.06362467      -0.04037670
O        2.14160117       8.13877003       1.71416363       0.11288370       0.02390018      -0.31455404
O        5.95821850       8.21763325       2.18229047      -0.12793411       0.10276334       0.15357288
O        2.14118145       4.02826856       6.04179125       0.11246412      -0.02916644      -0.04436152
O        6.03138981       4.07179504       6.20055934      -0.05476267       0.01435998       0.11440666
O        2.12867119       8.06225226       5.99955019       0.09995380      -0.05261771      -0.08660269
O        6.12274464       8.10587741       6.16513726       0.03659211      -0.00899262       0.07898447
O        1.92711687       1.97506246       3.94457829      -0.10160078      -0.05365539      -0.11285689
O        6.25898198       2.14819770       4.20911923       0.17282917       0.11947979       0.15168413
O        2.04116886       6.05162607       3.93398558       0.01245115      -0.03452675      -0.12344972
O        6.05085407       6.07471180       4.02662918      -0.03529879      -0.01144107      -0.03080603
O        2.05356922       1.99021128       8.05548147       0.02485165      -0.03850669      -0.05938892
O        6.07739953       2.06010887       8.12921078      -0.00875319       0.03139085       0.01434048
O        1.87845675       6.07220142       7.85915534      -0.15026087      -0.01395151      -0.25571517
O        6.01838912       6.01832262       8.13878192      -0.06776365      -0.06783036       0.02391150
40
Lattice="8.114870309777642 1.0311789206707726e-07 -1.6384903408977124e-07 1.0311785748845261e-07 8.114869930248256 2.242601906454912e-07 -1.638490223110111e-07 2.2426020397351547e-07 8.11487040810358" Properties=species:S:1:pos:R:3:u_disp:R:3 system=knbo3_cubic base_model=chgnet role=train_pool T=300.0 draw=3 n_tries=13 rms_disp_A=0.26704868479838095 min_pair_ratio=0.7678777253890897 nearest_heldout_A=0.22609789491939644 site_map_ok=1 nearest_heldout_src=knbo3_cubic_orb_v2_q1d2-0-1d2-b0.extxyz#7 pbc="T T T"
K        4.09911579      -0.06306311       4.08356761       0.04168074      -0.06306360       0.02613249
K        8.31299833       0.02057247       4.02576253       0.19812813       0.02057193      -0.03167251
K        4.05752692       3.94743315       3.95366389       0.00009182      -0.11000231      -0.10377134
K        8.17094090       4.22270943       4.06621131       0.05607064       0.16527392       0.00877616
K        4.00156033      -0.01685510       8.26466387      -0.05587464      -0.01685570       0.14979354
K        8.19680197      -0.13200543       8.24432478       0.08193184      -0.13200609       0.12945453
K        4.02709144       4.12553828       8.07709746      -0.03034358       0.06810272      -0.03777298
K        8.06903922       4.07494311       7.96025376      -0.04583095       0.01750749      -0.15461660
Nb       1.59938502       2.08770870       2.14606524      -0.42933246       0.05899094       0.11734755
Nb       5.64434803       2.26278211       1.63388361      -0.44180460       0.23406430      -0.39483400
Nb       2.48393516       6.15128732       2.35678774       0.45521763       0.06513459       0.32806993
Nb       6.57744063       6.35856297       2.10708367       0.49128795       0.27241019       0.07836595
Nb       2.12584792       1.91037966       6.22414154       0.09713053      -0.11833821       0.13798865
Nb       6.12974169       2.00269708       5.71869492       0.04358914      -0.02602084      -0.36745790
Nb       1.81872139       5.93004651       6.40692179      -0.20999605      -0.15610633       0.32076878
Nb       5.88900771       6.08383855       6.15991160      -0.19714488      -0.00231434       0.07375868
O        0.06618688       1.78712052       1.88427357       0.06618674      -0.24159642      -0.14444416
O        4.07986509       1.89763433       2.10239707       0.02242980      -0.13108266       0.07367942
O       -0.05266411       5.91693882       1.94215621      -0.05266430      -0.16921309      -0.08656163
O        4.02688539       5.88725960       1.87724275      -0.03054995      -0.19889236      -0.15147500
O        0.03047747       2.27658810       6.06538944       0.03047741       0.24787105      -0.02076349
O        4.22553942       1.92180327       6.05892455       0.16810421      -0.10691384      -0.02722830
O        0.01890162       6.10438126       6.02231898       0.01890151       0.01822923      -0.06383406
O        4.07464065       6.12277725       5.98785209       0.01720539       0.03662518      -0.09830087
O        1.91178697       3.94503541       1.78279391      -0.11693044      -0.11239948      -0.24592365
O        6.14260317       3.82409672       2.02307281       0.05645060      -0.23333823      -0.00564466
O        2.05919990       7.90462216       1.89872721       0.03048244      -0.21024770      -0.12999046
O        6.01492871       7.88548250       2.00272279      -0.07122391      -0.22938741      -0.02599480
O        2.18443755       4.08849500       5.82231846       0.15572022       0.03105999      -0.26383431
O        6.06772793       4.03188879       6.05415179      -0.01842455      -0.02554627      -0.03200090
O        1.95458972       8.17312757       5.88818725      -0.07412766       0.05825760      -0.19796563
O        6.17281288       8.09479119       6.19238994       0.08666034      -0.02007883       0.10623714
O        2.04098160       2.03520861       3.94978965       0.01226395       0.00649076      -0.10764554
O        6.27078673       1.86537341       4.13384982       0.18463392      -0.16334449       0.07641472
O        2.10527270       6.07863547       3.97368692       0.07655500      -0.00751735      -0.08374837
O        6.18627522       5.90480755       3.94326319       0.10012236      -0.18134532      -0.11417202
O        2.15432168       2.06206870       8.08737300       0.12560411       0.03335074      -0.02749739
O        5.95460582       1.88911657       8.15336296      -0.13154691      -0.13960145       0.03849265
O        1.88530413       6.14526522       8.00348186      -0.14341350       0.05911229      -0.11138865
O        6.08185166       5.98539159       8.08461960      -0.00430112      -0.10076139      -0.03025082
40
Lattice="8.114870309777642 1.0311789206707726e-07 -1.6384903408977124e-07 1.0311785748845261e-07 8.114869930248256 2.242601906454912e-07 -1.638490223110111e-07 2.2426020397351547e-07 8.11487040810358" Properties=species:S:1:pos:R:3:u_disp:R:3 system=knbo3_cubic base_model=chgnet role=train_pool T=300.0 draw=4 n_tries=13 rms_disp_A=0.30965147660110376 min_pair_ratio=0.6581907453077659 nearest_heldout_A=0.28103252094349596 site_map_ok=1 nearest_heldout_src=knbo3_cubic_orb_v2_q1d2-0-0-b0.extxyz#7 pbc="T T T"
K        4.24922279      -0.08940301       4.27373601       0.19178774      -0.08940350       0.21630089
K        8.16654937       0.00542667       4.04876262       0.05167916       0.00542612      -0.00867241
K        3.93282683       4.01283722       4.13700213      -0.12460827      -0.04459824       0.07956690
K        8.01009108       4.16945766       4.06748397      -0.10477918       0.11202215       0.01004882
K        4.05091892      -0.02007990       8.10080296      -0.00651605      -0.02008050      -0.01406737
K        8.02920360      -0.10785170       8.14739229      -0.08566652      -0.10785235       0.03252204
K        3.83457529       3.99346937       7.87477826      -0.22285973      -0.06396620      -0.24009217
K        7.97786786       4.24442101       8.12374249      -0.13700232       0.18698539       0.00887213
Nb       2.01750331       1.81354695       2.02358321      -0.01121417      -0.21517081      -0.00513448
Nb       6.06296591       1.79929033       1.78456428      -0.02318672      -0.22942748      -0.24415333
Nb       1.95887463       5.92321055       2.35471186      -0.06984290      -0.16294217       0.32599406
Nb       5.96799178       5.83902877       2.03953367      -0.11816090      -0.24712400       0.01081594
Nb       2.62295179       2.08283361       6.04614429       0.59423440       0.05411573      -0.04000861
Nb       6.82851218       2.35355606       5.80234665       0.74235963       0.32483814      -0.28380617
Nb       1.50587460       6.09105637       6.32747265      -0.52284284       0.00490353       0.24131964
Nb       5.55324780       6.36678422       6.09907691      -0.53290480       0.28063133       0.01292399
O       -0.03283668       2.31983032       2.18861562      -0.03283682       0.29111337       0.15989789
O        4.10161098       2.24223011       2.24272852       0.04417569       0.21351311       0.21401088
O        0.09757263       6.12500618       1.75248575       0.09757244       0.03885427      -0.27623209
O        4.15887013       6.23895537       1.94884245       0.10143478       0.15280341      -0.07987531
O       -0.07527419       2.07140612       6.28881100      -0.07527424       0.04268906       0.20265807
O        4.01521714       1.98540628       6.17699906      -0.04221807      -0.04331083       0.09084621
O        0.20320749       6.01897232       5.96774381       0.20320739      -0.06717970      -0.11840923
O        4.19936381       6.02628908       5.84736331       0.14192854      -0.05986300      -0.23878965
O        2.11069424       4.16129267       2.00777972       0.08197683       0.10385778      -0.02093784
O        6.26647625       4.14732633       2.05678734       0.18032369       0.08989138       0.02806987
O        1.93293167       8.21181989       1.85126421      -0.09578579       0.09695003      -0.17745346
O        6.21120600       8.20586403       2.16904346       0.12505338       0.09099412       0.14032587
O        2.05669993       4.10762295       5.78592357       0.02798260       0.05018795      -0.30022920
O        6.14679828       4.06261904       6.10834100       0.06064579       0.00518398       0.02218832
O        2.05626582       8.19272837       6.08432826       0.02754843       0.07785840      -0.00182461
O        6.20385436       7.99725761       6.06755639       0.11770182      -0.11761241      -0.01859641
O        1.67752104       1.97439661       4.11252969      -0.35119661      -0.05432124       0.05509451
O        6.03593393       2.06059816       4.17733478      -0.05021888       0.03188025       0.11989968
O        2.05090302       6.38579939       3.99214139       0.02218531       0.29964658      -0.06529391
O        6.26373097       5.89404172       3.95092500       0.17757812      -0.19211115      -0.10651022
O        1.90440002       2.19809300       8.21597334      -0.12431755       0.16937504       0.10110295
O        5.86075298       1.89853392       8.21572088      -0.22539974      -0.13018409       0.10085057
O        2.26123489       6.11685755       8.04324969       0.23251727       0.03070462      -0.07162081
O        6.17247617       6.12201717       8.04501515       0.08632339       0.03586418      -0.06985527
40
Lattice="8.114870309777642 1.0311789206707726e-07 -1.6384903408977124e-07 1.0311785748845261e-07 8.114869930248256 2.242601906454912e-07 -1.638490223110111e-07 2.2426020397351547e-07 8.11487040810358" Properties=species:S:1:pos:R:3:u_disp:R:3 system=knbo3_cubic base_model=chgnet role=train_pool T=300.0 draw=5 n_tries=13 rms_disp_A=0.18136509215845306 min_pair_ratio=0.8319768160526999 nearest_heldout_A=0.17530024855876988 site_map_ok=1 nearest_heldout_src=knbo3_cubic_mace_mp0_q0-0-1d2-b0.extxyz#3 pbc="T T T"
K        3.99012029       0.11264906       4.09389156      -0.06731476       0.11264857       0.03645644
K        8.19083901       0.04268599       3.85031166       0.07596880       0.04268544      -0.20712338
K        4.25835877       3.88107501       4.11883408       0.20092367      -0.17636045       0.06139885
K        8.11034556       4.14658329       4.02201490      -0.00452470       0.08914779      -0.03542026
K        4.12923386       0.12438955       8.23334999       0.07179889       0.12438894       0.11847967
K        8.05213621      -0.13000387       8.08540186      -0.06273392      -0.13000453      -0.02946838
K        4.04148456       4.07402304       8.17254828      -0.01595046       0.01658747       0.05767784
K        7.98590209       4.09776616       8.12591420      -0.12896808       0.04033054       0.01104384
Nb       2.09352496       1.82163427       1.92458862       0.06480749      -0.20708349      -0.10412907
Nb       6.22223006       2.16447210       1.99711330       0.13607743       0.13575429      -0.03160431
Nb       2.13380737       5.86335980       1.89984931       0.10508985      -0.22279293      -0.12886850
Nb       6.12354840       6.17792284       2.12388103       0.03739572       0.09177006       0.09516330
Nb       1.98190134       2.02821511       6.05352161      -0.04681606      -0.00050277      -0.03263128
Nb       6.08323983       2.11548703       6.11666510      -0.00291272       0.08676910       0.03051228
Nb       1.79418193       6.11426647       5.94787978      -0.23453551       0.02811363      -0.13827323
Nb       5.89343844       6.21288394       6.20516859      -0.19271416       0.12673105       0.11901566
O       -0.00331285       2.11370451       2.12322495      -0.00331299       0.08498757       0.09450722
O        4.04403617       1.99929837       2.11561839      -0.01339912      -0.02941863       0.08690075
O        0.05542958       5.90612368       2.10291144       0.05542939      -0.18002823       0.07419360
O        4.05315677       6.03981665       1.85306975      -0.00427857      -0.04633532      -0.17564801
O        0.04770333       1.92294925       6.10439030       0.04770327      -0.10576780       0.01823738
O        4.03415351       2.15798807       6.16240377      -0.02328170       0.12927096       0.07625092
O        0.10836384       6.15884017       6.01754606       0.10836373       0.07268815      -0.06860699
O        4.14231928       5.99770362       6.08661087       0.08488402      -0.08844846       0.00045791
O        2.06896317       4.04839255       2.09124031       0.04024576      -0.00904234       0.06252275
O        6.00462300       4.07358376       2.14377681      -0.08152957       0.01614882       0.11505933
O        1.96182507       8.10032811       2.07238426      -0.06689239      -0.01454175       0.04366659
O        6.01392068       8.11186977       1.91740484      -0.07223194      -0.00300014      -0.11131276
O        1.83552990       4.13371421       6.29110317      -0.19318743       0.07627920       0.20495041
O        6.27716154       4.02765301       6.09567076       0.19100906      -0.02978205       0.00951808
O        2.14943150       8.16750104       6.23733672       0.12071412       0.05263107       0.15118384
O        6.05445329       7.96762489       6.23884889      -0.03169924      -0.14724514       0.15269609
O        2.06520931       1.96197693       4.19388760       0.03649166      -0.06674092       0.13645241
O        6.28655126       1.76076754       4.15961995       0.20039845      -0.26795037       0.10218485
O        2.10136848       6.02236279       4.07472031       0.07265078      -0.06379003       0.01728501
O        6.03928340       6.24879139       4.00302863      -0.04686946       0.16263852      -0.05440658
O        1.96575535       2.00036721       8.20586619      -0.06296222      -0.02835076       0.09099580
O        6.12003804       2.00780612       8.12320035       0.03388531      -0.02091190       0.00833004
O        2.18831092       6.26154428       8.20274987       0.15959330       0.17539135       0.08787937
O        6.14116698       5.90056301       8.06773288       0.05501420      -0.18558997      -0.04713754
40
Lattice="8.114870309777642 1.0311789206707726e-07 -1.6384903408977124e-07 1.0311785748845261e-07 8.114869930248256 2.242601906454912e-07 -1.638490223110111e-07 2.2426020397351547e-07 8.11487040810358" Properties=species:S:1:pos:R:3:u_disp:R:3 system=knbo3_cubic base_model=chgnet role=train_pool T=300.0 draw=6 n_tries=13 rms_disp_A=0.224260805200588 min_pair_ratio=0.7410307752747614 nearest_heldout_A=0.21270471383396133 site_map_ok=1 nearest_heldout_src=knbo3_cubic_mattersim_q0-0-1d2-b0.extxyz#3 pbc="T T T"
K        4.07510426      -0.07988117       4.03499242       0.01766921      -0.07988166      -0.02244270
K        8.24843266       0.06327922       4.00203017       0.13356246       0.06327868      -0.05540487
K        4.04657418       4.08211082       4.06639835      -0.01086092       0.02467536       0.00896312
K        8.06563881       4.03477622       4.03335469      -0.04923145      -0.02265928      -0.02408046
K        4.02906266      -0.02933221       8.11311929      -0.02837230      -0.02933281      -0.00175104
K        8.15480656       0.11842385       8.05225455       0.03993644       0.11842319      -0.06261569
K        4.17010445       3.81292664       8.03486814       0.11266943      -0.24450893      -0.08000230
K        7.99233368       4.11630358       8.07500559      -0.12253649       0.05886796      -0.03986476
Nb       2.32175029       2.09615734       1.60310777       0.29303282       0.06743958      -0.42560992
Nb       6.40260969       1.99120458       2.41845121       0.31645706      -0.03751323       0.38973359
Nb       1.92701961       6.15729900       2.09131333      -0.10169792       0.07114627       0.06259553
Nb       5.88284905       6.02433025       1.86852663      -0.20330363      -0.06182253      -0.16019109
Nb       1.89081683       1.92365408       5.70959942      -0.13790056      -0.10506379      -0.37655347
Nb       5.95910209       1.99194362       6.44507903      -0.12705045      -0.03677430       0.35892621
Nb       1.91495623       5.94593337       6.16696159      -0.11376122      -0.14021946       0.08080858
Nb       5.94399026       6.08249475       5.96440301      -0.14216234      -0.00365814      -0.12174991
O        0.03220791       2.02246912       2.21421582       0.03220777      -0.00624783       0.18549810
O        4.07299068       2.10621472       2.06993584       0.01555538       0.07749773       0.04121819
O        0.04202743       6.05195946       2.22641671       0.04202724      -0.03419245       0.19769887
O        4.15456146       6.15465792       1.89195968       0.09712611       0.06850596      -0.13675808
O        0.10933668       2.24188833       6.13800072       0.10933663       0.21317127       0.05184779
O        4.06473718       2.14590707       6.18940600       0.00730197       0.11718997       0.10325315
O        0.06026721       6.27380526       6.07346727       0.06026710       0.18765324      -0.01268577
O        4.10388193       6.15717047       6.51638203       0.04644667       0.07101839       0.43022907
O        1.93990653       4.06945191       2.17565487      -0.08881088       0.01201702       0.14693731
O        6.03896945       4.08077370       1.99740573      -0.04718312       0.02333875      -0.03131175
O        2.07306386       8.14356206       2.12422510       0.04434639       0.02869221       0.09550742
O        6.15052130       8.18413265       1.95200529       0.06436868       0.06926274      -0.07671230
O        2.16263581       4.23525570       6.29707788       0.13391848       0.17782069       0.21092512
O        6.13385623       4.12129415       6.00440635       0.04770374       0.06385909      -0.08174633
O        2.05685686       8.21414177       6.13630545       0.02813948       0.09927180       0.05015257
O        6.26514822       8.27617417       6.17273517       0.17899569       0.16130415       0.08658238
O        1.99400540       2.14563127       4.22632100      -0.03471225       0.11691342       0.16888581
O        6.06132373       2.10252667       4.02164103      -0.02482907       0.07380877      -0.03579407
O        2.22459003       6.17287106       4.05957659       0.19587233       0.08671824       0.00214129
O        6.06699278       6.14496208       4.09818245      -0.01916008       0.05880921       0.04074723
O        1.97746543       1.99061390       8.18806153      -0.05125214      -0.03810407       0.07319114
O        6.11412763       2.12905992       8.22027272       0.02797491       0.10034190       0.10540241
O        2.13562376       6.11386180       8.19925116       0.10690614       0.02770887       0.08438066
O        6.14326407       6.03257745       8.20783401       0.05711130      -0.05357553       0.09296359
40
Lattice="8.114870309777642 1.0311789206707726e-07 -1.6384903408977124e-07 1.0311785748845261e-07 8.114869930248256 2.242601906454912e-07 -1.638490223110111e-07 2.2426020397351547e-07 8.11487040810358" Properties=species:S:1:pos:R:3:u_disp:R:3 system=knbo3_cubic base_model=chgnet role=train_pool T=300.0 draw=7 n_tries=13 rms_disp_A=0.3449274295755766 min_pair_ratio=0.6807005438064806 nearest_heldout_A=0.3284841588481446 site_map_ok=1 nearest_heldout_src=knbo3_cubic_mace_mp0_q0-0-1d2-b0.extxyz#5 pbc="T T T"
K        3.91484049      -0.05263460       4.13796239      -0.14259456      -0.05263509       0.08052727
K        8.00426191       0.05494458       4.12278479      -0.11060829       0.05494404       0.06534975
K        4.07641381       4.00495256       4.13488877       0.01897870      -0.05248290       0.07745353
K        8.22240663       4.18878529       4.05091943       0.10753637       0.13134978      -0.00651572
K        4.04891273       0.15544273       8.18210867      -0.00852224       0.15544213       0.06723835
K        8.16494199      -0.13496684       8.32279143       0.05007187      -0.13496750       0.20792119
K        4.02316005       3.96746665       8.13292789      -0.03427497      -0.08996892       0.01805746
K        8.08475207       4.25816381       8.12323217      -0.03011811       0.20072819       0.00836181
Nb       2.55589789       1.96404647       1.35038658       0.52718041      -0.06467130      -0.67833111
Nb       6.61386852       2.13040444       2.59904120       0.52771589       0.10168662       0.57032359
Nb       2.14329959       6.04698156       2.41340637       0.11458206      -0.03917117       0.38468856
Nb       6.18089835       6.17137637       1.64290396       0.09474567       0.08522359      -0.38581377
Nb       1.49150013       1.72370662       5.40995659      -0.53721727      -0.30501125      -0.67619631
Nb       5.62164868       2.23316574       6.63400943      -0.46450386       0.20444782       0.54785661
Nb       1.84397264       5.72634761       6.47447637      -0.18474480      -0.35980523       0.38832336
Nb       5.92445117       6.29309678       5.67128097      -0.16170143       0.20694389      -0.41487196
O       -0.06683558       1.98704202       2.04924392      -0.06683572      -0.04167493       0.02052619
O        3.99889207       2.28185950       2.09327134      -0.05854323       0.25314250       0.06455370
O        0.01702476       6.22923253       1.93175633       0.01702457       0.14308062      -0.09696150
O        4.10257283       6.10662064       1.76766527       0.04513748       0.02046868      -0.26105248
O        0.02573948       2.03583734       5.98915029       0.02573943       0.00712028      -0.09700263
O        4.04467699       1.98097522       6.01413588      -0.01275822      -0.04774189      -0.07201697
O        0.12917226       6.14290136       5.94766037       0.12917215       0.05674934      -0.13849267
O        4.20338599       6.14902443       6.13246567       0.14595073       0.06287235       0.04631271
O        2.07162988       4.20188466       2.22082642       0.04291247       0.14444977       0.19210886
O        6.08702718       4.01802045       2.04794758       0.00087461      -0.03941449       0.01923010
O        1.98657998       8.23286431       2.11614591      -0.04213748       0.11799445       0.08742824
O        6.01036145       8.03447151       1.98230689      -0.07579117      -0.08039840      -0.04641070
O        2.21267017       4.09335145       6.24132206       0.18395284       0.03591645       0.15516929
O        6.16945229       4.05290931       6.03399621       0.08329980      -0.00452575      -0.05215647
O        2.13609508       8.10470422       6.46325304       0.10737770      -0.01016575       0.37710016
O        6.25442493       8.11058009       6.08101003       0.16827239      -0.00428993      -0.00514276
O        1.82976388       2.06890928       4.11634440      -0.19895377       0.04019143       0.05890922
O        5.95252619       2.02294522       4.07939831      -0.13362662      -0.00577268       0.02196320
O        2.21595881       6.26113966       4.11669808       0.18724111       0.17498684       0.05926278
O        6.12503987       6.03731177       3.97287720       0.03888702      -0.04884110      -0.08455801
O        1.99639785       2.11158705       8.15608286      -0.03231972       0.08286908       0.04121247
O        6.06306558       1.90149743       8.13004336      -0.02308714      -0.12722059       0.01517305
O        2.12969190       5.94936035       8.18360720       0.10097428      -0.13679258       0.06873670
O        6.30625162       5.96331662       8.00729586       0.22009885      -0.12283637      -0.10757456
40
Lattice="8.114870309777642 1.0311789206707726e-07 -1.6384903408977124e-07 1.0311785748845261e-07 8.114869930248256 2.242601906454912e-07 -1.638490223110111e-07 2.2426020397351547e-07 8.11487040810358" Properties=species:S:1:pos:R:3:u_disp:R:3 system=knbo3_cubic base_model=chgnet role=train_pool T=300.0 draw=8 n_tries=13 rms_disp_A=0.2100074767723735 min_pair_ratio=0.8082682758701056 nearest_heldout_A=0.19752628461686497 site_map_ok=1 nearest_heldout_src=knbo3_cubic_orb_v2_q1d2-0-1d2-b0.extxyz#4 pbc="T T T"
K        4.10739613       0.21299458       4.16761611       0.04996108       0.21299409       0.11018099
K        7.98431641       0.13860301       4.09217935      -0.13055379       0.13860247       0.03474431
K        4.07189688       4.23886770       4.04497176       0.01446178       0.18143225      -0.01246347
K        8.14907707       3.87175723       4.03850572       0.03420681      -0.18567827      -0.01892943
K        3.96579607      -0.12583400       8.17772784      -0.09163890      -0.12583460       0.06285751
K        8.13598905      -0.17501017       8.20266779       0.02111893      -0.17501082       0.08779755
K        4.04637963       3.88102065       7.91783857      -0.01105539      -0.17641492      -0.19703187
K        8.18821537       4.02769807       7.99011092       0.07334520      -0.02973755      -0.12475943
Nb       1.90842383       2.08284612       1.69648072      -0.12029364       0.05412836      -0.33223697
Nb       6.00457956       1.96698285       2.14807254      -0.08157307      -0.06173496       0.11935493
Nb       2.12158971       6.12783054       2.28410910       0.09287218       0.04167781       0.25539129
Nb       6.11254861       6.02824664       1.97598299       0.02639593      -0.05790613      -0.05273473
Nb       2.08634902       2.23903033       5.77013342       0.05763163       0.21031246      -0.31601948
Nb       6.16951421       1.97771190       6.24082541       0.08336167      -0.05100602       0.15467259
Nb       1.83999054       6.30750706       6.33035951      -0.18872690       0.22135422       0.24420650
Nb       5.87998420       6.05218218       6.02839797      -0.20616840      -0.03397071      -0.05775496
O        0.10564867       2.03088423       2.13180944       0.10564853       0.00216728       0.10309172
O        4.09613341       1.92654065       2.09813070       0.03869812      -0.10217634       0.06941306
O        0.08378708       6.01732859       1.83057336       0.08378689      -0.06882332      -0.19814448
O        4.16061231       6.03925030       2.04153650       0.10317696      -0.04690166       0.01281874
O        0.02474224       1.96329117       6.17728066       0.02474219      -0.06542589       0.09112773
O        4.07632674       1.89005508       6.30759629       0.01889153      -0.13866203       0.22144344
O        0.13199466       5.91634497       6.07290211       0.13199455      -0.16980705      -0.01325093
O        4.19099607       5.91802656       5.96455980       0.13356081      -0.16812552      -0.12159316
O        2.10815528       3.94961697       1.93934267       0.07943787      -0.10781792      -0.08937489
O        6.08197368       4.09333590       2.04066685      -0.00417889       0.03590096       0.01194937
O        2.06129703       8.06670524       2.05439393       0.03257957      -0.04816462       0.02567625
O        6.26164952       8.16028884       2.13113224       0.17549690       0.04541893       0.10241465
O        2.24513991       3.89903692       6.11411780       0.21642257      -0.15839809       0.02796503
O        6.10366750       4.01600141       6.11088157       0.01751502      -0.04143365       0.02472889
O        2.09083544       7.99234645       6.16385743       0.06211806      -0.12252352       0.07770455
O        6.15741034       8.04482931       6.06646839       0.07125781      -0.07004071      -0.01968441
O        2.06176998       1.98491884       4.09485685       0.03305233      -0.04379902       0.03742166
O        6.19869068       2.19896638       4.08911608       0.11253788       0.17024847       0.03168098
O        2.12005388       5.95364386       3.91457810       0.09133618      -0.13250896      -0.14285720
O        6.31793647       6.21952072       3.98291407       0.23178362       0.13336785      -0.07452115
O        2.04151084       1.95962494       8.09526689       0.01279327      -0.06909302      -0.01960350
O        6.11662359       1.99628619       8.25566022       0.03047086      -0.03243183       0.14078991
O        2.24609237       5.80660176       7.97862985       0.21737475      -0.27955117      -0.13624065
O        6.11779593       6.08009372       8.00628201       0.03164316      -0.00605926      -0.10858841
40
Lattice="8.114870309777642 1.0311789206707726e-07 -1.6384903408977124e-07 1.0311785748845261e-07 8.114869930248256 2.242601906454912e-07 -1.638490223110111e-07 2.2426020397351547e-07 8.11487040810358" Properties=species:S:1:pos:R:3:u_disp:R:3 system=knbo3_cubic base_model=chgnet role=train_pool T=300.0 draw=9 n_tries=13 rms_disp_A=0.27334620916024166 min_pair_ratio=0.685138607958389 nearest_heldout_A=0.2443781581922346 site_map_ok=1 nearest_heldout_src=knbo3_cubic_orb_v2_q1d2-0-1d2-b0.extxyz#7 pbc="T T T"
K        4.17311777       0.04955667       4.15154575       0.11568272       0.04955618       0.09411063
K        8.01642195       0.03925078       4.00811716      -0.09844825       0.03925024      -0.04931788
K        4.15429631       3.91859580       4.00669879       0.09686120      -0.13883965      -0.05073645
K        8.34175894       4.04683241       4.01735785       0.22688869      -0.01060310      -0.04007730
K        4.12085705       0.03009217       8.14447932       0.06342208       0.03009156       0.02960899
K        8.00579276       0.07996013       8.13825880      -0.10907736       0.07995948       0.02338856
K        3.89235730       4.03498777       7.98085252      -0.16507772      -0.02244780      -0.13401791
K        8.01682531       4.04136348       8.25058350      -0.09804487      -0.01607214       0.13571314
Nb       1.67593408       2.27502104       2.10518324      -0.35278339       0.24630328       0.07646555
Nb       5.66705726       2.13958535       2.30610052      -0.41909537       0.11086754       0.27738291
Nb       2.09442493       6.33561830       2.14776656       0.06570740       0.24946558       0.11904876
Nb       6.16610506       6.13072349       1.57228320       0.07995238       0.04457071      -0.45643452
Nb       2.44890121       1.69043490       6.07052695       0.42018382      -0.33828297      -0.01562595
Nb       6.57846856       2.03759292       6.36651629       0.49231602       0.00887500       0.28036348
Nb       1.81978082       5.76542684       6.19400382      -0.20893663      -0.32072600       0.10785081
Nb       5.94159719       6.07375798       5.65147961      -0.14455541      -0.01239491      -0.43467332
O       -0.04464928       2.02222993       1.84051108      -0.04464942      -0.00648702      -0.18820665
O        4.07463873       1.82306397       2.04337609       0.01720343      -0.20565302       0.01465845
O       -0.01868891       5.76056346       2.22882060      -0.01868910      -0.32558845       0.20010277
O        4.05167586       6.04089367       1.99071839      -0.00575949      -0.04525829      -0.03799937
O       -0.00229197       2.30021008       6.02012354      -0.00229203       0.27149302      -0.06602938
O        3.99898839       2.26448776       5.95484329      -0.05844682       0.23577065      -0.13130955
O        0.01913415       6.30376544       6.16584530       0.01913405       0.21761342       0.07969225
O        4.10519623       6.06478794       6.03892393       0.04776096      -0.02136413      -0.04722903
O        2.15954480       4.00687310       2.04764539       0.13082739      -0.05056179       0.01892783
O        5.98782212       3.97160398       2.07595895      -0.09833045      -0.08583096       0.04724147
O        1.85377632       7.96054108       1.94943254      -0.17494114      -0.15432877      -0.07928513
O        6.35987243       8.00962592       2.12106453       0.27371981      -0.10524399       0.09234694
O        2.00863230       4.10205838       6.07978607      -0.02008503       0.04462338      -0.00636669
O        6.10332908       4.16080775       6.22380326       0.01717659       0.10337270       0.13765058
O        2.28725364       8.19801524       6.05996829       0.25853626       0.08314527      -0.02618459
O        6.20656152       8.22474466       6.35401889       0.12040898       0.10987464       0.26786609
O        1.94497487       1.93355362       3.86119915      -0.08374278      -0.09516423      -0.19623604
O        6.11719596       2.00728649       4.10885798       0.03104316      -0.02143142       0.05142287
O        1.95164401       6.09610274       4.12398938      -0.07707369       0.00994993       0.06655409
O        6.01310288       6.14980982       4.15026818      -0.07304997       0.06365694       0.09283296
O        2.12629758       2.09375056       7.99522056       0.09758001       0.06503260      -0.11964983
O        6.06865613       2.09598022       8.10474775      -0.01749659       0.06726220      -0.01012256
O        1.92332133       6.04269123       8.01066986      -0.10539629      -0.04346170      -0.10420064
O        6.16429720       6.01385214       8.30212453       0.07814443      -0.07230084       0.18725411
40
Lattice="8.114870309777642 1.0311789206707726e-07 -1.6384903408977124e-07 1.0311785748845261e-07 8.114869930248256 2.242601906454912e-07 -1.638490223110111e-07 2.2426020397351547e-07 8.11487040810358" Properties=species:S:1:pos:R:3:u_disp:R:3 system=knbo3_cubic base_model=chgnet role=train_pool T=300.0 draw=10 n_tries=13 rms_disp_A=0.2686052350206091 min_pair_ratio=0.6525403991894391 nearest_heldout_A=0.23486520739472105 site_map_ok=1 nearest_heldout_src=knbo3_cubic_orb_v2_q1d2-1d2-0-b0.extxyz#7 pbc="T T T"
K        4.20758725      -0.00181216       4.15669404       0.15015220      -0.00181265       0.09925892
K        8.20004876       0.02579255       4.02831426       0.08517856       0.02579201      -0.02912078
K        4.03489681       4.17409957       4.15383063      -0.02253829       0.11666412       0.09639540
K        8.00481366       4.02257378       3.92021139      -0.11005660      -0.03486172      -0.13722376
K        3.86659375       0.00598945       8.18649118      -0.19084122       0.00598885       0.07162086
K        8.00623548      -0.03693059       8.19081887      -0.10863464      -0.03693124       0.07594862
K        4.01643260       4.10202044       8.04740324      -0.04100242       0.04458487      -0.06746719
K        7.86971859       3.82279091       8.14755975      -0.24515158      -0.23464471       0.03268939
Nb       2.16998342       2.18916398       2.54527824       0.14126595       0.16044622       0.51656055
Nb       6.23902549       2.16975581       1.57281813       0.15287286       0.14103800      -0.45589948
Nb       1.85072277       6.30893923       1.90817465      -0.17799475       0.22278650      -0.12054315
Nb       5.95888390       6.18827022       2.07441354      -0.12726878       0.10211744       0.04569582
Nb       1.97496555       1.99913820       6.62604511      -0.05375184      -0.02957967       0.53989222
Nb       6.08428550       1.65729982       5.62998315      -0.00186704      -0.37141810      -0.45616966
Nb       1.93876092       6.03637708       6.01931819      -0.08995653      -0.04977575      -0.06683482
Nb       6.09392066       5.79116087       6.09661042       0.00776806      -0.29499202       0.01045749
O        0.02874584       2.07562457       2.01663686       0.02874571       0.04690763      -0.01208087
O        4.14755824       1.96156642       1.85395382       0.09012295      -0.06715058      -0.17476383
O        0.08055813       5.98726450       2.15270186       0.08055794      -0.09888741       0.12398402
O        4.08687601       6.16968218       1.92851482       0.02944067       0.08353022      -0.10020294
O        0.11418360       2.15131210       5.82601119       0.11418354       0.12259504      -0.26014174
O        4.12390879       2.05470133       6.10235984       0.06647358       0.02598422       0.01620699
O        0.12788236       6.25328384       6.07435379       0.12788226       0.16713181      -0.01179925
O        4.16746147       6.19382031       6.11729193       0.11002621       0.10766824       0.03113897
O        2.10507161       4.09242801       1.78043305       0.07635419       0.03499312      -0.24828451
O        6.20121101       4.12459565       2.11401473       0.11505844       0.06716071       0.08529725
O        1.87270023       8.16364319       2.07406133      -0.15601723       0.04877333       0.04534365
O        6.37301157       8.07466544       2.13452807       0.28685895      -0.04020447       0.10581048
O        2.00078643       4.07532594       6.17561546      -0.02793090       0.01789093       0.08946270
O        6.38336422       4.07388705       6.21007130       0.29721173       0.01645199       0.12391862
O        2.05247242       8.16727466       5.82089691       0.02375504       0.05240469      -0.26525597
O        6.40241499       8.23265112       6.17040077       0.31626246       0.11778110       0.08424798
O        2.23789440       2.27803530       3.95882147       0.20917675       0.24931745      -0.09861371
O        6.16520770       1.98739977       4.10381050       0.07905489      -0.04131813       0.04637539
O        2.11426538       5.84072343       4.04137117       0.08554767      -0.24542939      -0.01606412
O        5.95143358       6.23924397       4.10756358      -0.13471928       0.15309110       0.05012836
O        2.08222239       1.97300031       7.94525392       0.05350482      -0.05571766      -0.16961647
O        6.26012705       1.93871370       8.15619564       0.17397433      -0.09000431       0.04132533
O        1.93186588       6.24651733       8.14843198      -0.09685174       0.16036440       0.03356148
O        6.18237369       6.22759587       8.17122194       0.09622091       0.14144289       0.05635152
40
Lattice="8.114870309777642 1.0311789206707726e-07 -1.6384903408977124e-07 1.0311785748845261e-07 8.114869930248256 2.242601906454912e-07 -1.638490223110111e-07 2.2426020397351547e-07 8.11487040810358" Properties=species:S:1:pos:R:3:u_disp:R:3 system=knbo3_cubic base_model=chgnet role=train_pool T=300.0 draw=11 n_tries=13 rms_disp_A=0.22301278266126906 min_pair_ratio=0.7755636847469165 nearest_heldout_A=0.21439348271148753 site_map_ok=1 nearest_heldout_src=knbo3_cubic_orb_v2_q1d2-0-0-b0.extxyz#4 pbc="T T T"
K        4.01585515      -0.21169127       4.21689774      -0.04157990      -0.21169176       0.15946262
K        8.15135994       0.03945829       4.17405177       0.03648974       0.03945775       0.11661673
K        4.17075453       4.01605225       4.01180158       0.11331943      -0.04138321      -0.04563366
K        8.12092438       4.29971364       3.90296869       0.00605412       0.24227813      -0.15446646
K        3.87744792       0.05065222       7.95711133      -0.17998705       0.05065162      -0.15775899
K        8.05870564      -0.03955333       8.13510252      -0.05616448      -0.03955398       0.02023228
K        4.05540811       3.97865192       8.11151369      -0.00202691      -0.07878364      -0.00335675
K        8.09833400       4.08221976       8.19568398      -0.01653618       0.02478414       0.08081363
Nb       2.21120453       1.91617425       1.69247214       0.18248706      -0.11254352      -0.33624555
Nb       6.25598799       1.78441884       2.21581738       0.16983536      -0.24429898       0.18709976
Nb       2.01329687       6.06018748       2.27174301      -0.01542065      -0.02596525       0.24302520
Nb       6.02317303       5.80802400       1.91403494      -0.06297965      -0.27812878      -0.11468278
Nb       2.07164167       2.07240586       5.70620006       0.04292428       0.04368799      -0.37995284
Nb       6.21162834       2.27132025       6.31378646       0.12547580       0.24260232       0.22763364
Nb       1.75741225       6.05235550       6.35084819      -0.27130520      -0.03379733       0.26469518
Nb       5.83095345       6.33641050       5.91433980      -0.25519915       0.25025761      -0.17181312
O        0.03157269       2.14642130       2.14797867       0.03157255       0.11770436       0.11926095
O        4.04474986       2.14236275       2.03334247      -0.01268543       0.11364576       0.00462483
O       -0.00471795       6.19511023       1.99309849      -0.00471814       0.10895832      -0.03561935
O        4.12522391       6.26452200       2.16567101       0.06778857       0.17837004       0.13695325
O       -0.11942952       1.94479982       6.06741285      -0.11942958      -0.08391724      -0.01874008
O        3.95123150       2.11078494       6.09644347      -0.10620371       0.08206784       0.01029062
O        0.08904555       6.12192667       6.18532067       0.08904544       0.03577465       0.09916762
O        4.07292512       6.24012695       5.93926496       0.01548986       0.15397488      -0.14688800
O        2.10209517       4.05387366       2.31285055       0.07337776      -0.00356123       0.28413299
O        6.08323879       4.09939616       1.84777920      -0.00291378       0.04196121      -0.18093828
O        2.04768622       8.08988358       2.12189234       0.01896876      -0.02498628       0.09317466
O        6.15500526       8.24101286       1.98318288       0.06885264       0.12614295      -0.04553471
O        2.11688800       4.08701762       6.02999659       0.08817066       0.02958262      -0.05615617
O        6.14375337       4.11965545       6.07205621       0.05760088       0.06222039      -0.01409648
O        1.93400948       8.14770896       6.24483231      -0.09470790       0.03283899       0.15867944
O        6.15090631       8.10478719       5.98949450       0.06475378      -0.01008283      -0.09665830
O        2.05501037       2.01079423       4.13409546       0.02629272      -0.01792363       0.07666027
O        6.08550162       2.06084456       3.96963432      -0.00065118       0.03212665      -0.08780079
O        2.06590433       6.16478829       4.21273345       0.03718662       0.07863547       0.15529815
O        6.31826285       6.10074480       3.96954083       0.23210999       0.01459193      -0.08789439
O        1.94535603       2.12032918       8.15057279      -0.08336154       0.09161121       0.03570240
O        6.09808441       1.93008415       8.13766498       0.01193169      -0.09863387       0.02279467
O        2.25916339       5.87810565       8.18751210       0.23044577      -0.20804728       0.07264160
O        6.22924764       6.18646383       8.04288305       0.14309486       0.10031085      -0.07198737
40
Lattice="8.114870309777642 1.0311789206707726e-07 -1.6384903408977124e-07 1.0311785748845261e-07 8.114869930248256 2.242601906454912e-07 -1.638490223110111e-07 2.2426020397351547e-07 8.11487040810358" Properties=species:S:1:pos:R:3:u_disp:R:3 system=knbo3_cubic base_model=chgnet role=train_pool T=300.0 draw=12 n_tries=13 rms_disp_A=0.23386216758515266 min_pair_ratio=0.7673456380167312 nearest_heldout_A=0.20541098393362897 site_map_ok=1 nearest_heldout_src=knbo3_cubic_orb_v2_q0-1d2-0-b1.extxyz#6 pbc="T T T"
K        4.25093247       0.15229409       4.14634514       0.19349742       0.15229360       0.08891002
K        8.10876080      -0.06992782       4.01579059      -0.00610941      -0.06992836      -0.04164445
K        3.99683423       4.00106597       4.33055324      -0.06060087      -0.05636949       0.27311801
K        8.10563013       4.15061118       4.04743693      -0.00924013       0.09317567      -0.00999822
K        3.99889128       0.11412868       8.13104101      -0.05854369       0.11412808       0.01617068
K        8.04397214      -0.12892141       8.07758354      -0.07089798      -0.12892207      -0.03728670
K        4.00349899       4.01655065       8.07801924      -0.05393603      -0.04088492      -0.03685120
K        7.97763827       4.03696037       8.17240886      -0.13723191      -0.02047525       0.05753851
Nb       1.89486237       2.15200206       2.01207273      -0.13385511       0.12328430      -0.01664497
Nb       5.95364093       1.85089685       2.20428458      -0.13251170      -0.17782096       0.17556697
Nb       2.39452768       6.21535268       2.05649736       0.36581015       0.12919996       0.02777956
Nb       6.33314024       5.88154133       1.92024242       0.24698756      -0.20461145      -0.10847530
Nb       1.73716242       2.44711663       6.01685798      -0.29155497       0.41839875      -0.06929492
Nb       5.85152708       1.65969712       6.23074499      -0.23462547      -0.36902080       0.14459217
Nb       2.10287029       6.55739177       6.09823511       0.07415285       0.47123893       0.01208210
Nb       6.21560867       5.75194990       5.99865987       0.12945607      -0.33420299      -0.08749306
O        0.06539927       1.86577396       2.07268835       0.06539913      -0.16294298       0.04397062
O        4.04223637       2.02779809       1.99147890      -0.01519892      -0.00091891      -0.03723875
O       -0.01749200       6.15976339       2.24623145      -0.01749219       0.07361148       0.21751362
O        3.95095288       5.92440832       1.89153539      -0.10648247      -0.16174364      -0.13718237
O        0.11620849       1.98345043       5.95312816       0.11620844      -0.04526663      -0.13302477
O        4.11754642       2.05159740       6.08924697       0.06011121       0.02288029       0.00309412
O       -0.01356356       6.08609740       5.89278032      -0.01356367      -0.00005463      -0.19337272
O        4.05882615       6.02075806       6.13954662       0.00139089      -0.06539401       0.05339366
O        1.83831335       4.02356227       2.01253069      -0.19040406      -0.03387262      -0.01618687
O        6.25731362       3.99408830       1.92254739       0.17116105      -0.06334665      -0.10617009
O        2.15240260       8.01315195       2.06576636       0.12368514      -0.10171791       0.03704868
O        6.11778605       8.12348750       1.87383270       0.03163343       0.00861759      -0.15488489
O        1.90533803       4.03051041       6.09826270      -0.12337930      -0.02692459       0.01210993
O        6.18066778       4.09046299       5.88363549       0.09451529       0.03302793      -0.20251719
O        2.07110419       8.11257162       6.03654021       0.04238681      -0.00229835      -0.04961267
O        6.21695442       8.18600028       5.99588757       0.13080188       0.07113025      -0.09026522
O        2.23694833       1.91797989       3.96451481       0.20823068      -0.11073796      -0.09292037
O        6.06912269       2.04892868       4.00780517      -0.01703011       0.02021078      -0.04962994
O        2.15513036       5.95987860       4.09320770       0.12641265      -0.12627422       0.03577240
O        5.88683895       6.19131795       3.93259155      -0.19931390       0.10516508      -0.12484367
O        2.01567823       1.94484859       8.09764390      -0.01303933      -0.08386938      -0.01722649
O        6.13198521       2.18196681       8.00913442       0.04583249       0.15324879      -0.10573588
O        1.87783466       6.24139613       8.05931074      -0.15088297       0.15524320      -0.05555977
O        6.07285359       5.99536825       8.06729784      -0.01329919      -0.09078473      -0.04757258
40
Lattice="8.114870309777642 1.0311789206707726e-07 -1.6384903408977124e-07 1.0311785748845261e-07 8.114869930248256 2.242601906454912e-07 -1.638490223110111e-07 2.2426020397351547e-07 8.11487040810358" Properties=species:S:1:pos:R:3:u_disp:R:3 system=knbo3_cubic base_model=chgnet role=train_pool T=600.0 draw=0 n_tries=32 rms_disp_A=0.2949743148083491 min_pair_ratio=0.6319647042068626 nearest_heldout_A=0.24456266336437368 site_map_ok=1 nearest_heldout_src=knbo3_cubic_sevennet0_q0-1d2-1d2-b0.extxyz#8 pbc="T T T"
K        3.94508558      -0.01591205       4.25090336      -0.11234947      -0.01591254       0.19346824
K        8.08054480      -0.08044332       4.00476092      -0.03432540      -0.08044387      -0.05267411
K        4.22780443       4.15183258       4.02415477       0.17036933       0.09439713      -0.03328046
K        8.22854739       4.07813703       3.82846581       0.11367713       0.02070152      -0.22896934
K        3.90131958      -0.14078406       8.06420102      -0.15611539      -0.14078466      -0.05066930
K        8.05699862      -0.01804640       7.96508722      -0.05787151      -0.01804705      -0.14978302
K        4.04059708       4.15097595       7.97220839      -0.01683795       0.09354038      -0.14266205
K        8.10211652       3.96155714       8.16673892      -0.01275366      -0.09587848       0.05186857
Nb       2.30835335       2.27438219       1.89850809       0.27963588       0.24566443      -0.13020960
Nb       6.26566376       1.70241052       2.13240482       0.17951113      -0.32630730       0.10368721
Nb       1.38555193       6.35017217       1.95289942      -0.64316560       0.26401944      -0.07581838
Nb       5.42874619       5.89663191       2.26439309      -0.65740649      -0.18952087       0.23567536
Nb       1.83556145       1.75103713       5.93332796      -0.19315595      -0.27768075      -0.15282494
Nb       5.94543870       2.30308405       6.23211398      -0.14071385       0.27436613       0.14596117
Nb       2.59717850       5.78768702       6.01381312       0.56846106      -0.29846581      -0.07233989
Nb       6.65985261       6.38074179       6.35107824       0.57370001       0.29458890       0.26492531
O        0.01739907       1.80616587       1.92171642       0.01739893      -0.22255107      -0.10700130
O        4.07210255       1.96748428       2.09332236       0.01466725      -0.06123272       0.06460471
O        0.12208332       6.13575579       1.99025883       0.12208313       0.04960388      -0.03845901
O        4.07708198       6.17849616       1.96248026       0.01964664       0.09234420      -0.06623750
O       -0.00532076       2.00186393       6.04425740      -0.00532081      -0.02685313      -0.04189553
O        4.11083371       1.99028976       6.08204856       0.05339849      -0.03842735      -0.00410428
O       -0.04022957       6.05639937       6.08229909      -0.04022968      -0.02975265      -0.00385395
O        3.98282871       6.15717040       6.10708272      -0.07460656       0.07101833       0.02092976
O        2.06475343       4.01823823       2.01202620       0.03603602      -0.03919667      -0.01669136
O        6.21049374       4.07529104       1.92324740       0.12434118       0.01785609      -0.10547008
O        2.02874940       8.14521745       2.12363671       0.00003193       0.03034759       0.09491904
O        6.13373179       8.03612688       1.77884519       0.04757917      -0.07874303      -0.24987240
O        1.74079002       4.11126619       6.04810610      -0.28792731       0.05383118      -0.03804666
O        6.11275628       4.12939485       6.21054956       0.02660379       0.07195979       0.12439688
O        1.86084537       8.09244242       6.08231507      -0.16787201      -0.02242755      -0.00383781
O        6.37916136       8.04450826       6.17342852       0.29300883      -0.07036176       0.08727572
O        2.11723386       2.21564180       3.95957095       0.08851620       0.18692394      -0.09786423
O        5.97870449       2.08777736       4.01377509      -0.10744831       0.05905945      -0.04366002
O        2.18361546       6.02340488       4.04749038       0.15489776      -0.06274794      -0.00994492
O        6.18758293       6.33719900       3.93276220       0.10143007       0.25104613      -0.12467301
O        2.10929717       2.05466997       8.07204136       0.08057960       0.02595201      -0.04282903
O        6.01316324       2.05747994       8.01884204      -0.07298949       0.02876192      -0.09602827
O        2.15209465       6.15566178       8.06837826       0.12337703       0.06950885      -0.04649224
O        5.99089602       6.15572811       8.01552216      -0.09525675       0.06957513      -0.09934826
40
Lattice="8.114870309777642 1.0311789206707726e-07 -1.6384903408977124e-07 1.0311785748845261e-07 8.114869930248256 2.242601906454912e-07 -1.638490223110111e-07 2.2426020397351547e-07 8.11487040810358" Properties=species:S:1:pos:R:3:u_disp:R:3 system=knbo3_cubic base_model=chgnet role=train_pool T=600.0 draw=1 n_tries=32 rms_disp_A=0.25653417376454046 min_pair_ratio=0.7793905362048106 nearest_heldout_A=0.23598531518067176 site_map_ok=1 nearest_heldout_src=knbo3_cubic_chgnet_q0-0-0-b0.extxyz#4 pbc="T T T"
K        4.08445213       0.23077427       3.96769804       0.02701708       0.23077378      -0.08973708
K        8.06945296      -0.25793889       3.99552995      -0.04541725      -0.25793943      -0.06190509
K        4.14406125       4.49400891       4.08204912       0.08662615       0.43657345       0.02461389
K        7.83508420       3.95885865       3.99256896      -0.27978606      -0.09857686      -0.06486619
K        4.00291217       0.02194692       8.16934914      -0.05452280       0.02194631       0.05447881
K        8.27965050      -0.12329480       8.25208576       0.16478038      -0.12329546       0.13721552
K        4.00302894       4.27262372       8.20043979      -0.05440608       0.21518815       0.08556935
K        8.19468791       3.86919547       8.01323530       0.07981773      -0.18824015      -0.10163505
Nb       1.86265202       2.11857372       1.92327316      -0.16606546       0.08985596      -0.10544453
Nb       6.01725340       2.27627085       2.27159270      -0.06889922       0.24755304       0.24287508
Nb       1.92436806       6.24038947       1.67617823      -0.10434947       0.15423675      -0.35253958
Nb       5.99009149       6.27919273       2.18799700      -0.09606119       0.19303995       0.15927927
Nb       2.01479352       1.90734999       5.97249324      -0.01392387      -0.12136788      -0.11365966
Nb       6.08457027       2.03692886       6.26891700      -0.00158228       0.00821094       0.18276419
Nb       2.34765012       5.98464057       5.86191210       0.31893268      -0.10151227      -0.22424091
Nb       6.35792326       6.14762453       6.34180071       0.27177066       0.06147164       0.25564779
O        0.08765738       1.96268823       1.94753829       0.08765724      -0.06602871      -0.08117943
O        3.99336983       1.82088481       2.10321871      -0.06406546      -0.20783219       0.07450106
O       -0.14938759       5.92861320       1.86972603      -0.14938778      -0.15753871      -0.15899180
O        3.95432752       5.96471897       2.10332612      -0.10310782      -0.12143299       0.07460837
O        0.05295499       2.03393444       5.95897822       0.05295494       0.00521739      -0.12717471
O        4.12362601       1.92150313       6.13039588       0.06619080      -0.10721398       0.04424303
O       -0.04919767       5.87556327       6.22723540      -0.04919778      -0.21058875       0.14108236
O        4.09362355       6.02358545       6.38284691       0.03618828      -0.06256663       0.29669395
O        1.96377089       3.87489036       1.97603617      -0.06494653      -0.18254453      -0.05268139
O        6.13854386       3.84326062       2.03545807       0.05239130      -0.21417433       0.00674059
O        1.85626064       7.95622889       1.93619075      -0.17245683      -0.15864097      -0.09252692
O        5.99788384       7.97908517       2.06715429      -0.08826878      -0.13578474       0.03843669
O        2.14125635       3.85268034       6.18255138       0.11253902      -0.20475467       0.09639862
O        6.22715350       3.92795290       6.14712087       0.14100101      -0.12948216       0.06096818
O        2.00415883       7.95712400       6.10340860      -0.02455855      -0.15774597       0.01725572
O        6.04944128       8.01845626       5.96555708      -0.03671126      -0.09641376      -0.12059572
O        2.05507306       1.66765236       3.99097786       0.02635541      -0.36106549      -0.06645733
O        6.08578813       1.95126976       3.99427768      -0.00036468      -0.07744815      -0.06315743
O        1.89609466       5.81087047       4.08814961      -0.13262305      -0.27528235       0.03071431
O        6.01397265       5.71108017       3.93264819      -0.07218021      -0.37507270      -0.12478703
O        1.95949895       1.75038970       7.94300791      -0.06921861      -0.27832827      -0.17186248
O        6.11272516       2.00064171       8.07232887       0.02657243      -0.02807631      -0.04254144
O        1.93766565       6.13461570       8.15596803      -0.09105197       0.04846276       0.04109753
O        5.97597197       5.97643678       8.07437469      -0.11018081      -0.10971620      -0.04049573
40
Lattice="8.114870309777642 1.0311789206707726e-07 -1.6384903408977124e-07 1.0311785748845261e-07 8.114869930248256 2.242601906454912e-07 -1.638490223110111e-07 2.2426020397351547e-07 8.11487040810358" Properties=species:S:1:pos:R:3:u_disp:R:3 system=knbo3_cubic base_model=chgnet role=train_pool T=600.0 draw=2 n_tries=32 rms_disp_A=0.2856798085275377 min_pair_ratio=0.728715094632136 nearest_heldout_A=0.2546117394183898 site_map_ok=1 nearest_heldout_src=knbo3_cubic_orb_v2_q0-1d2-0-b0.extxyz#6 pbc="T T T"
K        4.19184457      -0.06268205       3.83608594       0.13440952      -0.06268254      -0.22134918
K        8.12579086       0.17415304       4.15003455       0.01092065       0.17415250       0.09259951
K        3.81514531       4.04493717       4.03463179      -0.24228980      -0.01249829      -0.02280344
K        7.99045338       4.20926537       3.96515327      -0.12441688       0.15182986      -0.09228188
K        4.00581021      -0.28208618       7.95240003      -0.05162476      -0.28208679      -0.16247029
K        8.12038631       0.28315067       7.98449559       0.00551619       0.28315001      -0.13037465
K        3.98291840       4.05184875       8.08334710      -0.07451662      -0.00558682      -0.03152333
K        8.12104707       3.97951948       8.15029583       0.00617690      -0.07791614       0.03542547
Nb       2.12201621       2.44971381       2.34622109       0.09329874       0.42099605       0.31750340
Nb       6.17075393       1.77813043       1.79748567       0.08460130      -0.25058738      -0.23123194
Nb       1.74368197       6.53363627       2.28694705      -0.28503555       0.44748354       0.25822924
Nb       5.84162466       5.86136482       1.87634886      -0.24452802      -0.22478795      -0.15236886
Nb       2.22419758       1.75317595       6.29405105       0.19548018      -0.27554192       0.20789815
Nb       6.23950449       2.05364151       5.72690781       0.15335194       0.02492358      -0.35924501
Nb       1.82483198       5.81472975       6.33624769      -0.20388546      -0.27142309       0.25009468
Nb       5.91554239       6.09594723       5.90528399      -0.17061021       0.00979434      -0.18086894
O        0.09441821       2.09003280       2.08133747       0.09441808       0.06131585       0.05261975
O        4.18647838       1.98197936       2.15098006       0.12904309      -0.04673763       0.12226242
O        0.09425390       6.17159921       2.21948339       0.09425371       0.08544730       0.19076555
O        4.18266679       5.98009556       1.94174824       0.12523144      -0.10605640      -0.08696952
O        0.21831461       2.01719367       6.06383485       0.21831455      -0.01152338      -0.02231808
O        4.24765377       2.16002655       5.83992681       0.19021856       0.13130944      -0.24622604
O        0.06511589       6.13920897       6.12421828       0.06511579       0.05305695       0.03806524
O        4.16455814       6.14722218       6.01293430       0.10712288       0.06107011      -0.07321866
O        2.09984601       3.97624564       1.98031727       0.07112860      -0.08118925      -0.04840029
O        5.99287685       4.08077642       2.20414943      -0.09327572       0.02334147       0.17543195
O        2.02436791       8.03202501       2.05123660      -0.00434955      -0.08284485       0.02251892
O        6.00854286       8.17527750       2.21077527      -0.07760976       0.06040759       0.18205768
O        2.18095276       4.07479929       6.01764735       0.15223543       0.01736428      -0.06850542
O        6.27675677       4.19023831       6.23345768       0.19060428       0.13280325       0.14730500
O        2.32659661       8.09698465       5.93176953       0.29787923      -0.01788532      -0.15438335
O        6.26038097       8.36823429       6.26659771       0.17422843       0.25336427       0.18044491
O        2.07678598       2.04821330       3.99074531       0.04806833       0.01949544      -0.06668987
O        6.22940581       2.07574793       4.24875080       0.14325301       0.04703003       0.19131569
O        2.02406828       5.94297630       3.95924682      -0.00464942      -0.14317652      -0.09818848
O        6.45940740       6.08433198       4.23715962       0.37325454      -0.00182089       0.17972440
O        2.32100223       1.85454469       8.04081193       0.29228466      -0.17417328      -0.07405847
O        6.27398225       2.10986979       8.18241353       0.18782952       0.08115177       0.06754322
O        1.97746570       5.86410915       8.04551522      -0.05125192      -0.22204378      -0.06935528
O        6.37455994       6.22686132       8.23627949       0.28840717       0.14070834       0.12140906
40
Lattice="8.114870309777642 1.0311789206707726e-07 -1.6384903408977124e-07 1.0311785748845261e-07 8.114869930248256 2.242601906454912e-07 -1.638490223110111e-07 2.2426020397351547e-07 8.11487040810358" Properties=species:S:1:pos:R:3:u_disp:R:3 system=knbo3_cubic base_model=chgnet role=train_pool T=600.0 draw=3 n_tries=32 rms_disp_A=0.35295514513154747 min_pair_ratio=0.690089559372507 nearest_heldout_A=0.32762821355210736 site_map_ok=1 nearest_heldout_src=knbo3_cubic_sevennet0_q0-1d2-1d2-b0.extxyz#7 pbc="T T T"
K        4.08442298       0.17626872       4.11731959       0.02698793       0.17626823       0.05988447
K        8.19897877       0.19658369       4.07861091       0.08410856       0.19658315       0.02117587
K        4.15781993       3.85586856       4.01620047       0.10038483      -0.20156689      -0.04123476
K        7.90596234       4.03397066       3.90094947      -0.20890792      -0.02346485      -0.15648568
K        3.91327547       0.00687035       8.23813511      -0.14415950       0.00686975       0.12326479
K        8.00043390      -0.07540666       8.15579370      -0.11443623      -0.07540731       0.04092346
K        3.91825608       3.73112464       7.87619081      -0.13917894      -0.32631093      -0.23867963
K        8.08259547       4.22005698       8.29263985      -0.03227470       0.16262136       0.17776949
Nb       2.43185036       1.80147506       1.52755318       0.40313288      -0.22724270      -0.50116452
Nb       6.61419180       2.16802758       1.94534858       0.52803917       0.13930976      -0.08336903
Nb       1.97574079       5.77348113       2.66989362      -0.05297673      -0.31267160       0.64117581
Nb       5.98842135       6.27646948       1.98213480      -0.09773133       0.19031670      -0.04658293
Nb       1.56313381       2.26295055       5.60185050      -0.46558359       0.23423267      -0.48430240
Nb       5.67592539       1.86848732       5.95504186      -0.41022716      -0.16023061      -0.13111095
Nb       2.34079861       6.23594693       6.69498185       0.31208117       0.14979409       0.60882884
Nb       6.30608392       5.99962126       6.00410456       0.21993133      -0.08653163      -0.08204837
O       -0.12862247       2.08366232       2.21055614      -0.12862261       0.05494538       0.18183842
O        3.94737990       1.79139864       1.88184676      -0.11005540      -0.23731836      -0.14687088
O       -0.20795614       5.87751694       2.23484707      -0.20795633      -0.20863497       0.20612924
O        3.98938554       6.23517571       1.90348109      -0.06804980       0.14902375      -0.12523666
O        0.15396592       2.13665413       5.71226266       0.15396587       0.10793707      -0.37389027
O        4.10487761       2.02416493       6.18565807       0.04744240      -0.00455217       0.09950522
O       -0.01339263       6.08802409       6.08535506      -0.01339274       0.00187207      -0.00079798
O        4.03891194       5.91812533       6.30802741      -0.01852332      -0.16802674       0.22187445
O        1.80896767       4.15697639       1.90165812      -0.21974975       0.09954150      -0.12705944
O        5.85537318       3.95733328       1.82676907      -0.23077939      -0.10010167      -0.20194841
O        1.47562938       8.26620968       2.05988077      -0.55308809       0.15133982       0.03116309
O        6.15410874       8.10687335       2.29552442       0.06795612      -0.00799656       0.26680683
O        2.16873664       4.07265891       6.13921990       0.14001931       0.01522390       0.05306713
O        6.07517058       4.13278439       6.26896103      -0.01098191       0.07534933       0.18280834
O        1.95102801       8.08316588       6.05758418      -0.07768938      -0.03170409      -0.02856869
O        6.29379723       8.25709339       6.10051983       0.20764469       0.14222337       0.01436703
O        2.19045681       2.40983904       3.95996249       0.16173916       0.38112118      -0.09747270
O        6.01840418       1.95082648       4.15079465      -0.06774863      -0.07789143       0.09335955
O        2.14436764       6.17398844       4.02092990       0.11564994       0.08783562      -0.03650540
O        5.65183908       6.06014686       4.20260089      -0.43431377      -0.02600602       0.14516567
O        1.79257332       2.18896158       8.10334850      -0.23614424       0.16024362      -0.01152189
O        6.24013644       2.01248888       8.20213001       0.15398371      -0.01622913       0.08725970
O        1.97192128       6.04450370       8.19386319      -0.05679634      -0.04164924       0.07899268
O        5.98062180       6.20991291       8.09137355      -0.10553097       0.12375993      -0.02349687
40
Lattice="8.114870309777642 1.0311789206707726e-07 -1.6384903408977124e-07 1.0311785748845261e-07 8.114869930248256 2.242601906454912e-07 -1.638490223110111e-07 2.2426020397351547e-07 8.11487040810358" Properties=species:S:1:pos:R:3:u_disp:R:3 system=knbo3_cubic base_model=chgnet role=train_pool T=600.0 draw=4 n_tries=32 rms_disp_A=0.3509245508740333 min_pair_ratio=0.614080952660549 nearest_heldout_A=0.33935608935698386 site_map_ok=1 nearest_heldout_src=knbo3_cubic_sevennet0_q0-1d2-1d2-b0.extxyz#5 pbc="T T T"
K        3.98011011      -0.08817665       3.86907724      -0.07732494      -0.08817714      -0.18835788
K        8.13726523      -0.30616587       4.14481081       0.02239503      -0.30616642       0.08737577
K        4.09540140       4.11101519       4.02310819       0.03796630       0.05357973      -0.03432704
K        8.37210731       4.33399122       4.34660749       0.25723705       0.27655571       0.28917234
K        4.12761326       0.21867579       8.02035992       0.07017829       0.21867519      -0.09451040
K        8.08879763       0.03356863       8.07825657      -0.02607249       0.03356798      -0.03661367
K        3.99040780       3.94929499       8.00513324      -0.06702722      -0.10814058      -0.10973720
K        8.19003181       3.86500372       8.39810998       0.07516164      -0.19243190       0.28323962
Nb       2.21815501       1.75757743       1.68015185       0.18943753      -0.27114033      -0.34856585
Nb       6.33438312       1.99090953       2.35478359       0.24823049      -0.03780829       0.32606598
Nb       1.61870214       5.79257628       2.72956383      -0.41001539      -0.29357645       0.70084602
Nb       5.59547545       5.93667480       1.45582825      -0.49067723      -0.14947797      -0.57288947
Nb       1.97187038       2.49304112       5.63926665      -0.05684702       0.46432325      -0.44688625
Nb       6.06754003       1.92878485       6.21870774      -0.01861252      -0.09993308       0.13255493
Nb       2.20293405       6.45031321       6.92386104       0.17421661       0.36416038       0.83770803
Nb       6.27157170       5.99382905       5.62043413       0.18541910      -0.09232384      -0.46571880
O       -0.02495087       2.20415098       2.11549864      -0.02495101       0.17543404       0.08678091
O        4.06610347       1.97412776       1.94601119       0.00866818      -0.05458923      -0.08270646
O        0.04546428       6.14166669       1.84417844       0.04546409       0.05551478      -0.18453940
O        4.13410533       6.11213030       1.97356395       0.07666998       0.02597833      -0.05515381
O       -0.05292032       2.21230033       6.03989974      -0.05292038       0.18358327      -0.04625319
O        3.97967854       2.07877506       6.08548486      -0.07775668       0.05005795      -0.00066799
O        0.09698086       6.19682942       5.96992229       0.09698075       0.11067740      -0.11623075
O        4.04967686       6.27153137       5.87433736      -0.00775840       0.18537930      -0.21181560
O        2.11917125       4.05272937       1.94311221       0.09045384      -0.00470552      -0.08560535
O        6.16434371       4.17780734       2.05322550       0.07819114       0.12037239       0.02450802
O        2.03220617       8.02067538       1.85934882       0.00348871      -0.09419448      -0.16936885
O        6.04322449       8.28586818       1.97570838      -0.04292813       0.17099827      -0.05300922
O        1.97999525       4.05683642       5.76992491      -0.04872208      -0.00059859      -0.31622786
O        5.95746440       4.15341782       5.98399266      -0.12868808       0.09598276      -0.10216002
O        1.79394425       8.12542104       6.11242119      -0.23477313       0.01055107       0.02626831
O        5.99746929       8.15215847       6.30093478      -0.08868324       0.03728845       0.21478199
O        1.91819317       2.03234971       4.10588981      -0.11052448       0.00363186       0.04845462
O        6.22321582       2.00617935       4.05294890       0.13706301      -0.02253856      -0.00448620
O        2.06380623       6.01550301       3.88224780       0.03508852      -0.07064980      -0.17518750
O        6.17327234       6.15199075       4.04180104       0.08711949       0.06583788      -0.01563418
O        1.98901704       2.08052737       8.06178802      -0.03970053       0.05180940      -0.05308237
O        6.36207033       2.28194917       8.09872454       0.27591760       0.25323115      -0.01614577
O        2.26290196       5.79237987       7.98005070       0.23418434      -0.29377306      -0.13481980
O        6.09799220       5.97818332       8.11042388       0.01183943      -0.10796967      -0.00444654
40
Lattice="8.114870309777642 1.0311789206707726e-07 -1.6384903408977124e-07 1.0311785748845261e-07 8.114869930248256 2.242601906454912e-07 -1.638490223110111e-07 2.2426020397351547e-07 8.11487040810358" Properties=species:S:1:pos:R:3:u_disp:R:3 system=knbo3_cubic base_model=chgnet role=train_pool T=600.0 draw=5 n_tries=32 rms_disp_A=0.404261626184701 min_pair_ratio=0.6824145886481547 nearest_heldout_A=0.3322609643902548 site_map_ok=1 nearest_heldout_src=knbo3_cubic_orb_v2_q0-1d2-1d2-b0.extxyz#9 pbc="T T T"
K        3.86222389       0.00183165       4.33625803      -0.19521116       0.00183116       0.27882291
K        8.10856921      -0.05185801       3.92298167      -0.00630100      -0.05185856      -0.13445337
K        4.37782893       4.39260370       3.92305768       0.32039383       0.33516824      -0.13437755
K        8.16525988       4.10378284       4.13866975       0.05038962       0.04634734       0.08123460
K        4.18165899      -0.02700785       7.93130958       0.12422402      -0.02700845      -0.18356075
K        8.26355022       0.18587428       8.10675396       0.14868010       0.18587363      -0.00811628
K        3.95134755       4.21383560       7.84778193      -0.10608747       0.15640003      -0.26708851
K        8.03141969       3.81635468       8.39990459      -0.08345049      -0.24108094       0.28503424
Nb       2.49565407       1.51651223       1.79821744       0.46693659      -0.51220554      -0.23050026
Nb       6.50013472       2.34681321       2.57423993       0.41398209       0.31809539       0.54552232
Nb       2.01291319       5.52404160       1.73153432      -0.01580433      -0.56211112      -0.29718349
Nb       6.04940495       6.47193449       1.90089105      -0.03674773       0.38578171      -0.12782667
Nb       1.64645025       2.64626492       5.84079106      -0.38226714       0.61754705      -0.24536184
Nb       5.70463418       1.48870930       6.68205724      -0.38151837      -0.54000863       0.59590443
Nb       1.73657872       6.67937405       5.92936996      -0.29213872       0.59322122      -0.15678305
Nb       5.81966277       5.58067886       6.03986095      -0.26648983      -0.50547403      -0.04629198
O       -0.02869977       2.26094312       2.08259606      -0.02869991       0.23222618       0.05387833
O        3.85598461       2.06379345       1.95876068      -0.20145068       0.03507646      -0.06995696
O        0.06064083       5.94758855       2.08060241       0.06064064      -0.13856336       0.05188457
O        4.14124721       6.14545462       1.85265243       0.08381187       0.05930266      -0.17606532
O        0.09822272       2.19952871       6.17031969       0.09822267       0.17081166       0.08416676
O        4.16099455       1.91280847       6.27463328       0.10355934      -0.11590864       0.18848043
O        0.22756856       5.92077906       5.98164299       0.22756845      -0.16537296      -0.10451005
O        4.37499251       6.03182043       6.27815991       0.31755724      -0.05433164       0.19200695
O        2.20079370       4.07764233       1.73258546       0.17207628       0.02020744      -0.29613210
O        5.95508713       3.98332765       1.90912154      -0.13106544      -0.07410730      -0.11959594
O        1.81812284       8.13817855       1.96404382      -0.21059463       0.02330869      -0.06467386
O        6.09245396       8.08044150       2.17186913       0.00630134      -0.03442841       0.14315154
O        2.37145028       3.95677155       6.10850290       0.34273295      -0.10066346       0.02235013
O        6.09891183       4.15111679       6.28994558       0.01275935       0.09368174       0.20379290
O        2.01389103       8.03282831       5.84051463      -0.01482635      -0.08204166      -0.24563825
O        6.39078215       8.17642515       6.05721069       0.30462962       0.06155513      -0.02894211
O        2.00503542       2.10112468       4.17384081      -0.02368223       0.07240683       0.11640562
O        5.99611212       2.12847390       4.06040760      -0.09004068       0.09975600       0.00297249
O        2.49067636       6.01369794       3.90776115       0.46195865      -0.07245488      -0.14967415
O        6.34816090       6.15579713       4.21974642       0.26200805       0.06964426       0.16231121
O        1.80215438       1.84931083       8.09077308      -0.22656319      -0.17940714      -0.02409731
O        6.20236604       1.95789453       8.13884449       0.11621331      -0.07082348       0.02397419
O        2.17077374       6.05603881       8.05434289       0.14205612      -0.03011413      -0.06052762
O        6.55246852       6.46633847       8.19329043       0.46631574       0.38018549       0.07842001
40
Lattice="8.114870309777642 1.0311789206707726e-07 -1.6384903408977124e-07 1.0311785748845261e-07 8.114869930248256 2.242601906454912e-07 -1.638490223110111e-07 2.2426020397351547e-07 8.11487040810358" Properties=species:S:1:pos:R:3:u_disp:R:3 system=knbo3_cubic base_model=chgnet role=train_pool T=600.0 draw=6 n_tries=32 rms_disp_A=0.3726631727079208 min_pair_ratio=0.6414142843816458 nearest_heldout_A=0.3502831099762402 site_map_ok=1 nearest_heldout_src=knbo3_cubic_mattersim_q0-0-1d2-b0.extxyz#5 pbc="T T T"
K        4.13706377       0.13971784       4.23788913       0.07962872       0.13971735       0.18045401
K        7.98763350      -0.06503766       3.89082532      -0.12723671      -0.06503820      -0.16660972
K        3.73783131       4.09493580       4.24780977      -0.31960380       0.03750035       0.19037453
K        7.97032656       4.17225805       3.91156856      -0.14454370       0.11482254      -0.14586659
K        4.16269449      -0.10322820       8.14014252       0.10525952      -0.10322881       0.02527220
K        8.26604712      -0.07056483       8.18092361       0.15117700      -0.07056549       0.06605337
K        3.90250065       4.00437861       8.05515658      -0.15493437      -0.05305696      -0.05971386
K        8.05056352       4.10016703       8.28379956      -0.06430666       0.04273141       0.16892920
Nb       2.62976026       1.64150337       2.11610213       0.60104279      -0.38721440       0.08738443
Nb       6.64152448       2.67897398       1.89916442       0.55537185       0.65025617      -0.12955319
Nb       2.03003650       5.70963905       2.31512708       0.00131897      -0.37651367       0.28640927
Nb       5.89931906       6.72118550       1.69773116      -0.18683362       0.63503272      -0.33098656
Nb       1.65843089       1.56697590       6.16095570      -0.37028651      -0.46174197       0.07480281
Nb       5.80651498       2.01711109       5.97247392      -0.27963756      -0.01160683      -0.11367890
Nb       2.10917926       5.72093351       6.37339794       0.08046181      -0.36521933       0.28724493
Nb       6.18021133       6.10206100       5.77828599       0.09405873       0.01590811      -0.30786694
O       -0.04865289       1.92639065       2.07172190      -0.04865303      -0.10232630       0.04300417
O        4.06616488       2.06932448       2.05177458       0.00872959       0.04060749       0.02305693
O       -0.26824246       6.08674825       2.00378961      -0.26824265       0.00059634      -0.02492823
O        3.96648900       5.99760186       2.11423012      -0.09094634      -0.08855011       0.08551236
O        0.01582261       2.28677385       6.15409447       0.01582255       0.25805679       0.06794154
O        4.04686700       1.97073965       6.40373115      -0.01056822      -0.05797746       0.31757830
O        0.05389480       6.15303562       6.07279337       0.05389469       0.06688360      -0.01335967
O        4.05180876       6.42722524       6.15985339      -0.00562651       0.34107317       0.07370043
O        1.65639086       4.30910190       1.81653384      -0.37232655       0.25166701      -0.21218372
O        5.88386842       3.86350379       2.06853241      -0.20228415      -0.19393115       0.03981493
O        1.99942914       8.38965321       1.95453412      -0.02928833       0.27478335      -0.07418355
O        5.71825630       7.97655758       1.98842679      -0.36789632      -0.13831233      -0.04029080
O        2.12796519       4.32854665       5.80213360       0.09924786       0.27111165      -0.28401916
O        5.84807411       4.09420569       6.05718119      -0.23807837       0.03677063      -0.02897149
O        1.95927050       8.41780658       5.99049090      -0.06944689       0.30293661      -0.09566198
O        6.46299989       8.07052795       6.22828955       0.37684736      -0.04434208       0.14213676
O        2.17731327       2.45436422       4.05811058       0.14859562       0.42564636       0.00067539
O        5.93761050       1.83176893       4.06680611      -0.14854231      -0.19694898       0.00937100
O        2.10120803       6.30768762       4.00839892       0.07249033       0.22153480      -0.04903638
O        5.93587654       5.83222801       4.14321494      -0.15027632      -0.25392487       0.08577972
O        1.78762878       2.45068334       8.25621326      -0.24108879       0.42196538       0.14134287
O        6.09338556       1.95941536       8.09697813       0.00723283      -0.06930266      -0.01789217
O        1.95637232       6.27018100       8.10984567      -0.07234530       0.18402807      -0.00502483
O        5.90131919       5.77775782       8.14706190      -0.18483359      -0.30839516       0.03219148
40
Lattice="8.114870309777642 1.0311789206707726e-07 -1.6384903408977124e-07 1.0311785748845261e-07 8.114869930248256 2.242601906454912e-07 -1.638490223110111e-07 2.2426020397351547e-07 8.11487040810358" Properties=species:S:1:pos:R:3:u_disp:R:3 system=knbo3_cubic base_model=chgnet role=train_pool T=600.0 draw=7 n_tries=32 rms_disp_A=0.35232645669438667 min_pair_ratio=0.7169646475628584 nearest_heldout_A=0.30946685380639677 site_map_ok=1 nearest_heldout_src=knbo3_cubic_orb_v2_q1d2-1d2-0-b0.extxyz#8 pbc="T T T"
K        3.88812748      -0.26672073       4.23890418      -0.16930757      -0.26672123       0.18146906
K        8.12397926       0.27033053       4.13305580       0.00910905       0.27032999       0.07562077
K        4.10794439       4.00868679       4.05464188       0.05050929      -0.04874867      -0.00279335
K        8.12232951       4.10956050       4.13398138       0.00745926       0.05212499       0.07654623
K        4.05142975       0.05995835       8.21413121      -0.00600522       0.05995775       0.09926089
K        8.13095379       0.34605309       8.16519341       0.01608367       0.34605243       0.05032317
K        3.78900118       4.06542255       7.91329887      -0.26843384       0.00798698      -0.20157157
K        8.35911658       4.01522026       8.12860371       0.24424641      -0.04221536       0.01373335
Nb       1.86890485       2.06638063       2.02473855      -0.15981262       0.03766287      -0.00397915
Nb       5.82764303       2.45891845       1.52420604      -0.25850959       0.43020064      -0.50451157
Nb       2.19345247       6.13917809       1.77659450       0.16473495       0.05302536      -0.25212331
Nb       6.25369705       6.57094125       2.66773886       0.16754437       0.48478847       0.63902114
Nb       2.02726780       2.13024717       6.12386737      -0.00144959       0.10152930       0.03771447
Nb       6.08151702       1.40664793       5.59874624      -0.00463553      -0.62207000      -0.48740657
Nb       2.35493633       6.16314255       5.83729317       0.32621889       0.07698971      -0.24885984
Nb       6.34969487       5.50874249       6.75295964       0.26354228      -0.57741040       0.66680672
O        0.08387448       2.42935509       1.98802474       0.08387434       0.40063814      -0.04069299
O        4.06897657       1.84072935       2.12948649       0.01154127      -0.18798764       0.10076885
O       -0.19896072       5.98481258       2.08261629      -0.19896091      -0.10133933       0.05389845
O        3.81616944       6.31083781       2.20211227      -0.24126591       0.22468585       0.17339452
O       -0.06959494       1.94214274       6.21350909      -0.06959500      -0.08657432       0.12735616
O        3.96636792       1.82233562       6.23798592      -0.09106729      -0.20638149       0.15183307
O       -0.14368708       6.07837502       5.96963224      -0.14368719      -0.00777701      -0.11652080
O        3.86158233       5.84780633       5.97296634      -0.19585293      -0.23834575      -0.11318662
O        2.03786953       4.00826594       1.78843775       0.00915212      -0.04916895      -0.24027981
O        5.68573640       4.04980369       1.86867776      -0.40041616      -0.00763125      -0.16003972
O        1.69683569       8.09575095       1.93192542      -0.33188177      -0.01911891      -0.09679225
O        6.08823207       8.05801162       1.98640006       0.00207945      -0.05685829      -0.04231753
O        1.89063474       3.85462878       6.14893769      -0.13808259      -0.20280623       0.06278493
O        5.99487853       4.08944458       6.11231521      -0.09127395       0.03200952       0.02616252
O        1.96751249       8.01930400       6.09309013      -0.06120489      -0.09556597       0.00693726
O        5.85169467       8.13820048       5.98506063      -0.23445786       0.02333046      -0.10109216
O        2.09148380       2.09246387       4.09216592       0.06276615       0.06374602       0.03473073
O        6.12751964       2.09686088       4.14978909       0.04136684       0.06814298       0.09235398
O        1.82563468       5.84910818       4.05685464      -0.20308303      -0.23704464      -0.00058066
O        5.92485455       5.99191036       4.15563332      -0.16129831      -0.09424251       0.09819810
O        2.03298935       1.96876198       8.16650936       0.00427178      -0.05995599       0.05163897
O        6.20452946       2.02080177       8.23229109       0.11837673      -0.00791625       0.11742078
O        1.85977520       5.97822482       8.13075143      -0.16894242      -0.10792811       0.01588093
O        5.87840670       6.20338900       8.08841865      -0.20774608       0.11723602      -0.02645177
40
Lattice="8.114870309777642 1.0311789206707726e-07 -1.6384903408977124e-07 1.0311785748845261e-07 8.114869930248256 2.242601906454912e-07 -1.638490223110111e-07 2.2426020397351547e-07 8.11487040810358" Properties=species:S:1:pos:R:3:u_disp:R:3 system=knbo3_cubic base_model=chgnet role=train_pool T=600.0 draw=8 n_tries=32 rms_disp_A=0.39698972243075814 min_pair_ratio=0.6037780824272229 nearest_heldout_A=0.3600111417636834 site_map_ok=1 nearest_heldout_src=knbo3_cubic_orb_v2_q0-1d2-1d2-b0.extxyz#7 pbc="T T T"
K        3.84056158       0.27313545       3.91859603      -0.21687347       0.27313496      -0.13883909
K        8.01156671      -0.04044509       4.23191285      -0.10330349      -0.04044564       0.17447781
K        4.08502915       3.92644637       3.94648142       0.02759405      -0.13098909      -0.11095381
K        8.35273451       3.92953732       4.07479045       0.23786425      -0.12789819       0.01735530
K        3.93837338      -0.03833925       8.01388010      -0.11906159      -0.03833985      -0.10099023
K        8.02847799      -0.08601584       8.07567095      -0.08639213      -0.08601650      -0.03919929
K        4.31529262       4.03195681       8.05558200       0.25785760      -0.02547876      -0.05928844
K        8.05855620       4.14800125       8.25111517      -0.05631398       0.09056563       0.13624482
Nb       2.02409524       1.75100889       2.46686266      -0.00462223      -0.27770887       0.43814497
Nb       6.05205031       2.52802331       1.90514887      -0.03410231       0.49930549      -0.12356874
Nb       1.34278635       5.86556034       2.27202531      -0.68593118      -0.22059239       0.24330750
Nb       5.44848481       6.58435872       1.69886721      -0.63766787       0.49820594      -0.32985051
Nb       1.93054572       2.00165802       6.58876438      -0.09817167      -0.02705985       0.50261149
Nb       5.89442692       1.58127545       5.97264117      -0.19172562      -0.44744248      -0.11351165
Nb       2.58435342       6.10699551       6.26197151       0.55563597       0.02084267       0.17581850
Nb       6.62023780       5.59077075       5.66176898       0.53408520      -0.49538214      -0.42438395
O        0.37419197       2.10092377       1.81595732       0.37419183       0.07220683      -0.21276040
O        4.36187299       1.97509669       1.82538938       0.30443769      -0.05362031      -0.20332826
O        0.16669139       5.87326532       1.92981355       0.16669120      -0.21288659      -0.09890429
O        4.18686790       6.24842015       2.05224203       0.12943255       0.16226819       0.02352428
O        0.09689610       2.09986735       6.24437530       0.09689605       0.07115030       0.15822237
O        4.14811503       2.30587546       5.99728029       0.09067982       0.27715835      -0.08887256
O       -0.03025337       6.27227701       5.81169250      -0.03025348       0.18612498      -0.27446054
O        4.11301401       6.14775317       5.88059085       0.05557875       0.06160109      -0.20556211
O        2.55352811       4.15747580       1.99921820       0.52481070       0.10004090      -0.02949937
O        6.30794772       4.03209485       1.94048724       0.22179515      -0.02534010      -0.08823024
O        2.20456628       8.23119366       2.00846747       0.17584882       0.11632380      -0.02025021
O        6.47738496       8.20822011       2.06222211       0.39123234       0.09335019       0.03350451
O        1.89113816       4.30307237       5.90215375      -0.13757917       0.24563736      -0.18399902
O        6.20585285       4.14096336       5.98719935       0.11970037       0.08352830      -0.09895334
O        2.15895822       8.36920307       6.07892335       0.13024084       0.25433310      -0.00722952
O        6.08293043       8.21483276       6.12797417      -0.00322210       0.09996273       0.04182137
O        2.35416384       2.11507509       3.98631862       0.32544619       0.08635724      -0.07111657
O        6.46048302       2.19414655       4.07046989       0.37433022       0.16542864       0.01303478
O        1.87085814       6.55675110       3.89179487      -0.15785956       0.47059828      -0.16564043
O        5.99786965       6.19624939       4.04193544      -0.08828321       0.11009652      -0.01549978
O        2.37678055       2.24551634       8.03242144       0.34806298       0.21679837      -0.08244895
O        6.23765005       2.15587025       8.02808405       0.15149733       0.12715223      -0.08678626
O        2.03117810       6.29265388       7.98036244       0.00246048       0.20650094      -0.13450806
O        5.92965102       5.99235364       8.06875355      -0.15650175      -0.09379934      -0.04611687
40
Lattice="8.114870309777642 1.0311789206707726e-07 -1.6384903408977124e-07 1.0311785748845261e-07 8.114869930248256 2.242601906454912e-07 -1.638490223110111e-07 2.2426020397351547e-07 8.11487040810358" Properties=species:S:1:pos:R:3:u_disp:R:3 system=knbo3_cubic base_model=chgnet role=train_pool T=600.0 draw=9 n_tries=32 rms_disp_A=0.35949857280036196 min_pair_ratio=0.6320401421294183 nearest_heldout_A=0.34802133882210406 site_map_ok=1 nearest_heldout_src=knbo3_cubic_orb_v2_q0-1d2-1d2-b0.extxyz#6 pbc="T T T"
K        4.06061104      -0.26692649       3.94488957       0.00317599      -0.26692698      -0.11254555
K        8.14247485      -0.08441399       4.06248046       0.02760465      -0.08441453       0.00504542
K        4.10688687       4.06691570       3.96740638       0.04945177       0.00948024      -0.09002886
K        7.94513521       4.19386655       4.12288292      -0.16973505       0.13643105       0.06544777
K        4.14699770       0.02661312       8.25474984       0.08956273       0.02661252       0.13987952
K        7.89294169       0.32325645       8.16350509      -0.22192843       0.32325580       0.04863484
K        4.10289687       4.24093247       8.08428204       0.04546185       0.18349690      -0.03058840
K        8.33389857       4.14225163       8.07933239       0.21902839       0.08481601      -0.03553797
Nb       1.73109457       1.65943532       2.21164757      -0.29762290      -0.36928244       0.18292988
Nb       5.78732388       2.74260792       2.37030182      -0.29882875       0.71389011       0.34158420
Nb       2.41251878       5.66895970       1.65388617       0.38380126      -0.41719302      -0.37483163
Nb       6.55987504       6.71640887       1.95507399       0.47372236       0.63025610      -0.07364373
Nb       1.91184148       1.57740777       6.20784322      -0.11687591      -0.45131010       0.12169033
Nb       5.96215410       1.97181977       6.37998286      -0.12399845      -0.05689816       0.29383004
Nb       2.06606737       5.64902535       5.74362641       0.03734993      -0.43712749      -0.34252660
Nb       6.06482850       5.97941625       5.96179092      -0.02132410      -0.10673664      -0.12436201
O        0.06228109       1.90484296       1.87560463       0.06228095      -0.12387398      -0.15311309
O        4.11016421       1.91847119       2.19477437       0.05272892      -0.11024580       0.16605673
O       -0.04967196       5.77656900       1.99188963      -0.04967215      -0.30958291      -0.03682821
O        3.99846938       5.65253225       2.12766823      -0.05896596      -0.43361972       0.09895047
O        0.05578164       2.28932614       6.09042833       0.05578159       0.26060908       0.00427540
O        4.09537680       2.34578325       6.13273555       0.03794158       0.31706614       0.04658270
O       -0.02864892       6.09716580       6.49120350      -0.02864903       0.01101378       0.40505046
O        4.11810539       6.05027846       6.27750418       0.06067013      -0.03587362       0.19135122
O        2.08542703       4.04317477       2.26384231       0.05670962      -0.01426012       0.23512475
O        6.12270834       3.93659004       2.04466484       0.03655578      -0.12084491       0.01594736
O        2.00211216       8.17761836       2.17647918      -0.02660531       0.06274850       0.14776151
O        6.03195268       8.02643711       1.83952616      -0.05419994      -0.08843280      -0.18919143
O        2.07873500       4.30416504       5.99388188       0.05001767       0.24673003      -0.09227089
O        5.93854171       4.20885270       5.72706804      -0.14761078       0.15141764      -0.35908464
O        2.08731824       8.29373363       6.08537932       0.05860086       0.17886366      -0.00077356
O        5.99875725       8.40397311       5.87074980      -0.08739528       0.28910309      -0.21540300
O        2.15116314       2.24449831       4.00279574       0.12244549       0.21578046      -0.05463945
O        6.13707503       2.10163091       3.90076093       0.05092222       0.07291300      -0.15667418
O        1.75116192       6.46707780       4.10085627      -0.27755578       0.38092498       0.04342097
O        5.97405363       6.25758175       3.96519229      -0.11209922       0.17142888      -0.09224293
O        2.21657706       2.21715635       8.15484755       0.18785949       0.18843839       0.03997716
O        6.14444873       2.19502593       7.94800115       0.05829601       0.16630791      -0.16686916
O        1.78697504       6.36042199       8.15396791      -0.24174258       0.27426906       0.03909740
O        5.96533723       6.19754238       8.07879433      -0.12081555       0.11138940      -0.03607609
40
Lattice="8.114870309777642 1.0311789206707726e-07 -1.6384903408977124e-07 1.0311785748845261e-07 8.114869930248256 2.242601906454912e-07 -1.638490223110111e-07 2.2426020397351547e-07 8.11487040810358" Properties=species:S:1:pos:R:3:u_disp:R:3 system=knbo3_cubic base_model=chgnet role=train_pool T=600.0 draw=10 n_tries=32 rms_disp_A=0.3232185719027627 min_pair_ratio=0.6097398912689314 nearest_heldout_A=0.2548533398756075 site_map_ok=1 nearest_heldout_src=knbo3_cubic_orb_v2_q0-1d2-1d2-b0.extxyz#9 pbc="T T T"
K        3.96925432       0.13096631       3.90420029      -0.08818073       0.13096582      -0.15323483
K        8.11542795      -0.03856846       4.09278842       0.00055775      -0.03856900       0.03535339
K        4.02976576       4.21356064       3.87141602      -0.02766934       0.15612519      -0.18601921
K        8.02500138       4.04861130       4.06990514      -0.08986888      -0.00882421       0.01246999
K        4.36560219       0.08838030       8.15124965       0.30816722       0.08837970       0.03637933
K        8.18849841      -0.01988691       8.29468825       0.07362829      -0.01988757       0.17981801
K        3.87761160       3.88098450       8.07566331      -0.17982342      -0.17645107      -0.03920713
K        8.10477004       3.81343832       8.27481680      -0.01010013      -0.24399730       0.15994645
Nb       1.85275401       1.58417002       2.25890844      -0.17596346      -0.44454774       0.23019074
Nb       5.97875522       2.17864424       2.29235239      -0.10739741       0.14992643       0.26363478
Nb       2.05439748       5.72384271       1.91083555       0.02567995      -0.36231002      -0.11788226
Nb       6.17173971       6.19453142       1.63230183       0.08558703       0.10837864      -0.39641589
Nb       2.11842330       2.70034452       6.34574021       0.08970591       0.67162664       0.25958731
Nb       6.15416178       1.52091527       6.36416164       0.06800923      -0.50780266       0.27800882
Nb       2.12444266       6.86709229       5.90234312       0.09572522       0.78093945      -0.18380989
Nb       6.26073126       5.60494858       5.76033841       0.17457866      -0.48120431      -0.32581452
O       -0.00209912       2.13344577       1.95023435      -0.00209926       0.10472883      -0.07848338
O        4.12461863       2.10936216       1.58747483       0.06718334       0.08064516      -0.44124282
O       -0.10015776       6.06853056       2.26612698      -0.10015795      -0.01762135       0.23740915
O        3.98690307       6.16322012       2.10871887      -0.07053227       0.07706815       0.08000111
O       -0.01540490       2.12828397       6.10157964      -0.01540496       0.09956691       0.01542671
O        4.01917786       2.03229554       5.88830462      -0.03825735       0.00357843      -0.19784823
O       -0.11558783       5.97344204       6.13584270      -0.11558794      -0.11270998       0.04968966
O        4.02161263       6.00085157       6.08894984      -0.03582264      -0.08530051       0.00279688
O        2.05929162       4.04827752       2.17695047       0.03057421      -0.00915737       0.14823291
O        5.86861250       4.10897993       1.92987912      -0.21754007       0.05154499      -0.09883836
O        1.85901185       8.18432412       2.05122600      -0.16970561       0.06945426       0.02250832
O        6.01555689       8.21551894       2.00699704      -0.07059573       0.10064903      -0.02172055
O        1.89946384       4.00227288       6.05680054      -0.12925349      -0.05516213      -0.02935222
O        6.00462665       4.05311732       6.21471539      -0.08152583      -0.00431774       0.12856271
O        1.93227762       8.05538966       6.18723892      -0.09643976      -0.05948031       0.10108605
O        5.97618693       8.15982342       6.14880850      -0.10996560       0.04495340       0.06265570
O        2.10688691       1.71493289       3.99507390       0.07816926      -0.31378496      -0.06236129
O        6.11634870       2.21932105       3.95305892       0.03019589       0.19060314      -0.10437619
O        2.02199095       6.15373032       4.15074286      -0.00672675       0.06757750       0.09330756
O        6.05104913       6.28334390       4.08601646      -0.03510372       0.19719103       0.02858125
O        1.86875490       1.86676966       8.09528346      -0.15996267      -0.16194831      -0.01958693
O        6.19739548       2.10654910       7.96241090       0.11124275       0.07783109      -0.15245941
O        1.69302174       6.14940456       8.21294253      -0.33569588       0.06325163       0.09807203
O        6.10551711       6.44486830       8.09805890       0.01936434       0.35871532      -0.01681152
40
Lattice="8.114870309777642 1.0311789206707726e-07 -1.6384903408977124e-07 1.0311785748845261e-07 8.114869930248256 2.242601906454912e-07 -1.638490223110111e-07 2.2426020397351547e-07 8.11487040810358" Properties=species:S:1:pos:R:3:u_disp:R:3 system=knbo3_cubic base_model=chgnet role=train_pool T=600.0 draw=11 n_tries=32 rms_disp_A=0.3140266612128197 min_pair_ratio=0.7238947203023745 nearest_heldout_A=0.3035236643999972 site_map_ok=1 nearest_heldout_src=knbo3_cubic_orb_v2_q1d2-1d2-0-b0.extxyz#5 pbc="T T T"
K        4.25237593       0.18758875       4.11551770       0.19494088       0.18758826       0.05808258
K        7.59099999       0.25464476       4.35611632      -0.52387022       0.25464421       0.29868129
K        3.98092454       4.24847136       3.78907087      -0.07651056       0.19103591      -0.26836437
K        7.77802455       4.03328390       4.36036607      -0.33684571      -0.02415161       0.30293092
K        4.18154214      -0.29266591       7.88069369       0.12410717      -0.29266651      -0.23417663
K        8.31714796      -0.22048978       8.06362371       0.20227784      -0.22049043      -0.05124654
K        4.28930967       4.18195088       8.07629792       0.23187465       0.12451531      -0.03857251
K        8.46977864       4.09189093       8.33580195       0.35490846       0.03445531       0.22093159
Nb       2.27837201       1.93780414       2.43292699       0.24965454      -0.09091363       0.40420930
Nb       6.33106627       2.22833064       2.18954259       0.24491364       0.19961283       0.16082498
Nb       2.11498856       6.07077613       1.56774735       0.08627103      -0.01537660      -0.46097045
Nb       6.24276656       6.26737360       1.91382793       0.15661388       0.18122082      -0.11488980
Nb       1.86666936       1.95880501       6.50332415      -0.16204803      -0.06991286       0.41717125
Nb       5.88193844       1.90964466       6.23784559      -0.20421410      -0.11907326       0.15169278
Nb       1.70095017       6.02944379       5.54210364      -0.32776727      -0.05670905      -0.54404937
Nb       5.71617612       5.94264128       6.02093871      -0.36997648      -0.14351161      -0.06521422
O        0.05640904       2.19630976       1.82819357       0.05640890       0.16759282      -0.20052415
O        4.08904946       1.96956817       1.89312438       0.03161416      -0.05914883      -0.13559327
O        0.05023925       5.98925308       2.17410174       0.05023906      -0.09689883       0.14538390
O        4.14641750       6.20263804       1.95369560       0.08898216       0.11648607      -0.07502216
O        0.05821004       1.89653122       5.83668131       0.05820998      -0.13218583      -0.24947162
O        4.06311843       2.12582988       6.26802423       0.00568322       0.09711277       0.18187138
O        0.09557430       6.13461121       6.23273462       0.09557419       0.04845919       0.14658158
O        4.13596121       6.01310868       5.97758339       0.07852594      -0.07304339      -0.10856957
O        2.22377085       4.03937062       2.36849655       0.19505344      -0.01806427       0.33977899
O        6.09836338       3.99641972       1.95549318       0.01221081      -0.06101523      -0.07322430
O        1.86372367       8.10013753       2.13066839      -0.16499380      -0.01473232       0.10195072
O        6.25189312       8.05020288       1.92808063       0.16574050      -0.06466703      -0.10063696
O        2.10151512       4.16841913       6.03007418       0.07279779       0.11098413      -0.05607859
O        6.25200069       4.06356783       6.22853732       0.16584821       0.00613277       0.14238464
O        2.03208394       8.26176096       6.09130223       0.00336656       0.14689099       0.00514936
O        6.12443717       8.09599289       5.80104522       0.03828463      -0.01887713      -0.28510757
O        2.22249807       1.95864861       4.01304090       0.19378042      -0.07006924      -0.04439429
O        5.93566602       1.99749938       3.99143728      -0.15048679      -0.03121852      -0.06599782
O        2.05448755       6.11925417       4.08572262       0.02576985       0.03310135       0.02828732
O        6.31870447       6.07950776       4.08872869       0.23255161      -0.00664511       0.03129347
O        1.90924382       2.12737030       8.13513666      -0.11947375       0.09865234       0.02026627
O        6.06006117       1.84902994       7.97622643      -0.02609155      -0.17968808      -0.13864388
O        2.11509213       5.92514218       8.16667160       0.08637451      -0.16101075       0.05180110
O        6.36883955       6.29085736       8.04639905       0.28268677       0.20470438      -0.06847137
40
Lattice="8.114870309777642 1.0311789206707726e-07 -1.6384903408977124e-07 1.0311785748845261e-07 8.114869930248256 2.242601906454912e-07 -1.638490223110111e-07 2.2426020397351547e-07 8.11487040810358" Properties=species:S:1:pos:R:3:u_disp:R:3 system=knbo3_cubic base_model=chgnet role=train_pool T=600.0 draw=12 n_tries=32 rms_disp_A=0.35170634041770626 min_pair_ratio=0.6754427955450163 nearest_heldout_A=0.3115123230753468 site_map_ok=1 nearest_heldout_src=knbo3_cubic_orb_v2_q1d2-0-1d2-b0.extxyz#8 pbc="T T T"
K        4.15158018       0.10331802       3.90466393       0.09414513       0.10331753      -0.15277120
K        8.10146961       0.10518475       3.90021039      -0.01340060       0.10518421      -0.15722465
K        4.00554147       4.27354902       4.24792132      -0.05189363       0.21611356       0.19048609
K        8.01228827       4.27922558       4.00045809      -0.10258199       0.22179007      -0.05697706
K        3.94996243      -0.00523048       8.19654170      -0.10747253      -0.00523108       0.08167138
K        8.12024058       0.02936092       8.06981585       0.00537046       0.02936026      -0.04505439
K        4.15195999       3.79173327       8.30145130       0.09452497      -0.26570230       0.18658086
K        7.85623810       3.99997786       8.10536839      -0.25863208      -0.05745777      -0.00950197
Nb       1.85417790       2.08851749       2.05919077      -0.17453957       0.05979973       0.03047307
Nb       5.89978353       1.71783082       1.62805882      -0.18636910      -0.31088699      -0.40065879
Nb       2.49616689       6.09752490       1.93391024       0.46744936       0.01137217      -0.09480756
Nb       6.50447796       5.72270905       2.40211804       0.41832528      -0.36344373       0.37340032
Nb       2.17986390       1.79487051       6.22887084       0.15114650      -0.23384736       0.14271794
Nb       6.28308279       2.61409922       5.57635336       0.19693024       0.58538129      -0.50979945
Nb       1.48847399       5.87079915       5.98151230      -0.54024345      -0.21535369      -0.10464071
Nb       5.48706301       6.74531826       6.53772228      -0.59908959       0.65916538       0.45156935
O        0.00079089       2.23951623       2.13328892       0.00079075       0.21079928       0.10457120
O        4.09358358       2.17201014       2.20177631       0.03614829       0.14329314       0.17305867
O       -0.04901957       5.89003900       1.87065121      -0.04901976      -0.19611291      -0.15806663
O        4.06759274       5.90145418       1.93878884       0.01015740      -0.18469778      -0.08992892
O        0.22913530       2.03785268       5.96549923       0.22913525       0.00913562      -0.12065370
O        4.28152699       1.82763829       6.20025272       0.22409178      -0.20107882       0.11409988
O        0.12363632       5.86869362       6.10352652       0.12363621      -0.21745840       0.01737348
O        4.09423415       6.04802210       6.24042170       0.03679889      -0.03812997       0.15426874
O        2.04881237       3.97927225       2.03992765       0.02009496      -0.07816264       0.01121009
O        6.07405565       3.96810678       2.30775188      -0.01209691      -0.08932816       0.27903440
O        2.14855040       7.96205982       1.90195251       0.11983294      -0.15281003      -0.12676516
O        6.01840809       8.07986670       2.04477010      -0.06774452      -0.03500321       0.01605251
O        2.28611425       4.00958443       5.95855577       0.25739692      -0.04785058      -0.12759699
O        6.24717932       3.85126386       6.17173994       0.16102683      -0.20617119       0.08558725
O        2.27322735       8.11461870       6.09869850       0.24450996      -0.00025127       0.01254562
O        6.43889977       7.89221294       6.26109998       0.35274723      -0.22265709       0.17494718
O        2.37518717       1.94946641       4.04424199       0.34646952      -0.07925144      -0.01319320
O        6.31280327       1.82818414       4.16814985       0.22665047      -0.20053376       0.11071475
O        2.00391881       6.16802292       3.95288826      -0.02479889       0.08187010      -0.10454704
O        5.97171058       5.99122962       4.04194580      -0.11444227      -0.09492325      -0.01548941
O        2.04027826       2.02907376       8.10915483       0.01156069       0.00035579      -0.00571556
O        6.26142541       1.84583874       8.17020358       0.17527269      -0.18287928       0.05533327
O        1.97771428       6.02663929       8.13304773      -0.05100335      -0.05951364       0.01817722
O        6.20655488       5.96261808       8.10781686       0.12040211      -0.12353490      -0.00705356
40
Lattice="8.114870309777642 1.0311789206707726e-07 -1.6384903408977124e-07 1.0311785748845261e-07 8.114869930248256 2.242601906454912e-07 -1.638490223110111e-07 2.2426020397351547e-07 8.11487040810358" Properties=species:S:1:pos:R:3:u_disp:R:3 system=knbo3_cubic base_model=chgnet role=train_pool T=600.0 draw=13 n_tries=32 rms_disp_A=0.3662369122345857 min_pair_ratio=0.6903975874217103 nearest_heldout_A=0.3313777096136918 site_map_ok=1 nearest_heldout_src=knbo3_cubic_orb_v2_q0-1d2-0-b0.extxyz#7 pbc="T T T"
K        3.97580714       0.05036866       3.91673872      -0.08162791       0.05036817      -0.14069640
K        8.29462785       0.01992458       4.08408777       0.17975765       0.01992404       0.02665273
K        4.06251549       3.94685748       4.32667197       0.00508039      -0.11057798       0.26923674
K        8.06288870       4.00846116       3.99004117      -0.05198155      -0.04897435      -0.06739398
K        4.06934724      -0.28232099       8.23459829       0.01191227      -0.28232160       0.11972797
K        8.17696007      -0.17776094       8.01125288       0.06208995      -0.17776159      -0.10361736
K        4.14093538       3.99253138       8.01944798       0.08350036      -0.06490419      -0.09542246
K        8.09037634       4.14032450       8.09720632      -0.02449384       0.08288888      -0.01766404
Nb       1.81962911       1.65856263       2.37999236      -0.20908837      -0.37015513       0.35127466
Nb       5.93651009       2.30429838       1.29663112      -0.14964254       0.27558057      -0.73208649
Nb       1.87945944       5.72672057       2.69049651      -0.14925808      -0.35943216       0.66177870
Nb       5.98050193       6.31273740       1.96364084      -0.10565075       0.22658462      -0.06507689
Nb       1.60903637       2.18286380       6.49160090      -0.41968103       0.15414592       0.40544800
Nb       5.76931628       2.00902242       5.35800106      -0.31683626      -0.01969550      -0.72815176
Nb       2.63065960       6.24803703       6.74084586       0.60194216       0.16188419       0.65469285
Nb       6.67950791       6.09008723       5.92758267       0.59335531       0.00393434      -0.15857026
O        0.17489205       1.99970819       1.87496558       0.17489191      -0.02900875      -0.15375214
O        4.11061298       2.11806187       1.87098096       0.05317768       0.08934487      -0.15773668
O       -0.16349401       6.11291276       2.13033533      -0.16349420       0.02676085       0.10161749
O        3.99902146       6.10918850       1.86645441      -0.05841388       0.02303654      -0.16226334
O        0.19690863       2.06287255       5.81588765       0.19690857       0.03415549      -0.27026528
O        4.24782787       2.17404405       5.64924090       0.19039266       0.14532695      -0.43691195
O       -0.02457534       6.29893789       6.16511167      -0.02457545       0.21278586       0.07895862
O        4.01658705       6.00998380       6.20094392      -0.04084821      -0.07616828       0.11479096
O        2.07436490       4.19338291       1.92010602       0.04564749       0.13594802      -0.10861154
O        5.99605026       4.10389833       2.15101276      -0.09010231       0.04646338       0.12229528
O        1.89564811       8.10462943       1.93947062      -0.13306936      -0.01024043      -0.08924706
O        6.06563215       8.06306856       2.03962386      -0.02052047      -0.05180135       0.01090627
O        1.92394432       4.08006935       5.96249049      -0.10477301       0.02263434      -0.12366228
O        6.15841006       4.12553833       6.07746056       0.07225758       0.06810328      -0.00869212
O        2.07158223       8.07092267       6.00100594       0.04286485      -0.04394730      -0.08514693
O        6.17779722       8.16761586       5.92934869       0.09164468       0.05274584      -0.15680410
O        2.17720089       2.06705861       3.83679676       0.14848324       0.03834076      -0.22063843
O        6.38728736       2.09251730       3.91757052       0.30113455       0.06379939      -0.13986459
O        2.05310006       6.24978532       3.97812710       0.02438235       0.16363250      -0.07930820
O        5.83126006       6.02937047       4.11590097      -0.25489279      -0.05678240       0.05846575
O        2.17171732       1.90621957       7.90514456       0.14299975      -0.12249839      -0.20972583
O        6.17699643       1.93954799       7.98033613       0.09084371      -0.08917003      -0.13453418
O        1.89120625       6.21426935       7.93784392      -0.13751137       0.12811642      -0.17702659
O        5.98774637       6.19006338       8.10378863      -0.09840641       0.10391040      -0.01108179
