
     Program PWSCF v.7.5 starts on  3Oct2026 at 21:45:10 

     This program is part of the open-source Quantum ESPRESSO suite
     for quantum simulation of materials; please cite
         "P. Giannozzi et al., J. Phys.:Condens. Matter 21 395502 (2009);
         "P. Giannozzi et al., J. Phys.:Condens. Matter 29 465901 (2017);
         "P. Giannozzi et al., J. Chem. Phys. 152 154105 (2020);
          URL http://www.quantum-espresso.org", 
     in publications or presentations arising from this work. More details at
     http://www.quantum-espresso.org/quote

     Parallel version (MPI & OpenMP), running on       8 processor cores
     Number of MPI processes:                 8
     Threads/MPI process:                     1

     MPI processes distributed on     1 nodes
     11090 MiB available memory on the printing compute node when the environment starts

     Reading input from pw.in

     Current dimensions of program PWSCF are:
     Max number of different atomic species (ntypx) = 10
     Max number of k-points (npk) =  40000
     Max angular momentum in pseudopotentials (lmaxx) =  4
     file K.pbe-spn-kjpaw_psl.1.0.0.UPF: wavefunction(s)  3S renormalized
     file Nb.pbe-spn-kjpaw_psl.0.3.0.UPF: wavefunction(s)  4S 4P renormalized
     file O.pbe-n-kjpaw_psl.0.1.UPF: wavefunction(s)  2P renormalized

     K-points division:     npool     =       8
     Subspace diagonalization in iterative solution of the eigenvalue problem:
     a serial algorithm will be used


     G-vector sticks info
     --------------------
     sticks:   dense  smooth     PW     G-vecs:    dense   smooth      PW
     Sum        2241    1117    325                80261    28353    4393

     Using Slab Decomposition



     bravais-lattice index     =            0
     lattice parameter (alat)  =       7.6684  a.u.
     unit-cell volume          =     451.0788 (a.u.)^3
     number of atoms/cell      =            5
     number of atomic types    =            3
     number of electrons       =        40.00
     number of Kohn-Sham states=           24
     kinetic-energy cutoff     =      60.0000  Ry
     charge density cutoff     =     480.0000  Ry
     scf convergence threshold =      5.0E-10
     mixing beta               =       0.4000
     number of iterations used =            8  plain     mixing
     Exchange-correlation= SLA  PW   PBX  PBC
                           (   1   4   3   4   0   0   0)

     celldm(1)=   7.668434  celldm(2)=   0.000000  celldm(3)=   0.000000
     celldm(4)=   0.000000  celldm(5)=   0.000000  celldm(6)=   0.000000

     crystal axes: (cart. coord. in units of alat)
               a(1) = (  -0.000001  -1.000000  -0.000002 )  
               a(2) = (  -1.000037  -0.000001  -0.000002 )  
               a(3) = (  -0.000002  -0.000002  -1.000267 )  

     reciprocal axes: (cart. coord. in units 2 pi/alat)
               b(1) = (  0.000001 -1.000000  0.000002 )  
               b(2) = ( -0.999963  0.000001  0.000002 )  
               b(3) = (  0.000002  0.000002 -0.999733 )  


     PseudoPot. # 1 for K  read from file:
     /root/sssp/K.pbe-spn-kjpaw_psl.1.0.0.UPF
     MD5 check sum: 7d58810084cac21f60fbe77ea2b688fd
     Pseudo is Projector augmented-wave + core cor, Zval =  9.0
     Generated using "atomic" code by A. Dal Corso  v.5.1
     Shape of augmentation charge: PSQ
     Using radial grid of 1165 points,  6 beta functions with: 
                l(1) =   0
                l(2) =   0
                l(3) =   1
                l(4) =   1
                l(5) =   2
                l(6) =   2
     Q(r) pseudized with 0 coefficients 


     PseudoPot. # 2 for Nb read from file:
     /root/sssp/Nb.pbe-spn-kjpaw_psl.0.3.0.UPF
     MD5 check sum: 411d72ad547312f8017e2943ceca08cc
     Pseudo is Projector augmented-wave + core cor, Zval = 13.0
     Generated using "atomic" code by A. Dal Corso  v.5.0.99 svn rev. 10869
     Shape of augmentation charge: PSQ
     Using radial grid of 1227 points,  6 beta functions with: 
                l(1) =   0
                l(2) =   0
                l(3) =   1
                l(4) =   1
                l(5) =   2
                l(6) =   2
     Q(r) pseudized with 0 coefficients 


     PseudoPot. # 3 for O  read from file:
     /root/sssp/O.pbe-n-kjpaw_psl.0.1.UPF
     MD5 check sum: 0234752ac141de4415c5fc33072bef88
     Pseudo is Projector augmented-wave + core cor, Zval =  6.0
     Generated using "atomic" code by A. Dal Corso  v.5.0.99 svn rev. 10869
     Shape of augmentation charge: BESSEL
     Using radial grid of 1095 points,  4 beta functions with: 
                l(1) =   0
                l(2) =   0
                l(3) =   1
                l(4) =   1
     Q(r) pseudized with 0 coefficients 


     atomic species   valence    mass     pseudopotential
     K                 9.00    39.09830     K ( 1.00)
     Nb               13.00    92.90640     Nb( 1.00)
     O                 6.00    15.99900     O ( 1.00)

     No symmetry found



   Cartesian axes

     site n.     atom                  positions (alat units)
         1        K      tau(   1) = (  -0.0051103  -0.9943983   0.0081512  )
         2        Nb     tau(   2) = (  -0.4945251  -0.5062202  -0.5092732  )
         3        O      tau(   3) = (  -1.0054909  -0.4915879  -0.4884078  )
         4        O      tau(   4) = (  -0.5069776   0.0060952  -0.4878050  )
         5        O      tau(   5) = (  -0.5070443  -0.4920899   0.0090630  )

     number of k points=   172  Marzari-Vanderbilt smearing, width (Ry)=  0.0050

     Number of k-points >= 100: set verbosity='high' to print them.

     Dense  grid:    80261 G-vectors     FFT dimensions: (  54,  54,  54)

     Smooth grid:    28353 G-vectors     FFT dimensions: (  40,  40,  40)

     Estimated max dynamical RAM per process >     117.19 MB

     Estimated total dynamical RAM >     800.32 MB

     Check: negative core charge=   -0.000003

     Initial potential from superposition of free atoms

     starting charge      39.9790, renormalised to      40.0000
     Starting wfcs are   30 randomized atomic wfcs
     Checking if some PAW data can be deallocated... 

     total cpu time spent up to now is        3.7 secs

     per-process dynamical memory:    86.8 Mb

     Self-consistent Calculation

     iteration #  1     ecut=    60.00 Ry     beta= 0.40
     Davidson diagonalization with overlap
     ethr =  1.00E-02,  avg # of iterations =  2.0

     total cpu time spent up to now is        6.2 secs

     total energy              =    -571.96748969 Ry
     estimated scf accuracy    <       2.57413907 Ry

     iteration #  2     ecut=    60.00 Ry     beta= 0.40
     Davidson diagonalization with overlap
     ethr =  6.44E-03,  avg # of iterations =  3.9
     Minimization algorithm failed to find Fermi energy: reverting to bisection
     Possible cause: smearing is larger than the electronic band-gap.

     total cpu time spent up to now is        8.9 secs

     total energy              =    -572.59355865 Ry
     estimated scf accuracy    <       0.78882043 Ry

     iteration #  3     ecut=    60.00 Ry     beta= 0.40
     Davidson diagonalization with overlap
     ethr =  1.97E-03,  avg # of iterations =  2.3

     total cpu time spent up to now is       11.2 secs

     total energy              =    -572.76747773 Ry
     estimated scf accuracy    <       0.05050524 Ry

     iteration #  4     ecut=    60.00 Ry     beta= 0.40
     Davidson diagonalization with overlap
     ethr =  1.26E-04,  avg # of iterations =  5.6

     total cpu time spent up to now is       14.0 secs

     total energy              =    -572.76606202 Ry
     estimated scf accuracy    <       0.01634613 Ry

     iteration #  5     ecut=    60.00 Ry     beta= 0.40
     Davidson diagonalization with overlap
     ethr =  4.09E-05,  avg # of iterations =  4.6

     total cpu time spent up to now is       17.2 secs

     total energy              =    -572.77075283 Ry
     estimated scf accuracy    <       0.00984120 Ry

     iteration #  6     ecut=    60.00 Ry     beta= 0.40
     Davidson diagonalization with overlap
     ethr =  2.46E-05,  avg # of iterations =  1.0

     total cpu time spent up to now is       19.3 secs

     total energy              =    -572.76895636 Ry
     estimated scf accuracy    <       0.00371103 Ry

     iteration #  7     ecut=    60.00 Ry     beta= 0.40
     Davidson diagonalization with overlap
     ethr =  9.28E-06,  avg # of iterations =  3.7

     total cpu time spent up to now is       22.3 secs

     total energy              =    -572.77011741 Ry
     estimated scf accuracy    <       0.00052811 Ry

     iteration #  8     ecut=    60.00 Ry     beta= 0.40
     Davidson diagonalization with overlap
     ethr =  1.32E-06,  avg # of iterations =  1.9

     total cpu time spent up to now is       24.7 secs

     total energy              =    -572.77012588 Ry
     estimated scf accuracy    <       0.00008318 Ry

     iteration #  9     ecut=    60.00 Ry     beta= 0.40
     Davidson diagonalization with overlap
     ethr =  2.08E-07,  avg # of iterations =  2.8

     total cpu time spent up to now is       27.4 secs

     total energy              =    -572.77014249 Ry
     estimated scf accuracy    <       0.00000316 Ry

     iteration # 10     ecut=    60.00 Ry     beta= 0.40
     Davidson diagonalization with overlap
     ethr =  7.89E-09,  avg # of iterations =  4.3

     total cpu time spent up to now is       30.5 secs

     total energy              =    -572.77014409 Ry
     estimated scf accuracy    <       0.00000128 Ry

     iteration # 11     ecut=    60.00 Ry     beta= 0.40
     Davidson diagonalization with overlap
     ethr =  3.20E-09,  avg # of iterations =  1.0

     total cpu time spent up to now is       32.7 secs

     total energy              =    -572.77014378 Ry
     estimated scf accuracy    <       0.00000085 Ry

     iteration # 12     ecut=    60.00 Ry     beta= 0.40
     Davidson diagonalization with overlap
     ethr =  2.12E-09,  avg # of iterations =  2.0

     total cpu time spent up to now is       34.9 secs

     total energy              =    -572.77014389 Ry
     estimated scf accuracy    <       0.00000004 Ry

     iteration # 13     ecut=    60.00 Ry     beta= 0.40
     Davidson diagonalization with overlap
     ethr =  1.09E-10,  avg # of iterations =  4.4

     total cpu time spent up to now is       37.8 secs

     total energy              =    -572.77014390 Ry
     estimated scf accuracy    <          3.1E-09 Ry

     iteration # 14     ecut=    60.00 Ry     beta= 0.40
     Davidson diagonalization with overlap
     ethr =  7.64E-12,  avg # of iterations =  3.5

     total cpu time spent up to now is       40.5 secs

     total energy              =    -572.77014390 Ry
     estimated scf accuracy    <          1.3E-09 Ry

     iteration # 15     ecut=    60.00 Ry     beta= 0.40
     Davidson diagonalization with overlap
     ethr =  3.20E-12,  avg # of iterations =  3.2

     total cpu time spent up to now is       43.3 secs

     total energy              =    -572.77014390 Ry
     estimated scf accuracy    <          9.0E-10 Ry

     iteration # 16     ecut=    60.00 Ry     beta= 0.40
     Davidson diagonalization with overlap
     ethr =  2.24E-12,  avg # of iterations =  1.3

     total cpu time spent up to now is       45.6 secs

     End of self-consistent calculation

     Number of k-points >= 100: set verbosity='high' to print the bands.

     the Fermi energy is     8.3538 ev

!    total energy              =    -572.77014390 Ry
     total all-electron energy =     -9296.256509 Ry
     estimated scf accuracy    <          4.2E-11 Ry
     smearing contrib. (-TS)   =       0.00000000 Ry
     internal energy E=F+TS    =    -572.77014390 Ry

     The total energy is F=E-TS. E is the sum of the following terms:
     one-electron contribution =     -73.06809781 Ry
     hartree contribution      =      58.94698633 Ry
     xc contribution           =     -62.47996427 Ry
     ewald contribution        =    -203.71404236 Ry
     one-center paw contrib.   =    -292.45502579 Ry

     convergence has been achieved in  16 iterations

     Forces acting on atoms (cartesian axes, Ry/au):

     atom    1 type  1   force =     0.00305211   -0.00334026   -0.00486197
     atom    2 type  2   force =     0.00675325   -0.00730747   -0.00870583
     atom    3 type  3   force =    -0.01297730   -0.00219715   -0.00308018
     atom    4 type  3   force =     0.00152009    0.01486364   -0.00348936
     atom    5 type  3   force =     0.00165183   -0.00201876    0.02013734

     Total force =     0.032394     Total SCF correction =     0.000001
     Message from routine punch:
     Nothing written, as per user request (disk_io='none')

     init_run     :      3.28s CPU      3.35s WALL (       1 calls)
     electrons    :     41.50s CPU     41.86s WALL (       1 calls)
     forces       :      0.46s CPU      0.46s WALL (       1 calls)

     Called by init_run:
     wfcinit      :      1.15s CPU      1.16s WALL (       1 calls)
     potinit      :      0.58s CPU      0.62s WALL (       1 calls)
     hinit0       :      1.43s CPU      1.44s WALL (       1 calls)

     Called by electrons:
     c_bands      :     31.18s CPU     31.41s WALL (      16 calls)
     sum_band     :      6.26s CPU      6.34s WALL (      16 calls)
     v_of_rho     :      1.12s CPU      1.14s WALL (      17 calls)
     newd         :      1.06s CPU      1.08s WALL (      17 calls)
     PAW_pot      :      1.89s CPU      1.94s WALL (      17 calls)
     mix_rho      :      0.11s CPU      0.11s WALL (      16 calls)

     Called by c_bands:
     init_us_2    :      1.43s CPU      1.44s WALL (     748 calls)
     cegterg      :     26.71s CPU     26.92s WALL (     352 calls)

     Called by *egterg:
     cdiaghg      :      0.86s CPU      0.87s WALL (    1377 calls)
     h_psi        :     20.85s CPU     21.04s WALL (    1399 calls)
     s_psi        :      1.23s CPU      1.24s WALL (    1399 calls)
     g_psi        :      0.31s CPU      0.32s WALL (    1025 calls)

     Called by h_psi:
     h_psi:calbec :      1.43s CPU      1.45s WALL (    1399 calls)
     vloc_psi     :     17.98s CPU     18.15s WALL (    1399 calls)
                                        0.00s GPU  (    1399 calls)
     add_vuspsi   :      1.30s CPU      1.31s WALL (    1399 calls)

     General routines
     calbec       :      2.08s CPU      2.10s WALL (    1839 calls)
     fft          :      0.58s CPU      0.58s WALL (     230 calls)
     ffts         :      0.26s CPU      0.26s WALL (      33 calls)
     fftw         :     18.47s CPU     18.64s WALL (   50274 calls)
     interpolate  :      0.29s CPU      0.29s WALL (      17 calls)

     Parallel routines

     PWSCF        :     45.60s CPU     46.06s WALL


   This run was terminated on:  21:45:56   3Oct2026            

=------------------------------------------------------------------------------=
   JOB DONE.
=------------------------------------------------------------------------------=
