
     Program PWSCF v.7.5 starts on 27Sep2026 at  9:42: 9 

     This program is part of the open-source Quantum ESPRESSO suite
     for quantum simulation of materials; please cite
         "P. Giannozzi et al., J. Phys.:Condens. Matter 21 395502 (2009);
         "P. Giannozzi et al., J. Phys.:Condens. Matter 29 465901 (2017);
         "P. Giannozzi et al., J. Chem. Phys. 152 154105 (2020);
          URL http://www.quantum-espresso.org", 
     in publications or presentations arising from this work. More details at
     http://www.quantum-espresso.org/quote

     Parallel version (MPI & OpenMP), running on       8 processor cores
     Number of MPI processes:                 8
     Threads/MPI process:                     1

     MPI processes distributed on     1 nodes
     72999 MiB available memory on the printing compute node when the environment starts

     Reading input from pw.in

     Current dimensions of program PWSCF are:
     Max number of different atomic species (ntypx) = 10
     Max number of k-points (npk) =  40000
     Max angular momentum in pseudopotentials (lmaxx) =  4
     file K.pbe-spn-kjpaw_psl.1.0.0.UPF: wavefunction(s)  3S renormalized
     file Nb.pbe-spn-kjpaw_psl.0.3.0.UPF: wavefunction(s)  4S 4P renormalized
     file O.pbe-n-kjpaw_psl.0.1.UPF: wavefunction(s)  2P renormalized
     Message from routine setup:
     using ibrav=0 with symmetry is DISCOURAGED, use correct ibrav instead

     K-points division:     npool     =       8
     Subspace diagonalization in iterative solution of the eigenvalue problem:
     a serial algorithm will be used


     G-vector sticks info
     --------------------
     sticks:   dense  smooth     PW     G-vecs:    dense   smooth      PW
     Sum        4493    2241    633               160249    56629    8429

     Using Slab Decomposition



     bravais-lattice index     =            0
     lattice parameter (alat)  =      10.8414  a.u.
     unit-cell volume          =     901.0287 (a.u.)^3
     number of atoms/cell      =           10
     number of atomic types    =            3
     number of electrons       =        80.00
     number of Kohn-Sham states=           48
     kinetic-energy cutoff     =      60.0000  Ry
     charge density cutoff     =     480.0000  Ry
     scf convergence threshold =      1.0E-09
     mixing beta               =       0.4000
     number of iterations used =            8  plain     mixing
     Exchange-correlation= SLA  PW   PBX  PBC
                           (   1   4   3   4   0   0   0)

     celldm(1)=  10.841379  celldm(2)=   0.000000  celldm(3)=   0.000000
     celldm(4)=   0.000000  celldm(5)=   0.000000  celldm(6)=   0.000000

     crystal axes: (cart. coord. in units of alat)
               a(1) = (   0.000000  -0.707107  -0.707107 )  
               a(2) = (   0.000000  -0.707107   0.707107 )  
               a(3) = (  -0.707107   0.000000   0.000000 )  

     reciprocal axes: (cart. coord. in units 2 pi/alat)
               b(1) = ( -0.000000 -0.707107 -0.707107 )  
               b(2) = (  0.000000 -0.707107  0.707107 )  
               b(3) = ( -1.414214 -0.000000  0.000000 )  


     PseudoPot. # 1 for K  read from file:
     /root/sssp/upf/K.pbe-spn-kjpaw_psl.1.0.0.UPF
     MD5 check sum: 7d58810084cac21f60fbe77ea2b688fd
     Pseudo is Projector augmented-wave + core cor, Zval =  9.0
     Generated using "atomic" code by A. Dal Corso  v.5.1
     Shape of augmentation charge: PSQ
     Using radial grid of 1165 points,  6 beta functions with: 
                l(1) =   0
                l(2) =   0
                l(3) =   1
                l(4) =   1
                l(5) =   2
                l(6) =   2
     Q(r) pseudized with 0 coefficients 


     PseudoPot. # 2 for Nb read from file:
     /root/sssp/upf/Nb.pbe-spn-kjpaw_psl.0.3.0.UPF
     MD5 check sum: 411d72ad547312f8017e2943ceca08cc
     Pseudo is Projector augmented-wave + core cor, Zval = 13.0
     Generated using "atomic" code by A. Dal Corso  v.5.0.99 svn rev. 10869
     Shape of augmentation charge: PSQ
     Using radial grid of 1227 points,  6 beta functions with: 
                l(1) =   0
                l(2) =   0
                l(3) =   1
                l(4) =   1
                l(5) =   2
                l(6) =   2
     Q(r) pseudized with 0 coefficients 


     PseudoPot. # 3 for O  read from file:
     /root/sssp/upf/O.pbe-n-kjpaw_psl.0.1.UPF
     MD5 check sum: 0234752ac141de4415c5fc33072bef88
     Pseudo is Projector augmented-wave + core cor, Zval =  6.0
     Generated using "atomic" code by A. Dal Corso  v.5.0.99 svn rev. 10869
     Shape of augmentation charge: BESSEL
     Using radial grid of 1095 points,  4 beta functions with: 
                l(1) =   0
                l(2) =   0
                l(3) =   1
                l(4) =   1
     Q(r) pseudized with 0 coefficients 


     atomic species   valence    mass     pseudopotential
     K                 9.00    39.09830     K ( 1.00)
     Nb               13.00    92.90640     Nb( 1.00)
     O                 6.00    15.99900     O ( 1.00)

     16 Sym. Ops., with inversion, found ( 8 have fractional translation)



   Cartesian axes

     site n.     atom                  positions (alat units)
         1        K      tau(   1) = (  -0.7071068  -0.7071068   0.0000000  )
         2        K      tau(   2) = (   0.0000000   0.0000000   0.0000000  )
         3        Nb     tau(   3) = (  -0.3690473  -0.3535534  -0.3535534  )
         4        Nb     tau(   4) = (  -0.3380595  -0.3535534   0.3535534  )
         5        O      tau(   5) = (  -0.6971008  -0.3535534  -0.3535534  )
         6        O      tau(   6) = (  -0.0100060  -0.3535534   0.3535534  )
         7        O      tau(   7) = (  -0.3535534  -0.7071068   0.3535534  )
         8        O      tau(   8) = (  -0.3535534  -0.7071068  -0.3535534  )
         9        O      tau(   9) = (  -0.3535534  -1.0606602   0.0000000  )
        10        O      tau(  10) = (  -0.3535534  -0.3535534   0.0000000  )

     number of k points=    24  Marzari-Vanderbilt smearing, width (Ry)=  0.0050
                       cart. coord. in units 2pi/alat
        k(    1) = (   0.0000000  -0.0000000   0.0000000), wk =   0.0114286
        k(    2) = (  -0.2020305  -0.0000000   0.0000000), wk =   0.0228571
        k(    3) = (  -0.4040610  -0.0000000   0.0000000), wk =   0.0228571
        k(    4) = (  -0.6060915  -0.0000000   0.0000000), wk =   0.0228571
        k(    5) = (   0.0000000  -0.1414214   0.1414214), wk =   0.0457143
        k(    6) = (  -0.2020305  -0.1414214   0.1414214), wk =   0.0914286
        k(    7) = (  -0.4040610  -0.1414214   0.1414214), wk =   0.0914286
        k(    8) = (  -0.6060915  -0.1414214   0.1414214), wk =   0.0914286
        k(    9) = (   0.0000000  -0.2828427   0.2828427), wk =   0.0457143
        k(   10) = (  -0.2020305  -0.2828427   0.2828427), wk =   0.0914286
        k(   11) = (  -0.4040610  -0.2828427   0.2828427), wk =   0.0914286
        k(   12) = (  -0.6060915  -0.2828427   0.2828427), wk =   0.0914286
        k(   13) = (   0.0000000  -0.2828427   0.0000000), wk =   0.0457143
        k(   14) = (  -0.2020305  -0.2828427   0.0000000), wk =   0.0914286
        k(   15) = (  -0.4040610  -0.2828427   0.0000000), wk =   0.0914286
        k(   16) = (  -0.6060915  -0.2828427   0.0000000), wk =   0.0914286
        k(   17) = (   0.0000000  -0.4242641   0.1414214), wk =   0.0914286
        k(   18) = (  -0.2020305  -0.4242641   0.1414214), wk =   0.1828571
        k(   19) = (  -0.4040610  -0.4242641   0.1414214), wk =   0.1828571
        k(   20) = (  -0.6060915  -0.4242641   0.1414214), wk =   0.1828571
        k(   21) = (   0.0000000  -0.5656854   0.0000000), wk =   0.0457143
        k(   22) = (  -0.2020305  -0.5656854   0.0000000), wk =   0.0914286
        k(   23) = (  -0.4040610  -0.5656854   0.0000000), wk =   0.0914286
        k(   24) = (  -0.6060915  -0.5656854   0.0000000), wk =   0.0914286

     Dense  grid:   160249 G-vectors     FFT dimensions: (  80,  80,  54)

     Smooth grid:    56629 G-vectors     FFT dimensions: (  54,  54,  40)

     Estimated max dynamical RAM per process >     201.28 MB

     Estimated total dynamical RAM >       1.31 GB

     Check: negative core charge=   -0.000003

     Initial potential from superposition of free atoms

     starting charge      79.9581, renormalised to      80.0000
     Starting wfcs are   60 randomized atomic wfcs
     Checking if some PAW data can be deallocated... 

     total cpu time spent up to now is        4.2 secs

     per-process dynamical memory:   128.1 Mb

     Self-consistent Calculation

     iteration #  1     ecut=    60.00 Ry     beta= 0.40
     Davidson diagonalization with overlap
     ethr =  1.00E-02,  avg # of iterations =  2.0

     total cpu time spent up to now is        6.8 secs

     total energy              =   -1143.95088332 Ry
     estimated scf accuracy    <       5.10247950 Ry

     iteration #  2     ecut=    60.00 Ry     beta= 0.40
     Davidson diagonalization with overlap
     ethr =  6.38E-03,  avg # of iterations =  4.0

     total cpu time spent up to now is        9.5 secs

     total energy              =   -1145.20244742 Ry
     estimated scf accuracy    <       1.50908668 Ry

     iteration #  3     ecut=    60.00 Ry     beta= 0.40
     Davidson diagonalization with overlap
     ethr =  1.89E-03,  avg # of iterations =  2.8

     total cpu time spent up to now is       12.1 secs

     total energy              =   -1145.53530385 Ry
     estimated scf accuracy    <       0.09503218 Ry

     iteration #  4     ecut=    60.00 Ry     beta= 0.40
     Davidson diagonalization with overlap
     ethr =  1.19E-04,  avg # of iterations =  8.2

     total cpu time spent up to now is       15.1 secs

     total energy              =   -1145.53356505 Ry
     estimated scf accuracy    <       0.02995714 Ry

     iteration #  5     ecut=    60.00 Ry     beta= 0.40
     Davidson diagonalization with overlap
     ethr =  3.74E-05,  avg # of iterations =  4.9

     total cpu time spent up to now is       18.2 secs

     total energy              =   -1145.54147365 Ry
     estimated scf accuracy    <       0.01726248 Ry

     iteration #  6     ecut=    60.00 Ry     beta= 0.40
     Davidson diagonalization with overlap
     ethr =  2.16E-05,  avg # of iterations =  1.0

     total cpu time spent up to now is       20.7 secs

     total energy              =   -1145.53870672 Ry
     estimated scf accuracy    <       0.00558452 Ry

     iteration #  7     ecut=    60.00 Ry     beta= 0.40
     Davidson diagonalization with overlap
     ethr =  6.98E-06,  avg # of iterations =  4.9

     total cpu time spent up to now is       23.8 secs

     total energy              =   -1145.54066687 Ry
     estimated scf accuracy    <       0.00157403 Ry

     iteration #  8     ecut=    60.00 Ry     beta= 0.40
     Davidson diagonalization with overlap
     ethr =  1.97E-06,  avg # of iterations =  1.8

     total cpu time spent up to now is       26.4 secs

     total energy              =   -1145.54073463 Ry
     estimated scf accuracy    <       0.00018027 Ry

     iteration #  9     ecut=    60.00 Ry     beta= 0.40
     Davidson diagonalization with overlap
     ethr =  2.25E-07,  avg # of iterations =  4.1

     total cpu time spent up to now is       28.9 secs

     total energy              =   -1145.54076984 Ry
     estimated scf accuracy    <       0.00000549 Ry

     iteration # 10     ecut=    60.00 Ry     beta= 0.40
     Davidson diagonalization with overlap
     ethr =  6.86E-09,  avg # of iterations =  4.2

     total cpu time spent up to now is       31.7 secs

     total energy              =   -1145.54077344 Ry
     estimated scf accuracy    <       0.00000294 Ry

     iteration # 11     ecut=    60.00 Ry     beta= 0.40
     Davidson diagonalization with overlap
     ethr =  3.67E-09,  avg # of iterations =  1.0

     total cpu time spent up to now is       34.1 secs

     total energy              =   -1145.54077251 Ry
     estimated scf accuracy    <       0.00000206 Ry

     iteration # 12     ecut=    60.00 Ry     beta= 0.40
     Davidson diagonalization with overlap
     ethr =  2.57E-09,  avg # of iterations =  2.6

     total cpu time spent up to now is       36.9 secs

     total energy              =   -1145.54077294 Ry
     estimated scf accuracy    <       0.00000002 Ry

     iteration # 13     ecut=    60.00 Ry     beta= 0.40
     Davidson diagonalization with overlap
     ethr =  2.21E-11,  avg # of iterations =  5.0

     total cpu time spent up to now is       40.2 secs

     total energy              =   -1145.54077294 Ry
     estimated scf accuracy    <       0.00000003 Ry

     iteration # 14     ecut=    60.00 Ry     beta= 0.40
     Davidson diagonalization with overlap
     ethr =  2.21E-11,  avg # of iterations =  3.0

     total cpu time spent up to now is       43.0 secs

     total energy              =   -1145.54077294 Ry
     estimated scf accuracy    <          1.9E-09 Ry

     iteration # 15     ecut=    60.00 Ry     beta= 0.40
     Davidson diagonalization with overlap
     ethr =  2.43E-12,  avg # of iterations =  4.0

     total cpu time spent up to now is       46.4 secs

     total energy              =   -1145.54077294 Ry
     estimated scf accuracy    <          4.0E-09 Ry

     iteration # 16     ecut=    60.00 Ry     beta= 0.40
     Davidson diagonalization with overlap
     ethr =  2.43E-12,  avg # of iterations =  2.4

     total cpu time spent up to now is       49.1 secs

     End of self-consistent calculation

          k = 0.0000-0.0000 0.0000 (  7107 PWs)   bands (ev):

   -47.0306 -47.0270 -23.1684 -23.1635 -23.1635 -23.1617 -23.0568 -23.0568
   -19.4375 -19.4067  -9.1002  -8.9061  -8.6936  -8.5787  -7.8153  -7.8153
    -2.9813  -2.9813  -2.9755  -2.9755  -2.9607  -2.8792   2.8835   3.2519
     3.7540   5.2423   5.2423   5.7308   5.7308   5.7569   6.2580   6.2580
     6.2760   6.8959   6.8959   7.0279   7.2123   7.3110   7.3110   7.9900
     9.5099   9.7087   9.7087  12.1259  12.1259  12.9631  12.9882  13.0704

          k =-0.2020-0.0000 0.0000 (  7087 PWs)   bands (ev):

   -47.0302 -47.0267 -23.1903 -23.1829 -23.1627 -23.1627 -23.0561 -23.0561
   -19.4334 -19.4045  -9.0231  -8.7404  -8.6251  -8.5750  -7.8025  -7.8025
    -3.0191  -3.0191  -2.9698  -2.9698  -2.9393  -2.9358   2.8858   3.2452
     3.8559   4.8893   4.8893   5.2150   5.5798   5.6693   5.6693   6.3603
     6.3603   6.7946   6.9453   6.9668   6.9668   7.2770   7.2770   7.9967
     9.5290  10.2066  10.2066  12.2691  12.2691  12.9808  12.9918  13.7952

          k =-0.4041-0.0000 0.0000 (  7055 PWs)   bands (ev):

   -47.0294 -47.0259 -23.2388 -23.2301 -23.1608 -23.1608 -23.0545 -23.0545
   -19.4243 -19.3994  -8.9690  -8.5666  -8.3434  -8.3258  -7.7732  -7.7732
    -3.1044  -3.1044  -3.0581  -2.9570  -2.9570  -2.8906   2.8909   3.1764
     3.9781   4.0821   4.2793   4.4259   4.4259   5.5136   5.5136   6.0648
     6.0648   6.3254   6.7689   7.2197   7.2197   7.4959   7.4959   8.0118
     9.5725  11.1772  11.1772  12.6599  12.6599  12.9988  13.0195  14.8096

          k =-0.6061-0.0000 0.0000 (  7047 PWs)   bands (ev):

   -47.0288 -47.0252 -23.2770 -23.2674 -23.1593 -23.1593 -23.0532 -23.0532
   -19.4171 -19.3953  -8.9770  -8.5599  -8.0062  -7.9897  -7.7491  -7.7491
    -3.1731  -3.1731  -3.1518  -2.9468  -2.9468  -2.8509   2.8406   2.8949
     3.0686   3.6270   4.1680   4.1680   4.2613   5.3432   5.3432   5.9034
     5.9034   6.0773   6.6355   7.1907   7.1907   7.8393   7.8393   8.0239
     9.6081  11.9139  11.9139  13.0037  13.0495  13.0736  13.0736  15.4223

          k = 0.0000-0.1414 0.1414 (  7077 PWs)   bands (ev):

   -47.0302 -47.0273 -23.1680 -23.1623 -23.1537 -23.1535 -23.0676 -23.0672
   -19.4335 -19.4086  -9.0677  -8.9234  -8.6420  -8.5122  -7.9206  -7.8957
    -2.9830  -2.9775  -2.9574  -2.9522  -2.9492  -2.8888   3.1469   3.5051
     3.9526   5.2941   5.3415   5.4750   5.5317   5.7163   6.2162   6.2168
     6.3042   6.5812   6.8365   6.8392   6.8741   7.0850   7.1434   7.8616
     9.9562  10.0288  10.0420  11.8892  11.9311  12.6824  13.2845  13.6216

          k =-0.2020-0.1414 0.1414 (  7090 PWs)   bands (ev):

   -47.0299 -47.0270 -23.1896 -23.1836 -23.1530 -23.1527 -23.0669 -23.0665
   -19.4298 -19.4064  -8.9668  -8.7581  -8.5949  -8.5078  -7.9115  -7.8840
    -3.0162  -3.0070  -2.9756  -2.9704  -2.9155  -2.9126   3.1491   3.4960
     4.0308   4.9078   4.9715   5.1844   5.4012   5.4871   5.6148   6.1069
     6.1342   6.6764   6.8307   6.9056   6.9774   7.0493   7.1231   7.8654
    10.0510  10.3798  10.4260  12.0449  12.0817  12.6998  13.6247  14.0471

          k =-0.4041-0.1414 0.1414 (  7088 PWs)   bands (ev):

   -47.0291 -47.0262 -23.2379 -23.2309 -23.1511 -23.1508 -23.0651 -23.0648
   -19.4217 -19.4015  -8.8752  -8.4979  -8.3611  -8.3283  -7.8912  -7.8574
    -3.0949  -3.0911  -2.9986  -2.9715  -2.9583  -2.8801   3.1542   3.3934
     3.9705   4.1500   4.3093   4.4944   4.5177   5.1463   5.3199   5.7698
     5.7836   6.5751   6.7675   6.9733   7.0702   7.4252   7.4658   7.8738
    10.0917  11.2673  11.2914  12.4649  12.4950  12.7395  13.6295  15.1397

          k =-0.6061-0.1414 0.1414 (  7059 PWs)   bands (ev):

   -47.0285 -47.0256 -23.2760 -23.2682 -23.1495 -23.1493 -23.0637 -23.0635
   -19.4152 -19.3976  -8.8736  -8.4899  -8.0153  -8.0039  -7.8778  -7.8355
    -3.1516  -3.1351  -3.0934  -2.9683  -2.9321  -2.8694   2.9124   3.0628
     3.1583   3.8045   4.1384   4.2294   4.4028   4.9019   5.1158   5.6348
     5.6805   6.5039   6.6893   6.8891   7.0283   7.7334   7.7786   7.8726
    10.1239  11.9727  11.9934  12.7622  12.9053  12.9299  13.6309  15.7589

          k = 0.0000-0.2828 0.2828 (  7108 PWs)   bands (ev):

   -47.0294 -47.0282 -23.1663 -23.1641 -23.1281 -23.1271 -23.0953 -23.0941
   -19.4240 -19.4145  -9.0113  -8.9636  -8.4613  -8.3325  -8.1795  -8.0976
    -2.9845  -2.9819  -2.9374  -2.9123  -2.9102  -2.9073   3.8623   4.1274
     4.5690   4.8046   4.8533   5.4165   5.5548   5.5895   5.6203   5.9904
     6.2158   6.3870   6.5820   6.6158   6.6374   6.8133   7.2519   7.5581
    10.5623  10.7140  10.9952  11.3008  11.4171  11.9561  13.7039  14.0743

          k =-0.2020-0.2828 0.2828 (  7087 PWs)   bands (ev):

   -47.0290 -47.0279 -23.1878 -23.1855 -23.1272 -23.1263 -23.0944 -23.0933
   -19.4212 -19.4123  -8.8661  -8.8012  -8.4514  -8.3262  -8.1768  -8.0886
    -3.0061  -2.9902  -2.9886  -2.9763  -2.8739  -2.8708   3.8646   4.1088
     4.5669   4.7919   4.7991   5.0088   5.0817   5.2192   5.5540   5.6012
     5.7005   5.9212   6.8315   6.8956   6.9225   6.9599   7.2624   7.5581
    10.8363  10.9712  11.0285  11.4954  11.5979  11.9768  14.5235  14.9173

          k =-0.4041-0.2828 0.2828 (  7070 PWs)   bands (ev):

   -47.0282 -47.0271 -23.2356 -23.2329 -23.1252 -23.1245 -23.0924 -23.0916
   -19.4150 -19.4073  -8.6326  -8.4227  -8.3119  -8.3115  -8.1597  -8.0681
    -3.0551  -3.0476  -3.0092  -2.9914  -2.9031  -2.8620   3.8104   3.8706
     3.9444   4.2175   4.5863   4.6745   4.7686   4.7965   4.8257   5.0996
     5.2169   5.6809   7.0311   7.0922   7.2633   7.2770   7.3661   7.5763
    11.0535  11.5609  11.6286  11.9768  12.0663  12.0934  15.0232  15.8566

          k =-0.6061-0.2828 0.2828 (  7049 PWs)   bands (ev):

   -47.0276 -47.0265 -23.2734 -23.2704 -23.1235 -23.1230 -23.0907 -23.0902
   -19.4100 -19.4033  -8.5922  -8.3004  -8.2215  -8.0513  -8.0215  -8.0129
    -3.0950  -3.0480  -3.0249  -2.9750  -2.9569  -2.8985   3.0007   3.0432
     3.8773   4.1187   4.3071   4.4100   4.4739   4.7283   4.8527   4.8872
     5.0515   5.7053   7.0543   7.0998   7.3088   7.4594   7.4731   7.6349
    11.0936  12.0303  12.1938  12.2368  12.5350  12.5982  15.0156  16.5042

          k = 0.0000-0.2828 0.0000 (  7071 PWs)   bands (ev):

   -47.0300 -47.0276 -23.1673 -23.1656 -23.1629 -23.1258 -23.0963 -23.0556
   -19.4300 -19.4099  -9.0676  -8.9437  -8.6551  -8.3709  -8.1510  -7.7980
    -2.9696  -2.9646  -2.9512  -2.9415  -2.9374  -2.8968   3.0374   4.0561
     4.1369   4.8611   5.3091   5.4451   5.6782   5.6888   6.1567   6.1708
     6.3548   6.4598   6.4975   6.6761   6.8274   7.1171   7.1253   7.6931
     9.7410  10.4761  10.6200  11.3657  12.1165  12.5133  13.0779  14.2135

          k =-0.2020-0.2828 0.0000 (  7069 PWs)   bands (ev):

   -47.0296 -47.0273 -23.1890 -23.1842 -23.1647 -23.1250 -23.0954 -23.0548
   -19.4267 -19.4078  -8.9603  -8.7796  -8.6067  -8.3719  -8.1385  -7.7927
    -3.0168  -2.9766  -2.9705  -2.9577  -2.9100  -2.9089   3.0357   4.0452
     4.1896   4.8225   4.8875   5.0757   5.1514   5.6196   5.6642   5.7193
     6.1693   6.6930   6.7161   6.8569   6.8806   7.0325   7.0652   7.6989
    10.2207  10.4972  10.8827  11.5672  12.2494  12.5311  13.4793  14.6442

          k =-0.4041-0.2828 0.0000 (  7078 PWs)   bands (ev):

   -47.0288 -47.0265 -23.2371 -23.2315 -23.1625 -23.1232 -23.0934 -23.0532
   -19.4195 -19.4032  -8.8491  -8.3956  -8.3895  -8.3211  -8.1064  -7.7810
    -3.0876  -3.0491  -2.9761  -2.9733  -2.9420  -2.8885   3.0184   3.8354
     3.9569   4.1968   4.3635   4.4942   4.6816   4.8000   5.1319   5.4490
     5.8959   6.5435   6.7868   6.7887   7.1855   7.3144   7.4697   7.7194
    10.5085  11.1978  11.5633  12.0880  12.5504  12.6466  13.7212  15.6452

          k =-0.6061-0.2828 0.0000 (  7063 PWs)   bands (ev):

   -47.0282 -47.0258 -23.2751 -23.2688 -23.1608 -23.1218 -23.0918 -23.0519
   -19.4137 -19.3994  -8.8344  -8.3817  -8.1224  -8.0193  -8.0032  -7.7716
    -3.1085  -3.1075  -3.0586  -2.9645  -2.9294  -2.8866   2.8532   3.0552
     3.2291   3.9898   4.2229   4.4044   4.5019   4.5250   4.9947   5.2662
     5.7538   6.4428   6.7584   6.7613   7.2040   7.5401   7.6788   7.8375
    10.5358  11.9238  12.1837  12.5911  12.5923  13.0435  13.7814  16.2199

          k = 0.0000-0.4243 0.1414 (  7098 PWs)   bands (ev):

   -47.0293 -47.0283 -23.1661 -23.1643 -23.1568 -23.1305 -23.0921 -23.0652
   -19.4220 -19.4144  -9.0429  -8.9922  -8.5901  -8.4109  -8.1103  -7.8805
    -2.9660  -2.9637  -2.9365  -2.9161  -2.9020  -2.8998   3.3110   3.9989
     4.6503   4.9630   5.3397   5.4114   5.5564   5.6358   5.8193   5.9548
     6.1348   6.2166   6.6155   6.6420   6.8499   6.9513   6.9551   7.3072
    10.0356  10.6702  11.2765  11.3312  11.8968  12.0174  13.3845  13.8836

          k =-0.2020-0.4243 0.1414 (  7080 PWs)   bands (ev):

   -47.0289 -47.0280 -23.1875 -23.1856 -23.1559 -23.1296 -23.0914 -23.0645
   -19.4196 -19.4124  -8.9110  -8.8364  -8.5560  -8.3937  -8.1146  -7.8816
    -2.9966  -2.9695  -2.9623  -2.9561  -2.8835  -2.8798   3.3065   3.9883
     4.6006   4.8741   4.9747   5.0149   5.2500   5.3453   5.4421   5.6822
     5.8541   6.2808   6.7615   6.8329   6.8968   6.9594   7.0502   7.3232
    10.4409  10.9546  11.2907  11.5043  12.0141  12.0529  13.9342  14.6195

          k =-0.4041-0.4243 0.1414 (  7069 PWs)   bands (ev):

   -47.0281 -47.0272 -23.2353 -23.2331 -23.1537 -23.1274 -23.0897 -23.0628
   -19.4140 -19.4078  -8.7287  -8.5226  -8.3423  -8.2939  -8.1226  -7.8842
    -3.0345  -3.0121  -2.9897  -2.9691  -2.9061  -2.8775   3.2716   3.8156
     4.0302   4.1378   4.2492   4.5153   4.7951   4.9219   5.2009   5.3158
     5.4717   6.1545   6.7955   6.9097   7.0897   7.2476   7.3974   7.5157
    11.2620  11.3643  11.6430  11.9976  12.0719  12.4389  14.4028  15.5128

          k =-0.6061-0.4243 0.1414 (  7060 PWs)   bands (ev):

   -47.0275 -47.0266 -23.2730 -23.2706 -23.1518 -23.1256 -23.0883 -23.0615
   -19.4096 -19.4041  -8.6861  -8.4263  -8.1359  -8.0304  -8.0265  -7.8868
    -3.0549  -3.0289  -3.0001  -2.9621  -2.9499  -2.9043   2.9452   3.0277
     3.4516   3.9131   4.0254   4.1219   4.6761   4.8681   5.0079   5.2106
     5.3809   6.1433   6.7700   6.9004   7.1925   7.2811   7.5546   7.7607
    11.3361  12.0009  12.0932  12.2490  12.5193  12.8707  14.5198  15.6901

          k = 0.0000-0.5657 0.0000 (  7053 PWs)   bands (ev):

   -47.0290 -47.0286 -23.1690 -23.1653 -23.1649 -23.1587 -23.0638 -23.0535
   -19.4180 -19.4150  -9.0806  -9.0539  -8.6414  -8.5848  -7.8646  -7.7703
    -2.9480  -2.9470  -2.9328  -2.9250  -2.8760  -2.8751   3.0642   3.3216
     5.1383   5.4070   5.4639   5.6063   5.6114   5.7362   5.9078   5.9232
     5.9332   5.9563   6.4782   6.7729   6.8268   6.9191   7.0595   7.0617
     9.7951  10.0662  11.7456  11.8822  12.0167  12.1008  13.0974  13.3954

          k =-0.2020-0.5657 0.0000 (  7057 PWs)   bands (ev):

   -47.0286 -47.0283 -23.1868 -23.1861 -23.1679 -23.1578 -23.0631 -23.0528
   -19.4160 -19.4133  -8.9581  -8.9181  -8.5921  -8.5464  -7.8732  -7.7775
    -2.9683  -2.9451  -2.9379  -2.9115  -2.9014  -2.8886   3.0587   3.3148
     4.7264   4.8121   5.2225   5.2975   5.3322   5.4945   5.5449   5.7157
     6.2607   6.4181   6.5030   6.7617   6.8144   6.8342   6.9973   7.0749
    10.2737  10.4735  11.7522  12.0100  12.0238  12.2214  13.5696  13.9428

          k =-0.4041-0.5657 0.0000 (  7056 PWs)   bands (ev):

   -47.0278 -47.0275 -23.2344 -23.2336 -23.1653 -23.1553 -23.0615 -23.0512
   -19.4116 -19.4093  -8.7879  -8.7069  -8.3517  -8.3414  -7.8927  -7.7938
    -2.9853  -2.9695  -2.9572  -2.9208  -2.9175  -2.9088   3.0300   3.2732
     4.0309   4.0745   4.0779   4.2031   5.1927   5.1950   5.3555   5.5164
     6.1214   6.5254   6.5394   6.6934   6.8037   6.8362   7.4901   7.5234
    11.2198  11.3376  11.7676  12.0418  12.4052  12.5864  14.0405  14.5150

          k =-0.6061-0.5657 0.0000 (  7060 PWs)   bands (ev):

   -47.0272 -47.0269 -23.2720 -23.2711 -23.1633 -23.1533 -23.0602 -23.0499
   -19.4081 -19.4061  -8.7337  -8.6403  -8.0458  -8.0436  -7.9084  -7.8072
    -3.0016  -2.9845  -2.9835  -2.9486  -2.9198  -2.9009   2.8565   2.9518
     3.3004   3.4660   3.7100   3.7639   4.9731   5.1380   5.1749   5.4238
     6.0673   6.4849   6.6149   6.6701   6.8458   6.8698   7.7501   7.8158
    11.7762  11.9412  12.0242  12.0574  12.8381  12.9907  14.1932  14.6808

     the Fermi energy is     9.0726 ev

!    total energy              =   -1145.54077294 Ry
     total all-electron energy =    -18592.513503 Ry
     estimated scf accuracy    <          3.5E-10 Ry
     smearing contrib. (-TS)   =      -0.00000000 Ry
     internal energy E=F+TS    =   -1145.54077294 Ry

     The total energy is F=E-TS. E is the sum of the following terms:
     one-electron contribution =    -147.06668082 Ry
     hartree contribution      =     118.45049532 Ry
     xc contribution           =    -125.01492800 Ry
     ewald contribution        =    -406.99897992 Ry
     one-center paw contrib.   =    -584.91067953 Ry

     convergence has been achieved in  16 iterations

     Forces acting on atoms (cartesian axes, Ry/au):

     atom    1 type  1   force =     0.00000000   -0.00000000    0.00000000
     atom    2 type  1   force =     0.00000000   -0.00000000    0.00000000
     atom    3 type  2   force =    -0.00650244   -0.00000000    0.00000000
     atom    4 type  2   force =     0.00650244    0.00000000    0.00000000
     atom    5 type  3   force =    -0.00914481   -0.00000000    0.00000000
     atom    6 type  3   force =     0.00914481    0.00000000    0.00000000
     atom    7 type  3   force =    -0.00000000    0.00000000   -0.00000000
     atom    8 type  3   force =    -0.00000000    0.00000000    0.00000000
     atom    9 type  3   force =     0.00000000    0.00000000    0.00000000
     atom   10 type  3   force =     0.00000000    0.00000000    0.00000000

     Total force =     0.015869     Total SCF correction =     0.000007
     Message from routine punch:
     Nothing written, as per user request (disk_io='none')

     init_run     :      3.48s CPU      3.84s WALL (       1 calls)
     electrons    :     40.55s CPU     44.98s WALL (       1 calls)
     forces       :      0.78s CPU      0.93s WALL (       1 calls)

     Called by init_run:
     wfcinit      :      0.71s CPU      0.74s WALL (       1 calls)
     potinit      :      0.91s CPU      1.04s WALL (       1 calls)
     hinit0       :      1.60s CPU      1.64s WALL (       1 calls)

     Called by electrons:
     c_bands      :     21.70s CPU     21.95s WALL (      16 calls)
     sum_band     :      6.05s CPU      8.00s WALL (      16 calls)
     v_of_rho     :      3.04s CPU      3.49s WALL (      17 calls)
     newd         :      2.21s CPU      4.13s WALL (      17 calls)
     PAW_pot      :      7.58s CPU      7.70s WALL (      17 calls)
     mix_rho      :      0.25s CPU      0.25s WALL (      16 calls)

     Called by c_bands:
     init_us_2    :      1.04s CPU      1.05s WALL (     102 calls)
     cegterg      :     18.54s CPU     18.78s WALL (      48 calls)

     Called by *egterg:
     cdiaghg      :      0.48s CPU      0.48s WALL (     222 calls)
     h_psi        :     12.13s CPU     12.21s WALL (     225 calls)
     s_psi        :      1.52s CPU      1.53s WALL (     225 calls)
     g_psi        :      0.15s CPU      0.15s WALL (     174 calls)

     Called by h_psi:
     h_psi:calbec :      1.51s CPU      1.51s WALL (     225 calls)
     vloc_psi     :      9.02s CPU      9.07s WALL (     225 calls)
                                        0.00s GPU  (     225 calls)
     add_vuspsi   :      1.46s CPU      1.46s WALL (     225 calls)

     General routines
     calbec       :      2.20s CPU      2.21s WALL (     285 calls)
     fft          :      1.48s CPU      1.49s WALL (     230 calls)
     ffts         :      0.26s CPU      0.26s WALL (      33 calls)
     fftw         :      9.20s CPU      9.25s WALL (   14040 calls)
     interpolate  :      0.35s CPU      0.35s WALL (      17 calls)

     Parallel routines

     PWSCF        :     45.18s CPU     50.17s WALL


   This run was terminated on:   9:42:59  27Sep2026            

=------------------------------------------------------------------------------=
   JOB DONE.
=------------------------------------------------------------------------------=
