
     Program PWSCF v.7.5 starts on  3Oct2026 at 21:19:53 

     This program is part of the open-source Quantum ESPRESSO suite
     for quantum simulation of materials; please cite
         "P. Giannozzi et al., J. Phys.:Condens. Matter 21 395502 (2009);
         "P. Giannozzi et al., J. Phys.:Condens. Matter 29 465901 (2017);
         "P. Giannozzi et al., J. Chem. Phys. 152 154105 (2020);
          URL http://www.quantum-espresso.org", 
     in publications or presentations arising from this work. More details at
     http://www.quantum-espresso.org/quote

     Parallel version (MPI & OpenMP), running on       8 processor cores
     Number of MPI processes:                 8
     Threads/MPI process:                     1

     MPI processes distributed on     1 nodes
     11737 MiB available memory on the printing compute node when the environment starts

     Reading input from pw.in

     Current dimensions of program PWSCF are:
     Max number of different atomic species (ntypx) = 10
     Max number of k-points (npk) =  40000
     Max angular momentum in pseudopotentials (lmaxx) =  4
     Found identity + (  0.3333 -0.0000 -0.0000) symmetry
     This is a supercell, fractional translations are disabled
     Message from routine setup:
     using ibrav=0 with symmetry is DISCOURAGED, use correct ibrav instead

     K-points division:     npool     =       8
     Subspace diagonalization in iterative solution of the eigenvalue problem:
     a serial algorithm will be used


     G-vector sticks info
     --------------------
     sticks:   dense  smooth     PW     G-vecs:    dense   smooth      PW
     Sum        1865     929    347                29417    10333    2327

     Using Slab Decomposition



     bravais-lattice index     =            0
     lattice parameter (alat)  =      17.6006  a.u.
     unit-cell volume          =     466.3592 (a.u.)^3
     number of atoms/cell      =            3
     number of atomic types    =            1
     number of electrons       =        36.00
     number of Kohn-Sham states=           22
     kinetic-energy cutoff     =      30.0000  Ry
     charge density cutoff     =     240.0000  Ry
     scf convergence threshold =      3.0E-10
     mixing beta               =       0.4000
     number of iterations used =            8  plain     mixing
     Exchange-correlation= SLA  PW   PBE  PBE
                           (   1   4   3   4   0   0   0)

     celldm(1)=  17.600634  celldm(2)=   0.000000  celldm(3)=   0.000000
     celldm(4)=   0.000000  celldm(5)=   0.000000  celldm(6)=   0.000000

     crystal axes: (cart. coord. in units of alat)
               a(1) = (  -0.577350   0.577350   0.577350 )  
               a(2) = (   0.192450  -0.192450   0.192450 )  
               a(3) = (   0.192450   0.192450  -0.192450 )  

     reciprocal axes: (cart. coord. in units 2 pi/alat)
               b(1) = ( -0.000000  0.866025  0.866025 )  
               b(2) = (  2.598076 -0.000000  2.598076 )  
               b(3) = (  2.598076  2.598076 -0.000000 )  


     PseudoPot. # 1 for Zr read from file:
     /root/sssp/Zr_pbe_v1.uspp.F.UPF
     MD5 check sum: 5db81b1e868ab7776c4564c113de050b
     Pseudo is Ultrasoft + core correction, Zval = 12.0
     Generated by new atomic code, or converted to UPF format
     Using radial grid of  887 points,  6 beta functions with: 
                l(1) =   0
                l(2) =   0
                l(3) =   1
                l(4) =   1
                l(5) =   2
                l(6) =   2
     Q(r) pseudized with  6 coefficients,  rinner =    1.200   1.200   1.200
                                                       1.200   1.200

     atomic species   valence    mass     pseudopotential
     Zr               12.00    91.22400     Zr( 1.00)

      8 Sym. Ops., with inversion, found



   Cartesian axes

     site n.     atom                  positions (alat units)
         1        Zr     tau(   1) = (   0.0000000   0.0000000   0.0000000  )
         2        Zr     tau(   2) = (  -0.1924501   0.1924501   0.1924501  )
         3        Zr     tau(   3) = (  -0.3849002   0.3849002   0.3849002  )

     number of k points=   468  Marzari-Vanderbilt smearing, width (Ry)=  0.0200

     Number of k-points >= 100: set verbosity='high' to print them.

     Dense  grid:    29417 G-vectors     FFT dimensions: (  90,  30,  30)

     Smooth grid:    10333 G-vectors     FFT dimensions: (  64,  24,  24)

     Estimated max dynamical RAM per process >      57.09 MB

     Estimated total dynamical RAM >     406.42 MB

     Check: negative core charge=   -0.000004

     Initial potential from superposition of free atoms

     starting charge      35.9936, renormalised to      36.0000

     negative rho (up, down):  1.850E-01 0.000E+00
     Starting wfcs are   39 randomized atomic wfcs

     total cpu time spent up to now is        3.4 secs

     per-process dynamical memory:    56.4 Mb

     Self-consistent Calculation

     iteration #  1     ecut=    30.00 Ry     beta= 0.40
     Davidson diagonalization with overlap
     ethr =  1.00E-02,  avg # of iterations =  2.0

     Threshold (ethr) on eigenvalues was too large:
     Diagonalizing with lowered threshold

     Davidson diagonalization with overlap
     ethr =  7.92E-05,  avg # of iterations =  2.7

     negative rho (up, down):  1.865E-01 0.000E+00

     total cpu time spent up to now is       10.1 secs

     total energy              =    -297.43815452 Ry
     estimated scf accuracy    <       0.03681988 Ry

     iteration #  2     ecut=    30.00 Ry     beta= 0.40
     Davidson diagonalization with overlap
     ethr =  1.02E-04,  avg # of iterations =  2.0

     negative rho (up, down):  1.885E-01 0.000E+00

     total cpu time spent up to now is       13.5 secs

     total energy              =    -297.43897909 Ry
     estimated scf accuracy    <       0.00495008 Ry

     iteration #  3     ecut=    30.00 Ry     beta= 0.40
     Davidson diagonalization with overlap
     ethr =  1.38E-05,  avg # of iterations =  2.0

     negative rho (up, down):  1.899E-01 0.000E+00

     total cpu time spent up to now is       17.5 secs

     total energy              =    -297.44003223 Ry
     estimated scf accuracy    <       0.00020405 Ry

     iteration #  4     ecut=    30.00 Ry     beta= 0.40
     Davidson diagonalization with overlap
     ethr =  5.67E-07,  avg # of iterations =  2.4

     negative rho (up, down):  1.899E-01 0.000E+00

     total cpu time spent up to now is       21.8 secs

     total energy              =    -297.44005970 Ry
     estimated scf accuracy    <       0.00014382 Ry

     iteration #  5     ecut=    30.00 Ry     beta= 0.40
     Davidson diagonalization with overlap
     ethr =  4.00E-07,  avg # of iterations =  1.1

     negative rho (up, down):  1.899E-01 0.000E+00

     total cpu time spent up to now is       24.9 secs

     total energy              =    -297.44005604 Ry
     estimated scf accuracy    <       0.00001805 Ry

     iteration #  6     ecut=    30.00 Ry     beta= 0.40
     Davidson diagonalization with overlap
     ethr =  5.01E-08,  avg # of iterations =  3.0

     negative rho (up, down):  1.898E-01 0.000E+00

     total cpu time spent up to now is       29.3 secs

     total energy              =    -297.44006165 Ry
     estimated scf accuracy    <       0.00000110 Ry

     iteration #  7     ecut=    30.00 Ry     beta= 0.40
     Davidson diagonalization with overlap
     ethr =  3.06E-09,  avg # of iterations =  3.7

     negative rho (up, down):  1.897E-01 0.000E+00

     total cpu time spent up to now is       33.3 secs

     total energy              =    -297.44006162 Ry
     estimated scf accuracy    <       0.00000034 Ry

     iteration #  8     ecut=    30.00 Ry     beta= 0.40
     Davidson diagonalization with overlap
     ethr =  9.49E-10,  avg # of iterations =  2.1

     negative rho (up, down):  1.897E-01 0.000E+00

     total cpu time spent up to now is       37.0 secs

     total energy              =    -297.44006168 Ry
     estimated scf accuracy    <          9.1E-09 Ry

     iteration #  9     ecut=    30.00 Ry     beta= 0.40
     Davidson diagonalization with overlap
     ethr =  2.52E-11,  avg # of iterations =  4.2

     negative rho (up, down):  1.897E-01 0.000E+00

     total cpu time spent up to now is       41.5 secs

     total energy              =    -297.44006168 Ry
     estimated scf accuracy    <          4.1E-09 Ry

     iteration # 10     ecut=    30.00 Ry     beta= 0.40
     Davidson diagonalization with overlap
     ethr =  1.14E-11,  avg # of iterations =  2.2

     negative rho (up, down):  1.897E-01 0.000E+00

     total cpu time spent up to now is       45.2 secs

     total energy              =    -297.44006168 Ry
     estimated scf accuracy    <          2.0E-09 Ry

     iteration # 11     ecut=    30.00 Ry     beta= 0.40
     Davidson diagonalization with overlap
     ethr =  5.56E-12,  avg # of iterations =  1.1

     negative rho (up, down):  1.897E-01 0.000E+00

     total cpu time spent up to now is       48.2 secs

     End of self-consistent calculation

     Number of k-points >= 100: set verbosity='high' to print the bands.

     the Fermi energy is    14.0377 ev

!    total energy              =    -297.44006168 Ry
     estimated scf accuracy    <          1.7E-11 Ry
     smearing contrib. (-TS)   =       0.00046943 Ry
     internal energy E=F+TS    =    -297.44053111 Ry

     The total energy is F=E-TS. E is the sum of the following terms:
     one-electron contribution =     -52.56781935 Ry
     hartree contribution      =      40.55460229 Ry
     xc contribution           =     -53.35826220 Ry
     ewald contribution        =    -232.06905185 Ry

     convergence has been achieved in  11 iterations

     negative rho (up, down):  1.897E-01 0.000E+00

     Forces acting on atoms (cartesian axes, Ry/au):

     atom    1 type  1   force =    -0.00000000    0.00000000    0.00000000
     atom    2 type  1   force =    -0.00000000    0.00000142    0.00000142
     atom    3 type  1   force =     0.00000000   -0.00000142   -0.00000142

     Total force =     0.000003     Total SCF correction =     0.000014
     SCF correction compared to forces is large: reduce conv_thr to get better values
     Message from routine punch:
     Nothing written, as per user request (disk_io='none')

     init_run     :      3.17s CPU      3.23s WALL (       1 calls)
     electrons    :     44.36s CPU     44.84s WALL (       1 calls)
     forces       :      0.25s CPU      0.25s WALL (       1 calls)

     Called by init_run:
     wfcinit      :      2.28s CPU      2.31s WALL (       1 calls)
     potinit      :      0.33s CPU      0.35s WALL (       1 calls)
     hinit0       :      0.53s CPU      0.53s WALL (       1 calls)

     Called by electrons:
     c_bands      :     37.31s CPU     37.68s WALL (      12 calls)
     sum_band     :      6.50s CPU      6.60s WALL (      12 calls)
     v_of_rho     :      0.38s CPU      0.39s WALL (      12 calls)
     newd         :      0.15s CPU      0.16s WALL (      12 calls)
     mix_rho      :      0.03s CPU      0.03s WALL (      12 calls)

     Called by c_bands:
     init_us_2    :      0.74s CPU      0.75s WALL (    1534 calls)
     cegterg      :     32.63s CPU     32.99s WALL (     708 calls)

     Called by *egterg:
     cdiaghg      :      1.21s CPU      1.22s WALL (    2343 calls)
     h_psi        :     29.36s CPU     29.70s WALL (    2461 calls)
     s_psi        :      0.91s CPU      0.92s WALL (    2461 calls)
     g_psi        :      0.21s CPU      0.21s WALL (    1694 calls)

     Called by h_psi:
     h_psi:calbec :      0.99s CPU      1.00s WALL (    2461 calls)
     vloc_psi     :     27.34s CPU     27.66s WALL (    2461 calls)
                                        0.00s GPU  (    2461 calls)
     add_vuspsi   :      0.93s CPU      0.94s WALL (    2461 calls)

     General routines
     calbec       :      1.46s CPU      1.47s WALL (    3405 calls)
     fft          :      0.35s CPU      0.35s WALL (     166 calls)
     ffts         :      0.23s CPU      0.23s WALL (      24 calls)
     fftw         :     29.60s CPU     29.95s WALL (   95782 calls)
     interpolate  :      0.24s CPU      0.24s WALL (      12 calls)

     Parallel routines

     PWSCF        :     47.90s CPU     48.46s WALL


   This run was terminated on:  21:20:41   3Oct2026            

=------------------------------------------------------------------------------=
   JOB DONE.
=------------------------------------------------------------------------------=
