
     Program PWSCF v.7.5 starts on  4Oct2026 at  4:13: 6 

     This program is part of the open-source Quantum ESPRESSO suite
     for quantum simulation of materials; please cite
         "P. Giannozzi et al., J. Phys.:Condens. Matter 21 395502 (2009);
         "P. Giannozzi et al., J. Phys.:Condens. Matter 29 465901 (2017);
         "P. Giannozzi et al., J. Chem. Phys. 152 154105 (2020);
          URL http://www.quantum-espresso.org", 
     in publications or presentations arising from this work. More details at
     http://www.quantum-espresso.org/quote

     Parallel version (MPI & OpenMP), running on       8 processor cores
     Number of MPI processes:                 8
     Threads/MPI process:                     1

     MPI processes distributed on     1 nodes
     91677 MiB available memory on the printing compute node when the environment starts

     Reading input from pw.in

     Current dimensions of program PWSCF are:
     Max number of different atomic species (ntypx) = 10
     Max number of k-points (npk) =  40000
     Max angular momentum in pseudopotentials (lmaxx) =  4
     file Ba.pbe-spn-kjpaw_psl.1.0.0.UPF: wavefunction(s)  5S 6S renormalized
     file O.pbe-n-kjpaw_psl.0.1.UPF: wavefunction(s)  2P renormalized

     K-points division:     npool     =       4
     R & G space division:  proc/nbgrp/npool/nimage =       2
     Subspace diagonalization in iterative solution of the eigenvalue problem:
     a serial algorithm will be used


     Parallelization info
     --------------------
     sticks:   dense  smooth     PW     G-vecs:    dense   smooth      PW
     Min        3707    1852    516               239884    84716   12286
     Max        3710    1853    517               239885    84721   12287
     Sum        7417    3705   1033               479769   169437   24573

     Using Slab Decomposition



     bravais-lattice index     =            0
     lattice parameter (alat)  =      15.2544  a.u.
     unit-cell volume          =    3549.6625 (a.u.)^3
     number of atoms/cell      =           40
     number of atomic types    =            3
     number of electrons       =       320.00
     number of Kohn-Sham states=          192
     kinetic-energy cutoff     =      50.0000  Ry
     charge density cutoff     =     400.0000  Ry
     scf convergence threshold =      4.0E-09
     mixing beta               =       0.4000
     number of iterations used =            8  plain     mixing
     Exchange-correlation= SLA  PW   PBX  PBC
                           (   1   4   3   4   0   0   0)

     celldm(1)=  15.254424  celldm(2)=   0.000000  celldm(3)=   0.000000
     celldm(4)=   0.000000  celldm(5)=   0.000000  celldm(6)=   0.000000

     crystal axes: (cart. coord. in units of alat)
               a(1) = (   1.000000   0.000000   0.000000 )  
               a(2) = (   0.000000   0.999999  -0.000000 )  
               a(3) = (   0.000000  -0.000000   1.000000 )  

     reciprocal axes: (cart. coord. in units 2 pi/alat)
               b(1) = (  1.000000 -0.000000 -0.000000 )  
               b(2) = ( -0.000000  1.000001  0.000000 )  
               b(3) = ( -0.000000  0.000000  1.000000 )  


     PseudoPot. # 1 for Ba read from file:
     /root/sssp/Ba.pbe-spn-kjpaw_psl.1.0.0.UPF
     MD5 check sum: c432291d3e53af55f19d5e8866385beb
     Pseudo is Projector augmented-wave + core cor, Zval = 10.0
     Generated using "atomic" code by A. Dal Corso  v.5.1
     Shape of augmentation charge: PSQ
     Using radial grid of 1251 points,  7 beta functions with: 
                l(1) =   0
                l(2) =   0
                l(3) =   0
                l(4) =   1
                l(5) =   1
                l(6) =   2
                l(7) =   2
     Q(r) pseudized with 0 coefficients 


     PseudoPot. # 2 for Ti read from file:
     /root/sssp/ti_pbe_v1.4.uspp.F.UPF
     MD5 check sum: 88a00a6731bd790ddea75d31a80cb452
     Pseudo is Ultrasoft + core correction, Zval = 12.0
     Generated by new atomic code, or converted to UPF format
     Using radial grid of  851 points,  6 beta functions with: 
                l(1) =   0
                l(2) =   0
                l(3) =   1
                l(4) =   1
                l(5) =   2
                l(6) =   2
     Q(r) pseudized with  6 coefficients,  rinner =    1.000   1.000   1.000
                                                       1.000   1.000

     PseudoPot. # 3 for O  read from file:
     /root/sssp/O.pbe-n-kjpaw_psl.0.1.UPF
     MD5 check sum: 0234752ac141de4415c5fc33072bef88
     Pseudo is Projector augmented-wave + core cor, Zval =  6.0
     Generated using "atomic" code by A. Dal Corso  v.5.0.99 svn rev. 10869
     Shape of augmentation charge: BESSEL
     Using radial grid of 1095 points,  4 beta functions with: 
                l(1) =   0
                l(2) =   0
                l(3) =   1
                l(4) =   1
     Q(r) pseudized with 0 coefficients 


     atomic species   valence    mass     pseudopotential
     Ba               10.00   137.32700     Ba( 1.00)
     Ti               12.00    47.86700     Ti( 1.00)
     O                 6.00    15.99900     O ( 1.00)

     No symmetry found



   Cartesian axes

     site n.     atom                  positions (alat units)
         1        Ba     tau(   1) = (  -0.0163763   0.4924306   0.4913513  )
         2        Ba     tau(   2) = (   0.5016277   0.4770776   0.5228648  )
         3        Ba     tau(   3) = (   0.0043640   1.0136430   0.5083725  )
         4        Ba     tau(   4) = (   0.5086473   0.9909075   0.5002717  )
         5        Ba     tau(   5) = (   0.0123147   0.5226144   0.9828573  )
         6        Ba     tau(   6) = (   0.4830792   0.5184685   1.0117163  )
         7        Ba     tau(   7) = (  -0.0081457   0.9992932   1.0028507  )
         8        Ba     tau(   8) = (   0.5126846   0.9793303   0.9945016  )
         9        Ti     tau(   9) = (   0.2420885   0.2355763   0.2549792  )
        10        Ti     tau(  10) = (   0.7421284   0.2535907   0.2410142  )
        11        Ti     tau(  11) = (   0.2441151   0.7476014   0.2448644  )
        12        Ti     tau(  12) = (   0.7566630   0.7582918   0.2467503  )
        13        Ti     tau(  13) = (   0.2574453   0.2433713   0.7543457  )
        14        Ti     tau(  14) = (   0.7623383   0.2509185   0.7518926  )
        15        Ti     tau(  15) = (   0.2484980   0.7515121   0.7383293  )
        16        Ti     tau(  16) = (   0.7582836   0.7489762   0.7624467  )
        17        O      tau(  17) = (   0.5087770   0.2564934   0.2491245  )
        18        O      tau(  18) = (   1.0156956   0.2520169   0.2332213  )
        19        O      tau(  19) = (   0.4862909   0.7547131   0.2546263  )
        20        O      tau(  20) = (   0.9803560   0.7536649   0.2200497  )
        21        O      tau(  21) = (   0.4942709   0.2456380   0.7345499  )
        22        O      tau(  22) = (   0.9901370   0.2350844   0.7470754  )
        23        O      tau(  23) = (   0.5023555   0.7571988   0.7591908  )
        24        O      tau(  24) = (   1.0047235   0.7690903   0.7587864  )
        25        O      tau(  25) = (   0.2522656   0.4910471   0.2624012  )
        26        O      tau(  26) = (   0.7535702   0.5081073   0.2446189  )
        27        O      tau(  27) = (   0.2411072   0.9978534   0.2464957  )
        28        O      tau(  28) = (   0.7486204   1.0140170   0.2397164  )
        29        O      tau(  29) = (   0.2451317   0.5014435   0.7321565  )
        30        O      tau(  30) = (   0.7610276   0.5334714   0.7499515  )
        31        O      tau(  31) = (   0.2518166   1.0003350   0.7401251  )
        32        O      tau(  32) = (   0.7602763   1.0155652   0.7443595  )
        33        O      tau(  33) = (   0.2659199   0.2459994  -0.0124546  )
        34        O      tau(  34) = (   0.7207635   0.2548961  -0.0066879  )
        35        O      tau(  35) = (   0.2582848   0.7524569   0.0169181  )
        36        O      tau(  36) = (   0.7542298   0.7569078  -0.0175189  )
        37        O      tau(  37) = (   0.2474841   0.2353595   0.4925885  )
        38        O      tau(  38) = (   0.7839120   0.2552439   0.5090261  )
        39        O      tau(  39) = (   0.2156859   0.7580122   0.5081193  )
        40        O      tau(  40) = (   0.7382210   0.7392351   0.4826955  )

     number of k points=    36  Marzari-Vanderbilt smearing, width (Ry)=  0.0050
                       cart. coord. in units 2pi/alat
        k(    1) = (   0.0000000   0.0000000   0.0000000), wk =   0.0312500
        k(    2) = (  -0.0000000   0.0000000   0.2500001), wk =   0.0625000
        k(    3) = (   0.0000000  -0.0000001  -0.5000002), wk =   0.0312500
        k(    4) = (  -0.0000000   0.2500002   0.2500001), wk =   0.0625000
        k(    5) = (   0.0000000   0.2500000  -0.5000001), wk =   0.0625000
        k(    6) = (   0.0000000  -0.5000004  -0.5000003), wk =   0.0312500
        k(    7) = (   0.2500000   0.2500002   0.2500001), wk =   0.0625000
        k(    8) = (   0.2500000   0.2500000  -0.5000001), wk =   0.0625000
        k(    9) = (   0.2500000  -0.5000004  -0.5000003), wk =   0.0625000
        k(   10) = (  -0.5000000  -0.5000004  -0.5000002), wk =   0.0312500
        k(   11) = (   0.2500000  -0.0000000  -0.0000000), wk =   0.0625000
        k(   12) = (  -0.0000000   0.2500001   0.0000000), wk =   0.0625000
        k(   13) = (  -0.5000000   0.0000000   0.0000000), wk =   0.0312500
        k(   14) = (   0.0000000  -0.5000003  -0.0000001), wk =   0.0312500
        k(   15) = (  -0.0000000  -0.2500001   0.2500000), wk =   0.0625000
        k(   16) = (   0.2500000  -0.0000001  -0.2500001), wk =   0.0625000
        k(   17) = (  -0.2500000  -0.0000000  -0.2500001), wk =   0.0625000
        k(   18) = (   0.2500000  -0.2500002  -0.0000001), wk =   0.0625000
        k(   19) = (  -0.2500000  -0.2500001  -0.0000000), wk =   0.0625000
        k(   20) = (   0.2500000   0.0000001   0.5000001), wk =   0.0625000
        k(   21) = (  -0.5000000  -0.2500001  -0.0000000), wk =   0.0625000
        k(   22) = (   0.0000000  -0.5000002   0.2500000), wk =   0.0625000
        k(   23) = (   0.2500000  -0.5000003  -0.0000001), wk =   0.0625000
        k(   24) = (  -0.5000000   0.0000001   0.2500001), wk =   0.0625000
        k(   25) = (  -0.5000000   0.0000001   0.5000002), wk =   0.0312500
        k(   26) = (  -0.5000000   0.5000003   0.0000001), wk =   0.0312500
        k(   27) = (  -0.2500000  -0.2500001   0.2500000), wk =   0.0625000
        k(   28) = (  -0.2500000   0.2500001  -0.2500000), wk =   0.0625000
        k(   29) = (   0.2500000  -0.2500002  -0.2500001), wk =   0.0625000
        k(   30) = (  -0.2500000   0.2500003   0.5000002), wk =   0.0625000
        k(   31) = (  -0.5000000  -0.2500001   0.2500001), wk =   0.0625000
        k(   32) = (   0.5000000  -0.2500002  -0.2500002), wk =   0.0625000
        k(   33) = (  -0.2500000  -0.5000002   0.2500000), wk =   0.0625000
        k(   34) = (  -0.2500000   0.5000003  -0.2500000), wk =   0.0625000
        k(   35) = (  -0.5000000   0.2500003   0.5000002), wk =   0.0625000
        k(   36) = (  -0.5000000   0.5000004   0.2500002), wk =   0.0625000

     Dense  grid:   479769 G-vectors     FFT dimensions: ( 100, 100, 100)

     Smooth grid:   169437 G-vectors     FFT dimensions: (  72,  72,  72)

     Estimated max dynamical RAM per process >     796.87 MB

     Estimated total dynamical RAM >       5.88 GB

     Check: negative core charge=   -0.000004

     Initial potential from superposition of free atoms

     starting charge     311.8636, renormalised to     320.0000

     negative rho (up, down):  1.102E-02 0.000E+00
     Starting wfcs are  216 randomized atomic wfcs
     Checking if some PAW data can be deallocated... 

     total cpu time spent up to now is       53.7 secs

     per-process dynamical memory:   538.2 Mb

     Self-consistent Calculation

     iteration #  1     ecut=    50.00 Ry     beta= 0.40
     Davidson diagonalization with overlap
     ethr =  1.00E-02,  avg # of iterations =  2.0

     negative rho (up, down):  9.705E-02 0.000E+00

     total cpu time spent up to now is      185.4 secs

     total energy              =   -5446.34198628 Ry
     estimated scf accuracy    <       7.82853308 Ry

     iteration #  2     ecut=    50.00 Ry     beta= 0.40
     Davidson diagonalization with overlap
     ethr =  2.45E-03,  avg # of iterations =  4.0

     negative rho (up, down):  1.479E-01 0.000E+00

     total cpu time spent up to now is      330.2 secs

     total energy              =   -5446.74868009 Ry
     estimated scf accuracy    <      10.83655259 Ry

     iteration #  3     ecut=    50.00 Ry     beta= 0.40
     Davidson diagonalization with overlap
     ethr =  2.45E-03,  avg # of iterations =  2.9

     negative rho (up, down):  2.571E-01 0.000E+00

     total cpu time spent up to now is      451.2 secs

     total energy              =   -5448.76233473 Ry
     estimated scf accuracy    <       0.74713837 Ry

     iteration #  4     ecut=    50.00 Ry     beta= 0.40
     Davidson diagonalization with overlap
     ethr =  2.33E-04,  avg # of iterations =  4.2

     negative rho (up, down):  2.822E-01 0.000E+00

     total cpu time spent up to now is      600.9 secs

     total energy              =   -5448.80517556 Ry
     estimated scf accuracy    <       0.22222199 Ry

     iteration #  5     ecut=    50.00 Ry     beta= 0.40
     Davidson diagonalization with overlap
     ethr =  6.94E-05,  avg # of iterations =  3.5

     negative rho (up, down):  2.216E-01 0.000E+00

     total cpu time spent up to now is      743.0 secs

     total energy              =   -5448.82844614 Ry
     estimated scf accuracy    <       0.08601641 Ry

     iteration #  6     ecut=    50.00 Ry     beta= 0.40
     Davidson diagonalization with overlap
     ethr =  2.69E-05,  avg # of iterations =  2.3

     negative rho (up, down):  1.199E-01 0.000E+00

     total cpu time spent up to now is      880.9 secs

     total energy              =   -5448.83601789 Ry
     estimated scf accuracy    <       0.04024360 Ry

     iteration #  7     ecut=    50.00 Ry     beta= 0.40
     Davidson diagonalization with overlap
     ethr =  1.26E-05,  avg # of iterations =  3.7

     negative rho (up, down):  1.240E-02 0.000E+00

     total cpu time spent up to now is     1012.0 secs

     total energy              =   -5448.83850786 Ry
     estimated scf accuracy    <       0.02806359 Ry

     iteration #  8     ecut=    50.00 Ry     beta= 0.40
     Davidson diagonalization with overlap
     ethr =  8.77E-06,  avg # of iterations =  4.3

     negative rho (up, down):  1.033E-02 0.000E+00

     total cpu time spent up to now is     1114.6 secs

     total energy              =   -5448.83985652 Ry
     estimated scf accuracy    <       0.00669323 Ry

     iteration #  9     ecut=    50.00 Ry     beta= 0.40
     Davidson diagonalization with overlap
     c_bands:  1 eigenvalues not converged
     ethr =  2.09E-06,  avg # of iterations =  7.9

     negative rho (up, down):  1.031E-02 0.000E+00

     total cpu time spent up to now is     1293.6 secs

     total energy              =   -5448.84102800 Ry
     estimated scf accuracy    <       0.00533736 Ry

     iteration # 10     ecut=    50.00 Ry     beta= 0.40
     Davidson diagonalization with overlap
     ethr =  1.67E-06,  avg # of iterations =  2.5

     negative rho (up, down):  1.031E-02 0.000E+00

     total cpu time spent up to now is     1410.3 secs

     total energy              =   -5448.84107320 Ry
     estimated scf accuracy    <       0.00157877 Ry

     iteration # 11     ecut=    50.00 Ry     beta= 0.40
     Davidson diagonalization with overlap
     ethr =  4.93E-07,  avg # of iterations =  3.2

     negative rho (up, down):  1.031E-02 0.000E+00

     total cpu time spent up to now is     1514.1 secs

     total energy              =   -5448.84121372 Ry
     estimated scf accuracy    <       0.00055967 Ry

     iteration # 12     ecut=    50.00 Ry     beta= 0.40
     Davidson diagonalization with overlap
     ethr =  1.75E-07,  avg # of iterations =  2.4

     negative rho (up, down):  1.031E-02 0.000E+00

     total cpu time spent up to now is     1614.0 secs

     total energy              =   -5448.84128035 Ry
     estimated scf accuracy    <       0.00007621 Ry

     iteration # 13     ecut=    50.00 Ry     beta= 0.40
     Davidson diagonalization with overlap
     ethr =  2.38E-08,  avg # of iterations =  4.0

     negative rho (up, down):  1.030E-02 0.000E+00

     total cpu time spent up to now is     1731.8 secs

     total energy              =   -5448.84129836 Ry
     estimated scf accuracy    <       0.00018235 Ry

     iteration # 14     ecut=    50.00 Ry     beta= 0.40
     Davidson diagonalization with overlap
     ethr =  2.38E-08,  avg # of iterations =  2.0

     negative rho (up, down):  1.030E-02 0.000E+00

     total cpu time spent up to now is     1825.4 secs

     total energy              =   -5448.84130165 Ry
     estimated scf accuracy    <       0.00001375 Ry

     iteration # 15     ecut=    50.00 Ry     beta= 0.40
     Davidson diagonalization with overlap
     ethr =  4.30E-09,  avg # of iterations =  2.0

     negative rho (up, down):  1.030E-02 0.000E+00

     total cpu time spent up to now is     1925.5 secs

     total energy              =   -5448.84130273 Ry
     estimated scf accuracy    <       0.00001648 Ry

     iteration # 16     ecut=    50.00 Ry     beta= 0.40
     Davidson diagonalization with overlap
     ethr =  4.30E-09,  avg # of iterations =  2.3

     negative rho (up, down):  1.030E-02 0.000E+00

     total cpu time spent up to now is     2048.7 secs

     total energy              =   -5448.84130360 Ry
     estimated scf accuracy    <       0.00000417 Ry

     iteration # 17     ecut=    50.00 Ry     beta= 0.40
     Davidson diagonalization with overlap
     ethr =  1.30E-09,  avg # of iterations =  1.7

     negative rho (up, down):  1.030E-02 0.000E+00

     total cpu time spent up to now is     2176.5 secs

     total energy              =   -5448.84130383 Ry
     estimated scf accuracy    <       0.00000133 Ry

     iteration # 18     ecut=    50.00 Ry     beta= 0.40
     Davidson diagonalization with overlap
     ethr =  4.17E-10,  avg # of iterations =  2.0

     negative rho (up, down):  1.030E-02 0.000E+00

     total cpu time spent up to now is     2305.8 secs

     total energy              =   -5448.84130390 Ry
     estimated scf accuracy    <       0.00000084 Ry

     iteration # 19     ecut=    50.00 Ry     beta= 0.40
     Davidson diagonalization with overlap
     ethr =  2.63E-10,  avg # of iterations =  1.8

     negative rho (up, down):  1.030E-02 0.000E+00

     total cpu time spent up to now is     2422.7 secs

     total energy              =   -5448.84130393 Ry
     estimated scf accuracy    <       0.00000059 Ry

     iteration # 20     ecut=    50.00 Ry     beta= 0.40
     Davidson diagonalization with overlap
     ethr =  1.84E-10,  avg # of iterations =  2.0

     negative rho (up, down):  1.030E-02 0.000E+00

     total cpu time spent up to now is     2518.7 secs

     total energy              =   -5448.84130397 Ry
     estimated scf accuracy    <       0.00000037 Ry

     iteration # 21     ecut=    50.00 Ry     beta= 0.40
     Davidson diagonalization with overlap
     ethr =  1.14E-10,  avg # of iterations =  2.1

     negative rho (up, down):  1.030E-02 0.000E+00

     total cpu time spent up to now is     2616.4 secs

     total energy              =   -5448.84130398 Ry
     estimated scf accuracy    <       0.00000002 Ry

     iteration # 22     ecut=    50.00 Ry     beta= 0.40
     Davidson diagonalization with overlap
     ethr =  6.06E-12,  avg # of iterations =  3.9

     negative rho (up, down):  1.030E-02 0.000E+00

     total cpu time spent up to now is     2730.5 secs

     total energy              =   -5448.84130399 Ry
     estimated scf accuracy    <       0.00000003 Ry

     iteration # 23     ecut=    50.00 Ry     beta= 0.40
     Davidson diagonalization with overlap
     ethr =  6.06E-12,  avg # of iterations =  2.1

     negative rho (up, down):  1.030E-02 0.000E+00

     total cpu time spent up to now is     2822.8 secs

     total energy              =   -5448.84130399 Ry
     estimated scf accuracy    <          4.2E-09 Ry

     iteration # 24     ecut=    50.00 Ry     beta= 0.40
     Davidson diagonalization with overlap
     ethr =  1.30E-12,  avg # of iterations =  2.0

     negative rho (up, down):  1.030E-02 0.000E+00

     total cpu time spent up to now is     2918.9 secs

     total energy              =   -5448.84130399 Ry
     estimated scf accuracy    <          4.7E-09 Ry

     iteration # 25     ecut=    50.00 Ry     beta= 0.40
     Davidson diagonalization with overlap
     ethr =  1.30E-12,  avg # of iterations =  1.4

     negative rho (up, down):  1.030E-02 0.000E+00

     total cpu time spent up to now is     3046.0 secs

     End of self-consistent calculation

          k = 0.0000 0.0000 0.0000 ( 21247 PWs)   bands (ev):

   -46.6033 -46.5973 -46.5718 -46.4818 -46.4170 -46.4071 -46.2410 -46.2083
   -22.9187 -22.8756 -22.8548 -22.8435 -22.8379 -22.8348 -22.8312 -22.8260
   -22.7964 -22.7741 -22.7431 -22.7412 -22.7123 -22.7095 -22.6777 -22.6728
   -22.6654 -22.6434 -22.6385 -22.6065 -22.5509 -22.5032 -22.4948 -22.4508
   -14.9867 -14.7834 -14.7240 -14.6739 -14.6474 -14.5700 -14.5585 -14.4015
    -7.1924  -7.1195  -7.0383  -6.8114  -6.6438  -6.5641  -6.5130  -6.4627
    -6.3176  -6.2054  -6.1800  -6.1288  -6.0891  -6.0545  -6.0322  -5.9893
    -5.9645  -5.9268  -5.9055  -5.8552  -5.8037  -5.7749  -5.6684  -5.6133
    -0.6982  -0.6658  -0.6414  -0.2312  -0.1543  -0.1407  -0.0184  -0.0149
     0.0250   0.0461   0.0715   0.0888   0.1337   0.1609   0.1726   0.2006
     0.2496   0.2818   0.3645   0.3856   0.4046   0.4512   0.4764   0.5687
     5.6092   5.7639   5.7906   5.9232   6.0052   6.0270   6.0548   6.0680
     6.1247   6.1782   6.2146   6.2594   6.3210   6.3687   6.4195   6.9839
     7.0478   7.1036   7.1316   7.2163   7.2891   7.3028   7.3665   7.4406
     7.4538   7.5035   7.5504   7.5986   7.6516   7.6753   7.7278   7.7637
     7.7970   7.9034   7.9655   8.0127   8.0346   8.0747   8.1096   8.1529
     8.2027   8.2505   8.2976   8.3370   8.3493   8.3923   8.4225   8.4820
     8.8452   8.8831   8.9543   8.9942   9.0444   9.0650   9.0980   9.1575
     9.2083   9.2431   9.2696   9.2959   9.3421   9.3745   9.4303   9.6932
     9.7511   9.8345   9.8769   9.9338   9.9809  10.0178  10.0630  10.1267
    12.0432  12.0731  12.1096  12.1922  12.2471  12.2754  13.4224  13.4324
    13.4700  13.4822  13.5263  13.5602  13.5844  13.6480  13.6854  13.7104
    13.7299  13.7617  13.9778  14.0251  14.0450  14.0625  14.0707  14.1265
    14.1533  14.2019  14.2895  14.3318  14.3557  14.7514  14.8903  14.9263

          k =-0.0000 0.0000 0.2500 ( 21174 PWs)   bands (ev):

   -46.6033 -46.5973 -46.5718 -46.4818 -46.4170 -46.4071 -46.2410 -46.2083
   -22.9129 -22.8806 -22.8546 -22.8434 -22.8378 -22.8352 -22.8316 -22.8251
   -22.7963 -22.7742 -22.7431 -22.7391 -22.7122 -22.7096 -22.6776 -22.6719
   -22.6651 -22.6443 -22.6394 -22.6082 -22.5509 -22.5044 -22.4952 -22.4508
   -14.9844 -14.7732 -14.7287 -14.6734 -14.6491 -14.5727 -14.5608 -14.4044
    -7.1555  -7.0691  -6.9855  -6.8197  -6.6768  -6.6331  -6.5046  -6.4514
    -6.3128  -6.2049  -6.1659  -6.1247  -6.0853  -6.0428  -6.0290  -5.9871
    -5.9691  -5.9459  -5.9245  -5.8611  -5.8325  -5.7985  -5.6866  -5.6200
    -0.6291  -0.5950  -0.5343  -0.2387  -0.1698  -0.1405  -0.0552  -0.0366
     0.0299   0.0527   0.0955   0.1023   0.1334   0.1531   0.1704   0.2016
     0.2154   0.2693   0.2878   0.3481   0.3625   0.4044   0.4517   0.5345
     5.7050   5.7897   5.8907   5.9848   6.0382   6.0982   6.1675   6.1957
     6.2381   6.2934   6.3042   6.3294   6.3777   6.4699   6.5842   6.9620
     7.0232   7.1048   7.1376   7.2135   7.2550   7.3025   7.3550   7.3970
     7.4168   7.4658   7.4892   7.5235   7.5626   7.6054   7.6145   7.6643
     7.6995   7.7137   7.7628   7.9568   7.9687   8.0789   8.0949   8.2013
     8.2264   8.2535   8.3776   8.4093   8.4299   8.5007   8.5990   8.6705
     8.7801   8.8121   8.8661   8.9158   8.9821   9.0064   9.0615   9.0782
     9.1574   9.1946   9.2286   9.2651   9.3273   9.3507   9.4467   9.4700
     9.6806   9.7619   9.7949   9.8441   9.9192   9.9254   9.9558  10.1228
    12.0660  12.1327  12.3074  12.3751  12.4105  12.4882  13.2874  13.3384
    13.3826  13.3961  13.4786  13.5074  13.5975  13.6413  13.6967  13.7205
    13.7596  13.7686  13.9313  14.0050  14.0474  14.0768  14.1024  14.1468
    14.2511  14.2616  14.3280  14.4245  14.4525  14.7601  14.8812  15.2978

          k = 0.0000-0.0000-0.5000 ( 21178 PWs)   bands (ev):

   -46.6033 -46.5973 -46.5718 -46.4818 -46.4170 -46.4071 -46.2410 -46.2083
   -22.9038 -22.8891 -22.8544 -22.8434 -22.8377 -22.8357 -22.8318 -22.8241
   -22.7963 -22.7742 -22.7431 -22.7369 -22.7122 -22.7097 -22.6776 -22.6709
   -22.6646 -22.6452 -22.6404 -22.6099 -22.5509 -22.5057 -22.4955 -22.4508
   -14.9820 -14.7526 -14.7451 -14.6708 -14.6518 -14.5752 -14.5631 -14.4075
    -7.1141  -6.9867  -6.8829  -6.8685  -6.7762  -6.6931  -6.4877  -6.4268
    -6.3074  -6.1995  -6.1362  -6.1307  -6.1027  -6.0391  -6.0107  -5.9947
    -5.9821  -5.9454  -5.9298  -5.8924  -5.8585  -5.8253  -5.7010  -5.6264
    -0.5263  -0.4809  -0.3520  -0.2964  -0.2638  -0.1441  -0.0671  -0.0620
    -0.0290   0.0628   0.0860   0.0937   0.1179   0.1702   0.1825   0.2054
     0.2227   0.2399   0.2803   0.2932   0.3223   0.3323   0.4285   0.4959
     5.7785   5.8010   5.9729   6.0159   6.0339   6.1370   6.2776   6.3119
     6.4012   6.4188   6.5480   6.6354   6.7419   6.7611   6.7895   6.8348
     6.8741   6.9607   7.0326   7.0592   7.0689   7.1620   7.2696   7.2911
     7.3272   7.3636   7.4528   7.4789   7.5459   7.5596   7.5775   7.6059
     7.6354   7.6421   7.6757   7.8609   7.9017   7.9223   8.2008   8.2979
     8.3339   8.3741   8.4490   8.4997   8.5482   8.5606   8.6077   8.6811
     8.7082   8.7167   8.7730   8.7802   8.8357   8.9014   8.9552   9.0192
     9.0380   9.0711   9.3006   9.3712   9.4114   9.4574   9.5309   9.5373
     9.5863   9.6337   9.6570   9.6682   9.7170   9.7545   9.9339  10.1194
    12.0873  12.1214  12.6297  12.8353  12.8433  12.8551  12.8750  12.9404
    13.1006  13.1277  13.4780  13.4869  13.6410  13.6619  13.7167  13.7563
    13.7734  13.7901  13.9234  13.9357  13.9645  14.0442  14.0561  14.1749
    14.1886  14.1984  14.5877  14.6428  14.7122  14.7261  15.0868  15.2479

          k =-0.0000 0.2500 0.2500 ( 21200 PWs)   bands (ev):

   -46.6033 -46.5973 -46.5718 -46.4818 -46.4170 -46.4071 -46.2410 -46.2083
   -22.9129 -22.8806 -22.8543 -22.8432 -22.8366 -22.8352 -22.8302 -22.8247
   -22.7963 -22.7733 -22.7427 -22.7391 -22.7143 -22.7064 -22.6779 -22.6725
   -22.6657 -22.6459 -22.6412 -22.6088 -22.5509 -22.5046 -22.4959 -22.4509
   -14.9815 -14.7638 -14.7297 -14.6760 -14.6542 -14.5771 -14.5566 -14.4093
    -7.1352  -7.0168  -6.9397  -6.8247  -6.6773  -6.6484  -6.4815  -6.4431
    -6.3281  -6.2197  -6.1824  -6.1206  -6.0967  -6.0476  -6.0293  -6.0000
    -5.9802  -5.9564  -5.9298  -5.8753  -5.8386  -5.8040  -5.7026  -5.6398
    -0.5665  -0.5612  -0.4388  -0.2353  -0.1601  -0.1587  -0.0653  -0.0354
    -0.0250   0.0075   0.0558   0.0917   0.1237   0.1597   0.1868   0.2063
     0.2369   0.2563   0.2952   0.3228   0.3424   0.4004   0.4116   0.4920
     5.7570   5.8819   5.9467   6.0434   6.1100   6.1748   6.2458   6.3080
     6.3537   6.3930   6.4214   6.4413   6.4916   6.5285   6.6180   6.9628
     7.0047   7.0577   7.1161   7.1446   7.2676   7.2944   7.3061   7.3650
     7.3905   7.4301   7.4529   7.5105   7.5415   7.5779   7.6265   7.6465
     7.6734   7.6969   7.7163   7.7988   7.8663   7.9653   8.0352   8.0891
     8.2169   8.2789   8.3360   8.3795   8.4724   8.5094   8.6056   8.6935
     8.7581   8.7942   8.9018   8.9421   8.9718   9.0147   9.0378   9.0807
     9.1337   9.1611   9.2071   9.2685   9.2904   9.3351   9.3475   9.3908
     9.5957   9.6248   9.7307   9.7742   9.8250   9.8715   9.9222  10.0251
    12.2862  12.3281  12.4233  12.4709  12.5045  12.5812  13.2741  13.2967
    13.3560  13.3890  13.4187  13.4587  13.5058  13.5293  13.6177  13.6763
    13.7158  13.7667  13.9096  13.9519  14.0191  14.0912  14.1136  14.1603
    14.2907  14.3535  14.3966  14.6006  14.6712  14.8458  15.2196  15.3111

          k = 0.0000 0.2500-0.5000 ( 21174 PWs)   bands (ev):

   -46.6033 -46.5973 -46.5718 -46.4818 -46.4170 -46.4071 -46.2410 -46.2083
   -22.9037 -22.8891 -22.8542 -22.8432 -22.8365 -22.8357 -22.8304 -22.8237
   -22.7963 -22.7734 -22.7427 -22.7369 -22.7143 -22.7064 -22.6778 -22.6716
   -22.6651 -22.6466 -22.6423 -22.6106 -22.5509 -22.5059 -22.4963 -22.4509
   -14.9795 -14.7454 -14.7397 -14.6753 -14.6593 -14.5789 -14.5591 -14.4125
    -7.0994  -6.9571  -6.8606  -6.8392  -6.7236  -6.6721  -6.4945  -6.4292
    -6.3503  -6.2092  -6.1905  -6.1294  -6.1014  -6.0455  -6.0280  -5.9989
    -5.9872  -5.9530  -5.9286  -5.9045  -5.8630  -5.8292  -5.7129  -5.6389
    -0.4860  -0.4743  -0.3923  -0.2206  -0.1910  -0.1490  -0.0685  -0.0584
    -0.0386   0.0009   0.0244   0.0728   0.0843   0.1299   0.1560   0.2192
     0.2357   0.2588   0.2991   0.3129   0.3377   0.3580   0.4017   0.4587
     5.8418   5.8984   6.0170   6.0988   6.1619   6.2281   6.3590   6.4322
     6.4777   6.5048   6.6053   6.6410   6.7166   6.7502   6.8084   6.8536
     6.9250   6.9732   7.0297   7.0589   7.0806   7.1659   7.2462   7.3033
     7.3143   7.3735   7.4413   7.4743   7.5181   7.5513   7.5748   7.6014
     7.6323   7.6657   7.6987   7.7584   7.8180   7.9010   7.9460   8.0395
     8.1920   8.2293   8.3062   8.3713   8.4522   8.5530   8.5691   8.6830
     8.7327   8.8072   8.8319   8.8875   8.9177   8.9826   9.0175   9.0621
     9.0817   9.1372   9.2611   9.3102   9.3737   9.3859   9.4581   9.4784
     9.5058   9.5681   9.6034   9.6308   9.6972   9.7446   9.8458  10.0141
    12.3186  12.3562  12.7417  12.8380  12.8594  12.8710  12.9229  13.0350
    13.1049  13.1830  13.3771  13.3968  13.4759  13.6125  13.6698  13.6875
    13.7144  13.7844  13.8037  13.9129  13.9479  13.9675  14.0813  14.0941
    14.3145  14.3804  14.6463  14.6999  14.9750  15.1038  15.2925  15.4389

          k = 0.0000-0.5000-0.5000 ( 21216 PWs)   bands (ev):

   -46.6033 -46.5973 -46.5718 -46.4818 -46.4170 -46.4071 -46.2410 -46.2083
   -22.9037 -22.8891 -22.8540 -22.8431 -22.8356 -22.8351 -22.8288 -22.8232
   -22.7963 -22.7725 -22.7424 -22.7369 -22.7165 -22.7027 -22.6782 -22.6723
   -22.6654 -22.6497 -22.6432 -22.6111 -22.5509 -22.5061 -22.4970 -22.4509
   -14.9769 -14.7375 -14.7325 -14.6803 -14.6687 -14.5827 -14.5546 -14.4179
    -7.0845  -6.9247  -6.8353  -6.8070  -6.6736  -6.5993  -6.5270  -6.4567
    -6.4076  -6.2458  -6.1993  -6.1189  -6.1082  -6.0563  -6.0435  -6.0179
    -5.9970  -5.9478  -5.9349  -5.9128  -5.8659  -5.8331  -5.7283  -5.6488
    -0.4696  -0.4207  -0.3717  -0.1984  -0.1841  -0.1547  -0.1321  -0.0735
    -0.0473  -0.0317   0.0576   0.0785   0.0945   0.1207   0.1470   0.2052
     0.2272   0.2505   0.2731   0.3278   0.3617   0.3653   0.3813   0.4248
     5.8679   5.9812   6.0038   6.1367   6.3168   6.4404   6.4657   6.5526
     6.6223   6.6534   6.6970   6.7286   6.7920   6.8229   6.8465   6.8509
     6.9511   6.9931   7.0087   7.0552   7.0821   7.1466   7.1857   7.2177
     7.2716   7.3517   7.4256   7.4529   7.4937   7.5135   7.5316   7.5802
     7.5900   7.6540   7.6629   7.7306   7.7463   7.7844   7.8628   7.9276
     7.9706   8.0724   8.1040   8.2004   8.3602   8.5284   8.5637   8.6127
     8.7413   8.8159   8.8346   8.9368   8.9674   9.0506   9.0767   9.1043
     9.1555   9.2163   9.2878   9.3362   9.3435   9.3794   9.3869   9.4252
     9.5050   9.5121   9.5683   9.6147   9.6610   9.7339   9.7604   9.8383
    12.6919  12.7428  12.8045  12.8595  12.9024  12.9680  13.0239  13.0857
    13.1032  13.1225  13.1745  13.2497  13.2787  13.4343  13.5419  13.6912
    13.7344  13.7410  13.7745  13.8437  13.8901  13.9326  13.9352  13.9813
    14.5269  14.5970  14.6194  14.6631  15.5620  15.6502  15.7469  15.7928

          k = 0.2500 0.2500 0.2500 ( 21239 PWs)   bands (ev):

   -46.6033 -46.5973 -46.5718 -46.4818 -46.4170 -46.4071 -46.2410 -46.2083
   -22.9129 -22.8805 -22.8538 -22.8379 -22.8358 -22.8345 -22.8301 -22.8246
   -22.8022 -22.7734 -22.7396 -22.7389 -22.7143 -22.7052 -22.6815 -22.6725
   -22.6664 -22.6461 -22.6414 -22.6088 -22.5518 -22.5046 -22.4959 -22.4516
   -14.9782 -14.7633 -14.7295 -14.6704 -14.6496 -14.5835 -14.5636 -14.4116
    -7.1186  -6.9759  -6.9031  -6.7855  -6.6611  -6.6316  -6.5050  -6.4748
    -6.3479  -6.2363  -6.1808  -6.1168  -6.0950  -6.0608  -6.0501  -6.0133
    -5.9918  -5.9588  -5.9515  -5.8727  -5.8491  -5.8173  -5.7012  -5.6446
    -0.5451  -0.4952  -0.3894  -0.2417  -0.1873  -0.1287  -0.1166  -0.0527
    -0.0272  -0.0162   0.0265   0.0544   0.0857   0.1273   0.1774   0.2021
     0.2411   0.2600   0.2936   0.3350   0.3452   0.3981   0.4317   0.5273
     5.8718   5.9811   6.0177   6.1299   6.1969   6.2292   6.2844   6.3636
     6.4014   6.4481   6.4763   6.5236   6.5527   6.5835   6.6716   6.8809
     6.9979   7.0629   7.1050   7.1536   7.1987   7.2470   7.3042   7.3333
     7.4057   7.4219   7.4647   7.5055   7.5330   7.5715   7.5986   7.6137
     7.6216   7.6802   7.7294   7.7547   7.8105   7.8593   7.9621   8.0368
     8.1023   8.1470   8.2338   8.3529   8.4471   8.4900   8.5422   8.7041
     8.7424   8.8151   8.9240   8.9634   9.0152   9.0497   9.0578   9.0998
     9.1314   9.1808   9.2032   9.2676   9.2744   9.3324   9.3452   9.3793
     9.5303   9.5632   9.6612   9.7048   9.7450   9.8260   9.8785   9.9607
    12.4376  12.4721  12.5062  12.5783  12.5984  12.6582  13.2580  13.3019
    13.3190  13.3817  13.4020  13.4420  13.4496  13.5158  13.5468  13.5762
    13.6244  13.6399  13.8512  13.8982  13.9193  14.0106  14.0400  14.1031
    14.5690  14.6282  14.6634  14.7119  14.7738  15.1497  15.3062  15.3139

          k = 0.2500 0.2500-0.5000 ( 21192 PWs)   bands (ev):

   -46.6033 -46.5973 -46.5718 -46.4818 -46.4170 -46.4071 -46.2410 -46.2083
   -22.9037 -22.8891 -22.8536 -22.8378 -22.8357 -22.8350 -22.8304 -22.8236
   -22.8022 -22.7734 -22.7392 -22.7370 -22.7143 -22.7053 -22.6815 -22.6718
   -22.6657 -22.6468 -22.6425 -22.6106 -22.5518 -22.5059 -22.4963 -22.4516
   -14.9764 -14.7468 -14.7378 -14.6687 -14.6539 -14.5865 -14.5661 -14.4149
    -7.0856  -6.9212  -6.8307  -6.7968  -6.7071  -6.6332  -6.4997  -6.4541
    -6.3830  -6.2393  -6.1996  -6.1463  -6.0963  -6.0678  -6.0372  -6.0062
    -5.9893  -5.9643  -5.9279  -5.9161  -5.8764  -5.8389  -5.7095  -5.6428
    -0.4805  -0.4348  -0.3699  -0.2505  -0.1740  -0.1660  -0.1433  -0.0692
    -0.0473  -0.0155   0.0121   0.0501   0.0787   0.1021   0.1338   0.1718
     0.2042   0.2350   0.3246   0.3639   0.3868   0.3945   0.4325   0.5271
     5.9765   6.0243   6.1220   6.1722   6.1959   6.3040   6.3813   6.4631
     6.4958   6.5503   6.6133   6.6734   6.7170   6.7717   6.8207   6.8501
     6.8952   6.9626   7.0212   7.0703   7.1025   7.2177   7.2524   7.2996
     7.3470   7.3692   7.4029   7.4728   7.4943   7.5239   7.5493   7.5993
     7.6287   7.6651   7.7081   7.7274   7.7509   7.8739   7.9285   8.0016
     8.0188   8.0600   8.1844   8.2269   8.2974   8.3358   8.4805   8.5696
     8.8051   8.8541   8.9065   8.9829   9.0009   9.0534   9.0926   9.1279
     9.1596   9.2271   9.2413   9.3007   9.3135   9.3629   9.4086   9.4528
     9.4788   9.5432   9.6004   9.6260   9.6902   9.6982   9.7614   9.9436
    12.4904  12.5194  12.7582  12.8961  12.9218  12.9450  12.9667  13.0424
    13.1532  13.1840  13.3423  13.3600  13.4856  13.5379  13.5677  13.6143
    13.6409  13.6664  13.7524  13.7777  13.8165  13.9448  13.9731  13.9965
    14.6402  14.6998  14.9685  15.0223  15.0972  15.1414  15.3861  15.5340

          k = 0.2500-0.5000-0.5000 ( 21208 PWs)   bands (ev):

   -46.6033 -46.5973 -46.5718 -46.4818 -46.4170 -46.4071 -46.2410 -46.2083
   -22.9036 -22.8891 -22.8534 -22.8371 -22.8350 -22.8348 -22.8288 -22.8232
   -22.8022 -22.7726 -22.7388 -22.7371 -22.7165 -22.7016 -22.6816 -22.6728
   -22.6661 -22.6497 -22.6435 -22.6111 -22.5518 -22.5061 -22.4970 -22.4516
   -14.9741 -14.7402 -14.7300 -14.6731 -14.6626 -14.5908 -14.5614 -14.4204
    -7.0714  -6.8905  -6.7954  -6.7739  -6.6410  -6.5922  -6.5264  -6.4634
    -6.4304  -6.2646  -6.2012  -6.1294  -6.1240  -6.0842  -6.0441  -6.0233
    -6.0021  -5.9698  -5.9366  -5.9235  -5.8824  -5.8427  -5.7254  -5.6578
    -0.4571  -0.4150  -0.3421  -0.2166  -0.2062  -0.1591  -0.1551  -0.1150
    -0.1058  -0.0535  -0.0227   0.0481   0.0600   0.0708   0.0854   0.1675
     0.2480   0.3099   0.3313   0.3650   0.3960   0.4397   0.4688   0.5148
     6.0126   6.1115   6.1554   6.2634   6.3235   6.4001   6.4577   6.5081
     6.5798   6.6373   6.6739   6.7356   6.7690   6.8397   6.8725   6.9320
     6.9874   7.0136   7.0469   7.0743   7.1286   7.1510   7.1926   7.2807
     7.3106   7.3238   7.3817   7.4345   7.4841   7.5024   7.5265   7.5674
     7.6022   7.6528   7.6651   7.6935   7.7441   7.7795   7.8487   7.8751
     7.9202   7.9514   7.9794   8.0312   8.1056   8.2492   8.3294   8.3814
     8.8671   8.9028   8.9547   9.0434   9.0624   9.1106   9.1461   9.1817
     9.2143   9.2294   9.2786   9.3326   9.3506   9.3761   9.4039   9.4327
     9.4862   9.5131   9.5657   9.5963   9.6323   9.6978   9.7257   9.8098
    12.8059  12.8692  12.8994  12.9473  12.9624  13.0084  13.0439  13.1163
    13.1349  13.1664  13.2036  13.2603  13.2770  13.4093  13.5300  13.5582
    13.5950  13.6055  13.6884  13.7215  13.7843  13.7963  13.8094  13.8439
    14.9365  15.0092  15.0387  15.0850  15.5952  15.6699  15.7514  15.8075

          k =-0.5000-0.5000-0.5000 ( 21008 PWs)   bands (ev):

   -46.6033 -46.5973 -46.5718 -46.4818 -46.4170 -46.4071 -46.2410 -46.2083
   -22.9036 -22.8891 -22.8529 -22.8348 -22.8344 -22.8288 -22.8271 -22.8231
   -22.8120 -22.7726 -22.7372 -22.7348 -22.7165 -22.6992 -22.6870 -22.6730
   -22.6665 -22.6497 -22.6437 -22.6111 -22.5526 -22.5061 -22.4970 -22.4523
   -14.9712 -14.7431 -14.7275 -14.6638 -14.6556 -14.6007 -14.5691 -14.4230
    -7.0583  -6.8517  -6.7553  -6.7176  -6.6243  -6.5585  -6.5381  -6.4854
    -6.4572  -6.2912  -6.2019  -6.1520  -6.1278  -6.1096  -6.0502  -6.0346
    -6.0073  -5.9849  -5.9398  -5.9369  -5.8918  -5.8532  -5.7209  -5.6686
    -0.4533  -0.3866  -0.3214  -0.2568  -0.2121  -0.1774  -0.1532  -0.1504
    -0.1118  -0.1056  -0.0358  -0.0164  -0.0025   0.0250   0.0484   0.0841
     0.3448   0.3804   0.4141   0.4192   0.4449   0.4667   0.4861   0.5527
     6.1375   6.2361   6.2785   6.2992   6.3078   6.3991   6.4447   6.4892
     6.5688   6.7134   6.8054   6.8306   6.8536   6.9069   6.9518   6.9781
     7.0068   7.0563   7.0756   7.0883   7.0972   7.1365   7.2297   7.2523
     7.2840   7.3520   7.3883   7.4446   7.4710   7.5042   7.5269   7.5558
     7.6188   7.6343   7.6676   7.6770   7.7228   7.7383   7.7532   7.7840
     7.7851   7.8117   7.8758   7.9087   7.9153   7.9644   7.9782   8.0881
     8.9547   8.9754   9.0553   9.0988   9.1436   9.1863   9.2036   9.2367
     9.2719   9.3190   9.3199   9.3436   9.3710   9.3908   9.4302   9.4802
     9.4909   9.5054   9.5291   9.5645   9.6242   9.6611   9.7074   9.7245
    12.9957  13.0156  13.0410  13.0616  13.0934  13.1256  13.1544  13.1724
    13.1990  13.2235  13.2545  13.2643  13.2911  13.3301  13.3713  13.4024
    13.4159  13.4904  13.5003  13.5182  13.6050  13.6347  13.6553  13.7905
    15.3899  15.5423  15.6152  15.7114  15.7453  15.7717  15.8725  15.8989

          k = 0.2500-0.0000-0.0000 ( 21174 PWs)   bands (ev):

   -46.6033 -46.5973 -46.5717 -46.4818 -46.4170 -46.4071 -46.2410 -46.2083
   -22.9187 -22.8755 -22.8543 -22.8391 -22.8361 -22.8342 -22.8312 -22.8260
   -22.8023 -22.7742 -22.7415 -22.7395 -22.7123 -22.7083 -22.6815 -22.6728
   -22.6661 -22.6436 -22.6386 -22.6065 -22.5518 -22.5032 -22.4948 -22.4516
   -14.9828 -14.7832 -14.7237 -14.6692 -14.6441 -14.5750 -14.5653 -14.4036
    -7.1656  -7.0705  -6.9860  -6.8009  -6.6766  -6.5812  -6.5252  -6.4760
    -6.3071  -6.2188  -6.2044  -6.0991  -6.0811  -6.0630  -6.0159  -5.9814
    -5.9708  -5.9518  -5.9315  -5.8561  -5.8370  -5.7866  -5.6792  -5.6208
    -0.5994  -0.5847  -0.5634  -0.2496  -0.2022  -0.1710  -0.0271   0.0071
     0.0200   0.0516   0.0796   0.1044   0.1190   0.1469   0.1614   0.2082
     0.2390   0.2712   0.3094   0.3521   0.3580   0.4012   0.4392   0.5430
     5.6937   5.8003   5.8398   5.9847   6.0337   6.1072   6.1955   6.2127
     6.2414   6.2687   6.3046   6.3763   6.4214   6.4514   6.5488   6.9609
     7.0504   7.1034   7.1357   7.2177   7.2401   7.3299   7.3688   7.3925
     7.4326   7.4554   7.4992   7.5204   7.5420   7.5820   7.6164   7.6382
     7.6814   7.7482   7.7771   7.9297   7.9530   8.0144   8.0603   8.1531
     8.2040   8.3027   8.4064   8.4350   8.4857   8.5137   8.6401   8.6968
     8.7424   8.7848   8.8507   8.9265   8.9776   9.0141   9.0676   9.1200
     9.1473   9.1837   9.2307   9.2979   9.3205   9.3737   9.4154   9.4840
     9.6527   9.7581   9.7848   9.8105   9.9029   9.9728  10.0197  10.0571
    12.0818  12.1347  12.3138  12.3443  12.4295  12.4708  13.2984  13.3342
    13.3674  13.4056  13.4964  13.5185  13.5700  13.6244  13.6436  13.6796
    13.6949  13.7523  13.9190  13.9949  14.0440  14.0805  14.1193  14.1550
    14.2087  14.2986  14.3751  14.4438  14.5112  14.7827  14.8970  15.2881

          k =-0.0000 0.2500 0.0000 ( 21174 PWs)   bands (ev):

   -46.6033 -46.5973 -46.5717 -46.4818 -46.4170 -46.4071 -46.2410 -46.2083
   -22.9186 -22.8755 -22.8545 -22.8432 -22.8367 -22.8347 -22.8299 -22.8256
   -22.7964 -22.7733 -22.7427 -22.7412 -22.7143 -22.7063 -22.6779 -22.6734
   -22.6661 -22.6453 -22.6401 -22.6070 -22.5509 -22.5036 -22.4954 -22.4508
   -14.9836 -14.7736 -14.7284 -14.6753 -14.6506 -14.5747 -14.5546 -14.4061
    -7.1669  -7.0667  -6.9857  -6.8222  -6.6634  -6.6161  -6.4983  -6.4384
    -6.3253  -6.2017  -6.1859  -6.1235  -6.0865  -6.0480  -6.0264  -5.9943
    -5.9767  -5.9368  -5.9256  -5.8537  -5.8184  -5.8043  -5.6852  -5.6391
    -0.6268  -0.5814  -0.5473  -0.2484  -0.1625  -0.1455  -0.0363  -0.0238
     0.0144   0.0381   0.0583   0.1105   0.1336   0.1564   0.1735   0.1989
     0.2321   0.2733   0.3046   0.3524   0.3767   0.4117   0.4316   0.5187
     5.6513   5.8381   5.8510   5.9687   6.0693   6.1152   6.1664   6.2077
     6.2319   6.2802   6.3341   6.3962   6.4099   6.4641   6.5347   6.9796
     7.0611   7.1015   7.1612   7.1925   7.2595   7.3004   7.3371   7.3633
     7.4224   7.4619   7.4862   7.4961   7.5521   7.5700   7.6461   7.6643
     7.7156   7.7656   7.8107   7.9670   7.9882   8.0582   8.1247   8.1458
     8.2345   8.2733   8.2958   8.3643   8.4075   8.4610   8.6216   8.6763
     8.7960   8.8284   8.8598   8.9504   8.9947   9.0348   9.0596   9.0919
     9.1176   9.1646   9.2455   9.2878   9.3189   9.3489   9.4029   9.5094
     9.6288   9.6973   9.8234   9.8518   9.9019   9.9338  10.0091  10.0209
    12.1600  12.2548  12.2975  12.3242  12.4032  12.4249  13.3193  13.3674
    13.3898  13.4203  13.4650  13.4911  13.5691  13.6098  13.6386  13.6704
    13.7132  13.7512  13.9790  14.0088  14.0280  14.0876  14.1620  14.1778
    14.2187  14.2921  14.3304  14.4025  14.4678  14.8239  14.9051  15.2508

          k =-0.5000 0.0000 0.0000 ( 21178 PWs)   bands (ev):

   -46.6033 -46.5973 -46.5717 -46.4818 -46.4170 -46.4071 -46.2410 -46.2083
   -22.9186 -22.8754 -22.8538 -22.8381 -22.8339 -22.8312 -22.8270 -22.8258
   -22.8120 -22.7742 -22.7416 -22.7360 -22.7123 -22.7060 -22.6868 -22.6728
   -22.6666 -22.6438 -22.6386 -22.6066 -22.5526 -22.5032 -22.4948 -22.4523
   -14.9787 -14.7835 -14.7227 -14.6642 -14.6400 -14.5802 -14.5733 -14.4057
    -7.1368  -6.9995  -6.9131  -6.8005  -6.7268  -6.6643  -6.4992  -6.4816
    -6.2930  -6.2273  -6.1827  -6.1105  -6.0699  -6.0561  -6.0275  -6.0015
    -5.9823  -5.9575  -5.9499  -5.8862  -5.8214  -5.8108  -5.6913  -5.6286
    -0.4406  -0.4306  -0.4043  -0.3522  -0.3404  -0.2112  -0.0492  -0.0134
    -0.0007   0.0238   0.0777   0.1206   0.1272   0.1503   0.1981   0.2053
     0.2243   0.2650   0.2687   0.3145   0.3250   0.3375   0.4098   0.5080
     5.7615   5.8027   5.8843   6.0288   6.0514   6.1222   6.2572   6.3522
     6.4621   6.5061   6.5215   6.6579   6.7020   6.7695   6.8040   6.8987
     6.9158   6.9703   6.9863   7.0443   7.0979   7.1193   7.1753   7.2679
     7.3354   7.4146   7.4495   7.4627   7.5205   7.5620   7.5857   7.6319
     7.6473   7.6741   7.7319   7.7626   7.8357   7.9591   8.1014   8.2080
     8.3139   8.4363   8.4521   8.5141   8.5576   8.5801   8.6497   8.6622
     8.6969   8.7499   8.7801   8.8037   8.8491   8.9223   8.9705   9.0180
     9.0912   9.1259   9.3357   9.3735   9.3945   9.4585   9.4893   9.5208
     9.5572   9.5762   9.6242   9.6370   9.7415   9.8229   9.9774  10.0517
    12.0988  12.1283  12.7237  12.7604  12.8297  12.8495  12.9117  12.9626
    13.0343  13.0775  13.5084  13.5488  13.5684  13.6129  13.6409  13.6778
    13.7105  13.7855  13.8793  13.9444  13.9577  14.0182  14.0824  14.1202
    14.1996  14.2796  14.6144  14.6777  14.7284  14.8324  15.1319  15.2638

          k = 0.0000-0.5000-0.0000 ( 21178 PWs)   bands (ev):

   -46.6033 -46.5973 -46.5717 -46.4818 -46.4170 -46.4071 -46.2410 -46.2083
   -22.9186 -22.8755 -22.8543 -22.8431 -22.8355 -22.8347 -22.8284 -22.8250
   -22.7964 -22.7724 -22.7423 -22.7413 -22.7165 -22.7026 -22.6782 -22.6739
   -22.6666 -22.6487 -22.6408 -22.6075 -22.5509 -22.5040 -22.4960 -22.4509
   -14.9805 -14.7560 -14.7418 -14.6750 -14.6541 -14.5795 -14.5506 -14.4110
    -7.1387  -6.9874  -6.9007  -6.8666  -6.7113  -6.6775  -6.4916  -6.3933
    -6.3304  -6.2003  -6.1636  -6.1420  -6.0699  -6.0420  -6.0202  -6.0058
    -5.9889  -5.9663  -5.9460  -5.8571  -5.8401  -5.8159  -5.7055  -5.6626
    -0.5161  -0.4435  -0.3828  -0.3208  -0.2665  -0.1678  -0.0609  -0.0477
    -0.0051   0.0213   0.0643   0.0917   0.1492   0.1610   0.1968   0.2134
     0.2426   0.2446   0.2728   0.3116   0.3229   0.3784   0.3917   0.4600
     5.6748   5.8846   5.8907   5.9934   6.0834   6.1681   6.2020   6.3590
     6.4550   6.5719   6.6130   6.6931   6.7184   6.7563   6.7942   6.8564
     6.8734   6.9684   6.9907   7.0828   7.1320   7.1711   7.1990   7.2507
     7.2748   7.3111   7.4010   7.4449   7.5202   7.5608   7.5995   7.6101
     7.6682   7.7073   7.7926   7.8402   7.8707   7.9837   8.2034   8.2819
     8.3162   8.3718   8.3958   8.4509   8.4960   8.5245   8.6083   8.6377
     8.6853   8.7364   8.7930   8.8008   8.8601   8.9049   8.9446   8.9952
     9.0373   9.1228   9.2805   9.3672   9.4213   9.4402   9.5124   9.5285
     9.5482   9.5812   9.6701   9.6817   9.7229   9.7895   9.9077  10.0125
    12.1834  12.2503  12.7227  12.7539  12.7668  12.8268  12.9661  13.0120
    13.0586  13.0811  13.4568  13.4897  13.5704  13.6301  13.6642  13.6849
    13.7207  13.7882  13.9318  13.9794  13.9981  14.0380  14.0647  14.0934
    14.1857  14.2812  14.6121  14.6686  14.7343  14.7986  15.1790  15.2446

          k =-0.0000-0.2500 0.2500 ( 21200 PWs)   bands (ev):

   -46.6033 -46.5973 -46.5718 -46.4818 -46.4170 -46.4071 -46.2410 -46.2083
   -22.9129 -22.8806 -22.8543 -22.8432 -22.8366 -22.8352 -22.8302 -22.8247
   -22.7963 -22.7733 -22.7427 -22.7391 -22.7143 -22.7064 -22.6779 -22.6725
   -22.6657 -22.6459 -22.6412 -22.6088 -22.5509 -22.5047 -22.4959 -22.4509
   -14.9816 -14.7643 -14.7286 -14.6767 -14.6542 -14.5768 -14.5569 -14.4092
    -7.1345  -7.0262  -6.9391  -6.8184  -6.6457  -6.6334  -6.5262  -6.4629
    -6.3396  -6.1960  -6.1729  -6.1344  -6.0858  -6.0450  -6.0231  -5.9979
    -5.9798  -5.9576  -5.9264  -5.8640  -5.8418  -5.8309  -5.6983  -5.6378
    -0.5819  -0.5616  -0.4145  -0.2410  -0.1622  -0.1405  -0.0730  -0.0539
    -0.0153   0.0160   0.0524   0.0889   0.1353   0.1654   0.1840   0.1971
     0.2139   0.2674   0.2925   0.3163   0.3604   0.3903   0.4162   0.4889
     5.7609   5.8801   5.9635   6.0514   6.1100   6.1750   6.2475   6.2786
     6.3491   6.3764   6.4275   6.4491   6.4989   6.5222   6.6102   6.9608
     7.0440   7.0732   7.1431   7.1735   7.2316   7.2757   7.3005   7.3668
     7.3937   7.4259   7.4609   7.5029   7.5396   7.5798   7.6037   7.6271
     7.6787   7.7108   7.7281   7.7777   7.8146   8.0212   8.0523   8.1036
     8.1725   8.2685   8.3387   8.3687   8.4286   8.5754   8.6113   8.6902
     8.7835   8.8118   8.8612   8.9032   8.9671   9.0267   9.0745   9.1027
     9.1166   9.1900   9.2159   9.2275   9.2636   9.3177   9.3627   9.4152
     9.5584   9.6235   9.7597   9.7925   9.8169   9.8506   9.9410  10.0164
    12.2867  12.3363  12.4355  12.4683  12.5037  12.5745  13.2673  13.3146
    13.3725  13.3901  13.4028  13.4460  13.5141  13.5290  13.6091  13.6732
    13.7177  13.7694  13.9003  13.9520  14.0185  14.0936  14.1098  14.1592
    14.2844  14.3633  14.3946  14.6025  14.6736  14.8422  15.2228  15.3089

          k = 0.2500-0.0000-0.2500 ( 21200 PWs)   bands (ev):

   -46.6033 -46.5973 -46.5718 -46.4818 -46.4170 -46.4071 -46.2410 -46.2083
   -22.9129 -22.8806 -22.8541 -22.8391 -22.8361 -22.8346 -22.8316 -22.8250
   -22.8022 -22.7742 -22.7399 -22.7390 -22.7122 -22.7083 -22.6814 -22.6718
   -22.6657 -22.6445 -22.6395 -22.6082 -22.5518 -22.5044 -22.4952 -22.4516
   -14.9808 -14.7728 -14.7285 -14.6677 -14.6454 -14.5786 -14.5678 -14.4066
    -7.1328  -7.0227  -6.9382  -6.8014  -6.6922  -6.6030  -6.5366  -6.4707
    -6.3220  -6.2228  -6.1873  -6.1243  -6.0811  -6.0507  -6.0219  -6.0038
    -5.9771  -5.9485  -5.9132  -5.8905  -5.8604  -5.8011  -5.6889  -5.6230
    -0.5960  -0.5228  -0.4286  -0.2371  -0.2070  -0.1608  -0.0917  -0.0333
     0.0067   0.0399   0.0590   0.0995   0.1070   0.1570   0.1708   0.2013
     0.2347   0.2782   0.2955   0.3127   0.3348   0.3728   0.4209   0.5288
     5.7888   5.8767   5.9162   6.0332   6.0869   6.1944   6.2624   6.3131
     6.3612   6.3763   6.4247   6.4431   6.4809   6.5153   6.6164   6.9488
     6.9756   7.1135   7.1268   7.1896   7.2144   7.2975   7.3265   7.3573
     7.4050   7.4179   7.4356   7.5071   7.5399   7.5812   7.5946   7.6394
     7.6491   7.6725   7.7350   7.7722   7.8451   7.9892   8.0218   8.0729
     8.1233   8.3032   8.3744   8.4283   8.4889   8.5727   8.5855   8.7082
     8.7786   8.8077   8.8694   8.9201   8.9892   9.0223   9.0542   9.1001
     9.1443   9.1653   9.2025   9.2437   9.2887   9.3255   9.3651   9.4053
     9.5761   9.6730   9.7425   9.7884   9.8223   9.8907   9.9390  10.0228
    12.2457  12.3250  12.3519  12.4133  12.5357  12.6391  13.2773  13.3119
    13.3215  13.3867  13.3981  13.4325  13.4613  13.6270  13.6514  13.6735
    13.7085  13.7487  13.8212  14.0011  14.0275  14.0533  14.1371  14.2101
    14.2455  14.2965  14.4049  14.6533  14.7003  14.8007  15.2171  15.3497

          k =-0.2500-0.0000-0.2500 ( 21200 PWs)   bands (ev):

   -46.6033 -46.5973 -46.5718 -46.4818 -46.4170 -46.4071 -46.2410 -46.2083
   -22.9129 -22.8806 -22.8541 -22.8391 -22.8361 -22.8346 -22.8316 -22.8250
   -22.8022 -22.7742 -22.7400 -22.7390 -22.7122 -22.7083 -22.6814 -22.6718
   -22.6657 -22.6445 -22.6395 -22.6082 -22.5518 -22.5044 -22.4952 -22.4516
   -14.9808 -14.7730 -14.7284 -14.6676 -14.6453 -14.5786 -14.5679 -14.4066
    -7.1341  -7.0245  -6.9418  -6.7905  -6.6831  -6.6150  -6.5392  -6.4698
    -6.3156  -6.2305  -6.1960  -6.0995  -6.0765  -6.0585  -6.0302  -6.0088
    -5.9740  -5.9516  -5.9440  -5.8675  -5.8392  -5.8094  -5.6921  -5.6232
    -0.5846  -0.5238  -0.4474  -0.2430  -0.2046  -0.1572  -0.0727  -0.0235
     0.0040   0.0356   0.0455   0.0974   0.1255   0.1399   0.1766   0.2209
     0.2280   0.2566   0.2936   0.3124   0.3299   0.3745   0.4269   0.5317
     5.8075   5.8754   5.9140   6.0587   6.0924   6.1839   6.2379   6.2975
     6.3494   6.3685   6.3997   6.4252   6.4833   6.5184   6.6496   6.9252
     7.0030   7.1157   7.1476   7.1798   7.2431   7.2706   7.3329   7.3660
     7.4163   7.4328   7.4593   7.4893   7.5292   7.5528   7.5847   7.6413
     7.6692   7.7120   7.7401   7.7731   7.8321   7.9854   8.0116   8.0413
     8.0680   8.3125   8.3687   8.4498   8.5051   8.6063   8.6345   8.7392
     8.7807   8.8015   8.8207   8.9072   8.9678   9.0107   9.0826   9.1006
     9.1195   9.1660   9.1956   9.2668   9.2780   9.3337   9.3591   9.4232
     9.5788   9.6835   9.6981   9.7757   9.8392   9.8777   9.9365  10.0233
    12.2555  12.3056  12.3668  12.4129  12.5548  12.6401  13.2672  13.3166
    13.3235  13.3752  13.3907  13.4382  13.4506  13.6193  13.6450  13.6773
    13.7093  13.7544  13.8353  13.9903  14.0255  14.0528  14.1421  14.2126
    14.2494  14.2808  14.4220  14.6654  14.6931  14.7956  15.2351  15.3309

          k = 0.2500-0.2500-0.0000 ( 21200 PWs)   bands (ev):

   -46.6033 -46.5973 -46.5717 -46.4818 -46.4170 -46.4071 -46.2410 -46.2083
   -22.9186 -22.8755 -22.8540 -22.8381 -22.8358 -22.8341 -22.8299 -22.8255
   -22.8023 -22.7733 -22.7415 -22.7391 -22.7144 -22.7051 -22.6816 -22.6734
   -22.6670 -22.6454 -22.6403 -22.6070 -22.5518 -22.5036 -22.4954 -22.4516
   -14.9801 -14.7732 -14.7274 -14.6712 -14.6467 -14.5801 -14.5613 -14.4083
    -7.1449  -7.0262  -6.9356  -6.8027  -6.6758  -6.5860  -6.5263  -6.4564
    -6.3310  -6.2307  -6.1967  -6.1221  -6.0839  -6.0623  -6.0286  -6.0087
    -5.9766  -5.9496  -5.9370  -5.8589  -5.8373  -5.8085  -5.6904  -5.6417
    -0.5965  -0.5021  -0.4461  -0.2356  -0.2064  -0.1818  -0.0611  -0.0213
     0.0053   0.0301   0.0681   0.0979   0.1120   0.1385   0.1699   0.2084
     0.2248   0.2799   0.2932   0.3105   0.3317   0.3796   0.4370   0.5036
     5.7396   5.8588   5.9354   6.0553   6.1166   6.2280   6.2858   6.2962
     6.3436   6.3850   6.4010   6.4439   6.5221   6.5443   6.5891   6.9040
     7.0465   7.1008   7.1919   7.2064   7.2586   7.2865   7.2936   7.3510
     7.3822   7.4413   7.4640   7.5033   7.5144   7.5672   7.5893   7.6061
     7.6420   7.6693   7.7301   7.7808   7.8184   8.0073   8.0585   8.1109
     8.1288   8.2617   8.3033   8.4315   8.5181   8.5438   8.5833   8.6557
     8.7599   8.8232   8.9086   8.9413   8.9565   9.0124   9.0681   9.0967
     9.1553   9.1918   9.2041   9.2505   9.2704   9.3036   9.3586   9.3943
     9.5837   9.6245   9.7111   9.7730   9.8729   9.9169   9.9379   9.9510
    12.2951  12.3502  12.4100  12.4588  12.4924  12.5896  13.2662  13.3310
    13.3728  13.3881  13.4148  13.4408  13.5050  13.5500  13.5846  13.6150
    13.6475  13.6931  13.8931  13.9627  14.0169  14.0585  14.1044  14.1949
    14.3001  14.3430  14.4877  14.6429  14.7085  14.8677  15.1992  15.3183

          k =-0.2500-0.2500-0.0000 ( 21200 PWs)   bands (ev):

   -46.6033 -46.5973 -46.5717 -46.4818 -46.4170 -46.4071 -46.2410 -46.2083
   -22.9186 -22.8755 -22.8540 -22.8379 -22.8359 -22.8341 -22.8299 -22.8255
   -22.8023 -22.7733 -22.7415 -22.7391 -22.7144 -22.7052 -22.6816 -22.6734
   -22.6669 -22.6454 -22.6402 -22.6070 -22.5518 -22.5036 -22.4954 -22.4516
   -14.9801 -14.7729 -14.7279 -14.6711 -14.6466 -14.5801 -14.5613 -14.4083
    -7.1478  -7.0221  -6.9396  -6.7964  -6.6673  -6.5967  -6.5239  -6.4727
    -6.3287  -6.2188  -6.1876  -6.1260  -6.0874  -6.0530  -6.0344  -6.0019
    -5.9820  -5.9558  -5.9440  -5.8568  -5.8380  -5.8033  -5.6902  -5.6432
    -0.5946  -0.5039  -0.4501  -0.2638  -0.1903  -0.1657  -0.0729  -0.0234
     0.0009   0.0346   0.0529   0.0917   0.1229   0.1472   0.1856   0.1981
     0.2357   0.2598   0.2922   0.3243   0.3641   0.3794   0.3990   0.5197
     5.7380   5.8587   5.9405   6.0729   6.1153   6.2122   6.2647   6.3167
     6.3371   6.3740   6.3921   6.4543   6.5197   6.5369   6.5660   6.8835
     7.0519   7.1366   7.1527   7.2064   7.2325   7.3036   7.3264   7.3529
     7.3812   7.4254   7.4374   7.5047   7.5319   7.5431   7.5782   7.6351
     7.6759   7.6958   7.7523   7.7871   7.8172   7.9870   8.0538   8.0900
     8.1523   8.2864   8.3447   8.4323   8.4882   8.5349   8.5608   8.6948
     8.7195   8.7959   8.8818   8.9838   9.0009   9.0274   9.0541   9.0920
     9.1402   9.1743   9.2189   9.2454   9.2985   9.3207   9.3367   9.4159
     9.5611   9.6330   9.7161   9.7680   9.8394   9.8948   9.9321   9.9748
    12.2936  12.3456  12.4133  12.4635  12.4886  12.5852  13.2673  13.3336
    13.3549  13.3902  13.4105  13.4609  13.5111  13.5619  13.5982  13.6214
    13.6306  13.6903  13.8809  13.9580  14.0102  14.0736  14.0957  14.1946
    14.3029  14.3438  14.4818  14.6380  14.7094  14.8683  15.1953  15.3287

          k = 0.2500 0.0000 0.5000 ( 21174 PWs)   bands (ev):

   -46.6033 -46.5973 -46.5718 -46.4818 -46.4170 -46.4071 -46.2410 -46.2083
   -22.9037 -22.8891 -22.8539 -22.8390 -22.8360 -22.8351 -22.8318 -22.8240
   -22.8022 -22.7743 -22.7398 -22.7370 -22.7122 -22.7084 -22.6814 -22.6710
   -22.6651 -22.6455 -22.6404 -22.6099 -22.5518 -22.5057 -22.4955 -22.4516
   -14.9788 -14.7528 -14.7440 -14.6647 -14.6469 -14.5823 -14.5704 -14.4097
    -7.0986  -6.9535  -6.8560  -6.8168  -6.7553  -6.6559  -6.5043  -6.4568
    -6.3395  -6.2294  -6.1869  -6.1401  -6.0771  -6.0465  -6.0380  -6.0025
    -5.9853  -5.9485  -5.9239  -5.9114  -5.8727  -5.8188  -5.6993  -5.6254
    -0.5057  -0.4282  -0.4025  -0.2520  -0.1666  -0.1489  -0.1087  -0.0846
    -0.0334   0.0276   0.0415   0.0761   0.0902   0.1407   0.1612   0.2064
     0.2334   0.2503   0.2799   0.2909   0.3215   0.3582   0.4108   0.5136
     5.8565   5.9176   5.9870   6.0563   6.1829   6.2450   6.3831   6.4152
     6.4400   6.4677   6.6213   6.6956   6.7173   6.7587   6.8256   6.8537
     6.9172   6.9495   6.9982   7.0271   7.0995   7.1816   7.2478   7.2961
     7.3394   7.3788   7.4177   7.4496   7.4940   7.5203   7.5576   7.6108
     7.6299   7.6758   7.7181   7.7615   7.8488   7.8985   7.9529   8.0121
     8.1416   8.2336   8.2771   8.3424   8.4632   8.5899   8.6311   8.6939
     8.7563   8.8047   8.8409   8.8932   8.9386   8.9682   9.0274   9.0528
     9.1068   9.1462   9.2449   9.2798   9.3724   9.4173   9.4515   9.5028
     9.5460   9.5822   9.6301   9.6442   9.6942   9.7307   9.8295  10.0156
    12.3088  12.3316  12.6374  12.8511  12.8735  12.9212  12.9449  12.9938
    13.1251  13.1636  13.3354  13.3611  13.5203  13.6254  13.6554  13.6883
    13.7470  13.7779  13.7897  13.8210  13.9313  14.0714  14.0853  14.1264
    14.2972  14.3528  14.5928  14.7249  15.0219  15.0901  15.2859  15.4383

          k =-0.5000-0.2500-0.0000 ( 21174 PWs)   bands (ev):

   -46.6033 -46.5973 -46.5717 -46.4818 -46.4170 -46.4071 -46.2410 -46.2083
   -22.9186 -22.8754 -22.8535 -22.8366 -22.8337 -22.8298 -22.8270 -22.8254
   -22.8120 -22.7734 -22.7416 -22.7353 -22.7144 -22.7029 -22.6869 -22.6734
   -22.6675 -22.6455 -22.6404 -22.6070 -22.5526 -22.5036 -22.4954 -22.4523
   -14.9764 -14.7732 -14.7262 -14.6666 -14.6420 -14.5856 -14.5693 -14.4106
    -7.1251  -6.9672  -6.8762  -6.7749  -6.6873  -6.6218  -6.5342  -6.4785
    -6.3212  -6.2329  -6.1943  -6.1588  -6.0910  -6.0659  -6.0374  -6.0157
    -5.9890  -5.9600  -5.9446  -5.8830  -5.8267  -5.8187  -5.6956  -5.6459
    -0.4696  -0.4356  -0.3645  -0.2869  -0.2749  -0.1790  -0.0794  -0.0445
    -0.0257   0.0294   0.0699   0.0893   0.1219   0.1399   0.1501   0.1919
     0.2112   0.2416   0.2804   0.2909   0.3406   0.3524   0.4221   0.4997
     5.8103   5.8531   5.9980   6.1286   6.1783   6.2358   6.3572   6.4539
     6.4902   6.5485   6.6273   6.6528   6.7053   6.7728   6.8449   6.8871
     6.9443   6.9623   7.0231   7.0683   7.0810   7.1266   7.1764   7.2906
     7.3482   7.3686   7.4240   7.4715   7.5021   7.5256   7.5569   7.5803
     7.6387   7.6561   7.7378   7.7765   7.8179   7.8604   7.9322   8.0692
     8.1626   8.2662   8.2868   8.3656   8.4779   8.4977   8.5601   8.6473
     8.7232   8.8025   8.8320   8.9408   8.9678   8.9976   9.0375   9.0844
     9.1002   9.1887   9.2546   9.2959   9.3516   9.3997   9.4348   9.4638
     9.5029   9.5350   9.5904   9.6352   9.7195   9.7721   9.8814   9.9454
    12.3284  12.3505  12.7645  12.8164  12.8490  12.9242  12.9764  13.0337
    13.0673  13.0928  13.3814  13.4409  13.5174  13.5684  13.5762  13.6267
    13.6370  13.7044  13.8193  13.8409  13.9110  13.9694  14.0766  14.1636
    14.3409  14.3661  14.7264  14.7576  15.0322  15.1631  15.2842  15.4392

          k = 0.0000-0.5000 0.2500 ( 21174 PWs)   bands (ev):

   -46.6033 -46.5973 -46.5718 -46.4818 -46.4170 -46.4071 -46.2410 -46.2083
   -22.9129 -22.8805 -22.8541 -22.8431 -22.8353 -22.8351 -22.8287 -22.8242
   -22.7963 -22.7725 -22.7423 -22.7391 -22.7165 -22.7026 -22.6782 -22.6730
   -22.6661 -22.6491 -22.6420 -22.6093 -22.5509 -22.5050 -22.4965 -22.4509
   -14.9787 -14.7482 -14.7368 -14.6772 -14.6606 -14.5813 -14.5526 -14.4144
    -7.1129  -6.9531  -6.8736  -6.8451  -6.6914  -6.6344  -6.5075  -6.4348
    -6.3574  -6.2137  -6.1845  -6.1317  -6.0910  -6.0458  -6.0320  -6.0123
    -5.9925  -5.9645  -5.9428  -5.8801  -5.8489  -5.8272  -5.7172  -5.6548
    -0.4779  -0.4517  -0.4109  -0.2584  -0.1906  -0.1447  -0.0832  -0.0521
    -0.0252   0.0111   0.0332   0.0729   0.1000   0.1209   0.1626   0.1984
     0.2327   0.2639   0.3005   0.3159   0.3530   0.3715   0.3873   0.4419
     5.7851   5.9571   5.9687   6.0948   6.1110   6.2740   6.3007   6.4612
     6.5560   6.5945   6.6602   6.6977   6.7248   6.7841   6.8007   6.8601
     6.9005   6.9417   6.9874   7.0558   7.1118   7.1518   7.2129   7.2738
     7.3002   7.3564   7.4092   7.4369   7.4834   7.5453   7.5885   7.6247
     7.6479   7.6980   7.7364   7.7726   7.8493   7.8850   7.9558   8.0658
     8.1906   8.2331   8.3030   8.3204   8.4377   8.5394   8.5867   8.6602
     8.7363   8.7788   8.7977   8.8537   8.9112   8.9864   9.0207   9.0608
     9.0810   9.1608   9.2624   9.3229   9.3572   9.3959   9.4478   9.4809
     9.5022   9.5231   9.6339   9.6569   9.6922   9.7696   9.8390   9.9422
    12.3675  12.4603  12.7269  12.8177  12.8390  12.8632  12.9701  13.0686
    13.0798  13.1609  13.3216  13.4073  13.4972  13.5237  13.6206  13.7018
    13.7328  13.7769  13.8265  13.9149  13.9518  13.9810  14.0082  14.0778
    14.3576  14.3920  14.6180  14.7144  15.0570  15.0935  15.3750  15.4368

          k = 0.2500-0.5000-0.0000 ( 21174 PWs)   bands (ev):

   -46.6033 -46.5973 -46.5717 -46.4818 -46.4170 -46.4071 -46.2410 -46.2083
   -22.9186 -22.8754 -22.8538 -22.8373 -22.8352 -22.8340 -22.8284 -22.8250
   -22.8023 -22.7725 -22.7414 -22.7387 -22.7166 -22.7015 -22.6816 -22.6741
   -22.6676 -22.6487 -22.6410 -22.6075 -22.5518 -22.5040 -22.4960 -22.4516
   -14.9773 -14.7555 -14.7401 -14.6721 -14.6489 -14.5855 -14.5572 -14.4133
    -7.1261  -6.9630  -6.8543  -6.8271  -6.6755  -6.6523  -6.4966  -6.4154
    -6.3709  -6.2276  -6.1905  -6.1520  -6.0878  -6.0625  -6.0340  -6.0117
    -6.0033  -5.9648  -5.9466  -5.8618  -5.8418  -5.8177  -5.7031  -5.6627
    -0.5073  -0.4313  -0.3760  -0.2339  -0.2079  -0.1618  -0.1201  -0.0627
    -0.0413   0.0071   0.0529   0.0799   0.1210   0.1398   0.1801   0.1978
     0.2210   0.2412   0.2646   0.3179   0.3464   0.3613   0.4144   0.4669
     5.7621   5.8903   5.9950   6.1333   6.1501   6.2756   6.3364   6.4650
     6.5042   6.6007   6.6187   6.6919   6.7632   6.7757   6.8092   6.8702
     6.8908   6.9546   6.9984   7.0743   7.1032   7.1852   7.2382   7.2781
     7.3078   7.3516   7.3704   7.4607   7.4897   7.5454   7.5650   7.5971
     7.6390   7.7036   7.7382   7.7681   7.8417   7.9112   7.9235   8.0062
     8.1377   8.2304   8.3280   8.3669   8.4512   8.4910   8.5645   8.6618
     8.7168   8.8146   8.8355   8.9053   8.9391   8.9972   9.0240   9.0445
     9.0758   9.1449   9.2344   9.3060   9.3481   9.4149   9.4463   9.4968
     9.5274   9.5419   9.6186   9.6562   9.7099   9.7436   9.8385   9.9283
    12.3802  12.4466  12.7593  12.7674  12.8153  12.9125  13.0069  13.0248
    13.0624  13.1523  13.3850  13.4165  13.5064  13.5202  13.5483  13.6377
    13.6677  13.7441  13.8128  13.8615  13.9566  13.9823  14.0490  14.0800
    14.3701  14.4096  14.7157  14.7639  15.0136  15.1463  15.3619  15.4298

          k =-0.5000 0.0000 0.2500 ( 21174 PWs)   bands (ev):

   -46.6033 -46.5973 -46.5718 -46.4818 -46.4170 -46.4071 -46.2410 -46.2083
   -22.9129 -22.8805 -22.8536 -22.8380 -22.8341 -22.8315 -22.8270 -22.8249
   -22.8120 -22.7743 -22.7395 -22.7360 -22.7122 -22.7060 -22.6868 -22.6718
   -22.6661 -22.6448 -22.6395 -22.6082 -22.5526 -22.5044 -22.4952 -22.4523
   -14.9771 -14.7731 -14.7276 -14.6610 -14.6408 -14.5852 -14.5761 -14.4088
    -7.1105  -6.9614  -6.8792  -6.7741  -6.7121  -6.6382  -6.5383  -6.4778
    -6.3377  -6.2405  -6.1849  -6.1367  -6.0828  -6.0627  -6.0339  -6.0086
    -5.9776  -5.9607  -5.9420  -5.8998  -5.8472  -5.8141  -5.6953  -5.6264
    -0.4620  -0.4308  -0.3818  -0.3038  -0.2679  -0.1589  -0.0752  -0.0406
    -0.0224   0.0061   0.0431   0.0882   0.1035   0.1369   0.1607   0.2141
     0.2261   0.2626   0.2693   0.2990   0.3223   0.3608   0.4035   0.5193
     5.8537   5.9257   5.9449   6.0707   6.1339   6.2222   6.3747   6.4532
     6.4961   6.5562   6.6144   6.6573   6.6895   6.7940   6.8371   6.8808
     6.9216   6.9611   6.9954   7.0472   7.0851   7.1304   7.2245   7.2530
     7.3194   7.3787   7.4295   7.4582   7.4992   7.5412   7.5784   7.6180
     7.6393   7.6704   7.7375   7.7575   7.8321   7.8974   7.9245   7.9788
     8.0519   8.2666   8.3213   8.3479   8.4764   8.5388   8.6744   8.7236
     8.7700   8.8074   8.8434   8.8955   8.9306   8.9877   9.0058   9.0390
     9.1255   9.1748   9.2595   9.3144   9.3443   9.4271   9.4576   9.4860
     9.5153   9.5468   9.5967   9.6303   9.6831   9.8077   9.8798   9.9492
    12.3098  12.3467  12.7325  12.8146  12.8483  12.9095  12.9324  12.9663
    13.0970  13.1704  13.3859  13.4045  13.4433  13.5531  13.6556  13.6802
    13.7229  13.7422  13.8106  13.8408  13.9426  13.9996  14.0688  14.1985
    14.2979  14.3114  14.6144  14.7350  15.0574  15.0982  15.3516  15.4379

          k =-0.5000 0.0000 0.5000 ( 21216 PWs)   bands (ev):

   -46.6033 -46.5973 -46.5718 -46.4818 -46.4170 -46.4071 -46.2410 -46.2083
   -22.9037 -22.8891 -22.8534 -22.8380 -22.8345 -22.8318 -22.8270 -22.8239
   -22.8120 -22.7743 -22.7373 -22.7361 -22.7122 -22.7061 -22.6867 -22.6710
   -22.6655 -22.6458 -22.6404 -22.6099 -22.5526 -22.5057 -22.4955 -22.4523
   -14.9754 -14.7549 -14.7409 -14.6572 -14.6408 -14.5908 -14.5791 -14.4120
    -7.0828  -6.9145  -6.8249  -6.7661  -6.7019  -6.6201  -6.5403  -6.4824
    -6.4119  -6.2577  -6.1911  -6.1580  -6.0956  -6.0566  -6.0441  -6.0054
    -5.9825  -5.9609  -5.9363  -5.9180  -5.8779  -5.8149  -5.6986  -5.6246
    -0.4572  -0.4048  -0.3497  -0.2445  -0.2210  -0.1924  -0.1239  -0.0859
    -0.0473   0.0220   0.0534   0.0804   0.1071   0.1332   0.1698   0.1951
     0.2071   0.2436   0.2531   0.2816   0.3050   0.3762   0.3985   0.5321
     5.9022   5.9766   6.0008   6.1092   6.3178   6.4491   6.4870   6.5058
     6.5875   6.6220   6.6548   6.7906   6.8040   6.8330   6.8505   6.8928
     6.9003   6.9452   6.9983   7.0560   7.1003   7.1149   7.2013   7.2499
     7.2872   7.3520   7.3912   7.4165   7.4458   7.4864   7.5073   7.5636
     7.6115   7.6520   7.6920   7.7493   7.7701   7.8188   7.8598   7.9217
     7.9683   8.0378   8.0532   8.1208   8.4188   8.5181   8.5800   8.6113
     8.8466   8.8791   8.9123   8.9380   8.9887   9.0394   9.1075   9.1228
     9.1491   9.1978   9.2199   9.2760   9.3942   9.4215   9.4258   9.4874
     9.5100   9.5755   9.5951   9.6261   9.6509   9.6998   9.7441   9.8089
    12.5743  12.7083  12.8052  12.8734  12.8972  12.9163  12.9987  13.0227
    13.1035  13.1678  13.1889  13.2361  13.3538  13.4377  13.5535  13.6068
    13.6735  13.7146  13.7927  13.8188  13.9186  13.9401  13.9826  14.1174
    14.4617  14.4976  14.5976  14.7504  15.4517  15.5622  15.8242  15.8680

          k =-0.5000 0.5000 0.0000 ( 21216 PWs)   bands (ev):

   -46.6033 -46.5973 -46.5717 -46.4818 -46.4170 -46.4071 -46.2410 -46.2083
   -22.9186 -22.8753 -22.8533 -22.8351 -22.8336 -22.8284 -22.8271 -22.8249
   -22.8120 -22.7725 -22.7415 -22.7347 -22.7166 -22.6992 -22.6871 -22.6742
   -22.6683 -22.6487 -22.6412 -22.6075 -22.5526 -22.5040 -22.4960 -22.4523
   -14.9740 -14.7568 -14.7364 -14.6688 -14.6430 -14.5916 -14.5650 -14.4157
    -7.1133  -6.9371  -6.8035  -6.7638  -6.6536  -6.5956  -6.5264  -6.4654
    -6.3948  -6.2826  -6.1979  -6.1691  -6.1155  -6.0711  -6.0466  -6.0289
    -6.0022  -5.9598  -5.9456  -5.8794  -5.8400  -5.8187  -5.7002  -5.6632
    -0.4753  -0.4099  -0.2989  -0.2604  -0.2443  -0.1679  -0.0981  -0.0654
    -0.0265  -0.0016   0.0246   0.0701   0.0984   0.1272   0.1795   0.1840
     0.2030   0.2215   0.2505   0.2988   0.3511   0.3692   0.4301   0.4696
     5.8347   5.8787   6.0626   6.1707   6.3371   6.4716   6.5294   6.5631
     6.6033   6.6126   6.6665   6.7651   6.7909   6.8291   6.8897   6.9137
     6.9620   7.0207   7.0434   7.0662   7.0925   7.1206   7.1641   7.2159
     7.2491   7.3316   7.3708   7.4011   7.4238   7.4836   7.5202   7.5835
     7.6059   7.6394   7.6633   7.7663   7.7867   7.7964   7.8785   7.9357
     7.9961   8.0327   8.0686   8.2036   8.4033   8.4472   8.4750   8.5725
     8.8346   8.8914   8.9342   8.9752   8.9811   9.0102   9.0506   9.1061
     9.1776   9.1859   9.2061   9.2718   9.3252   9.3949   9.4269   9.4929
     9.4956   9.5401   9.5818   9.6359   9.6825   9.7195   9.7374   9.7956
    12.6721  12.7376  12.8316  12.8678  12.9569  12.9670  13.0029  13.0739
    13.1264  13.1555  13.1609  13.2211  13.2837  13.3775  13.5719  13.5972
    13.6273  13.6729  13.6997  13.7465  13.8739  13.9324  13.9959  14.0455
    14.5211  14.5343  14.7534  14.7717  15.5908  15.7116  15.7818  15.8537

          k =-0.2500-0.2500 0.2500 ( 21239 PWs)   bands (ev):

   -46.6033 -46.5973 -46.5718 -46.4818 -46.4170 -46.4071 -46.2410 -46.2083
   -22.9129 -22.8805 -22.8538 -22.8379 -22.8358 -22.8345 -22.8301 -22.8246
   -22.8022 -22.7734 -22.7395 -22.7390 -22.7143 -22.7052 -22.6815 -22.6725
   -22.6664 -22.6461 -22.6413 -22.6088 -22.5518 -22.5046 -22.4959 -22.4516
   -14.9783 -14.7637 -14.7284 -14.6708 -14.6501 -14.5832 -14.5638 -14.4116
    -7.1177  -6.9812  -6.8982  -6.7902  -6.6506  -6.6003  -6.5458  -6.4814
    -6.3469  -6.2067  -6.1948  -6.1614  -6.0937  -6.0520  -6.0290  -6.0072
    -5.9813  -5.9595  -5.9294  -5.8884  -5.8568  -5.8292  -5.6999  -5.6415
    -0.5482  -0.5142  -0.3480  -0.2415  -0.1974  -0.1549  -0.0886  -0.0612
    -0.0221   0.0089   0.0229   0.0435   0.0868   0.1032   0.1500   0.2093
     0.2425   0.2706   0.3087   0.3382   0.3642   0.4010   0.4059   0.5246
     5.8625   5.9839   6.0331   6.1183   6.1834   6.2216   6.3277   6.3475
     6.4138   6.4618   6.4770   6.5504   6.5539   6.5800   6.6337   6.8893
     6.9994   7.0515   7.1255   7.1640   7.1954   7.2801   7.3071   7.3457
     7.3634   7.4027   7.4403   7.5084   7.5285   7.5466   7.5960   7.6305
     7.6535   7.6780   7.7174   7.7399   7.7845   7.8709   7.9189   8.0318
     8.1332   8.2010   8.2623   8.3057   8.4244   8.5023   8.5171   8.6976
     8.8017   8.8460   8.9113   8.9718   8.9986   9.0250   9.0745   9.1033
     9.1226   9.1658   9.1841   9.2205   9.2616   9.3163   9.3558   9.4103
     9.5015   9.5604   9.7178   9.7241   9.7748   9.8334   9.8672   9.9541
    12.4281  12.4899  12.5176  12.5684  12.5846  12.6483  13.2659  13.3060
    13.3324  13.3829  13.3955  13.4363  13.4683  13.5225  13.5331  13.5728
    13.6240  13.6399  13.8380  13.9102  13.9224  14.0048  14.0351  14.0997
    14.5685  14.6211  14.6678  14.6970  14.7859  15.1526  15.2787  15.3454

          k =-0.2500 0.2500-0.2500 ( 21239 PWs)   bands (ev):

   -46.6033 -46.5973 -46.5718 -46.4818 -46.4170 -46.4071 -46.2410 -46.2083
   -22.9129 -22.8805 -22.8538 -22.8380 -22.8357 -22.8345 -22.8301 -22.8246
   -22.8022 -22.7734 -22.7395 -22.7390 -22.7143 -22.7052 -22.6815 -22.6725
   -22.6664 -22.6460 -22.6414 -22.6088 -22.5518 -22.5046 -22.4959 -22.4516
   -14.9783 -14.7641 -14.7280 -14.6708 -14.6499 -14.5832 -14.5639 -14.4115
    -7.1155  -6.9874  -6.8980  -6.7832  -6.6452  -6.6172  -6.5447  -6.4676
    -6.3455  -6.2195  -6.2114  -6.1181  -6.0904  -6.0751  -6.0328  -6.0202
    -5.9731  -5.9574  -5.9450  -5.8723  -5.8544  -5.8237  -5.7040  -5.6419
    -0.5428  -0.5085  -0.3578  -0.2469  -0.1965  -0.1531  -0.0794  -0.0413
    -0.0312   0.0052   0.0209   0.0650   0.0845   0.1214   0.1413   0.1906
     0.2197   0.2734   0.3107   0.3215   0.3587   0.3795   0.4538   0.5118
     5.8867   5.9804   6.0322   6.1190   6.1999   6.2115   6.3164   6.3343
     6.4164   6.4387   6.4772   6.4966   6.5688   6.6108   6.6751   6.9146
     6.9820   7.0919   7.1448   7.1858   7.2142   7.2423   7.3112   7.3414
     7.3732   7.4179   7.4540   7.4857   7.5177   7.5488   7.5699   7.5970
     7.6358   7.6722   7.6995   7.7426   7.8122   7.8564   7.8769   8.0330
     8.1029   8.1374   8.2680   8.3542   8.4349   8.5193   8.5647   8.7593
     8.8115   8.8734   8.9049   8.9409   8.9810   9.0215   9.0431   9.0902
     9.1393   9.1662   9.2040   9.2414   9.2530   9.2905   9.3519   9.3806
     9.5147   9.5700   9.6778   9.7013   9.8036   9.8306   9.8884   9.9438
    12.4462  12.4854  12.5138  12.5700  12.6167  12.6390  13.2519  13.3138
    13.3320  13.3732  13.4032  13.4271  13.4607  13.5039  13.5257  13.5672
    13.6356  13.6394  13.8392  13.9077  13.9390  13.9980  14.0486  14.0999
    14.5642  14.6303  14.6661  14.7054  14.7899  15.1586  15.2910  15.3107

          k = 0.2500-0.2500-0.2500 ( 21239 PWs)   bands (ev):

   -46.6033 -46.5973 -46.5718 -46.4818 -46.4170 -46.4071 -46.2410 -46.2083
   -22.9129 -22.8805 -22.8538 -22.8380 -22.8357 -22.8345 -22.8301 -22.8246
   -22.8023 -22.7734 -22.7396 -22.7389 -22.7143 -22.7052 -22.6815 -22.6725
   -22.6664 -22.6460 -22.6414 -22.6088 -22.5518 -22.5046 -22.4959 -22.4516
   -14.9782 -14.7634 -14.7292 -14.6704 -14.6499 -14.5835 -14.5635 -14.4116
    -7.1161  -6.9778  -6.8947  -6.7973  -6.6721  -6.6229  -6.5014  -6.4674
    -6.3498  -6.2395  -6.1890  -6.1207  -6.0950  -6.0680  -6.0415  -6.0009
    -5.9926  -5.9563  -5.9363  -5.8879  -5.8617  -5.8112  -5.7014  -5.6421
    -0.5541  -0.4983  -0.3586  -0.2272  -0.2028  -0.1511  -0.0902  -0.0606
    -0.0333  -0.0028   0.0191   0.0574   0.0890   0.1163   0.1591   0.2074
     0.2358   0.2623   0.3083   0.3271   0.3461   0.3971   0.4513   0.5046
     5.8528   5.9664   6.0257   6.1071   6.1898   6.2590   6.3395   6.3609
     6.4156   6.4505   6.4935   6.5188   6.5646   6.6096   6.6463   6.9175
     6.9868   7.0367   7.1029   7.1364   7.1957   7.2877   7.3205   7.3489
     7.3811   7.4078   7.4375   7.4883   7.5317   7.5731   7.5964   7.6238
     7.6328   7.6732   7.7163   7.7350   7.7958   7.8389   7.9473   8.0333
     8.1108   8.1927   8.2506   8.2861   8.4234   8.5239   8.5511   8.6704
     8.7332   8.8391   8.9219   8.9684   8.9910   9.0187   9.0728   9.1020
     9.1534   9.1760   9.2103   9.2486   9.2627   9.3218   9.3613   9.3848
     9.5101   9.5770   9.6922   9.7050   9.8061   9.8368   9.8725   9.9490
    12.4243  12.4761  12.5001  12.5777  12.6106  12.6474  13.2611  13.3085
    13.3177  13.3784  13.4079  13.4475  13.4633  13.5098  13.5322  13.5728
    13.6191  13.6400  13.8334  13.9171  13.9377  14.0028  14.0418  14.1007
    14.5828  14.6164  14.6626  14.6899  14.7920  15.1536  15.2804  15.3393

          k =-0.2500 0.2500 0.5000 ( 21192 PWs)   bands (ev):

   -46.6033 -46.5973 -46.5718 -46.4818 -46.4170 -46.4071 -46.2410 -46.2083
   -22.9037 -22.8891 -22.8536 -22.8379 -22.8356 -22.8350 -22.8304 -22.8236
   -22.8022 -22.7734 -22.7393 -22.7370 -22.7143 -22.7052 -22.6815 -22.6718
   -22.6657 -22.6467 -22.6425 -22.6106 -22.5518 -22.5059 -22.4963 -22.4516
   -14.9764 -14.7468 -14.7377 -14.6686 -14.6540 -14.5865 -14.5661 -14.4149
    -7.0842  -6.9250  -6.8320  -6.7861  -6.7014  -6.6506  -6.4979  -6.4545
    -6.3825  -6.2403  -6.1962  -6.1337  -6.0942  -6.0738  -6.0376  -6.0168
    -5.9910  -5.9634  -5.9307  -5.9174  -5.8813  -5.8232  -5.7129  -5.6427
    -0.4814  -0.4256  -0.3802  -0.2499  -0.1788  -0.1343  -0.1231  -0.0729
    -0.0482  -0.0120   0.0029   0.0341   0.0647   0.0985   0.1308   0.1670
     0.1920   0.2661   0.3128   0.3576   0.3726   0.4032   0.4621   0.5044
     5.9685   6.0308   6.1219   6.1718   6.1980   6.3057   6.3949   6.4632
     6.4898   6.5628   6.6087   6.6882   6.7361   6.7634   6.8373   6.8613
     6.8981   6.9652   7.0294   7.0792   7.1018   7.1948   7.2428   7.3033
     7.3634   7.3834   7.4162   7.4572   7.4734   7.5135   7.5602   7.5861
     7.6179   7.6485   7.6798   7.7448   7.7586   7.8334   7.9308   7.9507
     8.0171   8.0810   8.1558   8.2283   8.2612   8.3370   8.5471   8.6484
     8.8107   8.8425   8.9048   8.9615   8.9904   9.0300   9.0652   9.1222
     9.1831   9.2016   9.2454   9.2975   9.3524   9.3646   9.4203   9.4497
     9.4735   9.5539   9.5718   9.6223   9.6902   9.7174   9.7843   9.9335
    12.4997  12.5143  12.7566  12.8926  12.9252  12.9484  12.9810  13.0406
    13.1588  13.1741  13.3300  13.3666  13.4859  13.5318  13.5606  13.6105
    13.6433  13.6530  13.7649  13.7756  13.8119  13.9533  13.9836  13.9958
    14.6456  14.6970  14.9666  15.0245  15.0815  15.1696  15.3818  15.5290

          k =-0.5000-0.2500 0.2500 ( 21192 PWs)   bands (ev):

   -46.6033 -46.5973 -46.5718 -46.4818 -46.4170 -46.4071 -46.2410 -46.2083
   -22.9129 -22.8805 -22.8533 -22.8365 -22.8341 -22.8301 -22.8270 -22.8245
   -22.8120 -22.7734 -22.7394 -22.7354 -22.7144 -22.7029 -22.6869 -22.6726
   -22.6669 -22.6462 -22.6415 -22.6088 -22.5526 -22.5046 -22.4959 -22.4523
   -14.9749 -14.7643 -14.7270 -14.6638 -14.6452 -14.5903 -14.5718 -14.4139
    -7.0983  -6.9299  -6.8458  -6.7518  -6.6694  -6.6122  -6.5336  -6.4883
    -6.3573  -6.2428  -6.2165  -6.1667  -6.0948  -6.0780  -6.0333  -6.0241
    -5.9855  -5.9587  -5.9474  -5.9007  -5.8555  -5.8272  -5.7062  -5.6454
    -0.4570  -0.4062  -0.3770  -0.3119  -0.2236  -0.1377  -0.0964  -0.0871
    -0.0558  -0.0110   0.0335   0.0609   0.0800   0.1031   0.1443   0.1647
     0.1843   0.2055   0.3307   0.3573   0.3853   0.3977   0.4484   0.5320
     5.9600   6.0141   6.0879   6.1753   6.2128   6.2780   6.4017   6.4771
     6.5344   6.6052   6.6382   6.6824   6.7035   6.7752   6.8328   6.8510
     6.9318   6.9991   7.0306   7.0751   7.1153   7.1460   7.2395   7.2571
     7.3263   7.3676   7.4004   7.4468   7.4736   7.5346   7.5772   7.5897
     7.6033   7.6293   7.6832   7.7597   7.7845   7.8303   7.9048   7.9409
     8.0114   8.1104   8.2084   8.2427   8.3043   8.3397   8.5074   8.5861
     8.8199   8.8513   8.9282   8.9699   8.9916   9.0593   9.0867   9.1124
     9.1470   9.2120   9.2590   9.2784   9.3354   9.3881   9.4067   9.4314
     9.4875   9.5463   9.5669   9.6075   9.6681   9.7578   9.8360   9.8735
    12.4982  12.5278  12.8300  12.8439  12.9237  12.9395  12.9898  13.0506
    13.1062  13.1695  13.3860  13.4193  13.4511  13.5067  13.5186  13.5592
    13.5862  13.6460  13.7367  13.8036  13.8486  13.8662  13.9617  14.0739
    14.6193  14.6454  15.0140  15.0684  15.0983  15.2220  15.3989  15.5219

          k = 0.5000-0.2500-0.2500 ( 21192 PWs)   bands (ev):

   -46.6033 -46.5973 -46.5718 -46.4818 -46.4170 -46.4071 -46.2410 -46.2083
   -22.9129 -22.8805 -22.8533 -22.8365 -22.8341 -22.8301 -22.8270 -22.8245
   -22.8120 -22.7734 -22.7394 -22.7354 -22.7144 -22.7029 -22.6869 -22.6726
   -22.6669 -22.6462 -22.6415 -22.6088 -22.5526 -22.5046 -22.4959 -22.4523
   -14.9748 -14.7637 -14.7282 -14.6638 -14.6446 -14.5906 -14.5716 -14.4139
    -7.0992  -6.9257  -6.8505  -6.7461  -6.6621  -6.6210  -6.5499  -6.4788
    -6.3696  -6.2513  -6.1823  -6.1488  -6.0911  -6.0750  -6.0540  -6.0196
    -5.9980  -5.9692  -5.9504  -5.8976  -5.8556  -5.8257  -5.7001  -5.6474
    -0.4645  -0.4142  -0.3647  -0.2981  -0.2242  -0.1523  -0.0974  -0.0916
    -0.0462  -0.0252   0.0276   0.0584   0.0762   0.1082   0.1393   0.1761
     0.1971   0.2280   0.3208   0.3404   0.3860   0.3991   0.4577   0.5285
     5.9299   6.0001   6.1023   6.1917   6.2205   6.2922   6.4057   6.4729
     6.5329   6.5942   6.6429   6.6611   6.7133   6.7756   6.8146   6.8922
     6.9467   6.9782   7.0181   7.0639   7.0797   7.1434   7.2334   7.2572
     7.3040   7.3838   7.4237   7.4597   7.4802   7.5044   7.5544   7.6145
     7.6429   7.6634   7.7158   7.7604   7.8150   7.8309   7.8925   7.9477
     8.0096   8.1119   8.1886   8.2532   8.2736   8.3422   8.4660   8.5815
     8.7049   8.8183   8.9474   8.9756   9.0370   9.0727   9.0931   9.1275
     9.1757   9.2359   9.2565   9.2893   9.3282   9.3951   9.4053   9.4612
     9.4798   9.5331   9.5702   9.6114   9.6825   9.7427   9.8148   9.8729
    12.4839  12.5255  12.8330  12.8424  12.9139  12.9452  12.9912  13.0681
    13.0976  13.1722  13.3768  13.4241  13.4395  13.5056  13.5416  13.5586
    13.5891  13.6391  13.7354  13.8084  13.8337  13.8693  13.9656  14.0793
    14.6264  14.6429  15.0039  15.0626  15.1010  15.2283  15.4019  15.5178

          k =-0.2500-0.5000 0.2500 ( 21192 PWs)   bands (ev):

   -46.6033 -46.5973 -46.5718 -46.4818 -46.4170 -46.4071 -46.2410 -46.2083
   -22.9129 -22.8805 -22.8536 -22.8372 -22.8350 -22.8345 -22.8287 -22.8241
   -22.8023 -22.7725 -22.7393 -22.7387 -22.7165 -22.7015 -22.6816 -22.6734
   -22.6669 -22.6492 -22.6422 -22.6093 -22.5518 -22.5050 -22.4966 -22.4516
   -14.9757 -14.7486 -14.7350 -14.6723 -14.6552 -14.5883 -14.5592 -14.4168
    -7.1005  -6.9232  -6.8345  -6.8048  -6.6525  -6.6179  -6.5072  -6.4614
    -6.3828  -6.2494  -6.1955  -6.1440  -6.0924  -6.0786  -6.0340  -6.0197
    -6.0007  -5.9722  -5.9454  -5.8870  -5.8599  -5.8360  -5.7142  -5.6587
    -0.4842  -0.4289  -0.3648  -0.2457  -0.2081  -0.1616  -0.1044  -0.0635
    -0.0467  -0.0078   0.0212   0.0380   0.0740   0.0895   0.1182   0.1613
     0.1828   0.2726   0.3221   0.3746   0.3813   0.4084   0.4463   0.4891
     5.8864   6.0462   6.0889   6.1535   6.2376   6.3396   6.3709   6.4885
     6.5781   6.6085   6.6572   6.6885   6.7226   6.7961   6.8336   6.8402
     6.8863   6.9343   7.0029   7.1020   7.1283   7.2050   7.2475   7.2815
     7.3130   7.3570   7.3962   7.4383   7.4840   7.5068   7.5626   7.5940
     7.6342   7.6884   7.7200   7.7489   7.7746   7.8512   7.9234   7.9395
     8.0182   8.0820   8.1826   8.2571   8.2728   8.3501   8.4606   8.5202
     8.7840   8.8392   8.8833   8.9497   9.0145   9.0436   9.0809   9.1051
     9.1585   9.2005   9.2429   9.2888   9.3371   9.4018   9.4174   9.4420
     9.4957   9.5206   9.6004   9.6507   9.6832   9.7437   9.8027   9.8614
    12.5198  12.6148  12.8053  12.8608  12.8669  12.9266  13.0213  13.0698
    13.1390  13.1636  13.3374  13.3999  13.4614  13.5023  13.5248  13.5529
    13.6138  13.6566  13.7812  13.8137  13.8573  13.8778  13.9436  13.9783
    14.6624  14.6775  15.0127  15.0377  15.1205  15.2042  15.4558  15.5263

          k =-0.2500 0.5000-0.2500 ( 21192 PWs)   bands (ev):

   -46.6033 -46.5973 -46.5718 -46.4818 -46.4170 -46.4071 -46.2410 -46.2083
   -22.9129 -22.8805 -22.8536 -22.8372 -22.8350 -22.8345 -22.8287 -22.8241
   -22.8023 -22.7725 -22.7393 -22.7387 -22.7165 -22.7015 -22.6816 -22.6734
   -22.6669 -22.6492 -22.6422 -22.6093 -22.5518 -22.5050 -22.4966 -22.4516
   -14.9757 -14.7487 -14.7351 -14.6724 -14.6550 -14.5883 -14.5593 -14.4168
    -7.0995  -6.9271  -6.8331  -6.8032  -6.6551  -6.6167  -6.5180  -6.4428
    -6.3899  -6.2348  -6.1951  -6.1466  -6.1129  -6.0661  -6.0448  -6.0168
    -6.0011  -5.9708  -5.9501  -5.8772  -5.8638  -5.8313  -5.7150  -5.6606
    -0.4792  -0.4249  -0.3646  -0.2564  -0.2088  -0.1642  -0.1170  -0.0665
    -0.0407  -0.0106   0.0279   0.0503   0.0570   0.1086   0.1409   0.1588
     0.1949   0.2394   0.3132   0.3629   0.3867   0.4082   0.4468   0.5012
     5.9064   6.0434   6.1052   6.1518   6.2144   6.3238   6.3638   6.4894
     6.5469   6.6005   6.6568   6.7157   6.7538   6.7873   6.8108   6.8513
     6.9208   6.9440   6.9947   7.0780   7.1215   7.2053   7.2567   7.2781
     7.3250   7.3600   7.3975   7.4232   7.4870   7.5091   7.5273   7.6125
     7.6307   7.6745   7.7100   7.7682   7.7828   7.8215   7.9318   7.9458
     8.0045   8.0839   8.2164   8.2336   8.3004   8.3200   8.4451   8.6015
     8.7748   8.8731   8.9149   8.9694   9.0101   9.0317   9.0930   9.1279
     9.1331   9.1795   9.2443   9.2698   9.3596   9.3739   9.3896   9.4486
     9.4990   9.5208   9.6009   9.6271   9.6631   9.7139   9.7941   9.8885
    12.5422  12.6163  12.8210  12.8405  12.8712  12.9263  13.0167  13.0722
    13.1275  13.1756  13.3374  13.3893  13.4572  13.4980  13.5136  13.5616
    13.6164  13.6566  13.7786  13.8172  13.8523  13.8875  13.9421  13.9811
    14.6688  14.6763  15.0217  15.0676  15.1105  15.1761  15.4456  15.5200

          k =-0.5000 0.2500 0.5000 ( 21208 PWs)   bands (ev):

   -46.6033 -46.5973 -46.5718 -46.4818 -46.4170 -46.4071 -46.2410 -46.2083
   -22.9037 -22.8891 -22.8531 -22.8364 -22.8344 -22.8304 -22.8270 -22.8236
   -22.8120 -22.7735 -22.7372 -22.7354 -22.7143 -22.7030 -22.6868 -22.6720
   -22.6661 -22.6469 -22.6426 -22.6106 -22.5526 -22.5059 -22.4963 -22.4523
   -14.9733 -14.7493 -14.7348 -14.6603 -14.6476 -14.5956 -14.5743 -14.4173
    -7.0703  -6.8828  -6.8020  -6.7287  -6.6754  -6.6043  -6.5159  -6.4844
    -6.4387  -6.2666  -6.1994  -6.1567  -6.1053  -6.0834  -6.0483  -6.0186
    -5.9976  -5.9732  -5.9367  -5.9272  -5.8881  -5.8319  -5.7097  -5.6471
    -0.4533  -0.3834  -0.3549  -0.2334  -0.2180  -0.2009  -0.1560  -0.1007
    -0.0972  -0.0398  -0.0163   0.0237   0.0402   0.0786   0.1237   0.1670
     0.2552   0.2931   0.3300   0.3441   0.3914   0.4297   0.4770   0.5573
     6.0522   6.1152   6.1569   6.2005   6.3402   6.4390   6.4587   6.4720
     6.5491   6.6172   6.6961   6.7510   6.7735   6.8176   6.8628   6.9402
     6.9913   7.0165   7.0408   7.0839   7.1005   7.1553   7.2114   7.2353
     7.2715   7.3404   7.3782   7.4128   7.4438   7.4817   7.5219   7.5744
     7.6295   7.6440   7.7037   7.7221   7.7577   7.7737   7.8343   7.8508
     7.8968   7.9586   7.9990   8.0558   8.1801   8.2451   8.2923   8.3792
     8.8741   8.9256   8.9774   9.0307   9.0671   9.1165   9.1457   9.1783
     9.2173   9.2469   9.2813   9.3119   9.3655   9.4012   9.4344   9.4770
     9.4985   9.5285   9.5552   9.5915   9.6209   9.6901   9.7267   9.7773
    12.7225  12.8159  12.9000  12.9682  12.9763  13.0010  13.0398  13.0793
    13.1190  13.1843  13.2244  13.2699  13.3526  13.4426  13.5090  13.5264
    13.5659  13.5959  13.6379  13.6632  13.7682  13.8137  13.8431  13.9746
    14.8906  14.9393  15.0239  15.1594  15.4781  15.5736  15.8396  15.8878

          k =-0.5000 0.5000 0.2500 ( 21208 PWs)   bands (ev):

   -46.6033 -46.5973 -46.5718 -46.4818 -46.4170 -46.4071 -46.2410 -46.2083
   -22.9128 -22.8804 -22.8531 -22.8350 -22.8340 -22.8287 -22.8271 -22.8240
   -22.8120 -22.7725 -22.7394 -22.7348 -22.7166 -22.6992 -22.6871 -22.6735
   -22.6675 -22.6492 -22.6424 -22.6093 -22.5526 -22.5050 -22.4966 -22.4523
   -14.9726 -14.7505 -14.7319 -14.6663 -14.6489 -14.5961 -14.5670 -14.4193
    -7.0872  -6.8960  -6.7859  -6.7435  -6.6206  -6.5818  -6.5437  -6.4758
    -6.4170  -6.2857  -6.2026  -6.1629  -6.1161  -6.0901  -6.0472  -6.0313
    -6.0110  -5.9682  -5.9513  -5.8974  -5.8627  -5.8414  -5.7109  -5.6657
    -0.4636  -0.3970  -0.3145  -0.2569  -0.2192  -0.1897  -0.1408  -0.1257
    -0.0609  -0.0344  -0.0031   0.0196   0.0454   0.0691   0.1018   0.1297
     0.2577   0.2996   0.3224   0.3512   0.4311   0.4437   0.4691   0.5214
     5.9795   6.0414   6.1800   6.2930   6.3390   6.4197   6.5088   6.5255
     6.5675   6.6348   6.6811   6.7357   6.7696   6.8441   6.9102   6.9614
     6.9955   7.0359   7.0547   7.0876   7.1138   7.1318   7.1819   7.2295
     7.2892   7.3207   7.3383   7.3913   7.4270   7.4753   7.5051   7.5854
     7.6405   7.6537   7.6816   7.7184   7.7714   7.7890   7.8387   7.8688
     7.9313   7.9481   7.9925   8.0885   8.1900   8.2233   8.2423   8.3454
     8.8476   8.9050   8.9930   9.0332   9.0960   9.1132   9.1263   9.1696
     9.1992   9.2352   9.2660   9.3059   9.3244   9.3784   9.4353   9.4731
     9.4887   9.5225   9.5561   9.6282   9.6656   9.6991   9.7156   9.7598
    12.7923  12.8448  12.9076  12.9405  13.0050  13.0393  13.0590  13.1087
    13.1616  13.1901  13.2162  13.2369  13.2933  13.3680  13.4641  13.5239
    13.5738  13.6087  13.6179  13.6444  13.7457  13.7965  13.8520  13.9310
    14.8637  14.9058  15.1716  15.1790  15.6011  15.7187  15.7859  15.8611

     the Fermi energy is    10.5921 ev

!    total energy              =   -5448.84130399 Ry
     estimated scf accuracy    <          1.3E-09 Ry
     smearing contrib. (-TS)   =       0.00000000 Ry
     internal energy E=F+TS    =   -5448.84130399 Ry

     The total energy is F=E-TS. E is the sum of the following terms:
     one-electron contribution =    -596.61890794 Ry
     hartree contribution      =     495.33842110 Ry
     xc contribution           =    -486.91232036 Ry
     ewald contribution        =   -1632.57967635 Ry
     one-center paw contrib.   =   -3228.06882044 Ry

     convergence has been achieved in  25 iterations

     negative rho (up, down):  1.030E-02 0.000E+00

     Forces acting on atoms (cartesian axes, Ry/au):

     atom    1 type  1   force =     0.04623415    0.03128527   -0.00670618
     atom    2 type  1   force =    -0.00374619    0.04949716   -0.06121702
     atom    3 type  1   force =    -0.01432130   -0.03087447   -0.01723325
     atom    4 type  1   force =    -0.00832083    0.00714047   -0.00149175
     atom    5 type  1   force =    -0.01604382   -0.05769008    0.03273977
     atom    6 type  1   force =     0.03402152   -0.05199375   -0.00256883
     atom    7 type  1   force =     0.03157252    0.03138000   -0.01419824
     atom    8 type  1   force =    -0.04070113    0.06433870    0.00577074
     atom    9 type  2   force =     0.01031388    0.03589765    0.00727491
     atom   10 type  2   force =    -0.04019620    0.02807726   -0.02188347
     atom   11 type  2   force =     0.06007027   -0.00726073    0.03282652
     atom   12 type  2   force =    -0.03303149   -0.05644849    0.08092505
     atom   13 type  2   force =     0.03050334   -0.01868058    0.01832537
     atom   14 type  2   force =    -0.01587311   -0.06701763    0.00565035
     atom   15 type  2   force =    -0.00530510    0.01615981   -0.04972944
     atom   16 type  2   force =    -0.01629721    0.05985227   -0.07764230
     atom   17 type  3   force =     0.02087447   -0.01158946    0.02297062
     atom   18 type  3   force =    -0.03777788    0.00037643   -0.00201428
     atom   19 type  3   force =    -0.00792248    0.00200914   -0.00683754
     atom   20 type  3   force =     0.04814636    0.00097090    0.03418090
     atom   21 type  3   force =     0.00070709    0.00877167    0.00626297
     atom   22 type  3   force =     0.04386631    0.05482747    0.04013041
     atom   23 type  3   force =    -0.02944447   -0.00886595   -0.02808420
     atom   24 type  3   force =     0.00277244   -0.01676891    0.00327397
     atom   25 type  3   force =    -0.01236809    0.05171427   -0.01850559
     atom   26 type  3   force =    -0.00586824   -0.02102686   -0.02068127
     atom   27 type  3   force =     0.00723445   -0.01056124    0.00341664
     atom   28 type  3   force =     0.00637968   -0.02516058    0.01074961
     atom   29 type  3   force =    -0.00257378    0.00728967    0.03102966
     atom   30 type  3   force =    -0.00120655   -0.12184341   -0.00373817
     atom   31 type  3   force =     0.00384285   -0.00236198    0.02283366
     atom   32 type  3   force =    -0.03164760   -0.01258713    0.00660083
     atom   33 type  3   force =    -0.01781940    0.00779079   -0.00837580
     atom   34 type  3   force =     0.04864597    0.01369533    0.00668419
     atom   35 type  3   force =    -0.03437010   -0.00841046   -0.03940612
     atom   36 type  3   force =    -0.01694439    0.00715438    0.07963807
     atom   37 type  3   force =     0.00083217    0.01134218   -0.00479899
     atom   38 type  3   force =    -0.07493050    0.00989611   -0.04203346
     atom   39 type  3   force =     0.04286110   -0.01027232   -0.00857210
     atom   40 type  3   force =     0.02783128    0.03994708   -0.01556622

     Total force =     0.358741     Total SCF correction =     0.000055
     Message from routine punch:
     Nothing written, as per user request (disk_io='none')

     init_run     :     49.37s CPU     53.27s WALL (       1 calls)
     electrons    :   2865.44s CPU   2992.41s WALL (       1 calls)
     forces       :     36.85s CPU     37.53s WALL (       1 calls)

     Called by init_run:
     wfcinit      :     39.33s CPU     42.01s WALL (       1 calls)
     potinit      :      3.78s CPU      4.05s WALL (       1 calls)
     hinit0       :      1.43s CPU      1.60s WALL (       1 calls)

     Called by electrons:
     c_bands      :   2403.72s CPU   2497.00s WALL (      25 calls)
     sum_band     :    340.45s CPU    360.33s WALL (      25 calls)
     v_of_rho     :     25.89s CPU     28.14s WALL (      26 calls)
     newd         :     45.85s CPU     58.10s WALL (      26 calls)
     PAW_pot      :     46.48s CPU     46.51s WALL (      26 calls)
     mix_rho      :      3.50s CPU      3.62s WALL (      25 calls)

     Called by c_bands:
     init_us_2    :     57.39s CPU     57.55s WALL (     468 calls)
     cegterg      :   1791.18s CPU   1883.82s WALL (     225 calls)

     Called by *egterg:
     cdiaghg      :     52.41s CPU     52.43s WALL (     876 calls)
     h_psi        :    863.52s CPU    913.62s WALL (     885 calls)
     s_psi        :    152.71s CPU    152.74s WALL (     885 calls)
     g_psi        :      6.03s CPU      6.03s WALL (     651 calls)

     Called by h_psi:
     h_psi:calbec :    207.73s CPU    208.50s WALL (     885 calls)
     vloc_psi     :    495.02s CPU    525.88s WALL (     885 calls)
                                        0.00s GPU  (     885 calls)
     add_vuspsi   :    153.80s CPU    153.83s WALL (     885 calls)

     General routines
     calbec       :    303.50s CPU    304.63s WALL (    1146 calls)
     fft          :     27.50s CPU     29.14s WALL (     347 calls)
     ffts         :      1.29s CPU      1.33s WALL (      51 calls)
     fftw         :    525.68s CPU    560.58s WALL (  235218 calls)
     interpolate  :      2.63s CPU      2.74s WALL (      26 calls)

     Parallel routines

     PWSCF        :  49m13.41s CPU  51m25.13s WALL


   This run was terminated on:   5: 4:31   4Oct2026            

=------------------------------------------------------------------------------=
   JOB DONE.
=------------------------------------------------------------------------------=
