
     Program PWSCF v.7.5 starts on  4Oct2026 at 14:25:27 

     This program is part of the open-source Quantum ESPRESSO suite
     for quantum simulation of materials; please cite
         "P. Giannozzi et al., J. Phys.:Condens. Matter 21 395502 (2009);
         "P. Giannozzi et al., J. Phys.:Condens. Matter 29 465901 (2017);
         "P. Giannozzi et al., J. Chem. Phys. 152 154105 (2020);
          URL http://www.quantum-espresso.org", 
     in publications or presentations arising from this work. More details at
     http://www.quantum-espresso.org/quote

     Parallel version (MPI & OpenMP), running on       8 processor cores
     Number of MPI processes:                 8
     Threads/MPI process:                     1

     MPI processes distributed on     1 nodes
     79863 MiB available memory on the printing compute node when the environment starts

     Reading input from pw.in

     Current dimensions of program PWSCF are:
     Max number of different atomic species (ntypx) = 10
     Max number of k-points (npk) =  40000
     Max angular momentum in pseudopotentials (lmaxx) =  4
     file K.pbe-spn-kjpaw_psl.1.0.0.UPF: wavefunction(s)  3S renormalized
     file Nb.pbe-spn-kjpaw_psl.0.3.0.UPF: wavefunction(s)  4S 4P renormalized
     file O.pbe-n-kjpaw_psl.0.1.UPF: wavefunction(s)  2P renormalized

     K-points division:     npool     =       4
     R & G space division:  proc/nbgrp/npool/nimage =       2
     Subspace diagonalization in iterative solution of the eigenvalue problem:
     a serial algorithm will be used


     Parallelization info
     --------------------
     sticks:   dense  smooth     PW     G-vecs:    dense   smooth      PW
     Min        4496    2246    612               320085   113319   16210
     Max        4497    2247    613               320086   113320   16213
     Sum        8993    4493   1225               640171   226639   32423

     Using Slab Decomposition



     bravais-lattice index     =            0
     lattice parameter (alat)  =      15.3320  a.u.
     unit-cell volume          =    3604.1149 (a.u.)^3
     number of atoms/cell      =           40
     number of atomic types    =            3
     number of electrons       =       320.00
     number of Kohn-Sham states=          192
     kinetic-energy cutoff     =      60.0000  Ry
     charge density cutoff     =     480.0000  Ry
     scf convergence threshold =      4.0E-09
     mixing beta               =       0.4000
     number of iterations used =            8  plain     mixing
     Exchange-correlation= SLA  PW   PBX  PBC
                           (   1   4   3   4   0   0   0)

     celldm(1)=  15.332026  celldm(2)=   0.000000  celldm(3)=   0.000000
     celldm(4)=   0.000000  celldm(5)=   0.000000  celldm(6)=   0.000000

     crystal axes: (cart. coord. in units of alat)
               a(1) = (   1.000000  -0.000000   0.000000 )  
               a(2) = (   0.000000   1.000000  -0.000000 )  
               a(3) = (  -0.000000  -0.000000   1.000000 )  

     reciprocal axes: (cart. coord. in units 2 pi/alat)
               b(1) = (  1.000000  0.000000  0.000000 )  
               b(2) = (  0.000000  1.000000  0.000000 )  
               b(3) = (  0.000000  0.000000  1.000000 )  


     PseudoPot. # 1 for K  read from file:
     /root/sssp/K.pbe-spn-kjpaw_psl.1.0.0.UPF
     MD5 check sum: 7d58810084cac21f60fbe77ea2b688fd
     Pseudo is Projector augmented-wave + core cor, Zval =  9.0
     Generated using "atomic" code by A. Dal Corso  v.5.1
     Shape of augmentation charge: PSQ
     Using radial grid of 1165 points,  6 beta functions with: 
                l(1) =   0
                l(2) =   0
                l(3) =   1
                l(4) =   1
                l(5) =   2
                l(6) =   2
     Q(r) pseudized with 0 coefficients 


     PseudoPot. # 2 for Nb read from file:
     /root/sssp/Nb.pbe-spn-kjpaw_psl.0.3.0.UPF
     MD5 check sum: 411d72ad547312f8017e2943ceca08cc
     Pseudo is Projector augmented-wave + core cor, Zval = 13.0
     Generated using "atomic" code by A. Dal Corso  v.5.0.99 svn rev. 10869
     Shape of augmentation charge: PSQ
     Using radial grid of 1227 points,  6 beta functions with: 
                l(1) =   0
                l(2) =   0
                l(3) =   1
                l(4) =   1
                l(5) =   2
                l(6) =   2
     Q(r) pseudized with 0 coefficients 


     PseudoPot. # 3 for O  read from file:
     /root/sssp/O.pbe-n-kjpaw_psl.0.1.UPF
     MD5 check sum: 0234752ac141de4415c5fc33072bef88
     Pseudo is Projector augmented-wave + core cor, Zval =  6.0
     Generated using "atomic" code by A. Dal Corso  v.5.0.99 svn rev. 10869
     Shape of augmentation charge: BESSEL
     Using radial grid of 1095 points,  4 beta functions with: 
                l(1) =   0
                l(2) =   0
                l(3) =   1
                l(4) =   1
     Q(r) pseudized with 0 coefficients 


     atomic species   valence    mass     pseudopotential
     K                 9.00    39.09830     K ( 1.00)
     Nb               13.00    92.90640     Nb( 1.00)
     O                 6.00    15.99900     O ( 1.00)

     No symmetry found



   Cartesian axes

     site n.     atom                  positions (alat units)
         1        K      tau(   1) = (  -0.0108709   0.0188098   0.0007545  )
         2        K      tau(   2) = (   0.5071936   0.0008000  -0.0005075  )
         3        K      tau(   3) = (   0.0050363   0.4994602   0.0085583  )
         4        K      tau(   4) = (   0.4987581   0.5070015   0.0150144  )
         5        K      tau(   5) = (  -0.0046705  -0.0085632   0.5005674  )
         6        K      tau(   6) = (   0.5024265   0.0023972   0.4883545  )
         7        K      tau(   7) = (  -0.0004416   0.5115584   0.4953324  )
         8        K      tau(   8) = (   0.4956347   0.5016029   0.4984854  )
         9        Nb     tau(   9) = (   0.2464788   0.2373068   0.2536946  )
        10        Nb     tau(  10) = (   0.7491366   0.2458877   0.2532966  )
        11        Nb     tau(  11) = (   0.2479419   0.7459647   0.2468643  )
        12        Nb     tau(  12) = (   0.7451937   0.7507382   0.2478595  )
        13        Nb     tau(  13) = (   0.2540316   0.2496401   0.7409807  )
        14        Nb     tau(  14) = (   0.7512293   0.2495424   0.7497187  )
        15        Nb     tau(  15) = (   0.2551044   0.7523220   0.7523295  )
        16        Nb     tau(  16) = (   0.7533377   0.7531615   0.7498601  )
        17        O      tau(  17) = (   0.4892978   0.2229266   0.2490940  )
        18        O      tau(  18) = (  -0.0019748   0.2570336   0.2577823  )
        19        O      tau(  19) = (   0.5075256   0.7452345   0.2473748  )
        20        O      tau(  20) = (   0.0115933   0.7466236   0.2529495  )
        21        O      tau(  21) = (   0.4926312   0.2646032   0.7680240  )
        22        O      tau(  22) = (  -0.0158477   0.2478951   0.7227099  )
        23        O      tau(  23) = (   0.5076886   0.7678845   0.7429618  )
        24        O      tau(  24) = (   0.0023877   0.7666412   0.7499280  )
        25        O      tau(  25) = (   0.2373221  -0.0024097   0.2546190  )
        26        O      tau(  26) = (   0.7644842  -0.0072929   0.2568726  )
        27        O      tau(  27) = (   0.2443167   0.4999934   0.2645062  )
        28        O      tau(  28) = (   0.7499926   0.4962721   0.2440405  )
        29        O      tau(  29) = (   0.2611605  -0.0088990   0.7390385  )
        30        O      tau(  30) = (   0.7487044   0.0153094   0.7500369  )
        31        O      tau(  31) = (   0.2531762   0.4898673   0.7530123  )
        32        O      tau(  32) = (   0.7472852   0.5076050   0.7338357  )
        33        O      tau(  33) = (   0.2411675   0.2457411   0.0015643  )
        34        O      tau(  34) = (   0.7539372   0.2664698   0.0011996  )
        35        O      tau(  35) = (   0.2586322   0.7587153   0.0028108  )
        36        O      tau(  36) = (   0.7520278   0.7457034   0.0130624  )
        37        O      tau(  37) = (   0.2555089   0.2498499   0.5058406  )
        38        O      tau(  38) = (   0.7363941   0.2374506   0.4926619  )
        39        O      tau(  39) = (   0.2481763   0.7507733   0.5058148  )
        40        O      tau(  40) = (   0.7571071   0.7448406   0.5055640  )

     number of k points=    36  Marzari-Vanderbilt smearing, width (Ry)=  0.0050
                       cart. coord. in units 2pi/alat
        k(    1) = (   0.0000000   0.0000000   0.0000000), wk =   0.0312500
        k(    2) = (   0.0000000   0.0000000   0.2500000), wk =   0.0625000
        k(    3) = (   0.0000000   0.0000000  -0.5000000), wk =   0.0312500
        k(    4) = (   0.0000000   0.2500000   0.2500000), wk =   0.0625000
        k(    5) = (   0.0000000   0.2500000  -0.5000000), wk =   0.0625000
        k(    6) = (   0.0000000  -0.5000000  -0.5000000), wk =   0.0312500
        k(    7) = (   0.2500000   0.2500000   0.2500000), wk =   0.0625000
        k(    8) = (   0.2500000   0.2500000  -0.5000000), wk =   0.0625000
        k(    9) = (   0.2500000  -0.5000000  -0.5000000), wk =   0.0625000
        k(   10) = (  -0.5000000  -0.5000000  -0.5000000), wk =   0.0312500
        k(   11) = (   0.2500000   0.0000000   0.0000000), wk =   0.0625000
        k(   12) = (   0.0000000   0.2500000   0.0000000), wk =   0.0625000
        k(   13) = (  -0.5000000   0.0000000   0.0000000), wk =   0.0312500
        k(   14) = (   0.0000000  -0.5000000   0.0000000), wk =   0.0312500
        k(   15) = (   0.0000000  -0.2500000   0.2500000), wk =   0.0625000
        k(   16) = (   0.2500000   0.0000000  -0.2500000), wk =   0.0625000
        k(   17) = (  -0.2500000   0.0000000  -0.2500000), wk =   0.0625000
        k(   18) = (   0.2500000  -0.2500000   0.0000000), wk =   0.0625000
        k(   19) = (  -0.2500000  -0.2500000   0.0000000), wk =   0.0625000
        k(   20) = (   0.2500000   0.0000000   0.5000000), wk =   0.0625000
        k(   21) = (  -0.5000000  -0.2500000   0.0000000), wk =   0.0625000
        k(   22) = (   0.0000000  -0.5000000   0.2500000), wk =   0.0625000
        k(   23) = (   0.2500000  -0.5000000   0.0000000), wk =   0.0625000
        k(   24) = (  -0.5000000   0.0000000   0.2500000), wk =   0.0625000
        k(   25) = (  -0.5000000   0.0000000   0.5000000), wk =   0.0312500
        k(   26) = (  -0.5000000   0.5000000   0.0000000), wk =   0.0312500
        k(   27) = (  -0.2500000  -0.2500000   0.2500000), wk =   0.0625000
        k(   28) = (  -0.2500000   0.2500000  -0.2500000), wk =   0.0625000
        k(   29) = (   0.2500000  -0.2500000  -0.2500000), wk =   0.0625000
        k(   30) = (  -0.2500000   0.2500000   0.5000000), wk =   0.0625000
        k(   31) = (  -0.5000000  -0.2500000   0.2500000), wk =   0.0625000
        k(   32) = (   0.5000000  -0.2500000  -0.2500000), wk =   0.0625000
        k(   33) = (  -0.2500000  -0.5000000   0.2500000), wk =   0.0625000
        k(   34) = (  -0.2500000   0.5000000  -0.2500000), wk =   0.0625000
        k(   35) = (  -0.5000000   0.2500000   0.5000000), wk =   0.0625000
        k(   36) = (  -0.5000000   0.5000000   0.2500000), wk =   0.0625000

     Dense  grid:   640171 G-vectors     FFT dimensions: ( 108, 108, 108)

     Smooth grid:   226639 G-vectors     FFT dimensions: (  75,  75,  75)

     Estimated max dynamical RAM per process >       1.01 GB

     Estimated total dynamical RAM >       7.61 GB

     Check: negative core charge=   -0.000003

     Initial potential from superposition of free atoms

     starting charge     319.8323, renormalised to     320.0000
     Starting wfcs are  240 randomized atomic wfcs
     Checking if some PAW data can be deallocated... 

     total cpu time spent up to now is       81.0 secs

     per-process dynamical memory:   695.4 Mb

     Self-consistent Calculation

     iteration #  1     ecut=    60.00 Ry     beta= 0.40
     Davidson diagonalization with overlap
     ethr =  1.00E-02,  avg # of iterations =  2.0

     total cpu time spent up to now is      250.2 secs

     total energy              =   -4575.59536121 Ry
     estimated scf accuracy    <      20.72240606 Ry

     iteration #  2     ecut=    60.00 Ry     beta= 0.40
     Davidson diagonalization with overlap
     ethr =  6.48E-03,  avg # of iterations =  4.0

     total cpu time spent up to now is      460.7 secs

     total energy              =   -4580.49184577 Ry
     estimated scf accuracy    <       6.79801141 Ry

     iteration #  3     ecut=    60.00 Ry     beta= 0.40
     Davidson diagonalization with overlap
     ethr =  2.12E-03,  avg # of iterations =  2.7

     total cpu time spent up to now is      641.5 secs

     total energy              =   -4582.04701635 Ry
     estimated scf accuracy    <       0.52151624 Ry

     iteration #  4     ecut=    60.00 Ry     beta= 0.40
     Davidson diagonalization with overlap
     ethr =  1.63E-04,  avg # of iterations = 13.2

     total cpu time spent up to now is      921.1 secs

     total energy              =   -4582.00717034 Ry
     estimated scf accuracy    <       0.21138382 Ry

     iteration #  5     ecut=    60.00 Ry     beta= 0.40
     Davidson diagonalization with overlap
     c_bands:  1 eigenvalues not converged
     ethr =  6.61E-05,  avg # of iterations =  7.1

     total cpu time spent up to now is     1172.3 secs

     total energy              =   -4582.06389649 Ry
     estimated scf accuracy    <       0.07639169 Ry

     iteration #  6     ecut=    60.00 Ry     beta= 0.40
     Davidson diagonalization with overlap
     ethr =  2.39E-05,  avg # of iterations =  2.8

     total cpu time spent up to now is     1335.3 secs

     total energy              =   -4582.05981809 Ry
     estimated scf accuracy    <       0.04159061 Ry

     iteration #  7     ecut=    60.00 Ry     beta= 0.40
     Davidson diagonalization with overlap
     ethr =  1.30E-05,  avg # of iterations =  2.2

     total cpu time spent up to now is     1490.0 secs

     total energy              =   -4582.05561314 Ry
     estimated scf accuracy    <       0.01117185 Ry

     iteration #  8     ecut=    60.00 Ry     beta= 0.40
     Davidson diagonalization with overlap
     c_bands:  1 eigenvalues not converged
     c_bands:  1 eigenvalues not converged
     ethr =  3.49E-06,  avg # of iterations =  9.9

     total cpu time spent up to now is     1755.7 secs

     total energy              =   -4582.05929584 Ry
     estimated scf accuracy    <       0.00281086 Ry

     iteration #  9     ecut=    60.00 Ry     beta= 0.40
     Davidson diagonalization with overlap
     ethr =  8.78E-07,  avg # of iterations =  2.4

     total cpu time spent up to now is     1915.8 secs

     total energy              =   -4582.05944612 Ry
     estimated scf accuracy    <       0.00032686 Ry

     iteration # 10     ecut=    60.00 Ry     beta= 0.40
     Davidson diagonalization with overlap
     ethr =  1.02E-07,  avg # of iterations =  3.7

     total cpu time spent up to now is     2092.4 secs

     total energy              =   -4582.05948033 Ry
     estimated scf accuracy    <       0.00002899 Ry

     iteration # 11     ecut=    60.00 Ry     beta= 0.40
     Davidson diagonalization with overlap
     ethr =  9.06E-09,  avg # of iterations =  5.0

     total cpu time spent up to now is     2316.7 secs

     total energy              =   -4582.05949242 Ry
     estimated scf accuracy    <       0.00001125 Ry

     iteration # 12     ecut=    60.00 Ry     beta= 0.40
     Davidson diagonalization with overlap
     ethr =  3.52E-09,  avg # of iterations =  2.0

     total cpu time spent up to now is     2482.0 secs

     total energy              =   -4582.05949510 Ry
     estimated scf accuracy    <       0.00000059 Ry

     iteration # 13     ecut=    60.00 Ry     beta= 0.40
     Davidson diagonalization with overlap
     ethr =  1.84E-10,  avg # of iterations =  4.0

     total cpu time spent up to now is     2697.2 secs

     total energy              =   -4582.05949531 Ry
     estimated scf accuracy    <       0.00000007 Ry

     iteration # 14     ecut=    60.00 Ry     beta= 0.40
     Davidson diagonalization with overlap
     ethr =  2.19E-11,  avg # of iterations =  3.9

     total cpu time spent up to now is     2922.8 secs

     total energy              =   -4582.05949534 Ry
     estimated scf accuracy    <       0.00000003 Ry

     iteration # 15     ecut=    60.00 Ry     beta= 0.40
     Davidson diagonalization with overlap
     ethr =  8.60E-12,  avg # of iterations =  2.0

     total cpu time spent up to now is     3102.9 secs

     End of self-consistent calculation

          k = 0.0000 0.0000 0.0000 ( 28353 PWs)   bands (ev):

   -47.1991 -47.1557 -47.1469 -47.0663 -47.0411 -47.0344 -47.0284 -46.9650
   -23.3126 -23.3080 -23.2819 -23.2792 -23.2723 -23.2608 -23.2557 -23.2540
   -23.2381 -23.2228 -23.2226 -23.1836 -23.1749 -23.1715 -23.1458 -23.1237
   -23.1219 -23.1174 -23.1135 -23.1101 -23.0989 -23.0929 -23.0665 -23.0237
   -19.5460 -19.5052 -19.4203 -19.4076 -19.3973 -19.3698 -19.2363 -19.1773
    -9.1332  -9.0836  -9.0562  -9.0464  -8.8394  -8.8041  -8.7974  -8.7029
    -8.6833  -8.6706  -8.6341  -8.5832  -7.9213  -7.9066  -7.8921  -7.8723
    -7.8417  -7.8210  -7.8141  -7.7821  -7.7665  -7.7627  -7.7428  -7.6646
    -3.2102  -3.1973  -3.1881  -3.0738  -3.0591  -3.0521  -3.0147  -2.9983
    -2.9833  -2.9661  -2.9573  -2.9415  -2.9379  -2.9211  -2.9079  -2.8944
    -2.8871  -2.8724  -2.7974  -2.7755  -2.7530  -2.7186  -2.7167  -2.6854
     2.7662   2.8067   2.8276   2.8365   2.8740   2.9966   3.0263   3.0458
     3.2036   3.2231   3.2679   3.5567   3.6587   3.6700   3.6853   4.1958
     4.1991   4.2123   5.1166   5.1340   5.1810   5.1948   5.2350   5.2431
     5.3265   5.3759   5.3965   5.4486   5.4663   5.5214   5.7275   5.7312
     5.7832   5.8146   5.8374   5.8484   5.8809   5.8872   5.9222   5.9584
     5.9933   6.0334   6.3815   6.3969   6.4245   6.4675   6.5008   6.5279
     6.5576   6.5708   6.5953   6.6039   6.6785   6.7079   6.9418   6.9676
     6.9988   7.0705   7.0941   7.0980   7.1359   7.1594   7.2005   7.2882
     7.2919   7.3337   7.8804   7.9151   7.9348   7.9518   7.9925   8.0292
     9.5733   9.6043   9.6212   9.6847   9.7274   9.7591  11.7618  11.7948
    11.8299  11.8750  11.8991  11.9488  11.9573  11.9698  11.9827  12.0216
    12.0342  12.0742  12.7974  12.8506  12.8871  12.9456  12.9515  13.0215
    13.0317  13.0779  13.1027  13.1319  13.2337  14.1692  14.2269  14.4110

          k = 0.0000 0.0000 0.2500 ( 28242 PWs)   bands (ev):

   -47.1991 -47.1557 -47.1469 -47.0663 -47.0411 -47.0344 -47.0284 -46.9649
   -23.3115 -23.2970 -23.2817 -23.2743 -23.2719 -23.2601 -23.2557 -23.2436
   -23.2378 -23.2228 -23.2100 -23.1843 -23.1832 -23.1750 -23.1458 -23.1245
   -23.1218 -23.1208 -23.1173 -23.1135 -23.1072 -23.0982 -23.0666 -23.0302
   -19.5459 -19.5050 -19.4195 -19.4070 -19.3987 -19.3700 -19.2364 -19.1774
    -9.1044  -9.0377  -9.0064  -8.9914  -8.8197  -8.8053  -8.7337  -8.6895
    -8.6429  -8.6325  -8.6093  -8.5519  -8.0379  -7.9846  -7.9170  -7.8922
    -7.8839  -7.8469  -7.8321  -7.8133  -7.7985  -7.7837  -7.7702  -7.7527
    -3.1923  -3.1764  -3.1602  -3.0701  -3.0551  -3.0508  -3.0131  -2.9966
    -2.9919  -2.9653  -2.9554  -2.9448  -2.9402  -2.9288  -2.9181  -2.9017
    -2.8946  -2.8807  -2.8054  -2.7856  -2.7600  -2.7239  -2.7189  -2.6907
     2.8018   2.8598   2.9190   2.9371   2.9894   3.0314   3.0862   3.2436
     3.3806   3.4730   3.5019   3.7266   3.7537   3.8137   3.8384   4.1335
     4.2879   4.2920   4.8587   4.8971   4.9298   5.0123   5.1542   5.2123
     5.2773   5.2865   5.3586   5.3970   5.4240   5.4454   5.4766   5.5198
     5.5708   5.7048   5.7473   5.8043   5.8279   5.8699   5.9424   5.9771
     6.0731   6.2274   6.2401   6.4027   6.4331   6.4831   6.5150   6.5452
     6.5562   6.6124   6.6683   6.6839   6.7686   6.7894   6.8230   6.8416
     6.8775   6.9356   6.9646   7.0574   7.0835   7.0975   7.1589   7.1772
     7.2444   7.2689   7.7849   7.8320   7.8463   7.8962   7.9203   7.9916
     9.6117   9.7243   9.9885  10.0072  10.0807  10.1012  11.5507  11.6191
    11.6369  11.6656  11.8345  11.8452  11.9593  11.9880  12.0257  12.0489
    12.0782  12.0946  12.7005  12.7069  12.7939  12.8154  12.8641  12.9640
    13.0882  13.1279  13.4423  13.4823  13.5955  14.1734  14.1881  14.7134

          k = 0.0000 0.0000-0.5000 ( 28326 PWs)   bands (ev):

   -47.1991 -47.1557 -47.1469 -47.0663 -47.0411 -47.0344 -47.0284 -46.9650
   -23.3113 -23.2826 -23.2804 -23.2717 -23.2698 -23.2589 -23.2555 -23.2387
   -23.2289 -23.2228 -23.2000 -23.1927 -23.1835 -23.1750 -23.1459 -23.1364
   -23.1248 -23.1233 -23.1216 -23.1172 -23.1137 -23.0988 -23.0666 -23.0369
   -19.5457 -19.5049 -19.4187 -19.4058 -19.4006 -19.3702 -19.2365 -19.1775
    -9.0859  -9.0133  -8.9292  -8.9117  -8.8526  -8.8172  -8.6874  -8.6141
    -8.6000  -8.5446  -8.5297  -8.3958  -8.2427  -8.2081  -8.0797  -7.9258
    -7.8984  -7.8758  -7.8582  -7.8240  -7.8085  -7.7987  -7.7832  -7.7670
    -3.1710  -3.1515  -3.1246  -3.0623  -3.0530  -3.0418  -3.0228  -3.0044
    -2.9994  -2.9683  -2.9620  -2.9513  -2.9424  -2.9338  -2.9177  -2.9124
    -2.9029  -2.8889  -2.8143  -2.7936  -2.7674  -2.7291  -2.7209  -2.6959
     2.8034   2.8607   2.9645   2.9852   2.9954   3.0612   3.1744   3.2589
     3.9212   3.9588   4.0990   4.1384   4.1749   4.2049   4.2552   4.2575
     4.3384   4.3662   4.4927   4.5374   4.6003   4.6397   4.6827   4.7111
     4.7714   4.9141   5.1839   5.2366   5.3170   5.3822   5.4698   5.4836
     5.4990   5.5852   5.6044   5.6701   5.7688   5.7786   6.1027   6.1666
     6.2222   6.2752   6.3237   6.3405   6.3496   6.3823   6.4338   6.4831
     6.4932   6.5733   6.6050   6.6188   6.6483   6.6881   6.7202   6.7455
     6.7815   6.8468   7.1409   7.1707   7.1988   7.2224   7.2896   7.3875
     7.4507   7.4810   7.5462   7.5560   7.5865   7.6083   7.9199   7.9892
     9.6213   9.7172  10.7070  10.7447  10.8149  10.8377  10.9434  10.9500
    10.9711  10.9849  11.8292  11.8534  11.9744  12.0288  12.2342  12.2676
    12.2880  12.3231  12.3825  12.3905  12.4589  12.4643  12.8612  12.9573
    13.0913  13.1263  13.9011  13.9221  13.9885  14.0126  14.4938  14.5917

          k = 0.0000 0.2500 0.2500 ( 28303 PWs)   bands (ev):

   -47.1991 -47.1557 -47.1469 -47.0662 -47.0411 -47.0344 -47.0284 -46.9650
   -23.3114 -23.2969 -23.2738 -23.2718 -23.2620 -23.2596 -23.2453 -23.2431
   -23.2377 -23.2106 -23.2086 -23.1844 -23.1833 -23.1751 -23.1457 -23.1324
   -23.1279 -23.1272 -23.1235 -23.1209 -23.1126 -23.1063 -23.0666 -23.0302
   -19.5456 -19.5048 -19.4197 -19.4070 -19.3982 -19.3707 -19.2360 -19.1778
    -9.0655  -8.9957  -8.9673  -8.9234  -8.8116  -8.7561  -8.6967  -8.6585
    -8.6211  -8.6031  -8.5631  -8.5273  -8.0553  -8.0069  -7.9654  -7.9565
    -7.9330  -7.9125  -7.8950  -7.8790  -7.8708  -7.8386  -7.7929  -7.7569
    -3.1740  -3.1691  -3.1301  -3.0694  -3.0522  -3.0473  -3.0285  -3.0018
    -2.9935  -2.9791  -2.9636  -2.9526  -2.9388  -2.9281  -2.9168  -2.9071
    -2.8951  -2.8743  -2.8072  -2.7855  -2.7656  -2.7312  -2.7221  -2.6962
     2.8673   2.9467   2.9765   3.0627   3.2026   3.2228   3.3551   3.4005
     3.4569   3.5448   3.5906   3.8265   3.8805   3.9016   3.9929   4.1596
     4.3031   4.3979   4.7663   4.8484   4.9106   4.9604   4.9972   5.0584
     5.1305   5.1574   5.2511   5.3087   5.3353   5.3817   5.4084   5.4429
     5.4657   5.5173   5.5670   5.6091   5.7297   5.7922   5.8678   5.8990
     5.9711   6.2201   6.2704   6.3170   6.3921   6.4255   6.5142   6.5410
     6.6066   6.6266   6.7259   6.7453   6.7702   6.7863   6.8286   6.8446
     6.8814   6.9399   6.9641   6.9929   7.0159   7.0776   7.1102   7.1566
     7.2018   7.2312   7.7583   7.7675   7.7924   7.8186   7.8347   7.8949
     9.9432  10.0352  10.0986  10.1221  10.2760  10.3764  11.5462  11.5821
    11.6146  11.6657  11.6765  11.6981  11.8078  11.8875  11.9856  12.0082
    12.0261  12.0580  12.5036  12.6007  12.6942  12.7266  12.7699  12.8187
    13.3289  13.4082  13.5422  13.9081  13.9418  14.1442  14.7633  14.8758

          k = 0.0000 0.2500-0.5000 ( 28234 PWs)   bands (ev):

   -47.1991 -47.1557 -47.1469 -47.0662 -47.0411 -47.0344 -47.0284 -46.9649
   -23.3112 -23.2814 -23.2717 -23.2687 -23.2616 -23.2587 -23.2451 -23.2387
   -23.2286 -23.2092 -23.2002 -23.1927 -23.1835 -23.1751 -23.1458 -23.1364
   -23.1323 -23.1277 -23.1274 -23.1248 -23.1220 -23.1126 -23.0667 -23.0369
   -19.5455 -19.5047 -19.4189 -19.4059 -19.3999 -19.3709 -19.2361 -19.1779
    -9.0383  -8.9545  -8.9204  -8.8280  -8.7998  -8.7547  -8.6372  -8.5981
    -8.5601  -8.5388  -8.5171  -8.3981  -8.2516  -8.2128  -8.0927  -7.9710
    -7.9599  -7.9384  -7.9257  -7.8973  -7.8885  -7.8561  -7.8533  -7.7729
    -3.1558  -3.1429  -3.1273  -3.0667  -3.0527  -3.0468  -3.0233  -3.0020
    -2.9922  -2.9762  -2.9694  -2.9613  -2.9474  -2.9375  -2.9208  -2.9090
    -2.8968  -2.8825  -2.8131  -2.7867  -2.7695  -2.7353  -2.7221  -2.7005
     2.8864   2.9796   2.9825   3.0747   3.3460   3.3838   3.4466   3.4865
     4.0197   4.0526   4.1127   4.1738   4.2011   4.2422   4.2720   4.3220
     4.3844   4.4215   4.5024   4.5737   4.6167   4.6467   4.6791   4.7421
     4.8315   4.9084   4.9501   5.0107   5.1802   5.2165   5.2808   5.3202
     5.3687   5.4266   5.4839   5.5403   5.6686   5.6993   5.7642   5.8420
     5.9211   6.0543   6.1102   6.1614   6.3900   6.4342   6.4707   6.5051
     6.5844   6.6136   6.6907   6.7182   6.7538   6.8140   6.8576   6.8794
     6.9157   6.9423   6.9801   7.0306   7.0659   7.1311   7.2918   7.3852
     7.4331   7.4730   7.5206   7.5502   7.5772   7.6045   7.8136   7.8837
     9.9929  10.0974  10.7443  10.8176  10.8726  10.9651  10.9768  10.9903
    11.1115  11.1218  11.5890  11.6860  11.9474  12.0010  12.0488  12.0803
    12.1495  12.2025  12.2403  12.2991  12.3879  12.4446  12.7262  12.7808
    13.4334  13.4372  13.9414  13.9589  14.5152  14.5948  14.8271  14.9098

          k = 0.0000-0.5000-0.5000 ( 28276 PWs)   bands (ev):

   -47.1991 -47.1557 -47.1469 -47.0662 -47.0412 -47.0344 -47.0284 -46.9650
   -23.3112 -23.2813 -23.2683 -23.2602 -23.2585 -23.2498 -23.2392 -23.2305
   -23.2281 -23.2006 -23.1932 -23.1886 -23.1835 -23.1754 -23.1454 -23.1448
   -23.1420 -23.1399 -23.1381 -23.1322 -23.1247 -23.1223 -23.0667 -23.0370
   -19.5453 -19.5045 -19.4191 -19.4059 -19.3993 -19.3716 -19.2357 -19.1783
    -8.9981  -8.9197  -8.8905  -8.8170  -8.6794  -8.6425  -8.5576  -8.5406
    -8.5168  -8.5104  -8.4108  -8.3239  -8.3067  -8.2561  -8.2250  -8.1539
    -8.1184  -8.0786  -8.0349  -7.9090  -7.8967  -7.8613  -7.8557  -7.7738
    -3.1375  -3.1322  -3.1213  -3.0668  -3.0594  -3.0528  -3.0361  -3.0300
    -2.9958  -2.9629  -2.9590  -2.9536  -2.9497  -2.9374  -2.9240  -2.9166
    -2.8938  -2.8796  -2.8158  -2.7745  -2.7716  -2.7437  -2.7231  -2.7063
     2.9108   2.9897   3.0091   3.1013   3.9527   4.0138   4.0790   4.1183
     4.1270   4.1695   4.2162   4.2248   4.2630   4.3621   4.3720   4.4074
     4.4198   4.4470   4.5057   4.5216   4.5347   4.5804   4.6036   4.6507
     4.6979   4.7283   4.7657   4.7899   4.8964   4.9798   5.0193   5.0649
     5.1177   5.2220   5.3121   5.3734   5.4117   5.4330   5.5206   5.5938
     5.7168   5.8143   5.9556   6.0534   6.4622   6.4694   6.4915   6.5190
     6.5466   6.5915   6.6613   6.7024   6.7513   6.8061   6.8394   6.8923
     7.0139   7.0816   7.1650   7.1993   7.2450   7.2796   7.3766   7.3811
     7.4153   7.4264   7.4976   7.5217   7.5646   7.5763   7.6323   7.6640
    10.6587  10.7347  10.8043  10.8409  10.9015  10.9598  11.0133  11.0840
    11.2266  11.3469  11.4593  11.5067  11.5746  11.6196  11.7083  11.7472
    12.1873  12.2096  12.2677  12.2984  12.3807  12.4166  12.4193  12.5024
    13.7019  13.7415  13.8815  13.9254  15.3346  15.5672  15.7067  15.7328

          k = 0.2500 0.2500 0.2500 ( 28324 PWs)   bands (ev):

   -47.1991 -47.1557 -47.1469 -47.0663 -47.0411 -47.0344 -47.0284 -46.9650
   -23.3001 -23.2955 -23.2732 -23.2716 -23.2623 -23.2477 -23.2427 -23.2425
   -23.2228 -23.2106 -23.2087 -23.1967 -23.1841 -23.1613 -23.1599 -23.1401
   -23.1319 -23.1282 -23.1255 -23.1221 -23.1129 -23.1064 -23.0823 -23.0302
   -19.5451 -19.5053 -19.4178 -19.4087 -19.3982 -19.3705 -19.2362 -19.1779
    -8.9987  -8.9389  -8.9105  -8.8879  -8.7654  -8.7159  -8.6995  -8.6114
    -8.5935  -8.5815  -8.5410  -8.4881  -8.0786  -8.0422  -8.0280  -8.0033
    -7.9905  -7.9607  -7.9432  -7.9289  -7.9120  -7.8928  -7.8782  -7.7724
    -3.1682  -3.1503  -3.1152  -3.0808  -3.0655  -3.0553  -3.0277  -2.9978
    -2.9888  -2.9809  -2.9633  -2.9576  -2.9477  -2.9365  -2.9181  -2.9032
    -2.8914  -2.8699  -2.8176  -2.7877  -2.7619  -2.7363  -2.7202  -2.6933
     3.1628   3.1946   3.2141   3.2221   3.2498   3.3545   3.4066   3.4196
     3.5592   3.6002   3.6516   3.8838   4.0117   4.0363   4.0750   4.2537
     4.3876   4.4112   4.7820   4.8442   4.8709   4.9358   4.9813   5.0118
     5.0458   5.0865   5.1029   5.1518   5.1880   5.2552   5.2935   5.3594
     5.3827   5.4357   5.4948   5.5118   5.5582   5.5753   5.6124   5.8416
     5.8761   5.9273   6.1368   6.2052   6.2831   6.3676   6.4159   6.4913
     6.6259   6.7065   6.7488   6.7788   6.8081   6.8352   6.8952   6.9057
     6.9364   6.9542   6.9761   6.9928   7.0420   7.0820   7.1151   7.1582
     7.2013   7.2409   7.6746   7.7131   7.7367   7.7716   7.8020   7.8393
    10.2111  10.3000  10.3180  10.3564  10.3829  10.4103  11.5757  11.5893
    11.6380  11.6613  11.6968  11.7144  11.7632  11.7901  11.8202  11.8601
    11.8715  11.9039  12.4863  12.5055  12.5304  12.5760  12.6043  12.6146
    13.8920  13.9108  13.9266  13.9532  13.9842  14.7284  14.7763  14.8426

          k = 0.2500 0.2500-0.5000 ( 28270 PWs)   bands (ev):

   -47.1991 -47.1557 -47.1469 -47.0662 -47.0411 -47.0344 -47.0284 -46.9650
   -23.2987 -23.2812 -23.2714 -23.2675 -23.2618 -23.2472 -23.2425 -23.2292
   -23.2226 -23.2092 -23.2002 -23.1967 -23.1927 -23.1612 -23.1600 -23.1408
   -23.1354 -23.1318 -23.1281 -23.1257 -23.1248 -23.1129 -23.0824 -23.0370
   -19.5450 -19.5052 -19.4171 -19.4075 -19.3999 -19.3707 -19.2363 -19.1780
    -8.9563  -8.8853  -8.8308  -8.8068  -8.7522  -8.7169  -8.6012  -8.5793
    -8.5468  -8.5193  -8.4976  -8.3995  -8.2551  -8.2146  -8.1105  -8.0389
    -8.0223  -7.9965  -7.9713  -7.9464  -7.9296  -7.9227  -7.9033  -7.8726
    -3.1552  -3.1309  -3.1212  -3.0778  -3.0693  -3.0513  -3.0190  -3.0077
    -3.0024  -2.9828  -2.9733  -2.9607  -2.9501  -2.9361  -2.9133  -2.9051
    -2.8934  -2.8749  -2.8213  -2.7857  -2.7618  -2.7313  -2.7192  -2.6971
     3.1931   3.2366   3.3304   3.3550   3.3710   3.4271   3.5322   3.6057
     4.0913   4.1193   4.1470   4.1829   4.2510   4.3026   4.3422   4.3833
     4.4157   4.4246   4.5115   4.5886   4.6646   4.7106   4.7275   4.7797
     4.8315   4.9010   4.9538   5.0062   5.0597   5.0872   5.1539   5.1762
     5.2109   5.2823   5.3195   5.3561   5.4101   5.4633   5.6587   5.6901
     5.7571   5.7927   5.9128   5.9588   6.0417   6.0804   6.3779   6.3909
     6.7444   6.7841   6.8199   6.8300   6.8562   6.8793   6.9057   6.9234
     6.9431   6.9849   7.0429   7.0696   7.1137   7.1498   7.2539   7.3583
     7.4297   7.4732   7.5103   7.5296   7.5721   7.5911   7.7494   7.8023
    10.2869  10.3337  10.8588  10.9383  10.9794  11.0001  11.0975  11.1167
    11.1424  11.1557  11.6437  11.6613  11.7888  11.8269  11.9815  12.0119
    12.0513  12.0866  12.1352  12.1690  12.1960  12.2093  12.5354  12.5781
    13.9257  13.9512  14.4900  14.5323  14.5723  14.6197  14.9624  15.0670

          k = 0.2500-0.5000-0.5000 ( 28280 PWs)   bands (ev):

   -47.1991 -47.1557 -47.1469 -47.0662 -47.0411 -47.0344 -47.0284 -46.9650
   -23.2987 -23.2811 -23.2672 -23.2599 -23.2500 -23.2451 -23.2304 -23.2287
   -23.2226 -23.2006 -23.1966 -23.1933 -23.1887 -23.1609 -23.1605 -23.1442
   -23.1433 -23.1401 -23.1392 -23.1373 -23.1312 -23.1247 -23.0825 -23.0370
   -19.5448 -19.5049 -19.4173 -19.4076 -19.3992 -19.3715 -19.2359 -19.1784
    -8.8945  -8.8283  -8.7848  -8.7287  -8.6652  -8.6470  -8.5414  -8.5355
    -8.5051  -8.4945  -8.4126  -8.3272  -8.3112  -8.2554  -8.2269  -8.1634
    -8.1192  -8.0841  -8.0493  -8.0200  -7.9938  -7.9845  -7.9342  -7.8806
    -3.1417  -3.1288  -3.1207  -3.0776  -3.0704  -3.0596  -3.0353  -3.0250
    -3.0003  -2.9851  -2.9686  -2.9647  -2.9544  -2.9376  -2.9245  -2.8993
    -2.8895  -2.8731  -2.8054  -2.7706  -2.7639  -2.7326  -2.7171  -2.6985
     3.2894   3.3653   3.3683   3.4563   3.9532   4.0181   4.0814   4.1182
     4.1671   4.2102   4.2375   4.2582   4.3125   4.3618   4.3658   4.4052
     4.4437   4.4913   4.5180   4.5466   4.6014   4.6495   4.6859   4.7185
     4.7417   4.7992   4.8504   4.8636   4.8996   4.9517   4.9752   5.0149
     5.0532   5.1299   5.1567   5.2003   5.2623   5.2840   5.3304   5.3951
     5.4417   5.5085   5.6135   5.6881   5.9731   5.9903   6.0457   6.1561
     6.8050   6.8362   6.8734   6.9164   6.9464   6.9600   6.9803   7.0073
     7.0346   7.1174   7.1792   7.2019   7.2418   7.2735   7.3462   7.3664
     7.3927   7.4216   7.4924   7.5077   7.5513   7.5839   7.6072   7.6449
    10.8447  10.8947  10.9687  11.0030  11.0687  11.1055  11.1632  11.2191
    11.2524  11.3563  11.4611  11.5000  11.5848  11.6226  11.6968  11.7361
    11.9386  11.9824  12.0223  12.0644  12.1393  12.1686  12.1887  12.2652
    14.3577  14.3682  14.5159  14.5468  15.3400  15.5709  15.7081  15.7392

          k =-0.5000-0.5000-0.5000 ( 28480 PWs)   bands (ev):

   -47.1991 -47.1557 -47.1469 -47.0662 -47.0411 -47.0344 -47.0285 -46.9650
   -23.2838 -23.2786 -23.2668 -23.2597 -23.2501 -23.2318 -23.2287 -23.2176
   -23.2146 -23.2005 -23.1946 -23.1935 -23.1903 -23.1844 -23.1700 -23.1446
   -23.1428 -23.1405 -23.1386 -23.1319 -23.1266 -23.1231 -23.1156 -23.0370
   -19.5443 -19.5054 -19.4143 -19.4107 -19.3992 -19.3713 -19.2360 -19.1785
    -8.7547  -8.7311  -8.6857  -8.6632  -8.5882  -8.5720  -8.5468  -8.4983
    -8.4538  -8.4209  -8.3849  -8.3541  -8.3428  -8.2802  -8.2468  -8.2243
    -8.2013  -8.1919  -8.1405  -8.1233  -8.0921  -8.0696  -8.0301  -7.8991
    -3.1436  -3.1236  -3.1220  -3.0900  -3.0800  -3.0722  -3.0323  -3.0127
    -3.0083  -2.9933  -2.9778  -2.9722  -2.9631  -2.9415  -2.9250  -2.9082
    -2.8725  -2.8640  -2.7935  -2.7667  -2.7528  -2.7261  -2.7122  -2.6911
     3.9288   4.0012   4.0222   4.0480   4.0585   4.1105   4.1314   4.1816
     4.2062   4.2636   4.2816   4.2985   4.3214   4.3438   4.3697   4.3926
     4.4047   4.4392   4.4495   4.4566   4.4987   4.5214   4.5673   4.5956
     4.8276   4.8508   4.8947   4.9283   4.9478   4.9526   4.9878   5.0297
     5.0687   5.1017   5.1045   5.1274   5.1589   5.1777   5.2044   5.2203
     5.2381   5.2799   5.2964   5.3404   5.3521   5.3632   5.4053   5.4831
     6.9773   6.9946   7.0129   7.0372   7.0648   7.1015   7.1069   7.1386
     7.1660   7.1999   7.2134   7.2455   7.2759   7.2831   7.3029   7.3446
     7.3850   7.4320   7.4652   7.4810   7.5138   7.5587   7.5798   7.6129
    11.1931  11.2453  11.3054  11.3572  11.3710  11.4013  11.4027  11.4138
    11.4309  11.4469  11.4866  11.5151  11.5317  11.5418  11.5955  11.6110
    11.6424  11.6456  11.6705  11.6961  11.7355  11.7411  11.7784  11.8750
    15.3379  15.3556  15.5154  15.5352  15.5746  15.6088  15.6990  15.7058

          k = 0.2500 0.0000 0.0000 ( 28242 PWs)   bands (ev):

   -47.1991 -47.1557 -47.1469 -47.0663 -47.0411 -47.0344 -47.0284 -46.9649
   -23.3097 -23.2981 -23.2815 -23.2789 -23.2725 -23.2572 -23.2540 -23.2446
   -23.2235 -23.2228 -23.2219 -23.1968 -23.1715 -23.1614 -23.1596 -23.1396
   -23.1215 -23.1178 -23.1135 -23.1103 -23.0991 -23.0931 -23.0819 -23.0238
   -19.5454 -19.5057 -19.4184 -19.4094 -19.3973 -19.3697 -19.2365 -19.1774
    -9.0935  -9.0664  -9.0003  -8.9871  -8.8525  -8.8162  -8.7106  -8.6788
    -8.6627  -8.6181  -8.5787  -8.5123  -8.0483  -8.0369  -7.9815  -7.9240
    -7.8980  -7.8677  -7.8174  -7.8019  -7.7864  -7.7740  -7.7526  -7.6681
    -3.1824  -3.1717  -3.1640  -3.0817  -3.0712  -3.0566  -3.0082  -2.9936
    -2.9812  -2.9708  -2.9629  -2.9461  -2.9385  -2.9272  -2.9144  -2.8961
    -2.8876  -2.8710  -2.8114  -2.7827  -2.7635  -2.7257  -2.7203  -2.6919
     2.8048   2.8240   2.9233   2.9401   2.9782   3.0195   3.0656   3.2159
     3.3939   3.4844   3.5420   3.7302   3.7500   3.8183   3.8629   4.1199
     4.2917   4.3156   4.8275   4.8704   4.9199   4.9775   5.1538   5.2514
     5.2697   5.3131   5.3446   5.3714   5.4240   5.4660   5.5051   5.5562
     5.5742   5.7117   5.7356   5.7781   5.8005   5.8772   5.9282   5.9494
     6.0844   6.2233   6.2794   6.4108   6.4474   6.4869   6.5221   6.5507
     6.5770   6.6174   6.6803   6.7056   6.7479   6.8017   6.8361   6.8757
     6.8893   6.9332   6.9765   7.0108   7.0308   7.0708   7.1313   7.2116
     7.2387   7.2934   7.7765   7.8154   7.8366   7.8693   7.9554   8.0276
     9.5988   9.6755   9.9920  10.0100  10.0817  10.1180  11.5619  11.5741
    11.6125  11.6259  11.7810  11.9229  12.0085  12.0133  12.0234  12.0502
    12.0805  12.1213  12.7028  12.7162  12.7837  12.8126  12.9000  12.9866
    13.0735  13.0947  13.4356  13.4808  13.6022  14.1260  14.2174  14.7076

          k = 0.0000 0.2500 0.0000 ( 28242 PWs)   bands (ev):

   -47.1991 -47.1557 -47.1469 -47.0662 -47.0411 -47.0344 -47.0284 -46.9649
   -23.3125 -23.3079 -23.2791 -23.2719 -23.2632 -23.2600 -23.2528 -23.2453
   -23.2381 -23.2228 -23.2090 -23.1836 -23.1751 -23.1717 -23.1457 -23.1325
   -23.1280 -23.1270 -23.1221 -23.1152 -23.1075 -23.0935 -23.0665 -23.0238
   -19.5458 -19.5050 -19.4204 -19.4077 -19.3968 -19.3705 -19.2359 -19.1777
    -9.1057  -9.0538  -9.0056  -8.9852  -8.8516  -8.8083  -8.7017  -8.6923
    -8.6350  -8.6216  -8.6053  -8.5340  -7.9947  -7.9732  -7.9404  -7.9253
    -7.9029  -7.8791  -7.8696  -7.8335  -7.8253  -7.7704  -7.7561  -7.6663
    -3.1885  -3.1715  -3.1604  -3.0710  -3.0566  -3.0513  -3.0273  -3.0112
    -2.9846  -2.9698  -2.9558  -2.9480  -2.9377  -2.9229  -2.9105  -2.9018
    -2.8890  -2.8756  -2.8055  -2.7769  -2.7635  -2.7272  -2.7220  -2.6923
     2.7752   2.8502   2.9238   2.9400   3.0009   3.0461   3.0588   3.2215
     3.3954   3.4874   3.5102   3.7323   3.7494   3.8248   3.8423   4.1255
     4.2916   4.3057   4.8423   4.8662   4.9353   4.9705   5.2037   5.2453
     5.2663   5.3013   5.3652   5.3836   5.4388   5.4654   5.4776   5.5241
     5.5505   5.7015   5.7399   5.7641   5.8092   5.8679   5.9386   5.9770
     6.0649   6.2353   6.2772   6.4117   6.4486   6.4825   6.5177   6.5408
     6.6101   6.6222   6.6615   6.6889   6.7252   6.7587   6.8333   6.8872
     6.9116   6.9422   7.0048   7.0390   7.0613   7.0953   7.1276   7.1581
     7.2405   7.2587   7.8005   7.8484   7.8626   7.8937   7.9081   7.9413
     9.6129   9.7187   9.9839   9.9963  10.0672  10.1245  11.5571  11.5757
    11.6342  11.6875  11.8689  11.9015  11.9478  11.9534  12.0090  12.0251
    12.0606  12.1038  12.6818  12.7095  12.7896  12.8066  12.8673  12.9547
    13.0355  13.2088  13.4427  13.4836  13.6162  14.1538  14.1802  14.7095

          k =-0.5000 0.0000 0.0000 ( 28326 PWs)   bands (ev):

   -47.1991 -47.1557 -47.1469 -47.0663 -47.0411 -47.0344 -47.0284 -46.9650
   -23.3094 -23.2823 -23.2802 -23.2786 -23.2725 -23.2568 -23.2540 -23.2232
   -23.2229 -23.2187 -23.2150 -23.1941 -23.1865 -23.1724 -23.1688 -23.1292
   -23.1218 -23.1166 -23.1149 -23.1133 -23.1104 -23.0992 -23.0924 -23.0238
   -19.5448 -19.5063 -19.4145 -19.4131 -19.3974 -19.3696 -19.2367 -19.1775
    -9.0699  -9.0509  -8.9159  -8.9047  -8.8899  -8.8490  -8.6728  -8.6686
    -8.5607  -8.4236  -8.3807  -8.3274  -8.2761  -8.2632  -8.2455  -8.1674
    -7.8985  -7.8654  -7.8058  -7.7981  -7.7915  -7.7856  -7.7628  -7.6704
    -3.1383  -3.1271  -3.1199  -3.1098  -3.1023  -3.0761  -2.9972  -2.9859
    -2.9833  -2.9792  -2.9709  -2.9515  -2.9365  -2.9302  -2.9241  -2.8977
    -2.8891  -2.8670  -2.8263  -2.7898  -2.7749  -2.7328  -2.7237  -2.6985
     2.8083   2.8230   2.9627   2.9815   3.0047   3.0161   3.1775   3.2098
     3.9274   3.9331   4.1496   4.1510   4.1968   4.2551   4.2738   4.3039
     4.3521   4.4101   4.4668   4.4958   4.5775   4.6063   4.6486   4.6967
     4.7656   4.8153   5.2103   5.2330   5.3253   5.3831   5.4938   5.5209
     5.5779   5.6123   5.6606   5.6705   5.6956   5.7149   6.1088   6.1568
     6.1773   6.2321   6.3405   6.3687   6.4014   6.4235   6.4568   6.5211
     6.5408   6.5483   6.6011   6.6409   6.6655   6.6746   6.7011   6.7230
     6.7798   6.8711   7.1300   7.1644   7.2158   7.2553   7.3096   7.3631
     7.4304   7.4377   7.4897   7.5552   7.5862   7.5960   7.9556   8.0266
     9.6121   9.6628  10.6996  10.7461  10.7976  10.8597  10.9019  10.9195
    10.9682  10.9897  11.7777  11.9213  12.0145  12.0199  12.2153  12.2981
    12.3037  12.3499  12.3790  12.4288  12.4576  12.4826  12.9011  12.9731
    13.0742  13.0877  13.9074  13.9350  13.9495  13.9820  14.5328  14.5697

          k = 0.0000-0.5000 0.0000 ( 28326 PWs)   bands (ev):

   -47.1991 -47.1557 -47.1469 -47.0662 -47.0412 -47.0344 -47.0284 -46.9650
   -23.3125 -23.3079 -23.2789 -23.2604 -23.2597 -23.2569 -23.2466 -23.2387
   -23.2308 -23.2229 -23.1889 -23.1835 -23.1754 -23.1722 -23.1453 -23.1448
   -23.1415 -23.1399 -23.1346 -23.1230 -23.1086 -23.0937 -23.0666 -23.0238
   -19.5455 -19.5048 -19.4206 -19.4077 -19.3963 -19.3713 -19.2356 -19.1781
    -9.0874  -9.0347  -8.9261  -8.9100  -8.8860  -8.8266  -8.6978  -8.6227
    -8.5305  -8.5132  -8.5093  -8.2996  -8.2648  -8.1574  -8.1431  -8.1043
    -7.9076  -7.8781  -7.8728  -7.8478  -7.8249  -7.7709  -7.7668  -7.6681
    -3.1598  -3.1399  -3.1165  -3.0630  -3.0589  -3.0520  -3.0495  -3.0301
    -3.0122  -2.9672  -2.9572  -2.9490  -2.9324  -2.9274  -2.9142  -2.9057
    -2.8862  -2.8823  -2.8146  -2.7786  -2.7732  -2.7353  -2.7273  -2.6996
     2.7770   2.8534   2.9625   2.9766   3.0030   3.0643   3.1797   3.2294
     3.9010   3.9680   4.1018   4.1055   4.1501   4.2189   4.2684   4.3727
     4.3857   4.4258   4.4838   4.4996   4.5528   4.6356   4.6664   4.7144
     4.7898   4.8207   5.2531   5.3108   5.3229   5.3667   5.4158   5.4477
     5.5073   5.5625   5.6378   5.6797   5.7356   5.7527   6.1191   6.1825
     6.1941   6.2379   6.3603   6.3739   6.3929   6.4138   6.4385   6.5011
     6.5385   6.5554   6.5862   6.6398   6.6633   6.6964   6.7161   6.7268
     6.7886   6.8583   7.1039   7.1469   7.1564   7.1913   7.3256   7.3603
     7.4966   7.5205   7.5266   7.5495   7.5867   7.6353   7.8897   7.9386
     9.6256   9.7068  10.7243  10.7286  10.8170  10.8191  10.9109  10.9242
    10.9660  11.0483  11.8865  11.8998  11.9538  11.9656  12.2085  12.2237
    12.2363  12.3309  12.3790  12.4116  12.4523  12.5031  12.8417  12.9522
    13.0353  13.2117  13.8918  13.9454  13.9790  14.0029  14.4885  14.6061

          k = 0.0000-0.2500 0.2500 ( 28303 PWs)   bands (ev):

   -47.1991 -47.1557 -47.1469 -47.0662 -47.0411 -47.0344 -47.0284 -46.9650
   -23.3114 -23.2969 -23.2738 -23.2717 -23.2620 -23.2596 -23.2453 -23.2431
   -23.2377 -23.2108 -23.2084 -23.1844 -23.1833 -23.1751 -23.1457 -23.1324
   -23.1279 -23.1272 -23.1236 -23.1209 -23.1127 -23.1063 -23.0666 -23.0302
   -19.5456 -19.5048 -19.4197 -19.4070 -19.3982 -19.3707 -19.2360 -19.1778
    -9.0652  -8.9955  -8.9680  -8.9229  -8.8102  -8.7557  -8.7011  -8.6590
    -8.6207  -8.6031  -8.5623  -8.5254  -8.0456  -8.0172  -7.9681  -7.9572
    -7.9279  -7.9169  -7.8970  -7.8836  -7.8588  -7.8391  -7.7942  -7.7574
    -3.1735  -3.1625  -3.1398  -3.0701  -3.0538  -3.0476  -3.0280  -3.0032
    -2.9938  -2.9739  -2.9571  -2.9512  -2.9465  -2.9277  -2.9203  -2.8960
    -2.8906  -2.8857  -2.8121  -2.7813  -2.7647  -2.7312  -2.7223  -2.6967
     2.8674   2.9469   2.9762   3.0638   3.2012   3.2113   3.3711   3.3960
     3.4709   3.5257   3.5917   3.8440   3.8809   3.8943   3.9851   4.1710
     4.2926   4.3893   4.7778   4.9011   4.9428   4.9680   4.9982   5.0350
     5.0890   5.1099   5.2332   5.3083   5.3390   5.3759   5.4080   5.4368
     5.4848   5.5191   5.5694   5.6060   5.7227   5.8324   5.8650   5.8980
     5.9296   6.2062   6.2752   6.3071   6.4134   6.4498   6.5023   6.5577
     6.5959   6.6438   6.7300   6.7633   6.7910   6.8265   6.8541   6.8696
     6.8799   6.9156   6.9447   6.9777   7.0176   7.0444   7.1315   7.1388
     7.1653   7.1993   7.7597   7.7725   7.7998   7.8272   7.8409   7.8892
     9.9669  10.0151  10.0746  10.1432  10.2763  10.3611  11.5539  11.5805
    11.6263  11.6362  11.7043  11.7295  11.7995  11.8652  11.9864  12.0108
    12.0304  12.0497  12.4975  12.6021  12.7088  12.7169  12.7710  12.8123
    13.3309  13.4057  13.5435  13.9054  13.9487  14.1419  14.7690  14.8839

          k = 0.2500 0.0000-0.2500 ( 28303 PWs)   bands (ev):

   -47.1991 -47.1557 -47.1469 -47.0663 -47.0411 -47.0344 -47.0284 -46.9650
   -23.3002 -23.2955 -23.2814 -23.2736 -23.2721 -23.2567 -23.2446 -23.2431
   -23.2235 -23.2220 -23.2101 -23.1968 -23.1839 -23.1613 -23.1597 -23.1398
   -23.1217 -23.1213 -23.1177 -23.1137 -23.1073 -23.0984 -23.0822 -23.0302
   -19.5453 -19.5056 -19.4177 -19.4086 -19.3987 -19.3698 -19.2366 -19.1775
    -9.0512  -9.0031  -8.9734  -8.9214  -8.8276  -8.7521  -8.7048  -8.6369
    -8.6250  -8.6104  -8.5596  -8.5004  -8.0623  -8.0369  -8.0240  -7.9973
    -7.9746  -7.9161  -7.8876  -7.8251  -7.8095  -7.7964  -7.7834  -7.7699
    -3.1792  -3.1528  -3.1389  -3.0808  -3.0672  -3.0545  -3.0101  -2.9981
    -2.9839  -2.9690  -2.9607  -2.9547  -2.9424  -2.9322  -2.9186  -2.9070
    -2.8859  -2.8772  -2.8150  -2.7885  -2.7703  -2.7239  -2.7213  -2.6968
     2.9149   2.9368   2.9437   3.0042   3.1701   3.2531   3.3732   3.4023
     3.4841   3.5168   3.6081   3.8246   3.8785   3.9252   3.9879   4.1684
     4.2986   4.3939   4.7418   4.8928   4.9253   4.9719   5.0060   5.0229
     5.0480   5.1316   5.2645   5.3268   5.3438   5.4017   5.4333   5.4662
     5.4818   5.5089   5.5542   5.5919   5.7160   5.8111   5.8541   5.9107
     5.9222   6.2366   6.2808   6.3040   6.3505   6.3969   6.4909   6.5130
     6.6133   6.6903   6.7438   6.7799   6.8063   6.8337   6.8440   6.8853
     6.9169   6.9442   6.9556   7.0001   7.0420   7.0594   7.0820   7.1106
     7.1476   7.2016   7.6930   7.7615   7.8050   7.8403   7.8677   7.9247
     9.9652  10.0211  10.0444  10.1016  10.2966  10.3943  11.5429  11.5549
    11.5971  11.6528  11.6974  11.7355  11.7674  11.8160  12.0253  12.0441
    12.0812  12.1079  12.5122  12.5874  12.7138  12.7390  12.7761  12.8415
    13.3240  13.4348  13.4572  13.8800  13.9357  14.1722  14.8018  14.9578

          k =-0.2500 0.0000-0.2500 ( 28303 PWs)   bands (ev):

   -47.1991 -47.1557 -47.1469 -47.0663 -47.0411 -47.0344 -47.0284 -46.9650
   -23.3002 -23.2956 -23.2814 -23.2736 -23.2721 -23.2567 -23.2446 -23.2431
   -23.2236 -23.2220 -23.2100 -23.1968 -23.1839 -23.1614 -23.1597 -23.1397
   -23.1217 -23.1213 -23.1177 -23.1137 -23.1072 -23.0984 -23.0822 -23.0302
   -19.5453 -19.5056 -19.4177 -19.4086 -19.3987 -19.3698 -19.2366 -19.1775
    -9.0506  -9.0037  -8.9745  -8.9202  -8.8292  -8.7468  -8.7094  -8.6333
    -8.6239  -8.6119  -8.5601  -8.5042  -8.0642  -8.0336  -8.0176  -7.9893
    -7.9757  -7.9263  -7.8945  -7.8267  -7.8109  -7.7933  -7.7809  -7.7684
    -3.1783  -3.1543  -3.1381  -3.0810  -3.0662  -3.0562  -3.0121  -2.9920
    -2.9847  -2.9702  -2.9605  -2.9503  -2.9482  -2.9372  -2.9119  -2.9031
    -2.8939  -2.8743  -2.8130  -2.7907  -2.7699  -2.7305  -2.7222  -2.6906
     2.9144   2.9361   2.9450   3.0039   3.1773   3.2503   3.3730   3.3990
     3.4807   3.5207   3.6117   3.8187   3.8929   3.9222   3.9727   4.1694
     4.3030   4.3914   4.7424   4.8812   4.9348   4.9656   4.9890   5.0247
     5.0574   5.1222   5.2825   5.3135   5.3416   5.4098   5.4276   5.4432
     5.4857   5.5330   5.5741   5.5971   5.7174   5.8331   5.8593   5.8956
     5.9273   6.1970   6.2765   6.3049   6.3525   6.4231   6.4792   6.5308
     6.6144   6.6412   6.7740   6.7892   6.8131   6.8453   6.8762   6.8870
     6.9103   6.9288   6.9451   6.9664   7.0224   7.0501   7.0863   7.1415
     7.1580   7.1863   7.6929   7.7574   7.8029   7.8347   7.8824   7.9179
     9.9511  10.0213  10.0495  10.1141  10.2981  10.4022  11.5367  11.5583
    11.5941  11.6590  11.6934  11.7051  11.7676  11.8463  12.0153  12.0507
    12.0832  12.1095  12.5094  12.5850  12.7101  12.7266  12.8107  12.8199
    13.3284  13.4311  13.4583  13.8790  13.9383  14.1735  14.8111  14.8180

          k = 0.2500-0.2500 0.0000 ( 28303 PWs)   bands (ev):

   -47.1991 -47.1557 -47.1469 -47.0663 -47.0411 -47.0344 -47.0284 -46.9650
   -23.3096 -23.2981 -23.2787 -23.2716 -23.2634 -23.2528 -23.2480 -23.2424
   -23.2229 -23.2227 -23.2091 -23.1968 -23.1717 -23.1613 -23.1598 -23.1399
   -23.1319 -23.1282 -23.1253 -23.1154 -23.1077 -23.0938 -23.0820 -23.0238
   -19.5452 -19.5055 -19.4185 -19.4094 -19.3968 -19.3704 -19.2361 -19.1778
    -9.0549  -9.0160  -8.9811  -8.9081  -8.8602  -8.7160  -8.7055  -8.6437
    -8.6091  -8.5949  -8.5625  -8.4916  -8.0528  -8.0332  -7.9994  -7.9800
    -7.9644  -7.9425  -7.9236  -7.8980  -7.8682  -7.8117  -7.7625  -7.6688
    -3.1776  -3.1499  -3.1376  -3.0771  -3.0716  -3.0575  -3.0191  -3.0045
    -2.9820  -2.9724  -2.9599  -2.9530  -2.9399  -2.9224  -2.9167  -2.9047
    -2.8925  -2.8802  -2.8065  -2.7830  -2.7728  -2.7304  -2.7221  -2.6959
     2.8745   2.9170   2.9534   3.0083   3.1997   3.2489   3.3774   3.3958
     3.4914   3.5163   3.6208   3.8446   3.8747   3.8982   3.9983   4.1618
     4.2927   4.4114   4.7546   4.8885   4.9081   4.9560   4.9689   5.0203
     5.0645   5.0737   5.2858   5.3276   5.3559   5.3831   5.4533   5.4694
     5.5239   5.5328   5.5720   5.6148   5.7145   5.8050   5.8551   5.8968
     5.9306   6.1995   6.2752   6.3360   6.3674   6.4563   6.4881   6.5301
     6.5878   6.6517   6.7667   6.7919   6.7970   6.8064   6.8680   6.9090
     6.9213   6.9418   6.9709   6.9965   7.0001   7.0334   7.0705   7.0980
     7.1507   7.2041   7.7212   7.7620   7.7770   7.8324   7.8691   7.9139
     9.9583  10.0324  10.0667  10.1090  10.2834  10.3832  11.5406  11.5722
    11.6103  11.6354  11.6534  11.6943  11.8000  11.8288  12.0177  12.0546
    12.0912  12.0977  12.5013  12.5871  12.7112  12.7374  12.7867  12.8232
    13.3210  13.4324  13.4699  13.9235  13.9399  14.1099  14.8128  14.8392

          k =-0.2500-0.2500 0.0000 ( 28303 PWs)   bands (ev):

   -47.1991 -47.1557 -47.1469 -47.0663 -47.0411 -47.0344 -47.0284 -46.9650
   -23.3096 -23.2981 -23.2787 -23.2716 -23.2634 -23.2528 -23.2480 -23.2425
   -23.2229 -23.2227 -23.2090 -23.1968 -23.1717 -23.1613 -23.1598 -23.1400
   -23.1319 -23.1283 -23.1253 -23.1154 -23.1077 -23.0938 -23.0820 -23.0238
   -19.5452 -19.5055 -19.4185 -19.4094 -19.3968 -19.3704 -19.2361 -19.1778
    -9.0547  -9.0161  -8.9814  -8.9090  -8.8599  -8.7193  -8.7000  -8.6445
    -8.6079  -8.5954  -8.5637  -8.4901  -8.0571  -8.0375  -8.0054  -7.9698
    -7.9648  -7.9403  -7.9219  -7.8975  -7.8684  -7.8114  -7.7636  -7.6689
    -3.1811  -3.1495  -3.1305  -3.0766  -3.0716  -3.0613  -3.0208  -3.0085
    -2.9817  -2.9681  -2.9590  -2.9504  -2.9434  -2.9289  -2.9126  -2.9043
    -2.8886  -2.8768  -2.8192  -2.7835  -2.7614  -2.7329  -2.7218  -2.6971
     2.8747   2.9170   2.9529   3.0084   3.1960   3.2409   3.3814   3.3983
     3.4903   3.5138   3.6241   3.8264   3.8830   3.9019   4.0195   4.1601
     4.2937   4.4171   4.7554   4.8863   4.9234   4.9504   4.9625   5.0194
     5.0795   5.1021   5.2886   5.3268   5.3499   5.3848   5.4369   5.4624
     5.5033   5.5310   5.5439   5.5894   5.6997   5.7938   5.8507   5.8878
     5.9299   6.2613   6.3064   6.3439   6.3907   6.4439   6.4730   6.5534
     6.6129   6.6423   6.7390   6.7723   6.7958   6.8123   6.8492   6.8806
     6.9161   6.9304   6.9535   6.9741   7.0090   7.0323   7.0941   7.1407
     7.1846   7.1947   7.7217   7.7648   7.7812   7.8268   7.8666   7.9200
     9.9549  10.0285  10.0624  10.1192  10.2790  10.3675  11.5466  11.5721
    11.5957  11.6344  11.6590  11.7017  11.7938  11.8418  12.0246  12.0424
    12.0890  12.1026  12.5031  12.5861  12.7111  12.7414  12.7789  12.8309
    13.3177  13.4360  13.4675  13.9243  13.9483  14.1100  14.8093  14.8403

          k = 0.2500 0.0000 0.5000 ( 28234 PWs)   bands (ev):

   -47.1991 -47.1557 -47.1469 -47.0662 -47.0411 -47.0344 -47.0284 -46.9650
   -23.2988 -23.2823 -23.2802 -23.2719 -23.2686 -23.2559 -23.2444 -23.2295
   -23.2234 -23.2221 -23.2000 -23.1967 -23.1927 -23.1613 -23.1598 -23.1405
   -23.1352 -23.1249 -23.1212 -23.1176 -23.1138 -23.0990 -23.0824 -23.0369
   -19.5452 -19.5054 -19.4170 -19.4074 -19.4006 -19.3700 -19.2367 -19.1776
    -9.0220  -8.9629  -8.9169  -8.8591  -8.8149  -8.7234  -8.6336  -8.5960
    -8.5523  -8.5316  -8.5169  -8.3965  -8.2476  -8.2097  -8.0988  -8.0298
    -8.0147  -7.9900  -7.9471  -7.8862  -7.8266  -7.8010  -7.7981  -7.7864
    -3.1620  -3.1352  -3.1259  -3.0748  -3.0653  -3.0424  -3.0161  -3.0058
    -2.9951  -2.9687  -2.9622  -2.9545  -2.9457  -2.9379  -2.9266  -2.9077
    -2.8924  -2.8814  -2.8185  -2.7958  -2.7766  -2.7280  -2.7235  -2.6953
     2.9312   2.9468   2.9871   3.0045   3.3303   3.3982   3.4390   3.5414
     4.0217   4.0640   4.1123   4.1615   4.1878   4.2679   4.2934   4.3240
     4.3564   4.4057   4.4922   4.5303   4.6254   4.6713   4.7236   4.7517
     4.8454   4.8951   4.9179   4.9766   5.1635   5.1986   5.2774   5.3373
     5.3893   5.4417   5.5391   5.5800   5.6377   5.6795   5.7296   5.8295
     5.9646   6.0226   6.0462   6.1899   6.3996   6.4315   6.4628   6.5398
     6.5579   6.6479   6.6794   6.7099   6.7490   6.8317   6.8541   6.9019
     6.9206   6.9441   7.0145   7.0523   7.0784   7.1122   7.2542   7.3643
     7.4442   7.4779   7.5169   7.5459   7.5783   7.5962   7.8289   7.8818
    10.0151  10.0478  10.7055  10.8397  10.9209  10.9412  10.9448  10.9921
    11.1384  11.1565  11.5853  11.6056  11.9642  11.9949  12.0622  12.0971
    12.1734  12.1863  12.2853  12.3373  12.3872  12.4509  12.7435  12.7911
    13.4195  13.4374  13.8913  13.9331  14.5588  14.5880  14.8004  14.9054

          k =-0.5000-0.2500 0.0000 ( 28234 PWs)   bands (ev):

   -47.1991 -47.1557 -47.1469 -47.0663 -47.0411 -47.0344 -47.0284 -46.9650
   -23.3093 -23.2810 -23.2785 -23.2713 -23.2635 -23.2528 -23.2459 -23.2231
   -23.2185 -23.2150 -23.2095 -23.1937 -23.1867 -23.1725 -23.1690 -23.1338
   -23.1312 -23.1254 -23.1228 -23.1158 -23.1155 -23.1078 -23.0930 -23.0238
   -19.5447 -19.5060 -19.4146 -19.4132 -19.3969 -19.3702 -19.2363 -19.1779
    -9.0166  -9.0019  -8.9173  -8.8866  -8.7978  -8.7465  -8.6278  -8.5979
    -8.5555  -8.4241  -8.3826  -8.3269  -8.2822  -8.2704  -8.2454  -8.1714
    -7.9701  -7.9478  -7.9449  -7.9252  -7.8712  -7.8103  -7.7674  -7.6702
    -3.1470  -3.1268  -3.1156  -3.0967  -3.0901  -3.0677  -3.0059  -2.9912
    -2.9835  -2.9762  -2.9663  -2.9558  -2.9439  -2.9292  -2.9216  -2.9085
    -2.8956  -2.8792  -2.8181  -2.7893  -2.7714  -2.7350  -2.7221  -2.7010
     2.8975   2.9256   2.9821   3.0090   3.3545   3.3762   3.4367   3.4905
     4.0252   4.0330   4.1797   4.2062   4.2401   4.2716   4.3088   4.3168
     4.3688   4.4468   4.4840   4.5087   4.5770   4.6206   4.6641   4.7278
     4.8390   4.8758   4.9377   4.9575   5.1430   5.2313   5.3565   5.3779
     5.4020   5.4133   5.5827   5.6117   5.6522   5.6727   5.7013   5.7815
     5.9683   6.0544   6.1182   6.1579   6.4115   6.4510   6.4908   6.5263
     6.5589   6.6142   6.6672   6.7022   6.7518   6.7881   6.8592   6.9096
     6.9196   6.9621   7.0117   7.0813   7.1154   7.1338   7.2800   7.3640
     7.3968   7.4374   7.4925   7.5275   7.5487   7.5772   7.8604   7.9145
    10.0001  10.0452  10.8002  10.8627  10.8829  10.8969  10.9083  10.9230
    11.1259  11.1342  11.5761  11.6441  11.9695  12.0296  12.0311  12.0861
    12.1786  12.2141  12.3297  12.3519  12.4018  12.4236  12.7327  12.8077
    13.4090  13.4304  13.9120  13.9238  14.5153  14.5791  14.8507  14.9022

          k = 0.0000-0.5000 0.2500 ( 28234 PWs)   bands (ev):

   -47.1991 -47.1557 -47.1469 -47.0662 -47.0412 -47.0344 -47.0284 -46.9649
   -23.3114 -23.2968 -23.2735 -23.2602 -23.2593 -23.2513 -23.2418 -23.2380
   -23.2306 -23.2103 -23.1888 -23.1847 -23.1833 -23.1754 -23.1453 -23.1448
   -23.1418 -23.1399 -23.1350 -23.1240 -23.1191 -23.1069 -23.0667 -23.0302
   -19.5454 -19.5046 -19.4199 -19.4070 -19.3976 -19.3715 -19.2356 -19.1782
    -9.0375  -8.9756  -8.9052  -8.8298  -8.8143  -8.7838  -8.6511  -8.5884
    -8.5327  -8.5143  -8.4960  -8.3029  -8.2679  -8.1734  -8.1476  -8.1206
    -8.0061  -7.9543  -7.9080  -7.8838  -7.8665  -7.8489  -7.7967  -7.7590
    -3.1494  -3.1379  -3.1215  -3.0639  -3.0603  -3.0534  -3.0327  -3.0191
    -3.0093  -2.9741  -2.9636  -2.9556  -2.9365  -2.9304  -2.9216  -2.9068
    -2.8929  -2.8774  -2.8149  -2.7766  -2.7730  -2.7392  -2.7249  -2.7029
     2.8805   2.9615   2.9960   3.0851   3.3340   3.3676   3.4345   3.4781
     3.9990   4.0528   4.1215   4.1572   4.2020   4.2525   4.2762   4.3900
     4.4361   4.4604   4.4822   4.5442   4.5747   4.6160   4.6974   4.7759
     4.8014   4.8751   4.9759   5.0593   5.1849   5.2285   5.2602   5.3286
     5.3642   5.4125   5.4479   5.5055   5.6741   5.7074   5.7534   5.8385
     5.9861   6.0690   6.1025   6.1600   6.3999   6.4442   6.4771   6.5533
     6.5880   6.6192   6.6781   6.7457   6.7535   6.8010   6.8223   6.8418
     6.8725   6.9300   6.9645   7.0475   7.0838   7.1349   7.2952   7.3597
     7.4900   7.5048   7.5225   7.5446   7.5645   7.6092   7.7997   7.8473
    10.0086  10.0774  10.7291  10.8202  10.8777  10.9220  10.9906  11.0329
    11.0783  11.1430  11.6387  11.6576  11.9504  12.0008  12.0360  12.0849
    12.1499  12.2050  12.2171  12.2356  12.4024  12.4789  12.7375  12.7736
    13.3993  13.4695  13.9227  13.9725  14.5248  14.6134  14.7864  14.9052

          k = 0.2500-0.5000 0.0000 ( 28234 PWs)   bands (ev):

   -47.1991 -47.1557 -47.1469 -47.0662 -47.0411 -47.0344 -47.0284 -46.9649
   -23.3095 -23.2980 -23.2786 -23.2601 -23.2570 -23.2466 -23.2455 -23.2307
   -23.2230 -23.2227 -23.1967 -23.1891 -23.1721 -23.1611 -23.1601 -23.1442
   -23.1430 -23.1401 -23.1376 -23.1348 -23.1088 -23.0940 -23.0821 -23.0238
   -19.5450 -19.5053 -19.4186 -19.4095 -19.3963 -19.3711 -19.2357 -19.1782
    -9.0278  -8.9886  -8.9224  -8.8839  -8.8112  -8.7260  -8.6331  -8.5633
    -8.5312  -8.5094  -8.4910  -8.3019  -8.2686  -8.1742  -8.1377  -8.1189
    -8.0331  -8.0072  -7.9815  -7.9181  -7.8819  -7.8126  -7.7678  -7.6697
    -3.1571  -3.1284  -3.1218  -3.0698  -3.0617  -3.0578  -3.0447  -3.0065
    -3.0010  -2.9706  -2.9615  -2.9515  -2.9381  -2.9310  -2.9155  -2.9093
    -2.8975  -2.8842  -2.8139  -2.7829  -2.7714  -2.7366  -2.7238  -2.7012
     2.8865   2.9423   2.9710   3.0160   3.3360   3.4077   3.4493   3.5140
     3.9982   4.0636   4.1222   4.1467   4.2009   4.2439   4.2918   4.3839
     4.4183   4.4377   4.5021   4.5600   4.5923   4.6448   4.6779   4.7711
     4.8226   4.8649   4.9580   5.0059   5.0773   5.1781   5.2999   5.3516
     5.3795   5.4619   5.5376   5.5468   5.6392   5.7453   5.7700   5.7963
     5.9565   6.0464   6.0865   6.2088   6.4121   6.4341   6.5077   6.5338
     6.5931   6.6018   6.6725   6.7153   6.7536   6.7958   6.8445   6.8672
     6.9450   6.9551   6.9912   7.0366   7.0572   7.0920   7.3196   7.3375
     7.4524   7.4881   7.5170   7.5251   7.5820   7.6286   7.7943   7.8523
    10.0114  10.0912  10.7303  10.8136  10.9009  10.9231  10.9461  10.9563
    11.0905  11.1946  11.6005  11.6250  11.9418  11.9763  12.0466  12.0992
    12.1555  12.2003  12.2698  12.3457  12.4074  12.4563  12.7527  12.7726
    13.3977  13.4620  13.8709  13.9589  14.5378  14.5655  14.8209  14.9083

          k =-0.5000 0.0000 0.2500 ( 28234 PWs)   bands (ev):

   -47.1991 -47.1557 -47.1469 -47.0663 -47.0411 -47.0344 -47.0284 -46.9650
   -23.2976 -23.2820 -23.2800 -23.2734 -23.2721 -23.2565 -23.2432 -23.2232
   -23.2187 -23.2149 -23.2102 -23.1942 -23.1865 -23.1840 -23.1696 -23.1293
   -23.1218 -23.1216 -23.1165 -23.1149 -23.1135 -23.1067 -23.0985 -23.0302
   -19.5447 -19.5061 -19.4141 -19.4120 -19.3988 -19.3697 -19.2368 -19.1776
    -9.0103  -8.9921  -8.9075  -8.8596  -8.8079  -8.7831  -8.6404  -8.6105
    -8.5543  -8.4256  -8.3843  -8.3314  -8.2816  -8.2642  -8.2487  -8.1719
    -8.0284  -7.9680  -7.8994  -7.8217  -7.8036  -7.7965  -7.7937  -7.7741
    -3.1454  -3.1276  -3.1134  -3.1000  -3.0863  -3.0725  -3.0034  -2.9980
    -2.9821  -2.9746  -2.9634  -2.9595  -2.9425  -2.9363  -2.9173  -2.9046
    -2.8880  -2.8716  -2.8257  -2.7928  -2.7816  -2.7299  -2.7246  -2.6966
     2.9247   2.9459   2.9829   3.0093   3.3362   3.3571   3.4572   3.4653
     4.0246   4.0328   4.1572   4.1794   4.2480   4.2710   4.2977   4.3589
     4.3972   4.4236   4.4884   4.5244   4.5958   4.6303   4.6754   4.7136
     4.8055   4.8643   4.9457   4.9674   5.2227   5.2394   5.3011   5.3412
     5.3812   5.4146   5.5281   5.6002   5.6732   5.7015   5.7536   5.7858
     5.9602   6.0103   6.0733   6.1362   6.3972   6.4394   6.4849   6.5108
     6.6143   6.6363   6.6893   6.7034   6.7544   6.8170   6.8748   6.9017
     6.9663   7.0005   7.0188   7.0294   7.0465   7.1132   7.3059   7.3314
     7.4026   7.4309   7.4696   7.5461   7.5772   7.5964   7.8571   7.9108
     9.9963  10.0550  10.7019  10.7471  10.9448  10.9721  10.9831  11.0180
    11.0815  11.0988  11.5658  11.6612  12.0274  12.0438  12.0604  12.0936
    12.1415  12.1817  12.2557  12.3124  12.4415  12.4658  12.7364  12.8076
    13.4106  13.4302  13.8874  13.9388  14.5619  14.5835  14.8305  14.8704

          k =-0.5000 0.0000 0.5000 ( 28276 PWs)   bands (ev):

   -47.1991 -47.1557 -47.1469 -47.0663 -47.0411 -47.0344 -47.0284 -46.9650
   -23.2847 -23.2803 -23.2788 -23.2718 -23.2682 -23.2557 -23.2294 -23.2232
   -23.2187 -23.2147 -23.2000 -23.1945 -23.1929 -23.1863 -23.1698 -23.1361
   -23.1300 -23.1241 -23.1215 -23.1165 -23.1143 -23.1138 -23.0991 -23.0370
   -19.5446 -19.5059 -19.4140 -19.4103 -19.4005 -19.3699 -19.2369 -19.1777
    -8.9486  -8.9336  -8.9183  -8.8546  -8.6733  -8.6286  -8.5775  -8.5231
    -8.4705  -8.4307  -8.4073  -8.3618  -8.3017  -8.2669  -8.2461  -8.1976
    -8.1926  -8.1590  -8.0557  -7.9086  -7.8274  -7.7994  -7.7966  -7.7920
    -3.1458  -3.1271  -3.1073  -3.0922  -3.0824  -3.0541  -3.0131  -3.0030
    -2.9957  -2.9760  -2.9651  -2.9610  -2.9410  -2.9308  -2.9287  -2.9017
    -2.8820  -2.8732  -2.8294  -2.7983  -2.7875  -2.7283  -2.7245  -2.6949
     2.9656   2.9793   2.9954   3.0064   3.9975   4.0251   4.0880   4.1125
     4.1600   4.1883   4.2075   4.2297   4.3035   4.3094   4.3388   4.3606
     4.4393   4.4593   4.4860   4.5174   4.5590   4.5964   4.6245   4.6464
     4.6483   4.7066   4.7551   4.7714   4.8948   4.9547   5.0000   5.0734
     5.1752   5.2289   5.2733   5.3098   5.4214   5.4925   5.5506   5.6346
     5.7660   5.8362   5.9281   5.9522   6.4069   6.4787   6.4978   6.5295
     6.6073   6.6432   6.6839   6.6999   6.7283   6.7562   6.8733   6.9117
     7.0608   7.1176   7.1380   7.2290   7.2599   7.2927   7.3430   7.3613
     7.3962   7.4104   7.4349   7.5205   7.5568   7.5841   7.6610   7.6812
    10.6638  10.6739  10.7465  10.8198  10.9344  10.9572  11.0006  11.0181
    11.3740  11.4183  11.4272  11.4895  11.5993  11.6062  11.6620  11.7118
    12.2374  12.2769  12.2990  12.3285  12.3877  12.4381  12.4614  12.4832
    13.7578  13.7825  13.7896  13.8344  15.5824  15.5937  15.6037  15.6231

          k =-0.5000 0.5000 0.0000 ( 28276 PWs)   bands (ev):

   -47.1991 -47.1557 -47.1469 -47.0662 -47.0411 -47.0344 -47.0284 -46.9650
   -23.3092 -23.2809 -23.2784 -23.2598 -23.2572 -23.2467 -23.2324 -23.2231
   -23.2176 -23.2149 -23.1935 -23.1918 -23.1843 -23.1727 -23.1695 -23.1445
   -23.1427 -23.1400 -23.1354 -23.1249 -23.1160 -23.1088 -23.0932 -23.0238
   -19.5445 -19.5058 -19.4147 -19.4133 -19.3963 -19.3710 -19.2359 -19.1783
    -8.9701  -8.9541  -8.9235  -8.8798  -8.6384  -8.6019  -8.5518  -8.5232
    -8.4411  -8.4028  -8.3798  -8.3338  -8.3260  -8.2908  -8.2440  -8.2011
    -8.1483  -8.1362  -8.0998  -8.0873  -7.8827  -7.8154  -7.7680  -7.6702
    -3.1471  -3.1273  -3.1078  -3.0849  -3.0831  -3.0672  -3.0175  -2.9918
    -2.9806  -2.9726  -2.9655  -2.9573  -2.9436  -2.9345  -2.9227  -2.9176
    -2.9005  -2.8905  -2.8129  -2.7872  -2.7674  -2.7402  -2.7211  -2.7025
     2.9210   2.9647   2.9812   3.0244   4.0235   4.0497   4.0895   4.1399
     4.1590   4.1665   4.2193   4.2607   4.2725   4.3033   4.3338   4.3594
     4.4207   4.4500   4.4675   4.5092   4.5343   4.5523   4.6062   4.6305
     4.7023   4.7152   4.7706   4.7816   4.8676   4.9654   5.0077   5.1265
     5.1964   5.2513   5.2852   5.2969   5.4486   5.5005   5.5501   5.6259
     5.7693   5.8145   5.9596   5.9992   6.4376   6.4510   6.5035   6.5147
     6.5923   6.6426   6.6833   6.6935   6.7242   6.7614   6.7906   6.8753
     7.0377   7.1877   7.2262   7.2570   7.2641   7.2788   7.3287   7.3391
     7.3917   7.4274   7.4454   7.4669   7.5543   7.5799   7.6303   7.6880
    10.6663  10.7662  10.8236  10.8516  10.9106  10.9389  10.9546  10.9823
    11.2775  11.3585  11.4023  11.4617  11.5047  11.6011  11.6946  11.8316
    12.2369  12.3194  12.3333  12.3514  12.3829  12.4081  12.4381  12.4677
    13.7346  13.7681  13.8129  13.8402  15.3586  15.5478  15.5898  15.6124

          k =-0.2500-0.2500 0.2500 ( 28324 PWs)   bands (ev):

   -47.1991 -47.1557 -47.1469 -47.0663 -47.0411 -47.0344 -47.0284 -46.9650
   -23.3001 -23.2954 -23.2733 -23.2714 -23.2623 -23.2477 -23.2428 -23.2424
   -23.2227 -23.2108 -23.2085 -23.1968 -23.1841 -23.1612 -23.1599 -23.1401
   -23.1319 -23.1282 -23.1255 -23.1222 -23.1130 -23.1064 -23.0823 -23.0302
   -19.5451 -19.5053 -19.4178 -19.4087 -19.3982 -19.3706 -19.2362 -19.1779
    -8.9987  -8.9374  -8.9082  -8.8910  -8.7659  -8.7206  -8.6981  -8.6101
    -8.5933  -8.5837  -8.5381  -8.4846  -8.0720  -8.0519  -8.0341  -8.0132
    -7.9826  -7.9655  -7.9425  -7.9233  -7.9076  -7.8885  -7.8737  -7.7782
    -3.1701  -3.1457  -3.1193  -3.0796  -3.0667  -3.0576  -3.0202  -3.0075
    -2.9941  -2.9713  -2.9628  -2.9570  -2.9493  -2.9348  -2.9208  -2.8950
    -2.8889  -2.8778  -2.8255  -2.7809  -2.7603  -2.7285  -2.7208  -2.7007
     3.1524   3.1976   3.2043   3.2240   3.2586   3.3712   3.3953   3.4162
     3.5729   3.5931   3.6399   3.9032   4.0049   4.0379   4.0731   4.2590
     4.3847   4.3960   4.8247   4.8458   4.8891   4.9527   4.9717   5.0312
     5.0488   5.0809   5.1062   5.1392   5.1723   5.2304   5.2605   5.3429
     5.3909   5.4493   5.4764   5.5081   5.5439   5.5648   5.6212   5.8309
     5.8937   5.9148   6.1490   6.1802   6.3317   6.3549   6.3936   6.5081
     6.6723   6.7068   6.7595   6.7986   6.8207   6.8502   6.8833   6.8931
     6.9219   6.9587   6.9808   7.0243   7.0487   7.0679   7.1153   7.1312
     7.1657   7.2152   7.6776   7.7133   7.7443   7.7705   7.8012   7.8542
    10.2236  10.2981  10.3034  10.3460  10.3729  10.4084  11.5634  11.6153
    11.6381  11.6802  11.7118  11.7432  11.7613  11.7798  11.8076  11.8452
    11.8644  11.8933  12.4853  12.5190  12.5298  12.5487  12.6069  12.6301
    13.8830  13.9092  13.9311  13.9528  13.9915  14.7266  14.7828  14.8449

          k =-0.2500 0.2500-0.2500 ( 28324 PWs)   bands (ev):

   -47.1991 -47.1557 -47.1469 -47.0663 -47.0411 -47.0344 -47.0284 -46.9650
   -23.3001 -23.2955 -23.2733 -23.2714 -23.2623 -23.2477 -23.2427 -23.2424
   -23.2228 -23.2108 -23.2085 -23.1967 -23.1841 -23.1613 -23.1599 -23.1400
   -23.1319 -23.1282 -23.1255 -23.1222 -23.1130 -23.1063 -23.0823 -23.0302
   -19.5451 -19.5053 -19.4178 -19.4087 -19.3982 -19.3706 -19.2362 -19.1779
    -8.9980  -8.9385  -8.9094  -8.8888  -8.7641  -8.7169  -8.7051  -8.6090
    -8.5930  -8.5822  -8.5400  -8.4882  -8.0704  -8.0430  -8.0231  -8.0078
    -7.9983  -7.9584  -7.9408  -7.9341  -7.9182  -7.8910  -7.8706  -7.7742
    -3.1674  -3.1463  -3.1234  -3.0786  -3.0682  -3.0557  -3.0246  -2.9983
    -2.9923  -2.9747  -2.9636  -2.9586  -2.9485  -2.9393  -2.9077  -2.9037
    -2.8928  -2.8791  -2.8072  -2.7900  -2.7676  -2.7342  -2.7208  -2.6927
     3.1593   3.1950   3.2083   3.2314   3.2593   3.3666   3.3931   3.4127
     3.5658   3.6060   3.6379   3.9164   4.0078   4.0222   4.0577   4.2422
     4.3846   4.4006   4.8219   4.8542   4.8763   4.9362   4.9701   5.0241
     5.0433   5.0736   5.1027   5.1560   5.1627   5.1989   5.2962   5.3494
     5.3789   5.4347   5.5041   5.5345   5.5640   5.6146   5.6370   5.8480
     5.8810   5.9364   6.1079   6.1901   6.2779   6.3494   6.3890   6.4641
     6.6927   6.7189   6.7935   6.8213   6.8337   6.8688   6.8923   6.9071
     6.9367   6.9496   6.9811   6.9964   7.0216   7.0565   7.0836   7.1346
     7.1601   7.2058   7.6776   7.7081   7.7485   7.7626   7.8124   7.8446
    10.2277  10.3049  10.3155  10.3380  10.3884  10.4123  11.5557  11.6098
    11.6374  11.6690  11.7049  11.7392  11.7592  11.7998  11.8134  11.8360
    11.8759  11.8947  12.4736  12.5087  12.5243  12.5688  12.6060  12.6266
    13.8834  13.9067  13.9228  13.9511  13.9954  14.7356  14.7775  14.8446

          k = 0.2500-0.2500-0.2500 ( 28324 PWs)   bands (ev):

   -47.1991 -47.1557 -47.1469 -47.0663 -47.0411 -47.0344 -47.0284 -46.9650
   -23.3001 -23.2954 -23.2732 -23.2716 -23.2623 -23.2477 -23.2427 -23.2424
   -23.2227 -23.2106 -23.2087 -23.1968 -23.1841 -23.1612 -23.1599 -23.1400
   -23.1319 -23.1282 -23.1256 -23.1221 -23.1130 -23.1065 -23.0823 -23.0302
   -19.5451 -19.5053 -19.4178 -19.4087 -19.3982 -19.3705 -19.2362 -19.1779
    -8.9992  -8.9380  -8.9087  -8.8887  -8.7666  -8.7177  -8.6993  -8.6111
    -8.5955  -8.5822  -8.5374  -8.4872  -8.0766  -8.0429  -8.0349  -8.0038
    -7.9894  -7.9612  -7.9430  -7.9307  -7.9064  -7.8911  -7.8752  -7.7762
    -3.1674  -3.1525  -3.1175  -3.0797  -3.0658  -3.0515  -3.0249  -2.9993
    -2.9880  -2.9760  -2.9701  -2.9624  -2.9466  -2.9323  -2.9176  -2.9096
    -2.8884  -2.8757  -2.8053  -2.7850  -2.7736  -2.7257  -2.7219  -2.6984
     3.1556   3.1973   3.2161   3.2277   3.2577   3.3535   3.4042   3.4176
     3.5570   3.5966   3.6504   3.8971   4.0152   4.0294   4.0686   4.2397
     4.3861   4.4099   4.7793   4.8511   4.8653   4.9254   4.9756   5.0355
     5.0495   5.0692   5.1066   5.1620   5.1973   5.2382   5.2981   5.3409
     5.3956   5.4249   5.4890   5.5366   5.5589   5.5989   5.6372   5.8423
     5.8843   5.9226   6.1303   6.1844   6.2951   6.3600   6.3790   6.4719
     6.6332   6.7070   6.7383   6.7758   6.8093   6.8370   6.8920   6.9204
     6.9630   6.9769   7.0006   7.0199   7.0480   7.0595   7.1019   7.1358
     7.1799   7.2374   7.6757   7.7078   7.7402   7.7705   7.7993   7.8410
    10.2189  10.2865  10.3305  10.3605  10.3849  10.4069  11.5680  11.5916
    11.6344  11.6693  11.7051  11.7310  11.7631  11.7849  11.8253  11.8473
    11.8582  11.9018  12.4844  12.5089  12.5374  12.5564  12.6099  12.6228
    13.8843  13.9089  13.9223  13.9507  13.9900  14.7205  14.7863  14.8498

          k =-0.2500 0.2500 0.5000 ( 28270 PWs)   bands (ev):

   -47.1991 -47.1557 -47.1469 -47.0662 -47.0411 -47.0344 -47.0284 -46.9650
   -23.2987 -23.2812 -23.2715 -23.2675 -23.2618 -23.2472 -23.2424 -23.2292
   -23.2227 -23.2093 -23.2002 -23.1967 -23.1927 -23.1611 -23.1601 -23.1407
   -23.1354 -23.1318 -23.1281 -23.1257 -23.1249 -23.1130 -23.0825 -23.0370
   -19.5450 -19.5051 -19.4171 -19.4075 -19.3999 -19.3707 -19.2363 -19.1780
    -8.9559  -8.8850  -8.8310  -8.8068  -8.7508  -8.7193  -8.6010  -8.5789
    -8.5469  -8.5191  -8.4991  -8.3984  -8.2567  -8.2143  -8.1101  -8.0351
    -8.0225  -7.9927  -7.9675  -7.9540  -7.9342  -7.9223  -7.9004  -7.8738
    -3.1543  -3.1327  -3.1232  -3.0767  -3.0663  -3.0532  -3.0210  -3.0033
    -2.9978  -2.9838  -2.9731  -2.9607  -2.9527  -2.9414  -2.9127  -2.9066
    -2.8929  -2.8786  -2.8043  -2.7845  -2.7764  -2.7291  -2.7202  -2.6954
     3.1950   3.2449   3.3317   3.3587   3.3664   3.4273   3.5262   3.6044
     4.1030   4.1209   4.1482   4.1925   4.2083   4.3045   4.3366   4.3729
     4.4074   4.4414   4.5256   4.6022   4.6447   4.6885   4.7321   4.7925
     4.8316   4.8951   4.9481   5.0043   5.0238   5.0943   5.1435   5.2037
     5.2395   5.2687   5.3335   5.3553   5.4118   5.4784   5.6713   5.6929
     5.7473   5.8663   5.9117   5.9599   6.0182   6.0831   6.3027   6.3618
     6.7695   6.7916   6.8361   6.8685   6.8808   6.8924   6.9049   6.9304
     6.9583   6.9823   7.0117   7.0350   7.1020   7.1183   7.2590   7.3606
     7.4295   7.4686   7.5105   7.5265   7.5705   7.5928   7.7488   7.8019
    10.2941  10.3508  10.8596  10.9346  10.9782  10.9993  11.1023  11.1121
    11.1418  11.1559  11.6345  11.6660  11.8016  11.8192  11.9750  12.0296
    12.0491  12.0814  12.1182  12.1515  12.2104  12.2200  12.5302  12.5804
    13.9231  13.9419  14.4843  14.5308  14.5764  14.6234  14.9698  15.0742

          k =-0.5000-0.2500 0.2500 ( 28270 PWs)   bands (ev):

   -47.1991 -47.1557 -47.1469 -47.0662 -47.0411 -47.0344 -47.0284 -46.9650
   -23.2974 -23.2808 -23.2730 -23.2711 -23.2624 -23.2457 -23.2427 -23.2185
   -23.2148 -23.2111 -23.2088 -23.1939 -23.1866 -23.1842 -23.1697 -23.1339
   -23.1311 -23.1255 -23.1228 -23.1223 -23.1159 -23.1131 -23.1057 -23.0302
   -19.5446 -19.5058 -19.4143 -19.4121 -19.3982 -19.3704 -19.2364 -19.1780
    -8.9372  -8.9278  -8.8269  -8.8039  -8.7797  -8.7387  -8.5919  -8.5794
    -8.5461  -8.4267  -8.3882  -8.3315  -8.2861  -8.2705  -8.2476  -8.1750
    -8.0361  -8.0010  -7.9517  -7.9354  -7.9231  -7.9107  -7.8783  -7.7784
    -3.1461  -3.1227  -3.1206  -3.0949  -3.0834  -3.0660  -3.0100  -3.0027
    -2.9973  -2.9742  -2.9700  -2.9621  -2.9500  -2.9396  -2.9131  -2.8996
    -2.8927  -2.8780  -2.8185  -2.7868  -2.7655  -2.7293  -2.7205  -2.6972
     3.1956   3.2043   3.3381   3.3549   3.3693   3.3906   3.5352   3.5716
     4.1058   4.1208   4.1883   4.2296   4.2626   4.2997   4.3394   4.3730
     4.4056   4.4788   4.5271   4.5501   4.6055   4.6625   4.7178   4.7548
     4.8377   4.8653   4.9671   4.9964   5.0653   5.0818   5.1430   5.2139
     5.2688   5.2939   5.3596   5.3737   5.4339   5.4618   5.6326   5.6865
     5.7385   5.7946   5.9540   6.0000   6.0240   6.0696   6.2890   6.4198
     6.7672   6.7845   6.8153   6.8522   6.8770   6.8975   6.9137   6.9410
     6.9509   6.9852   7.0614   7.0845   7.1134   7.1309   7.2787   7.3462
     7.3750   7.4229   7.4731   7.5296   7.5474   7.5678   7.7861   7.8426
    10.2901  10.3278  10.8889  10.9022  10.9715  11.0191  11.0673  11.0772
    11.1296  11.1447  11.5838  11.7204  11.8349  11.8508  11.9743  12.0279
    12.0593  12.1057  12.1091  12.1596  12.2091  12.2491  12.5245  12.5942
    13.9128  13.9524  14.4957  14.5427  14.5517  14.5900  15.0001  15.0430

          k = 0.5000-0.2500-0.2500 ( 28270 PWs)   bands (ev):

   -47.1991 -47.1557 -47.1469 -47.0662 -47.0411 -47.0344 -47.0284 -46.9650
   -23.2975 -23.2808 -23.2729 -23.2712 -23.2624 -23.2456 -23.2427 -23.2185
   -23.2148 -23.2109 -23.2090 -23.1938 -23.1867 -23.1842 -23.1697 -23.1339
   -23.1311 -23.1256 -23.1230 -23.1221 -23.1159 -23.1131 -23.1058 -23.0302
   -19.5446 -19.5058 -19.4143 -19.4121 -19.3982 -19.3704 -19.2364 -19.1780
    -8.9385  -8.9280  -8.8288  -8.8037  -8.7774  -8.7339  -8.5924  -8.5826
    -8.5474  -8.4268  -8.3887  -8.3308  -8.2865  -8.2688  -8.2485  -8.1750
    -8.0411  -7.9913  -7.9522  -7.9328  -7.9286  -7.9086  -7.8835  -7.7764
    -3.1459  -3.1242  -3.1173  -3.1025  -3.0801  -3.0601  -3.0195  -2.9999
    -2.9881  -2.9763  -2.9711  -2.9602  -2.9546  -2.9329  -2.9192  -2.9068
    -2.8926  -2.8732  -2.8106  -2.7902  -2.7699  -2.7298  -2.7196  -2.6962
     3.1984   3.2157   3.3270   3.3302   3.3764   3.4051   3.5379   3.5677
     4.1111   4.1247   4.1783   4.2376   4.2570   4.2916   4.3382   4.3887
     4.4174   4.4616   4.5223   4.5469   4.6174   4.6441   4.7155   4.7718
     4.8417   4.8704   4.9138   4.9781   5.0748   5.1181   5.1627   5.1897
     5.2588   5.3247   5.3546   5.3994   5.4181   5.4680   5.6655   5.6989
     5.7386   5.7781   5.9559   5.9807   6.0128   6.0715   6.3407   6.3886
     6.6904   6.7156   6.8081   6.8566   6.8692   6.8889   6.9244   6.9325
     6.9773   7.0092   7.0686   7.0968   7.1453   7.1755   7.2724   7.3430
     7.3904   7.4197   7.4711   7.5183   7.5506   7.5746   7.7885   7.8214
    10.2796  10.3499  10.8879  10.9002  10.9754  11.0257  11.0663  11.0759
    11.1276  11.1428  11.5989  11.6615  11.8315  11.8792  11.9644  12.0328
    12.0526  12.1093  12.1345  12.1715  12.2061  12.2254  12.5328  12.5903
    13.9154  13.9464  14.4978  14.5404  14.5503  14.5960  14.9928  15.0464

          k =-0.2500-0.5000 0.2500 ( 28270 PWs)   bands (ev):

   -47.1991 -47.1557 -47.1469 -47.0662 -47.0411 -47.0344 -47.0284 -46.9650
   -23.3001 -23.2954 -23.2730 -23.2600 -23.2515 -23.2453 -23.2411 -23.2305
   -23.2227 -23.2103 -23.1967 -23.1890 -23.1845 -23.1609 -23.1603 -23.1442
   -23.1431 -23.1401 -23.1378 -23.1352 -23.1201 -23.1070 -23.0824 -23.0302
   -19.5449 -19.5051 -19.4180 -19.4087 -19.3976 -19.3713 -19.2358 -19.1783
    -8.9574  -8.9123  -8.8221  -8.8015  -8.7870  -8.7192  -8.6073  -8.5572
    -8.5144  -8.5055  -8.4892  -8.3048  -8.2734  -8.1884  -8.1470  -8.1293
    -8.0422  -8.0102  -7.9954  -7.9843  -7.9602  -7.9009  -7.8876  -7.7783
    -3.1513  -3.1291  -3.1215  -3.0738  -3.0690  -3.0582  -3.0372  -3.0092
    -2.9955  -2.9740  -2.9706  -2.9605  -2.9529  -2.9343  -2.9227  -2.9074
    -2.8922  -2.8743  -2.8123  -2.7741  -2.7666  -2.7304  -2.7204  -2.7038
     3.1639   3.2401   3.3367   3.3498   3.3733   3.4351   3.5268   3.5767
     4.0907   4.1213   4.1386   4.2105   4.2526   4.2676   4.2985   4.4260
     4.4565   4.4910   4.5360   4.5878   4.6134   4.6647   4.7563   4.7799
     4.8204   4.8607   4.9995   5.0308   5.0550   5.0948   5.1428   5.1813
     5.2129   5.2656   5.2980   5.3585   5.4001   5.4558   5.6524   5.7194
     5.7581   5.8367   5.9395   5.9951   6.0508   6.0726   6.3493   6.3609
     6.7473   6.7577   6.8072   6.8191   6.8405   6.8648   6.9126   6.9489
     6.9707   7.0104   7.0171   7.0551   7.1046   7.1584   7.2937   7.3385
     7.4437   7.4725   7.5024   7.5305   7.5652   7.6068   7.7255   7.7870
    10.2990  10.3641  10.8816  10.9067  10.9528  10.9881  11.0701  11.0884
    11.1282  11.2014  11.6972  11.7186  11.7610  11.7892  11.9535  11.9953
    12.0192  12.0886  12.1226  12.1564  12.1967  12.2747  12.5559  12.5603
    13.9228  13.9385  14.4910  14.5393  14.5718  14.6066  14.9483  15.0559

          k =-0.2500 0.5000-0.2500 ( 28270 PWs)   bands (ev):

   -47.1991 -47.1557 -47.1469 -47.0662 -47.0411 -47.0344 -47.0284 -46.9650
   -23.3000 -23.2955 -23.2729 -23.2600 -23.2515 -23.2453 -23.2410 -23.2305
   -23.2228 -23.2103 -23.1967 -23.1890 -23.1845 -23.1610 -23.1602 -23.1441
   -23.1431 -23.1401 -23.1378 -23.1352 -23.1201 -23.1069 -23.0824 -23.0302
   -19.5449 -19.5051 -19.4180 -19.4087 -19.3976 -19.3713 -19.2358 -19.1783
    -8.9570  -8.9129  -8.8238  -8.8007  -8.7839  -8.7201  -8.6078  -8.5572
    -8.5195  -8.5046  -8.4871  -8.3052  -8.2739  -8.1847  -8.1479  -8.1296
    -8.0396  -8.0070  -7.9956  -7.9867  -7.9520  -7.9155  -7.8884  -7.7745
    -3.1495  -3.1288  -3.1212  -3.0727  -3.0674  -3.0624  -3.0428  -3.0069
    -2.9933  -2.9779  -2.9718  -2.9603  -2.9449  -2.9397  -2.9187  -2.9031
    -2.8948  -2.8749  -2.8075  -2.7802  -2.7686  -2.7379  -2.7199  -2.6957
     3.1709   3.2384   3.3336   3.3488   3.3711   3.4331   3.5292   3.5813
     4.0922   4.1108   4.1627   4.1960   4.2189   4.2906   4.3088   4.4207
     4.4669   4.4758   4.5311   4.5848   4.6111   4.6561   4.7555   4.7861
     4.8529   4.8614   4.9989   5.0245   5.0476   5.0817   5.1334   5.1854
     5.2153   5.2521   5.2972   5.3710   5.4120   5.4450   5.6760   5.7330
     5.7509   5.8372   5.9419   5.9784   6.0528   6.1001   6.3083   6.3675
     6.7496   6.7829   6.8150   6.8528   6.8631   6.8759   6.8981   6.9174
     6.9486   6.9784   7.0160   7.0473   7.1083   7.1607   7.2886   7.3393
     7.4553   7.4700   7.5075   7.5239   7.5634   7.6080   7.7292   7.7811
    10.3031  10.3746  10.8829  10.9067  10.9513  10.9852  11.0682  11.0914
    11.1243  11.2008  11.6817  11.7020  11.7644  11.8285  11.9553  11.9921
    12.0089  12.0764  12.1304  12.1653  12.2026  12.2665  12.5528  12.5585
    13.9261  13.9360  14.4995  14.5367  14.5681  14.5971  14.9519  15.0619

          k =-0.5000 0.2500 0.5000 ( 28280 PWs)   bands (ev):

   -47.1991 -47.1557 -47.1469 -47.0662 -47.0411 -47.0344 -47.0284 -46.9650
   -23.2840 -23.2786 -23.2711 -23.2672 -23.2620 -23.2454 -23.2292 -23.2184
   -23.2146 -23.2097 -23.2002 -23.1941 -23.1929 -23.1865 -23.1699 -23.1361
   -23.1341 -23.1310 -23.1257 -23.1253 -23.1221 -23.1154 -23.1132 -23.0370
   -19.5445 -19.5057 -19.4141 -19.4105 -19.3999 -19.3706 -19.2364 -19.1781
    -8.8494  -8.8453  -8.8155  -8.7691  -8.6491  -8.6156  -8.5716  -8.5169
    -8.4747  -8.4297  -8.4103  -8.3594  -8.3041  -8.2681  -8.2454  -8.2033
    -8.1948  -8.1621  -8.0630  -7.9543  -7.9456  -7.9309  -7.9207  -7.8855
    -3.1448  -3.1250  -3.1164  -3.0915  -3.0792  -3.0630  -3.0216  -3.0070
    -3.0005  -2.9855  -2.9794  -2.9672  -2.9571  -2.9360  -2.9125  -2.9033
    -2.8869  -2.8689  -2.8092  -2.7835  -2.7701  -2.7246  -2.7179  -2.6931
     3.3291   3.3473   3.3607   3.3857   3.9991   4.0307   4.1086   4.1192
     4.1860   4.2148   4.2457   4.2624   4.3062   4.3225   4.3633   4.3983
     4.4369   4.4742   4.5010   4.5518   4.6149   4.6646   4.6746   4.7035
     4.7275   4.7651   4.7953   4.8435   4.8926   4.9615   4.9943   5.0204
     5.0940   5.1379   5.1854   5.2407   5.2557   5.2720   5.3455   5.3642
     5.4898   5.5325   5.6149   5.6393   5.9037   5.9787   6.1133   6.1655
     6.8429   6.8513   6.8604   6.9135   6.9215   6.9638   6.9682   6.9969
     7.0767   7.1440   7.1495   7.2176   7.2607   7.3046   7.3354   7.3497
     7.3873   7.4073   7.4358   7.5027   7.5512   7.5808   7.6305   7.6568
    10.8453  10.8660  10.8968  10.9783  11.0937  11.1119  11.1426  11.1651
    11.3843  11.4209  11.4363  11.4996  11.5880  11.6036  11.6514  11.7049
    11.9927  12.0257  12.0388  12.0781  12.1435  12.1807  12.2120  12.2414
    14.4032  14.4211  14.4489  14.4976  15.5884  15.6032  15.6087  15.6356

          k =-0.5000 0.5000 0.2500 ( 28280 PWs)   bands (ev):

   -47.1991 -47.1557 -47.1469 -47.0662 -47.0411 -47.0344 -47.0284 -46.9650
   -23.2974 -23.2806 -23.2727 -23.2597 -23.2516 -23.2411 -23.2321 -23.2176
   -23.2148 -23.2105 -23.1936 -23.1917 -23.1846 -23.1843 -23.1699 -23.1445
   -23.1428 -23.1403 -23.1358 -23.1250 -23.1202 -23.1162 -23.1063 -23.0302
   -19.5444 -19.5056 -19.4144 -19.4122 -19.3976 -19.3711 -19.2360 -19.1784
    -8.8690  -8.8638  -8.8255  -8.7772  -8.6373  -8.5983  -8.5495  -8.5092
    -8.4444  -8.4111  -8.3826  -8.3378  -8.3288  -8.2875  -8.2464  -8.2016
    -8.1505  -8.1392  -8.1163  -8.0920  -7.9999  -7.9480  -7.8901  -7.7779
    -3.1454  -3.1252  -3.1153  -3.0850  -3.0808  -3.0742  -3.0263  -3.0003
    -2.9952  -2.9792  -2.9761  -2.9658  -2.9554  -2.9403  -2.9217  -2.9071
    -2.8895  -2.8757  -2.8028  -2.7769  -2.7609  -2.7320  -2.7163  -2.6964
     3.2940   3.3265   3.3569   3.3994   4.0254   4.0492   4.0910   4.1510
     4.1877   4.2199   4.2354   4.2636   4.3035   4.3254   4.3539   4.3740
     4.4361   4.4616   4.4699   4.5315   4.6063   4.6545   4.6849   4.7253
     4.7442   4.7868   4.8005   4.8367   4.8887   4.9445   4.9735   5.0813
     5.1323   5.1643   5.1960   5.2435   5.2617   5.2860   5.3004   5.3797
     5.4817   5.5166   5.6110   5.6525   5.9479   6.0169   6.0762   6.1137
     6.8196   6.8324   6.8733   6.8974   6.9175   6.9369   6.9652   7.0113
     7.0596   7.1886   7.2199   7.2466   7.2662   7.2775   7.3233   7.3328
     7.3780   7.4288   7.4470   7.4688   7.5394   7.5678   7.6212   7.6657
    10.8440  10.9365  10.9911  11.0117  11.0626  11.0950  11.1172  11.1389
    11.2867  11.3646  11.4180  11.4626  11.5016  11.5901  11.6899  11.8210
    12.0036  12.0673  12.0826  12.1041  12.1285  12.1658  12.1878  12.2131
    14.3915  14.4273  14.4543  14.4878  15.3632  15.5550  15.5975  15.6190

     the Fermi energy is     8.3821 ev

!    total energy              =   -4582.05949534 Ry
     total all-electron energy =    -74369.950417 Ry
     estimated scf accuracy    <          3.4E-09 Ry
     smearing contrib. (-TS)   =       0.00000000 Ry
     internal energy E=F+TS    =   -4582.05949534 Ry

     The total energy is F=E-TS. E is the sum of the following terms:
     one-electron contribution =    -589.43822272 Ry
     hartree contribution      =     474.41246013 Ry
     xc contribution           =    -499.97974058 Ry
     ewald contribution        =   -1627.40978561 Ry
     one-center paw contrib.   =   -2339.64420655 Ry

     convergence has been achieved in  15 iterations

     Forces acting on atoms (cartesian axes, Ry/au):

     atom    1 type  1   force =     0.01409229   -0.01684869   -0.00247767
     atom    2 type  1   force =    -0.01028576    0.00455833   -0.00350359
     atom    3 type  1   force =    -0.00329353   -0.00214717   -0.00697827
     atom    4 type  1   force =    -0.00021175   -0.01744209   -0.01619110
     atom    5 type  1   force =     0.00612710    0.00438607    0.00039790
     atom    6 type  1   force =    -0.00363152   -0.01288465    0.01641160
     atom    7 type  1   force =    -0.00034887   -0.01026459    0.00607366
     atom    8 type  1   force =     0.00588635    0.00045749    0.00295210
     atom    9 type  2   force =     0.00357218    0.02124843   -0.06195515
     atom   10 type  2   force =     0.01428487    0.04278523    0.00828341
     atom   11 type  2   force =    -0.04588591   -0.03067524    0.03165379
     atom   12 type  2   force =     0.01345125   -0.02482639    0.01998011
     atom   13 type  2   force =     0.03081501    0.01618451    0.05442171
     atom   14 type  2   force =     0.00308861    0.03366464    0.00907969
     atom   15 type  2   force =    -0.00685708    0.02449904   -0.05053940
     atom   16 type  2   force =    -0.00399128   -0.05276965   -0.04802738
     atom   17 type  3   force =     0.02552477    0.03042218   -0.00535666
     atom   18 type  3   force =    -0.01422807   -0.01969515    0.00241536
     atom   19 type  3   force =    -0.00977242    0.01514046    0.01640495
     atom   20 type  3   force =    -0.01032790   -0.00151477   -0.00918475
     atom   21 type  3   force =    -0.00226129   -0.02508950   -0.02681515
     atom   22 type  3   force =     0.03538994    0.00901086    0.03031827
     atom   23 type  3   force =    -0.00260372   -0.02499767    0.02304333
     atom   24 type  3   force =    -0.00539952   -0.01699217    0.02295204
     atom   25 type  3   force =     0.00943574    0.00871596    0.00666859
     atom   26 type  3   force =    -0.01334186    0.01582220   -0.01857206
     atom   27 type  3   force =     0.02522907    0.00711961   -0.02243766
     atom   28 type  3   force =    -0.00737636   -0.01237845    0.02681108
     atom   29 type  3   force =    -0.01493648    0.02970847    0.02129698
     atom   30 type  3   force =    -0.01100155   -0.04618557    0.01259487
     atom   31 type  3   force =    -0.01739955    0.04187320    0.00155061
     atom   32 type  3   force =     0.00466867    0.02250932    0.03001876
     atom   33 type  3   force =    -0.01286833   -0.00619753    0.01861728
     atom   34 type  3   force =    -0.00433424   -0.02953462   -0.01087828
     atom   35 type  3   force =     0.00028421   -0.01640866   -0.00461826
     atom   36 type  3   force =     0.00780678    0.01231653   -0.05625872
     atom   37 type  3   force =    -0.00405560   -0.00909646   -0.01911776
     atom   38 type  3   force =    -0.00904755    0.02288718   -0.00499668
     atom   39 type  3   force =     0.01743353   -0.01004699    0.00277932
     atom   40 type  3   force =    -0.00363023    0.02268631    0.00318312

     Total force =     0.231829     Total SCF correction =     0.000116
     Message from routine punch:
     Nothing written, as per user request (disk_io='none')

     init_run     :     76.00s CPU     80.53s WALL (       1 calls)
     electrons    :   2895.40s CPU   3021.96s WALL (       1 calls)
     forces       :     41.85s CPU     43.44s WALL (       1 calls)

     Called by init_run:
     wfcinit      :     63.89s CPU     66.98s WALL (       1 calls)
     potinit      :      4.62s CPU      4.89s WALL (       1 calls)
     hinit0       :      1.53s CPU      1.70s WALL (       1 calls)

     Called by electrons:
     c_bands      :   2489.38s CPU   2582.73s WALL (      15 calls)
     sum_band     :    308.03s CPU    327.55s WALL (      15 calls)
     v_of_rho     :     22.80s CPU     25.22s WALL (      16 calls)
     newd         :     37.84s CPU     49.97s WALL (      16 calls)
     PAW_pot      :     37.12s CPU     37.15s WALL (      16 calls)
     mix_rho      :      3.52s CPU      3.64s WALL (      15 calls)

     Called by c_bands:
     init_us_2    :     57.33s CPU     57.59s WALL (     288 calls)
     cegterg      :   1632.38s CPU   1725.20s WALL (     135 calls)

     Called by *egterg:
     cdiaghg      :     49.25s CPU     49.27s WALL (     743 calls)
     h_psi        :    816.24s CPU    868.61s WALL (     752 calls)
     s_psi        :    159.84s CPU    159.86s WALL (     752 calls)
     g_psi        :      6.19s CPU      6.19s WALL (     608 calls)

     Called by h_psi:
     h_psi:calbec :    187.70s CPU    188.44s WALL (     752 calls)
     vloc_psi     :    456.64s CPU    491.13s WALL (     752 calls)
                                        0.00s GPU  (     752 calls)
     add_vuspsi   :    163.69s CPU    163.71s WALL (     752 calls)

     General routines
     calbec       :    263.29s CPU    264.46s WALL (     923 calls)
     fft          :     19.54s CPU     21.48s WALL (     217 calls)
     ffts         :      0.75s CPU      0.81s WALL (      31 calls)
     fftw         :    454.13s CPU    493.72s WALL (  153184 calls)
     interpolate  :      2.01s CPU      2.13s WALL (      16 calls)

     Parallel routines

     PWSCF        :  50m15.45s CPU  52m28.36s WALL


   This run was terminated on:  15:17:55   4Oct2026            

=------------------------------------------------------------------------------=
   JOB DONE.
=------------------------------------------------------------------------------=
