
     Program PWSCF v.7.5 starts on 27Sep2026 at  8: 1:24 

     This program is part of the open-source Quantum ESPRESSO suite
     for quantum simulation of materials; please cite
         "P. Giannozzi et al., J. Phys.:Condens. Matter 21 395502 (2009);
         "P. Giannozzi et al., J. Phys.:Condens. Matter 29 465901 (2017);
         "P. Giannozzi et al., J. Chem. Phys. 152 154105 (2020);
          URL http://www.quantum-espresso.org", 
     in publications or presentations arising from this work. More details at
     http://www.quantum-espresso.org/quote

     Parallel version (MPI & OpenMP), running on       8 processor cores
     Number of MPI processes:                 8
     Threads/MPI process:                     1

     MPI processes distributed on     1 nodes
     73708 MiB available memory on the printing compute node when the environment starts

     Reading input from pw.in

     Current dimensions of program PWSCF are:
     Max number of different atomic species (ntypx) = 10
     Max number of k-points (npk) =  40000
     Max angular momentum in pseudopotentials (lmaxx) =  4
     Message from routine setup:
     using ibrav=0 with symmetry is DISCOURAGED, use correct ibrav instead

     K-points division:     npool     =       8
     Subspace diagonalization in iterative solution of the eigenvalue problem:
     a serial algorithm will be used


     G-vector sticks info
     --------------------
     sticks:   dense  smooth     PW     G-vecs:    dense   smooth      PW
     Sum        1663     831    299                29881    10525    2259

     Using Slab Decomposition



     bravais-lattice index     =            0
     lattice parameter (alat)  =      15.2383  a.u.
     unit-cell volume          =     474.7309 (a.u.)^3
     number of atoms/cell      =            3
     number of atomic types    =            1
     number of electrons       =        36.00
     number of Kohn-Sham states=           22
     kinetic-energy cutoff     =      30.0000  Ry
     charge density cutoff     =     240.0000  Ry
     scf convergence threshold =      3.0E-10
     mixing beta               =       0.4000
     number of iterations used =            8  plain     mixing
     Exchange-correlation= SLA  PW   PBE  PBE
                           (   1   4   3   4   0   0   0)

     celldm(1)=  15.238320  celldm(2)=   0.000000  celldm(3)=   0.000000
     celldm(4)=   0.000000  celldm(5)=   0.000000  celldm(6)=   0.000000

     crystal axes: (cart. coord. in units of alat)
               a(1) = (  -0.894427   0.447214  -0.000000 )  
               a(2) = (  -0.223607  -0.223607   0.223607 )  
               a(3) = (  -0.670820   0.670820   0.223607 )  

     reciprocal axes: (cart. coord. in units 2 pi/alat)
               b(1) = ( -1.490712 -0.745356 -2.236068 )  
               b(2) = ( -0.745356 -1.490712  2.236068 )  
               b(3) = (  0.745356  1.490712  2.236068 )  


     PseudoPot. # 1 for Zr read from file:
     /root/sssp/upf/Zr_pbe_v1.uspp.F.UPF
     MD5 check sum: 5db81b1e868ab7776c4564c113de050b
     Pseudo is Ultrasoft + core correction, Zval = 12.0
     Generated by new atomic code, or converted to UPF format
     Using radial grid of  887 points,  6 beta functions with: 
                l(1) =   0
                l(2) =   0
                l(3) =   1
                l(4) =   1
                l(5) =   2
                l(6) =   2
     Q(r) pseudized with  6 coefficients,  rinner =    1.200   1.200   1.200
                                                       1.200   1.200

     atomic species   valence    mass     pseudopotential
     Zr               12.00    91.22400     Zr( 1.00)

      4 Sym. Ops. (no inversion) found



   Cartesian axes

     site n.     atom                  positions (alat units)
         1        Zr     tau(   1) = (  -1.0842753   0.2573655   0.2236068  )
         2        Zr     tau(   2) = (  -1.1349133   0.6539411   0.2236068  )
         3        Zr     tau(   3) = (  -0.6876997   0.2067275   0.2236068  )

     number of k points=   512  Marzari-Vanderbilt smearing, width (Ry)=  0.0200

     Number of k-points >= 100: set verbosity='high' to print them.

     Dense  grid:    29881 G-vectors     FFT dimensions: (  75,  30,  75)

     Smooth grid:    10525 G-vectors     FFT dimensions: (  54,  24,  54)

     Estimated max dynamical RAM per process >      66.17 MB

     Estimated total dynamical RAM >     478.29 MB

     Check: negative core charge=   -0.000004

     Initial potential from superposition of free atoms

     starting charge      35.9936, renormalised to      36.0000

     negative rho (up, down):  1.788E-01 0.000E+00
     Starting wfcs are   39 randomized atomic wfcs

     total cpu time spent up to now is        4.1 secs

     per-process dynamical memory:    64.8 Mb

     Self-consistent Calculation

     iteration #  1     ecut=    30.00 Ry     beta= 0.40
     Davidson diagonalization with overlap
     ethr =  1.00E-02,  avg # of iterations =  2.0

     Threshold (ethr) on eigenvalues was too large:
     Diagonalizing with lowered threshold

     Davidson diagonalization with overlap
     ethr =  9.41E-05,  avg # of iterations =  2.6

     negative rho (up, down):  1.799E-01 0.000E+00

     total cpu time spent up to now is       14.2 secs

     total energy              =    -297.44069649 Ry
     estimated scf accuracy    <       0.04243289 Ry

     iteration #  2     ecut=    30.00 Ry     beta= 0.40
     Davidson diagonalization with overlap
     ethr =  1.18E-04,  avg # of iterations =  2.0

     negative rho (up, down):  1.805E-01 0.000E+00

     total cpu time spent up to now is       19.2 secs

     total energy              =    -297.43270160 Ry
     estimated scf accuracy    <       0.04652502 Ry

     iteration #  3     ecut=    30.00 Ry     beta= 0.40
     Davidson diagonalization with overlap
     ethr =  1.18E-04,  avg # of iterations =  2.6

     negative rho (up, down):  1.818E-01 0.000E+00

     total cpu time spent up to now is       24.7 secs

     total energy              =    -297.43280372 Ry
     estimated scf accuracy    <       0.19718101 Ry

     iteration #  4     ecut=    30.00 Ry     beta= 0.40
     Davidson diagonalization with overlap
     ethr =  1.18E-04,  avg # of iterations =  1.8

     negative rho (up, down):  1.827E-01 0.000E+00

     total cpu time spent up to now is       29.7 secs

     total energy              =    -297.44270845 Ry
     estimated scf accuracy    <       0.00080874 Ry

     iteration #  5     ecut=    30.00 Ry     beta= 0.40
     Davidson diagonalization with overlap
     ethr =  2.25E-06,  avg # of iterations =  5.5

     negative rho (up, down):  1.830E-01 0.000E+00

     total cpu time spent up to now is       37.2 secs

     total energy              =    -297.44316614 Ry
     estimated scf accuracy    <       0.00299202 Ry

     iteration #  6     ecut=    30.00 Ry     beta= 0.40
     Davidson diagonalization with overlap
     ethr =  2.25E-06,  avg # of iterations =  1.0

     negative rho (up, down):  1.830E-01 0.000E+00

     total cpu time spent up to now is       41.9 secs

     total energy              =    -297.44316641 Ry
     estimated scf accuracy    <       0.00074282 Ry

     iteration #  7     ecut=    30.00 Ry     beta= 0.40
     Davidson diagonalization with overlap
     ethr =  2.06E-06,  avg # of iterations =  1.0

     negative rho (up, down):  1.829E-01 0.000E+00

     total cpu time spent up to now is       46.6 secs

     total energy              =    -297.44315046 Ry
     estimated scf accuracy    <       0.00023221 Ry

     iteration #  8     ecut=    30.00 Ry     beta= 0.40
     Davidson diagonalization with overlap
     ethr =  6.45E-07,  avg # of iterations =  2.8

     negative rho (up, down):  1.829E-01 0.000E+00

     total cpu time spent up to now is       51.8 secs

     total energy              =    -297.44316965 Ry
     estimated scf accuracy    <       0.00000031 Ry

     iteration #  9     ecut=    30.00 Ry     beta= 0.40
     Davidson diagonalization with overlap
     ethr =  8.70E-10,  avg # of iterations =  6.4

     negative rho (up, down):  1.829E-01 0.000E+00

     total cpu time spent up to now is       60.6 secs

     total energy              =    -297.44317178 Ry
     estimated scf accuracy    <       0.00000759 Ry

     iteration # 10     ecut=    30.00 Ry     beta= 0.40
     Davidson diagonalization with overlap
     ethr =  8.70E-10,  avg # of iterations =  4.7

     negative rho (up, down):  1.829E-01 0.000E+00

     total cpu time spent up to now is       68.0 secs

     total energy              =    -297.44317228 Ry
     estimated scf accuracy    <       0.00000004 Ry

     iteration # 11     ecut=    30.00 Ry     beta= 0.40
     Davidson diagonalization with overlap
     ethr =  1.07E-10,  avg # of iterations =  2.0

     negative rho (up, down):  1.829E-01 0.000E+00

     total cpu time spent up to now is       72.8 secs

     total energy              =    -297.44317229 Ry
     estimated scf accuracy    <          1.0E-09 Ry

     iteration # 12     ecut=    30.00 Ry     beta= 0.40
     Davidson diagonalization with overlap
     ethr =  2.85E-12,  avg # of iterations =  4.5

     negative rho (up, down):  1.829E-01 0.000E+00

     total cpu time spent up to now is       79.5 secs

     End of self-consistent calculation

     Number of k-points >= 100: set verbosity='high' to print the bands.

     the Fermi energy is    13.7917 ev

!    total energy              =    -297.44317229 Ry
     estimated scf accuracy    <          5.7E-11 Ry
     smearing contrib. (-TS)   =      -0.00018191 Ry
     internal energy E=F+TS    =    -297.44299038 Ry

     The total energy is F=E-TS. E is the sum of the following terms:
     one-electron contribution =     -54.76880808 Ry
     hartree contribution      =      41.18904896 Ry
     xc contribution           =     -53.31102390 Ry
     ewald contribution        =    -230.55220737 Ry

     convergence has been achieved in  12 iterations

     negative rho (up, down):  1.829E-01 0.000E+00

     Forces acting on atoms (cartesian axes, Ry/au):

     atom    1 type  1   force =    -0.00359609   -0.00359609    0.00000000
     atom    2 type  1   force =     0.00380891   -0.00021282    0.00000000
     atom    3 type  1   force =    -0.00021282    0.00380891   -0.00000000

     Total force =     0.007414     Total SCF correction =     0.000027
     Message from routine punch:
     Nothing written, as per user request (disk_io='none')

     init_run     :      3.79s CPU      3.89s WALL (       1 calls)
     electrons    :     74.56s CPU     75.40s WALL (       1 calls)
     forces       :      0.32s CPU      0.34s WALL (       1 calls)

     Called by init_run:
     wfcinit      :      3.05s CPU      3.09s WALL (       1 calls)
     potinit      :      0.29s CPU      0.31s WALL (       1 calls)
     hinit0       :      0.42s CPU      0.44s WALL (       1 calls)

     Called by electrons:
     c_bands      :     62.56s CPU     63.04s WALL (      13 calls)
     sum_band     :     10.84s CPU     10.93s WALL (      13 calls)
     v_of_rho     :      0.90s CPU      1.12s WALL (      13 calls)
     newd         :      0.21s CPU      0.27s WALL (      13 calls)
     mix_rho      :      0.06s CPU      0.06s WALL (      13 calls)

     Called by c_bands:
     init_us_2    :      0.85s CPU      0.86s WALL (    1792 calls)
     cegterg      :     55.13s CPU     55.59s WALL (     832 calls)

     Called by *egterg:
     cdiaghg      :      1.60s CPU      1.61s WALL (    3237 calls)
     h_psi        :     50.81s CPU     51.25s WALL (    3365 calls)
     s_psi        :      1.12s CPU      1.13s WALL (    3365 calls)
     g_psi        :      0.26s CPU      0.26s WALL (    2469 calls)

     Called by h_psi:
     h_psi:calbec :      1.23s CPU      1.24s WALL (    3365 calls)
     vloc_psi     :     48.34s CPU     48.75s WALL (    3365 calls)
                                        0.00s GPU  (    3365 calls)
     add_vuspsi   :      1.12s CPU      1.13s WALL (    3365 calls)

     General routines
     calbec       :      1.75s CPU      1.76s WALL (    4453 calls)
     fft          :      0.56s CPU      0.56s WALL (     179 calls)
     ffts         :      0.21s CPU      0.21s WALL (      26 calls)
     fftw         :     50.42s CPU     50.84s WALL (  115854 calls)
     interpolate  :      0.24s CPU      0.24s WALL (      13 calls)

     Parallel routines

     PWSCF        :   1m18.92s CPU   1m19.89s WALL


   This run was terminated on:   8: 2:44  27Sep2026            

=------------------------------------------------------------------------------=
   JOB DONE.
=------------------------------------------------------------------------------=
