
     Program PWSCF v.7.5 starts on  4Oct2026 at 21:42:59 

     This program is part of the open-source Quantum ESPRESSO suite
     for quantum simulation of materials; please cite
         "P. Giannozzi et al., J. Phys.:Condens. Matter 21 395502 (2009);
         "P. Giannozzi et al., J. Phys.:Condens. Matter 29 465901 (2017);
         "P. Giannozzi et al., J. Chem. Phys. 152 154105 (2020);
          URL http://www.quantum-espresso.org", 
     in publications or presentations arising from this work. More details at
     http://www.quantum-espresso.org/quote

     Parallel version (MPI & OpenMP), running on       8 processor cores
     Number of MPI processes:                 8
     Threads/MPI process:                     1

     MPI processes distributed on     1 nodes
     79772 MiB available memory on the printing compute node when the environment starts

     Reading input from pw.in

     Current dimensions of program PWSCF are:
     Max number of different atomic species (ntypx) = 10
     Max number of k-points (npk) =  40000
     Max angular momentum in pseudopotentials (lmaxx) =  4
     Message from routine setup:
     using ibrav=0 with symmetry is DISCOURAGED, use correct ibrav instead

     K-points division:     npool     =       8
     Subspace diagonalization in iterative solution of the eigenvalue problem:
     a serial algorithm will be used


     G-vector sticks info
     --------------------
     sticks:   dense  smooth     PW     G-vecs:    dense   smooth      PW
     Sum        4777    2385    657               496805   175711   25001

     Using Slab Decomposition



     bravais-lattice index     =            0
     lattice parameter (alat)  =      11.1882  a.u.
     unit-cell volume          =    2800.9888 (a.u.)^3
     number of atoms/cell      =           10
     number of atomic types    =            3
     number of electrons       =        88.00
     number of Kohn-Sham states=           53
     kinetic-energy cutoff     =      60.0000  Ry
     charge density cutoff     =     480.0000  Ry
     scf convergence threshold =      1.0E-09
     mixing beta               =       0.4000
     number of iterations used =            8  plain     mixing
     Exchange-correlation=  SLA  PW   PBX  PBC
                           (   1   4   3   4   0   0   0)

     celldm(1)=  11.188210  celldm(2)=   0.000000  celldm(3)=   0.000000
     celldm(4)=   0.000000  celldm(5)=   0.000000  celldm(6)=   0.000000

     crystal axes: (cart. coord. in units of alat)
               a(1) = (   1.000000  -0.000000  -0.000000 )  
               a(2) = (  -0.000000   1.000001   0.000000 )  
               a(3) = (  -0.000000   0.000000   1.999997 )  

     reciprocal axes: (cart. coord. in units 2 pi/alat)
               b(1) = (  1.000000  0.000000  0.000000 )  
               b(2) = (  0.000000  0.999999 -0.000000 )  
               b(3) = (  0.000000 -0.000000  0.500001 )  


     PseudoPot. # 1 for Cs read from file:
     /root/sssp/Cs_pbe_v1.uspp.F.UPF
     MD5 check sum: 3476d69cb178dfad3ffaa59df4e07ca4
     Pseudo is Ultrasoft + core correction, Zval =  9.0
     Generated by new atomic code, or converted to UPF format
     Using radial grid of  905 points,  6 beta functions with: 
                l(1) =   0
                l(2) =   0
                l(3) =   1
                l(4) =   1
                l(5) =   2
                l(6) =   2
     Q(r) pseudized with  6 coefficients,  rinner =    1.500   1.500   1.500
                                                       1.500   1.500

     PseudoPot. # 2 for Sn read from file:
     /root/sssp/Sn_pbe_v1.uspp.F.UPF
     MD5 check sum: 4cf58ce39ec5d5d420df3dd08604eb00
     Pseudo is Ultrasoft + core correction, Zval = 14.0
     Generated by new atomic code, or converted to UPF format
     Using radial grid of  891 points,  6 beta functions with: 
                l(1) =   0
                l(2) =   0
                l(3) =   1
                l(4) =   1
                l(5) =   2
                l(6) =   2
     Q(r) pseudized with  6 coefficients,  rinner =    1.200   1.200   1.200
                                                       1.200   1.200

     PseudoPot. # 3 for Br read from file:
     /root/sssp/br_pbe_v1.4.uspp.F.UPF
     MD5 check sum: d3ffb7b29f6225aa16fe06858fb2a80b
     Pseudo is Ultrasoft + core correction, Zval =  7.0
     Generated by new atomic code, or converted to UPF format
     Using radial grid of  879 points,  6 beta functions with: 
                l(1) =   0
                l(2) =   0
                l(3) =   1
                l(4) =   1
                l(5) =   2
                l(6) =   2
     Q(r) pseudized with  8 coefficients,  rinner =    1.100   1.100   1.100
                                                       1.100   1.100

     atomic species   valence    mass     pseudopotential
     Cs                9.00   132.90550     Cs( 1.00)
     Sn               14.00   118.71000     Sn( 1.00)
     Br                7.00    79.90400     Br( 1.00)

      8 Sym. Ops., with inversion, found ( 4 have fractional translation)



   Cartesian axes

     site n.     atom                  positions (alat units)
         1        Cs     tau(   1) = (   0.0000000   1.0000005   0.0000000  )
         2        Cs     tau(   2) = (  -0.0000000   1.0000005   0.9999986  )
         3        Sn     tau(   3) = (   0.5057464   0.4999999   0.4999992  )
         4        Sn     tau(   4) = (   0.4942535   0.5000000   1.4999977  )
         5        Br     tau(   5) = (   0.0089015   0.4999996   0.4999994  )
         6        Br     tau(   6) = (  -0.0089016   0.5000010   1.4999978  )
         7        Br     tau(   7) = (   0.5459792   0.0000002   0.4999992  )
         8        Br     tau(   8) = (   0.4540207   0.0000005   1.4999978  )
         9        Br     tau(   9) = (   0.4999999   0.5000003   0.9999985  )
        10        Br     tau(  10) = (   0.4999999   0.5000003   1.9999970  )

     number of k points=    18  Marzari-Vanderbilt smearing, width (Ry)=  0.0050
                       cart. coord. in units 2pi/alat
        k(    1) = (   0.0000000   0.0000000   0.0000000), wk =   0.0266667
        k(    2) = (   0.0000000  -0.0000000   0.1666669), wk =   0.0533333
        k(    3) = (   0.0000000   0.1999999  -0.0000000), wk =   0.0533333
        k(    4) = (   0.0000000   0.1999999   0.1666669), wk =   0.1066667
        k(    5) = (   0.0000000   0.3999998  -0.0000000), wk =   0.0533333
        k(    6) = (   0.0000000   0.3999998   0.1666669), wk =   0.1066667
        k(    7) = (   0.2000000   0.1999999   0.0000000), wk =   0.1066667
        k(    8) = (   0.2000000   0.1999999   0.1666669), wk =   0.2133333
        k(    9) = (   0.2000000   0.3999998   0.0000000), wk =   0.1066667
        k(   10) = (   0.2000000   0.3999998   0.1666669), wk =   0.2133333
        k(   11) = (   0.4000000   0.3999998   0.0000000), wk =   0.1066667
        k(   12) = (   0.4000000   0.3999998   0.1666669), wk =   0.2133333
        k(   13) = (   0.2000000   0.0000000   0.0000000), wk =   0.0533333
        k(   14) = (   0.2000000   0.0000000  -0.1666669), wk =   0.1066667
        k(   15) = (   0.4000000   0.0000000   0.0000000), wk =   0.0533333
        k(   16) = (   0.4000000   0.0000000  -0.1666669), wk =   0.1066667
        k(   17) = (   0.4000000   0.1999999   0.0000000), wk =   0.1066667
        k(   18) = (   0.4000000   0.1999999  -0.1666669), wk =   0.2133333

     Dense  grid:   496805 G-vectors     FFT dimensions: (  80,  80, 160)

     Smooth grid:   175711 G-vectors     FFT dimensions: (  60,  60, 120)

     Estimated max dynamical RAM per process >     636.74 MB

     Estimated total dynamical RAM >       4.15 GB

     Initial potential from superposition of free atoms

     starting charge      85.9210, renormalised to      88.0000
     Starting wfcs are   68 randomized atomic wfcs

     total cpu time spent up to now is       58.3 secs

     per-process dynamical memory:   345.7 Mb

     Self-consistent Calculation

     iteration #  1     ecut=    60.00 Ry     beta= 0.40
     Davidson diagonalization with overlap
     ethr =  1.00E-02,  avg # of iterations =  2.9

     Threshold (ethr) on eigenvalues was too large:
     Diagonalizing with lowered threshold

     Davidson diagonalization with overlap
     ethr =  4.90E-04,  avg # of iterations =  3.4

     total cpu time spent up to now is      252.8 secs

     total energy              =    -734.55789075 Ry
     estimated scf accuracy    <       0.41428403 Ry

     iteration #  2     ecut=    60.00 Ry     beta= 0.40
     Davidson diagonalization with overlap
     ethr =  4.71E-04,  avg # of iterations =  2.0

     total cpu time spent up to now is      318.5 secs

     total energy              =    -734.60534555 Ry
     estimated scf accuracy    <       0.03802363 Ry

     iteration #  3     ecut=    60.00 Ry     beta= 0.40
     Davidson diagonalization with overlap
     ethr =  4.32E-05,  avg # of iterations =  9.6

     total cpu time spent up to now is      448.6 secs

     total energy              =    -734.60883465 Ry
     estimated scf accuracy    <       0.00585929 Ry

     iteration #  4     ecut=    60.00 Ry     beta= 0.40
     Davidson diagonalization with overlap
     ethr =  6.66E-06,  avg # of iterations =  7.6

     total cpu time spent up to now is      553.4 secs

     total energy              =    -734.60943007 Ry
     estimated scf accuracy    <       0.00050459 Ry

     iteration #  5     ecut=    60.00 Ry     beta= 0.40
     Davidson diagonalization with overlap
     ethr =  5.73E-07,  avg # of iterations =  4.4

     total cpu time spent up to now is      678.7 secs

     total energy              =    -734.60950674 Ry
     estimated scf accuracy    <       0.00001322 Ry

     iteration #  6     ecut=    60.00 Ry     beta= 0.40
     Davidson diagonalization with overlap
     ethr =  1.50E-08,  avg # of iterations =  5.4

     total cpu time spent up to now is      778.4 secs

     total energy              =    -734.60952067 Ry
     estimated scf accuracy    <       0.00000128 Ry

     iteration #  7     ecut=    60.00 Ry     beta= 0.40
     Davidson diagonalization with overlap
     ethr =  1.46E-09,  avg # of iterations =  3.7

     total cpu time spent up to now is      889.4 secs

     total energy              =    -734.60952331 Ry
     estimated scf accuracy    <       0.00000026 Ry

     iteration #  8     ecut=    60.00 Ry     beta= 0.40
     Davidson diagonalization with overlap
     ethr =  2.90E-10,  avg # of iterations =  2.2

     total cpu time spent up to now is      985.0 secs

     total energy              =    -734.60952408 Ry
     estimated scf accuracy    <       0.00000003 Ry

     iteration #  9     ecut=    60.00 Ry     beta= 0.40
     Davidson diagonalization with overlap
     ethr =  3.17E-11,  avg # of iterations =  3.5

     total cpu time spent up to now is     1067.4 secs

     End of self-consistent calculation

          k = 0.0000 0.0000 0.0000 ( 21959 PWs)   bands (ev):

   -18.1273 -18.1235 -18.1231 -18.1223 -18.1089 -18.1087 -18.1070 -18.1068
   -18.1056 -18.1056 -18.1008 -18.0999 -11.3106 -11.1772 -11.0120 -10.8550
   -10.8492 -10.8478  -4.8974  -4.8945  -4.8906  -4.8799  -4.8792  -4.8737
    -3.1708  -2.2054  -0.8837  -0.8783  -0.8570  -0.7836  -0.7672   0.6127
     1.0708   1.0853   1.1325   1.2471   1.2488   1.2598   1.2713   1.2751
     1.3541   1.3610   1.3706   2.1016   5.5260   6.4117   7.5043   7.5363
     7.7587   7.8112   8.1569   8.3164   8.3757

          k = 0.0000-0.0000 0.1667 ( 21971 PWs)   bands (ev):

   -18.1262 -18.1241 -18.1231 -18.1229 -18.1088 -18.1088 -18.1069 -18.1068
   -18.1056 -18.1056 -18.1006 -18.1001 -11.2873 -11.2261 -10.9571 -10.8842
   -10.8489 -10.8482  -4.8959  -4.8942  -4.8879  -4.8825  -4.8787  -4.8758
    -3.0141  -2.5821  -0.8565  -0.8358  -0.8105  -0.7909  -0.2991   0.4457
     1.1125   1.1307   1.1505   1.2134   1.2225   1.2419   1.2695   1.2948
     1.3244   1.3415   1.3718   1.6470   6.3666   6.6684   7.3439   7.6478
     7.7299   7.8930   7.9495   8.0488   8.0909

          k = 0.0000 0.2000-0.0000 ( 21957 PWs)   bands (ev):

   -18.1268 -18.1223 -18.1221 -18.1221 -18.1092 -18.1088 -18.1070 -18.1068
   -18.1057 -18.1057 -18.1005 -18.0993 -11.2770 -11.1465 -11.0122 -10.8918
   -10.8796 -10.8529  -4.8979  -4.8910  -4.8875  -4.8870  -4.8761  -4.8760
    -3.4580  -2.6618  -0.8727  -0.8548  -0.7685  -0.1816  -0.1021   0.5200
     0.9511   1.0485   1.1032   1.1596   1.2188   1.2630   1.2650   1.3161
     1.3254   1.4130   1.4136   2.2570   5.3843   6.7675   7.0935   7.4634
     7.7411   7.8087   8.0302   8.2687   8.2832

          k = 0.0000 0.2000 0.1667 ( 21977 PWs)   bands (ev):

   -18.1257 -18.1234 -18.1221 -18.1221 -18.1091 -18.1089 -18.1069 -18.1068
   -18.1057 -18.1057 -18.1002 -18.0996 -11.2547 -11.1957 -10.9598 -10.9019
   -10.8787 -10.8693  -4.8977  -4.8953  -4.8864  -4.8853  -4.8755  -4.8751
    -3.3147  -2.9409  -0.8493  -0.8008  -0.4931  -0.2370   0.0312   0.4427
     0.9319   1.0289   1.0892   1.1409   1.1738   1.2557   1.2872   1.2873
     1.3975   1.4236   1.4407   1.7828   6.2324   6.9524   7.1317   7.3545
     7.6435   7.7121   7.9098   7.9978   8.2120

          k = 0.0000 0.4000-0.0000 ( 21988 PWs)   bands (ev):

   -18.1264 -18.1223 -18.1201 -18.1196 -18.1097 -18.1088 -18.1070 -18.1068
   -18.1058 -18.1058 -18.1000 -18.0984 -11.1980 -11.0654 -11.0127 -10.9828
   -10.9626 -10.8521  -4.9030  -4.8983  -4.8854  -4.8827  -4.8752  -4.8710
    -3.7931  -3.0812  -0.8242  -0.8050  -0.6882   0.3807   0.5667   0.6878
     0.9413   0.9541   1.0164   1.0304   1.1117   1.1582   1.2269   1.2691
     1.2729   1.6451   1.8865   2.8049   5.1567   5.5155   5.8917   7.6036
     7.9796   8.2924   8.3009   8.3493   8.3689

          k = 0.0000 0.4000 0.1667 ( 21976 PWs)   bands (ev):

   -18.1253 -18.1233 -18.1201 -18.1199 -18.1095 -18.1091 -18.1069 -18.1068
   -18.1058 -18.1058 -18.0996 -18.0988 -11.1773 -11.1211 -10.9885 -10.9836
   -10.9292 -10.8740  -4.9002  -4.8929  -4.8917  -4.8849  -4.8741  -4.8719
    -3.6575  -3.3165  -0.7941  -0.7300  -0.3707   0.3670   0.4302   0.5237
     0.9018   0.9205   1.0337   1.0547   1.0946   1.1902   1.2205   1.2530
     1.3971   1.5810   1.9802   2.3555   5.5873   5.7887   6.0769   7.5128
     7.8164   8.0477   8.1735   8.2506   8.3867

          k = 0.2000 0.2000 0.0000 ( 21957 PWs)   bands (ev):

   -18.1265 -18.1222 -18.1209 -18.1207 -18.1091 -18.1088 -18.1072 -18.1069
   -18.1059 -18.1057 -18.1000 -18.0989 -11.2446 -11.1220 -11.0120 -10.9092
   -10.9058 -10.8713  -4.9035  -4.8974  -4.8885  -4.8860  -4.8785  -4.8764
    -3.7261  -3.0261  -0.8204  -0.4443  -0.3300  -0.0254   0.1206   0.5026
     0.7552   0.9442   1.0154   1.1662   1.2513   1.2690   1.2930   1.3447
     1.4260   1.4769   1.4820   2.3666   5.2332   6.8801   7.0085   7.0303
     7.4243   7.5970   8.0555   8.0947   8.2280

          k = 0.2000 0.2000 0.1667 ( 21966 PWs)   bands (ev):

   -18.1254 -18.1232 -18.1209 -18.1208 -18.1090 -18.1089 -18.1071 -18.1070
   -18.1059 -18.1058 -18.0997 -18.0992 -11.2239 -11.1690 -10.9629 -10.9146
   -10.9043 -10.8902  -4.9030  -4.8993  -4.8904  -4.8895  -4.8749  -4.8731
    -3.5924  -3.2567  -0.5085  -0.4244  -0.3355  -0.1112   0.2039   0.4418
     0.8244   0.9247   0.9706   1.0047   1.2992   1.3355   1.3814   1.3843
     1.4206   1.4576   1.4828   1.8466   6.0879   6.9238   7.0021   7.1151
     7.3070   7.4087   7.7693   7.8799   8.1790

          k = 0.2000 0.4000 0.0000 ( 21981 PWs)   bands (ev):

   -18.1259 -18.1214 -18.1191 -18.1190 -18.1095 -18.1088 -18.1070 -18.1069
   -18.1063 -18.1058 -18.0993 -18.0984 -11.1683 -11.0545 -11.0116 -10.9839
   -10.9704 -10.8829  -4.9107  -4.9059  -4.8927  -4.8893  -4.8798  -4.8760
    -4.0389  -3.3940  -0.7622  -0.2471  -0.1488   0.4360   0.4968   0.6289
     0.6978   0.8412   0.9485   1.0808   1.1836   1.2355   1.3627   1.3989
     1.4322   1.6522   2.0207   2.8937   4.9945   5.3563   5.7409   6.9117
     7.2865   7.8905   8.1247   8.3754   8.4006

          k = 0.2000 0.4000 0.1667 ( 21973 PWs)   bands (ev):

   -18.1247 -18.1225 -18.1191 -18.1191 -18.1093 -18.1090 -18.1070 -18.1069
   -18.1061 -18.1059 -18.0991 -18.0986 -11.1505 -11.1025 -10.9881 -10.9842
   -10.9455 -10.9006  -4.9071  -4.9022  -4.8960  -4.8933  -4.8801  -4.8757
    -3.9108  -3.5980  -0.4323  -0.2206  -0.1316   0.4014   0.4574   0.4887
     0.7082   0.8020   0.8478   0.9907   1.2633   1.3615   1.3644   1.4165
     1.4664   1.5883   2.0803   2.4231   5.4291   5.6352   5.9266   6.9868
     7.1467   7.3608   7.9879   8.1717   8.5243

          k = 0.4000 0.4000 0.0000 ( 21986 PWs)   bands (ev):

   -18.1253 -18.1207 -18.1171 -18.1171 -18.1091 -18.1088 -18.1072 -18.1069
   -18.1069 -18.1059 -18.0984 -18.0983 -11.0921 -11.0284 -11.0097 -10.9970
   -10.9928 -10.9479  -4.9228  -4.9194  -4.9136  -4.8977  -4.8899  -4.8731
    -4.3485  -3.7472  -0.6859   0.3788   0.5091   0.5146   0.5626   0.5812
     0.6921   0.8454   0.9509   1.0332   1.0525   1.1468   1.6339   1.6353
     1.6380   1.6791   2.5685   3.3424   4.7242   5.0130   5.2207   5.5619
     5.6522   7.9558   8.0361   8.3744   8.5399

          k = 0.4000 0.4000 0.1667 ( 22003 PWs)   bands (ev):

   -18.1241 -18.1219 -18.1171 -18.1171 -18.1090 -18.1089 -18.1071 -18.1070
   -18.1066 -18.1061 -18.0984 -18.0983 -11.0820 -11.0552 -10.9998 -10.9971
   -10.9780 -10.9560  -4.9175  -4.9153  -4.9087  -4.9023  -4.8919  -4.8811
    -4.2250  -3.9311  -0.3014   0.4007   0.4226   0.4672   0.5674   0.5800
     0.6269   0.7186   0.7798   0.8729   1.2996   1.3510   1.5556   1.5730
     1.6394   1.6492   2.6195   2.8888   5.1072   5.1866   5.4586   5.5585
     5.8081   7.1626   8.1044   8.3147   8.7000

          k = 0.2000 0.0000 0.0000 ( 21957 PWs)   bands (ev):

   -18.1271 -18.1234 -18.1217 -18.1209 -18.1089 -18.1087 -18.1074 -18.1069
   -18.1057 -18.1057 -18.1005 -18.0992 -11.2766 -11.1478 -11.0122 -10.8978
   -10.8791 -10.8475  -4.8987  -4.8948  -4.8869  -4.8823  -4.8770  -4.8758
    -3.4711  -2.6816  -0.8539  -0.8259  -0.7207  -0.2064  -0.1148   0.5139
     0.9526   1.0614   1.1698   1.1997   1.2024   1.2073   1.2162   1.3117
     1.3301   1.4047   1.4296   2.2503   5.3805   6.7683   7.2095   7.5812
     7.8008   7.8326   7.8404   8.0433   8.2097

          k = 0.2000 0.0000-0.1667 ( 21977 PWs)   bands (ev):

   -18.1261 -18.1241 -18.1217 -18.1213 -18.1088 -18.1088 -18.1073 -18.1070
   -18.1057 -18.1057 -18.1002 -18.0995 -11.2544 -11.1960 -10.9618 -10.9083
   -10.8770 -10.8634  -4.8993  -4.8972  -4.8845  -4.8795  -4.8790  -4.8759
    -3.3284  -2.9572  -0.8012  -0.7488  -0.5118  -0.2617   0.0278   0.4398
     0.9272   1.0293   1.1035   1.1630   1.2246   1.2314   1.2653   1.2881
     1.3804   1.4264   1.4343   1.7665   6.2279   6.9546   7.2352   7.4543
     7.6579   7.7349   7.8960   7.9648   8.0360

          k = 0.4000 0.0000 0.0000 ( 21988 PWs)   bands (ev):

   -18.1270 -18.1233 -18.1193 -18.1184 -18.1089 -18.1087 -18.1079 -18.1069
   -18.1057 -18.1057 -18.1000 -18.0983 -11.1948 -11.0726 -11.0127 -10.9932
   -10.9562 -10.8466  -4.9045  -4.9024  -4.8810  -4.8799  -4.8757  -4.8723
    -3.8167  -3.1100  -0.8022  -0.7716  -0.6372   0.3703   0.5781   0.6762
     0.9591   1.0234   1.0296   1.0743   1.1075   1.1077   1.1475   1.2588
     1.2826   1.6640   1.9061   2.8169   5.1458   5.4819   5.8571   7.6203
     7.7819   8.1493   8.2827   8.2946   8.3478

          k = 0.4000 0.0000-0.1667 ( 21976 PWs)   bands (ev):

   -18.1260 -18.1241 -18.1192 -18.1188 -18.1088 -18.1088 -18.1077 -18.1072
   -18.1057 -18.1057 -18.0995 -18.0987 -11.1746 -11.1210 -10.9982 -10.9940
   -10.9205 -10.8677  -4.9029  -4.8999  -4.8818  -4.8788  -4.8781  -4.8745
    -3.6815  -3.3426  -0.7407  -0.6738  -0.3778   0.3571   0.4232   0.5277
     0.9057   0.9484   1.0393   1.0592   1.1221   1.1780   1.2266   1.2400
     1.3748   1.5875   1.9965   2.3671   5.5512   5.7494   6.0743   7.5026
     7.8395   7.8444   8.0156   8.2305   8.3809

          k = 0.4000 0.2000 0.0000 ( 21981 PWs)   bands (ev):

   -18.1262 -18.1222 -18.1186 -18.1181 -18.1090 -18.1088 -18.1076 -18.1069
   -18.1062 -18.1058 -18.0993 -18.0983 -11.1652 -11.0599 -11.0116 -10.9932
   -10.9656 -10.8774  -4.9116  -4.9090  -4.8885  -4.8880  -4.8800  -4.8774
    -4.0503  -3.4061  -0.7603  -0.2178  -0.1233   0.4251   0.5061   0.6312
     0.7083   0.8543   0.9425   1.0783   1.1797   1.2405   1.3556   1.3810
     1.4346   1.6680   2.0466   2.9065   4.9873   5.3346   5.7094   6.8263
     7.1968   7.8958   8.1172   8.3984   8.4033

          k = 0.4000 0.2000-0.1667 ( 21973 PWs)   bands (ev):

   -18.1251 -18.1231 -18.1185 -18.1183 -18.1089 -18.1088 -18.1075 -18.1072
   -18.1061 -18.1059 -18.0990 -18.0986 -11.1480 -11.1020 -10.9975 -10.9938
   -10.9373 -10.8944  -4.9089  -4.9061  -4.8913  -4.8903  -4.8812  -4.8768
    -3.9221  -3.6097  -0.4168  -0.1782  -0.1333   0.3922   0.4558   0.4961
     0.7058   0.7937   0.8568   1.0023   1.2921   1.3419   1.3762   1.4011
     1.4610   1.5912   2.1035   2.4381   5.4024   5.6022   5.9273   6.9031
     7.0647   7.3507   7.9902   8.1764   8.5238

     the Fermi energy is     4.0950 ev

!    total energy              =    -734.60952446 Ry
     estimated scf accuracy    <          4.6E-10 Ry
     smearing contrib. (-TS)   =      -0.00000000 Ry
     internal energy E=F+TS    =    -734.60952446 Ry

     The total energy is F=E-TS. E is the sum of the following terms:
     one-electron contribution =    -256.10164125 Ry
     hartree contribution      =     165.18660598 Ry
     xc contribution           =    -312.36745372 Ry
     ewald contribution        =    -331.32703546 Ry

     convergence has been achieved in   9 iterations

     Forces acting on atoms (cartesian axes, Ry/au):

     atom    1 type  1   force =     0.00000000    0.00000000    0.00000000
     atom    2 type  1   force =     0.00000000    0.00000000    0.00000000
     atom    3 type  2   force =     0.00184184    0.00000000    0.00000000
     atom    4 type  2   force =    -0.00184184   -0.00000000   -0.00000000
     atom    5 type  3   force =     0.00152003    0.00000000    0.00000000
     atom    6 type  3   force =    -0.00152003   -0.00000000   -0.00000000
     atom    7 type  3   force =    -0.00352845   -0.00000000   -0.00000000
     atom    8 type  3   force =     0.00352845    0.00000000    0.00000000
     atom    9 type  3   force =    -0.00000000    0.00000000   -0.00000000
     atom   10 type  3   force =    -0.00000000    0.00000000   -0.00000000

     Total force =     0.006025     Total SCF correction =     0.000016
     Message from routine punch:
     Nothing written, as per user request (disk_io='none')

     init_run     :     37.01s CPU     38.70s WALL (       1 calls)
     electrons    :    977.51s CPU   1009.12s WALL (       1 calls)
     forces       :     22.84s CPU     23.97s WALL (       1 calls)

     Called by init_run:
     wfcinit      :      5.70s CPU      6.08s WALL (       1 calls)
     potinit      :     11.63s CPU     11.98s WALL (       1 calls)
     hinit0       :      3.42s CPU      3.57s WALL (       1 calls)

     Called by electrons:
     c_bands      :    665.24s CPU    673.44s WALL (      10 calls)
     sum_band     :    189.70s CPU    200.37s WALL (      10 calls)
     v_of_rho     :     20.67s CPU     23.70s WALL (      10 calls)
     newd         :    107.31s CPU    117.74s WALL (      10 calls)
     mix_rho      :      4.62s CPU      4.77s WALL (      10 calls)

     Called by c_bands:
     init_us_2    :     14.30s CPU     14.44s WALL (      66 calls)
     cegterg      :    238.37s CPU    245.68s WALL (      30 calls)

     Called by *egterg:
     cdiaghg      :      0.98s CPU      0.98s WALL (     182 calls)
     h_psi        :    174.46s CPU    178.04s WALL (     188 calls)
     s_psi        :     17.07s CPU     17.09s WALL (     188 calls)
     g_psi        :      1.12s CPU      1.12s WALL (     155 calls)

     Called by h_psi:
     h_psi:calbec :     19.89s CPU     19.92s WALL (     188 calls)
     vloc_psi     :    134.78s CPU    135.07s WALL (     188 calls)
                                        0.00s GPU  (     188 calls)
     add_vuspsi   :     17.85s CPU     17.86s WALL (     188 calls)

     General routines
     calbec       :     28.73s CPU     28.76s WALL (     230 calls)
     fft          :      9.79s CPU      9.82s WALL (     140 calls)
     ffts         :      0.93s CPU      0.94s WALL (      20 calls)
     fftw         :    104.17s CPU    104.36s WALL (   10498 calls)
     interpolate  :      1.77s CPU      1.79s WALL (      10 calls)

     Parallel routines

     PWSCF        :  17m45.30s CPU  18m19.98s WALL


   This run was terminated on:  22: 1:19   4Oct2026            

=------------------------------------------------------------------------------=
   JOB DONE.
=------------------------------------------------------------------------------=
