
     Program PWSCF v.7.5 starts on 27Sep2026 at  9:12:56 

     This program is part of the open-source Quantum ESPRESSO suite
     for quantum simulation of materials; please cite
         "P. Giannozzi et al., J. Phys.:Condens. Matter 21 395502 (2009);
         "P. Giannozzi et al., J. Phys.:Condens. Matter 29 465901 (2017);
         "P. Giannozzi et al., J. Chem. Phys. 152 154105 (2020);
          URL http://www.quantum-espresso.org", 
     in publications or presentations arising from this work. More details at
     http://www.quantum-espresso.org/quote

     Parallel version (MPI & OpenMP), running on       8 processor cores
     Number of MPI processes:                 8
     Threads/MPI process:                     1

     MPI processes distributed on     1 nodes
     66658 MiB available memory on the printing compute node when the environment starts

     Reading input from pw.in

     Current dimensions of program PWSCF are:
     Max number of different atomic species (ntypx) = 10
     Max number of k-points (npk) =  40000
     Max angular momentum in pseudopotentials (lmaxx) =  4
     Message from routine setup:
     using ibrav=0 with symmetry is DISCOURAGED, use correct ibrav instead

     K-points division:     npool     =       8
     Subspace diagonalization in iterative solution of the eigenvalue problem:
     a serial algorithm will be used


     G-vector sticks info
     --------------------
     sticks:   dense  smooth     PW     G-vecs:    dense   smooth      PW
     Sum        9465    4725   1305               490629   173563   24989

     Using Slab Decomposition



     bravais-lattice index     =            0
     lattice parameter (alat)  =      15.7519  a.u.
     unit-cell volume          =    2763.6459 (a.u.)^3
     number of atoms/cell      =           10
     number of atomic types    =            3
     number of electrons       =        88.00
     number of Kohn-Sham states=           53
     kinetic-energy cutoff     =      60.0000  Ry
     charge density cutoff     =     480.0000  Ry
     scf convergence threshold =      1.0E-09
     mixing beta               =       0.4000
     number of iterations used =            8  plain     mixing
     Exchange-correlation=  SLA  PW   PBX  PBC
                           (   1   4   3   4   0   0   0)

     celldm(1)=  15.751882  celldm(2)=   0.000000  celldm(3)=   0.000000
     celldm(4)=   0.000000  celldm(5)=   0.000000  celldm(6)=   0.000000

     crystal axes: (cart. coord. in units of alat)
               a(1) = (  -0.000000  -0.707107  -0.707107 )  
               a(2) = (  -0.000000  -0.707107   0.707107 )  
               a(3) = (  -0.707107  -0.000000  -0.000000 )  

     reciprocal axes: (cart. coord. in units 2 pi/alat)
               b(1) = (  0.000000 -0.707107 -0.707107 )  
               b(2) = (  0.000000 -0.707107  0.707107 )  
               b(3) = ( -1.414214  0.000000  0.000000 )  


     PseudoPot. # 1 for Cs read from file:
     /root/sssp/upf/Cs_pbe_v1.uspp.F.UPF
     MD5 check sum: 3476d69cb178dfad3ffaa59df4e07ca4
     Pseudo is Ultrasoft + core correction, Zval =  9.0
     Generated by new atomic code, or converted to UPF format
     Using radial grid of  905 points,  6 beta functions with: 
                l(1) =   0
                l(2) =   0
                l(3) =   1
                l(4) =   1
                l(5) =   2
                l(6) =   2
     Q(r) pseudized with  6 coefficients,  rinner =    1.500   1.500   1.500
                                                       1.500   1.500

     PseudoPot. # 2 for Sn read from file:
     /root/sssp/upf/Sn_pbe_v1.uspp.F.UPF
     MD5 check sum: 4cf58ce39ec5d5d420df3dd08604eb00
     Pseudo is Ultrasoft + core correction, Zval = 14.0
     Generated by new atomic code, or converted to UPF format
     Using radial grid of  891 points,  6 beta functions with: 
                l(1) =   0
                l(2) =   0
                l(3) =   1
                l(4) =   1
                l(5) =   2
                l(6) =   2
     Q(r) pseudized with  6 coefficients,  rinner =    1.200   1.200   1.200
                                                       1.200   1.200

     PseudoPot. # 3 for Br read from file:
     /root/sssp/upf/br_pbe_v1.4.uspp.F.UPF
     MD5 check sum: d3ffb7b29f6225aa16fe06858fb2a80b
     Pseudo is Ultrasoft + core correction, Zval =  7.0
     Generated by new atomic code, or converted to UPF format
     Using radial grid of  879 points,  6 beta functions with: 
                l(1) =   0
                l(2) =   0
                l(3) =   1
                l(4) =   1
                l(5) =   2
                l(6) =   2
     Q(r) pseudized with  8 coefficients,  rinner =    1.100   1.100   1.100
                                                       1.100   1.100

     atomic species   valence    mass     pseudopotential
     Cs                9.00   132.90550     Cs( 1.00)
     Sn               14.00   118.71000     Sn( 1.00)
     Br                7.00    79.90400     Br( 1.00)

     16 Sym. Ops., with inversion, found ( 8 have fractional translation)



   Cartesian axes

     site n.     atom                  positions (alat units)
         1        Cs     tau(   1) = (  -0.7071068  -0.7071068  -0.0000000  )
         2        Cs     tau(   2) = (  -0.7071068  -0.7071068   0.7071068  )
         3        Sn     tau(   3) = (  -0.3535534  -0.3535534  -0.3535534  )
         4        Sn     tau(   4) = (  -0.3535534  -1.0606602  -0.3535534  )
         5        Br     tau(   5) = (  -0.0000000  -0.3535534  -0.3535534  )
         6        Br     tau(   6) = (  -0.0000000  -1.0606602  -0.3535534  )
         7        Br     tau(   7) = (  -0.3535534  -0.7071068  -0.3428895  )
         8        Br     tau(   8) = (  -0.3535534  -0.7071068   0.3428896  )
         9        Br     tau(   9) = (  -0.3535534  -0.3428896  -0.0000000  )
        10        Br     tau(  10) = (  -0.3535534  -1.0713240  -0.0000000  )

     number of k points=    18  Marzari-Vanderbilt smearing, width (Ry)=  0.0050
                       cart. coord. in units 2pi/alat
        k(    1) = (   0.0000000   0.0000000   0.0000000), wk =   0.0250000
        k(    2) = (  -0.2828427   0.0000000   0.0000000), wk =   0.0500000
        k(    3) = (  -0.5656854   0.0000000   0.0000000), wk =   0.0500000
        k(    4) = (   0.0000000  -0.1767767   0.1767767), wk =   0.1000000
        k(    5) = (  -0.2828427  -0.1767767   0.1767767), wk =   0.2000000
        k(    6) = (  -0.5656854  -0.1767767   0.1767767), wk =   0.2000000
        k(    7) = (  -0.0000000   0.3535534  -0.3535534), wk =   0.0500000
        k(    8) = (  -0.2828427   0.3535534  -0.3535534), wk =   0.1000000
        k(    9) = (  -0.5656854   0.3535534  -0.3535534), wk =   0.1000000
        k(   10) = (   0.0000000  -0.3535534  -0.0000000), wk =   0.1000000
        k(   11) = (  -0.2828427  -0.3535534  -0.0000000), wk =   0.2000000
        k(   12) = (  -0.5656854  -0.3535534  -0.0000000), wk =   0.2000000
        k(   13) = (   0.0000000   0.1767767  -0.5303301), wk =   0.1000000
        k(   14) = (  -0.2828427   0.1767767  -0.5303301), wk =   0.2000000
        k(   15) = (  -0.5656854   0.1767767  -0.5303301), wk =   0.2000000
        k(   16) = (  -0.0000000   0.7071068   0.0000000), wk =   0.0250000
        k(   17) = (  -0.2828427   0.7071068   0.0000000), wk =   0.0500000
        k(   18) = (  -0.5656854   0.7071068   0.0000000), wk =   0.0500000

     Dense  grid:   490629 G-vectors     FFT dimensions: ( 120, 120,  80)

     Smooth grid:   173563 G-vectors     FFT dimensions: (  80,  80,  60)

     Estimated max dynamical RAM per process >     638.44 MB

     Estimated total dynamical RAM >       4.17 GB

     Initial potential from superposition of free atoms

     starting charge      85.9210, renormalised to      88.0000
     Starting wfcs are   68 randomized atomic wfcs

     total cpu time spent up to now is       10.9 secs

     per-process dynamical memory:   384.8 Mb

     Self-consistent Calculation

     iteration #  1     ecut=    60.00 Ry     beta= 0.40
     Davidson diagonalization with overlap
     ethr =  1.00E-02,  avg # of iterations =  2.8

     Threshold (ethr) on eigenvalues was too large:
     Diagonalizing with lowered threshold

     Davidson diagonalization with overlap
     ethr =  4.84E-04,  avg # of iterations =  3.2

     total cpu time spent up to now is       32.9 secs

     total energy              =    -734.56031405 Ry
     estimated scf accuracy    <       0.40850297 Ry

     iteration #  2     ecut=    60.00 Ry     beta= 0.40
     Davidson diagonalization with overlap
     ethr =  4.64E-04,  avg # of iterations =  2.0

     total cpu time spent up to now is       45.4 secs

     total energy              =    -734.60668908 Ry
     estimated scf accuracy    <       0.03742431 Ry

     iteration #  3     ecut=    60.00 Ry     beta= 0.40
     Davidson diagonalization with overlap
     ethr =  4.25E-05,  avg # of iterations =  6.9

     total cpu time spent up to now is       61.1 secs

     total energy              =    -734.61026074 Ry
     estimated scf accuracy    <       0.00568376 Ry

     iteration #  4     ecut=    60.00 Ry     beta= 0.40
     Davidson diagonalization with overlap
     ethr =  6.46E-06,  avg # of iterations =  6.4

     total cpu time spent up to now is       73.6 secs

     total energy              =    -734.61084713 Ry
     estimated scf accuracy    <       0.00047903 Ry

     iteration #  5     ecut=    60.00 Ry     beta= 0.40
     Davidson diagonalization with overlap
     ethr =  5.44E-07,  avg # of iterations =  5.2

     total cpu time spent up to now is       87.5 secs

     total energy              =    -734.61092202 Ry
     estimated scf accuracy    <       0.00001283 Ry

     iteration #  6     ecut=    60.00 Ry     beta= 0.40
     Davidson diagonalization with overlap
     ethr =  1.46E-08,  avg # of iterations =  5.5

     total cpu time spent up to now is      104.4 secs

     total energy              =    -734.61093559 Ry
     estimated scf accuracy    <       0.00000124 Ry

     iteration #  7     ecut=    60.00 Ry     beta= 0.40
     Davidson diagonalization with overlap
     ethr =  1.41E-09,  avg # of iterations =  3.6

     total cpu time spent up to now is      120.7 secs

     total energy              =    -734.61093805 Ry
     estimated scf accuracy    <       0.00000025 Ry

     iteration #  8     ecut=    60.00 Ry     beta= 0.40
     Davidson diagonalization with overlap
     ethr =  2.83E-10,  avg # of iterations =  2.2

     total cpu time spent up to now is      135.8 secs

     total energy              =    -734.61093878 Ry
     estimated scf accuracy    <       0.00000006 Ry

     iteration #  9     ecut=    60.00 Ry     beta= 0.40
     Davidson diagonalization with overlap
     ethr =  7.06E-11,  avg # of iterations =  2.0

     total cpu time spent up to now is      149.7 secs

     End of self-consistent calculation

          k = 0.0000 0.0000 0.0000 ( 21707 PWs)   bands (ev):

   -17.9852 -17.9838 -17.9771 -17.9736 -17.9712 -17.9697 -17.9563 -17.9563
   -17.9537 -17.9537 -17.9535 -17.9535 -11.2393 -10.9401 -10.9270 -10.9270
   -10.7652 -10.7593  -4.7880  -4.7880  -4.7762  -4.7754  -4.7754  -4.7558
    -3.7658  -2.0403  -0.8265  -0.8196  -0.8196  -0.5939   0.4266   1.0227
     1.0403   1.0403   1.1026   1.1026   1.3414   1.3414   1.3440   1.4575
     1.4575   1.4579   1.7997   3.1919   5.2634   5.2634   6.5335   7.6250
     7.6327   8.0937   8.9887   8.9889   8.9981

          k =-0.2828 0.0000 0.0000 ( 21691 PWs)   bands (ev):

   -17.9849 -17.9834 -17.9771 -17.9719 -17.9697 -17.9694 -17.9564 -17.9563
   -17.9537 -17.9537 -17.9536 -17.9536 -11.2041 -10.9375 -10.9256 -10.9256
   -10.8094 -10.7588  -4.7950  -4.7950  -4.7742  -4.7725  -4.7724  -4.7724
    -4.0155  -2.5520  -0.7891  -0.7891  -0.0421  -0.0337   0.4901   0.7780
     0.7780   1.0248   1.2877   1.2877   1.2996   1.4119   1.4119   1.4566
     1.4566   1.4795   1.8064   3.2972   5.0954   5.0954   6.9050   7.0123
     7.7795   7.9128   7.9330   8.4222   8.4222

          k =-0.5657 0.0000 0.0000 ( 21728 PWs)   bands (ev):

   -17.9843 -17.9828 -17.9771 -17.9697 -17.9691 -17.9666 -17.9566 -17.9563
   -17.9538 -17.9538 -17.9536 -17.9536 -11.1192 -10.9334 -10.9233 -10.9233
   -10.9087 -10.7579  -4.8076  -4.8076  -4.8036  -4.7668  -4.7665  -4.7665
    -4.3305  -2.9946  -0.7362  -0.7362   0.5949   0.6282   0.6282   0.6520
     0.8628   1.0283   1.1872   1.1872   1.2306   1.3621   1.3621   1.7608
     1.7608   1.8010   2.0245   3.7799   4.8136   4.8136   5.2957   6.0435
     7.7478   8.0815   8.4208   8.4812   8.4813

          k = 0.0000-0.1768 0.1768 ( 21735 PWs)   bands (ev):

   -17.9849 -17.9839 -17.9760 -17.9733 -17.9715 -17.9708 -17.9563 -17.9563
   -17.9536 -17.9536 -17.9535 -17.9535 -11.2118 -11.0353 -10.9033 -10.8532
   -10.7848 -10.7739  -4.7858  -4.7815  -4.7740  -4.7729  -4.7696  -4.7585
    -3.6089  -2.5175  -0.8006  -0.6381  -0.6353  -0.2646   0.4862   0.5243
     0.9908   1.1355   1.1658   1.2321   1.2570   1.3064   1.3534   1.4153
     1.4350   1.4724   1.7107   2.5632   5.8022   5.9847   6.8255   7.8172
     7.8240   8.1625   8.2813   8.3323   8.3430

          k =-0.2828-0.1768 0.1768 ( 21681 PWs)   bands (ev):

   -17.9846 -17.9836 -17.9760 -17.9715 -17.9708 -17.9698 -17.9564 -17.9563
   -17.9537 -17.9537 -17.9536 -17.9536 -11.1780 -11.0173 -10.9020 -10.8693
   -10.8149 -10.7841  -4.7917  -4.7883  -4.7773  -4.7753  -4.7696  -4.7630
    -3.8665  -2.8937  -0.6020  -0.5111  -0.1033   0.1142   0.5252   0.5464
     0.7995   0.9164   1.1371   1.1843   1.3912   1.4164   1.4559   1.4697
     1.5009   1.5062   1.7173   2.6318   5.6455   5.8350   7.1050   7.1152
     7.6432   7.9253   8.0758   8.1885   8.2124

          k =-0.5657-0.1768 0.1768 ( 21726 PWs)   bands (ev):

   -17.9841 -17.9831 -17.9761 -17.9708 -17.9688 -17.9670 -17.9566 -17.9564
   -17.9538 -17.9537 -17.9537 -17.9536 -11.0956 -10.9711 -10.9125 -10.9091
   -10.8999 -10.7829  -4.8016  -4.8008  -4.7910  -4.7738  -4.7724  -4.7627
    -4.1861  -3.2816  -0.5435  -0.3834   0.5762   0.6046   0.6111   0.6314
     0.7291   0.7873   0.9769   1.1846   1.3126   1.4083   1.4453   1.6886
     1.6927   1.7434   2.1152   3.1032   5.2846   5.4007   5.7647   5.9195
     7.8176   7.8922   8.0879   8.1913   8.6339

          k =-0.0000 0.3536-0.3536 ( 21674 PWs)   bands (ev):

   -17.9844 -17.9844 -17.9734 -17.9734 -17.9724 -17.9724 -17.9564 -17.9564
   -17.9536 -17.9536 -17.9536 -17.9536 -11.1369 -11.1369 -10.8449 -10.8449
   -10.8015 -10.8015  -4.7819  -4.7819  -4.7657  -4.7657  -4.7654  -4.7654
    -3.1639  -3.1639  -0.7282  -0.7282  -0.1312  -0.1312   0.4102   0.4102
     1.0075   1.0075   1.2178   1.2178   1.3014   1.3014   1.3356   1.3356
     1.5570   1.5570   1.7194   1.7194   7.0129   7.0130   7.1353   7.1353
     7.6699   7.6700   8.3160   8.3170   8.3170

          k =-0.2828 0.3536-0.3536 ( 21658 PWs)   bands (ev):

   -17.9841 -17.9841 -17.9734 -17.9734 -17.9707 -17.9707 -17.9564 -17.9564
   -17.9536 -17.9536 -17.9536 -17.9536 -11.1083 -11.1083 -10.8439 -10.8439
   -10.8330 -10.8330  -4.7846  -4.7846  -4.7796  -4.7796  -4.7601  -4.7601
    -3.4532  -3.4532  -0.2483  -0.2483  -0.0915  -0.0915   0.4513   0.4513
     0.9517   0.9517   0.9933   0.9933   1.4889   1.4889   1.5132   1.5132
     1.5514   1.5514   1.7435   1.7435   6.8496   6.8496   6.9873   6.9873
     7.2969   7.2969   7.9147   7.9147   8.4797

          k =-0.5657 0.3536-0.3536 ( 21662 PWs)   bands (ev):

   -17.9837 -17.9837 -17.9734 -17.9734 -17.9679 -17.9679 -17.9565 -17.9565
   -17.9537 -17.9537 -17.9536 -17.9536 -11.0364 -11.0364 -10.9097 -10.9097
   -10.8422 -10.8422  -4.7878  -4.7878  -4.7862  -4.7862  -4.7689  -4.7689
    -3.7920  -3.7920  -0.0164  -0.0164   0.2472   0.2472   0.5542   0.5542
     0.7943   0.7943   0.9441   0.9441   1.5017   1.5017   1.5367   1.5367
     1.6297   1.6297   2.4207   2.4207   5.6197   5.6197   6.6438   6.6438
     6.8948   6.8948   8.2071   8.2071   8.7342

          k = 0.0000-0.3536-0.0000 ( 21689 PWs)   bands (ev):

   -17.9847 -17.9840 -17.9757 -17.9728 -17.9726 -17.9706 -17.9564 -17.9564
   -17.9537 -17.9536 -17.9536 -17.9535 -11.1864 -11.0519 -10.9266 -10.8266
   -10.8124 -10.7627  -4.7786  -4.7782  -4.7705  -4.7694  -4.7691  -4.7603
    -3.4714  -2.6942  -0.7825  -0.7752  -0.6685   0.1151   0.2222   0.5539
     1.0253   1.1387   1.2310   1.2680   1.2681   1.2773   1.2935   1.3950
     1.3979   1.5272   1.6080   2.4904   5.4783   6.9650   7.0620   7.3870
     7.9964   8.0639   8.2353   8.3881   8.4622

          k =-0.2828-0.3536-0.0000 ( 21690 PWs)   bands (ev):

   -17.9845 -17.9837 -17.9756 -17.9721 -17.9710 -17.9695 -17.9564 -17.9564
   -17.9537 -17.9536 -17.9536 -17.9536 -11.1536 -11.0288 -10.9261 -10.8381
   -10.8345 -10.7894  -4.7847  -4.7846  -4.7788  -4.7681  -4.7670  -4.7654
    -3.7389  -3.0475  -0.7377  -0.2784  -0.1680   0.2071   0.3374   0.5651
     0.8042   1.0171   1.0484   1.2351   1.3275   1.3444   1.4203   1.4944
     1.5202   1.5949   1.6523   2.5914   5.3207   6.7771   7.1114   7.2058
     7.3587   7.6926   8.2143   8.2879   8.3242

          k =-0.5657-0.3536-0.0000 ( 21685 PWs)   bands (ev):

   -17.9840 -17.9833 -17.9755 -17.9718 -17.9683 -17.9670 -17.9565 -17.9564
   -17.9537 -17.9537 -17.9536 -17.9536 -11.0726 -10.9683 -10.9252 -10.9100
   -10.8934 -10.8071  -4.7963  -4.7953  -4.7817  -4.7791  -4.7713  -4.7619
    -4.0650  -3.4239  -0.6717   0.0824   0.1810   0.5276   0.5496   0.7002
     0.7313   0.9357   1.0082   1.1513   1.2452   1.3077   1.5409   1.5617
     1.5896   1.7677   2.2633   3.1239   5.0625   5.4374   5.8359   6.6214
     6.9881   8.1519   8.2437   8.3884   8.6014

          k = 0.0000 0.1768-0.5303 ( 21648 PWs)   bands (ev):

   -17.9843 -17.9843 -17.9745 -17.9745 -17.9713 -17.9713 -17.9564 -17.9564
   -17.9536 -17.9536 -17.9535 -17.9535 -11.1204 -11.1204 -10.8898 -10.8898
   -10.7753 -10.7753  -4.7751  -4.7751  -4.7651  -4.7651  -4.7647  -4.7647
    -3.1082  -3.1082  -0.7316  -0.7316  -0.4825  -0.4825   0.5957   0.5957
     1.0752   1.0752   1.1929   1.1929   1.3312   1.3312   1.3364   1.3364
     1.4145   1.4145   1.9716   1.9716   6.1537   6.1537   7.7376   7.7376
     8.0688   8.0688   8.3947   8.3948   8.4061

          k =-0.2828 0.1768-0.5303 ( 21698 PWs)   bands (ev):

   -17.9841 -17.9841 -17.9741 -17.9741 -17.9700 -17.9700 -17.9564 -17.9564
   -17.9536 -17.9536 -17.9536 -17.9536 -11.0911 -11.0911 -10.8915 -10.8915
   -10.8050 -10.8050  -4.7801  -4.7801  -4.7744  -4.7744  -4.7617  -4.7617
    -3.4093  -3.4093  -0.4831  -0.4831  -0.1294  -0.1294   0.5620   0.5620
     0.9373   0.9373   1.1148   1.1148   1.3411   1.3411   1.4278   1.4278
     1.5308   1.5308   2.0881   2.0881   6.0086   6.0086   7.3578   7.3578
     7.7693   7.7693   8.0815   8.0816   8.5674

          k =-0.5657 0.1768-0.5303 ( 21684 PWs)   bands (ev):

   -17.9837 -17.9837 -17.9738 -17.9738 -17.9675 -17.9675 -17.9565 -17.9565
   -17.9537 -17.9537 -17.9536 -17.9536 -11.0163 -11.0163 -10.9138 -10.9138
   -10.8609 -10.8609  -4.7876  -4.7876  -4.7829  -4.7829  -4.7639  -4.7639
    -3.7566  -3.7566  -0.3907  -0.3907   0.4933   0.4933   0.5872   0.5872
     0.8785   0.8785   1.0053   1.0053   1.3209   1.3209   1.3914   1.3914
     1.7204   1.7204   2.6803   2.6803   5.6105   5.6105   5.8450   5.8450
     7.6319   7.6319   8.4690   8.4690   8.8630

          k =-0.0000 0.7071 0.0000 ( 21704 PWs)   bands (ev):

   -17.9842 -17.9842 -17.9751 -17.9751 -17.9707 -17.9707 -17.9565 -17.9565
   -17.9537 -17.9537 -17.9535 -17.9535 -11.0997 -11.0997 -10.9261 -10.9261
   -10.7619 -10.7619  -4.7697  -4.7697  -4.7647  -4.7647  -4.7623  -4.7623
    -3.0473  -3.0473  -0.7350  -0.7350  -0.7273  -0.7273   0.6936   0.6936
     1.1761   1.1761   1.1782   1.1782   1.2163   1.2163   1.3494   1.3494
     1.3528   1.3528   2.2342   2.2342   5.6950   5.6950   7.9441   7.9441
     8.4785   8.4785   8.4795   8.4795   8.6253

          k =-0.2828 0.7071 0.0000 ( 21688 PWs)   bands (ev):

   -17.9841 -17.9841 -17.9746 -17.9746 -17.9695 -17.9695 -17.9565 -17.9565
   -17.9536 -17.9536 -17.9536 -17.9536 -11.0686 -11.0686 -10.9265 -10.9265
   -10.7949 -10.7949  -4.7744  -4.7744  -4.7721  -4.7721  -4.7616  -4.7616
    -3.3626  -3.3626  -0.6816  -0.6816  -0.1355  -0.1355   0.5938   0.5938
     1.0351   1.0351   1.1532   1.1532   1.2651   1.2651   1.3180   1.3180
     1.5163   1.5163   2.3897   2.3897   5.5447   5.5447   7.4216   7.4216
     8.2324   8.2324   8.2881   8.2881   8.7873

          k =-0.5657 0.7071 0.0000 ( 21660 PWs)   bands (ev):

   -17.9838 -17.9838 -17.9742 -17.9742 -17.9671 -17.9671 -17.9565 -17.9565
   -17.9536 -17.9536 -17.9535 -17.9535 -10.9858 -10.9858 -10.9271 -10.9271
   -10.8808 -10.8808  -4.7850  -4.7850  -4.7837  -4.7837  -4.7572  -4.7572
    -3.7196  -3.7196  -0.5995  -0.5995   0.4457   0.4457   0.7675   0.7675
     1.0422   1.0422   1.1135   1.1135   1.1224   1.1224   1.1863   1.1863
     1.7611   1.7611   2.9687   2.9687   5.3025   5.3025   5.6612   5.6612
     8.1074   8.1074   8.6783   8.6783   8.9122

     the Fermi energy is     4.3639 ev

!    total energy              =    -734.61093915 Ry
     estimated scf accuracy    <          3.3E-10 Ry
     smearing contrib. (-TS)   =      -0.00000000 Ry
     internal energy E=F+TS    =    -734.61093915 Ry

     The total energy is F=E-TS. E is the sum of the following terms:
     one-electron contribution =    -253.85745141 Ry
     hartree contribution      =     164.43704813 Ry
     xc contribution           =    -312.40248585 Ry
     ewald contribution        =    -332.78805002 Ry

     convergence has been achieved in   9 iterations

     Forces acting on atoms (cartesian axes, Ry/au):

     atom    1 type  1   force =    -0.00000000    0.00000000    0.00000000
     atom    2 type  1   force =     0.00000000    0.00000000    0.00000000
     atom    3 type  2   force =     0.00000000   -0.00000000   -0.00000000
     atom    4 type  2   force =     0.00000000   -0.00000000   -0.00000000
     atom    5 type  3   force =     0.00000000    0.00000000    0.00000000
     atom    6 type  3   force =    -0.00000000    0.00000000    0.00000000
     atom    7 type  3   force =    -0.00000000    0.00000000    0.00047190
     atom    8 type  3   force =     0.00000000   -0.00000000   -0.00047190
     atom    9 type  3   force =    -0.00000000    0.00047190    0.00000000
     atom   10 type  3   force =     0.00000000   -0.00047190   -0.00000000

     Total force =     0.000944     Total SCF correction =     0.000000
     Message from routine punch:
     Nothing written, as per user request (disk_io='none')

     init_run     :      8.44s CPU      9.49s WALL (       1 calls)
     electrons    :    113.87s CPU    138.85s WALL (       1 calls)
     forces       :      3.68s CPU      5.12s WALL (       1 calls)

     Called by init_run:
     wfcinit      :      3.51s CPU      3.67s WALL (       1 calls)
     potinit      :      1.56s CPU      1.82s WALL (       1 calls)
     hinit0       :      2.21s CPU      2.31s WALL (       1 calls)

     Called by electrons:
     c_bands      :     78.70s CPU     87.70s WALL (      10 calls)
     sum_band     :     20.09s CPU     27.86s WALL (      10 calls)
     v_of_rho     :      7.67s CPU     10.06s WALL (      10 calls)
     newd         :      7.26s CPU     13.55s WALL (      10 calls)
     mix_rho      :      0.73s CPU      0.83s WALL (      10 calls)

     Called by c_bands:
     init_us_2    :      2.88s CPU      3.19s WALL (      66 calls)
     cegterg      :     64.39s CPU     72.38s WALL (      30 calls)

     Called by *egterg:
     cdiaghg      :      0.41s CPU      0.43s WALL (     136 calls)
     h_psi        :     48.65s CPU     53.60s WALL (     142 calls)
     s_psi        :      5.30s CPU      5.79s WALL (     142 calls)
     g_psi        :      0.39s CPU      0.43s WALL (     109 calls)

     Called by h_psi:
     h_psi:calbec :      5.60s CPU      6.07s WALL (     142 calls)
     vloc_psi     :     37.31s CPU     40.39s WALL (     142 calls)
                                        0.00s GPU  (     142 calls)
     add_vuspsi   :      5.40s CPU      5.87s WALL (     142 calls)

     General routines
     calbec       :      8.25s CPU      9.01s WALL (     184 calls)
     fft          :      4.94s CPU      5.33s WALL (     140 calls)
     ffts         :      0.72s CPU      0.73s WALL (      20 calls)
     fftw         :     36.56s CPU     39.71s WALL (   10110 calls)
     interpolate  :      1.07s CPU      1.12s WALL (      10 calls)

     Parallel routines

     PWSCF        :   2m 7.36s CPU   2m34.96s WALL


   This run was terminated on:   9:15:31  27Sep2026            

=------------------------------------------------------------------------------=
   JOB DONE.
=------------------------------------------------------------------------------=
