40
Lattice="8.068094053620344 9.776809850035287e-19 -3.3327685695080746e-17 -2.7662683574551683e-17 8.068094053620369 -1.4422252443536244e-14 3.55521166950041e-16 -1.8723970188776863e-14 8.068094053620369" Properties=species:S:1:pos:R:3:u_disp:R:3:forces:R:3 system=batio3_cubic model=mace_mp0 T=100.0 seed=2 supercell=2x2x2 source="SSCHA free-energy-Hessian ensemble (final auxiliary dyn)" index=72 pair=36 energy=-318.9839812564861 pbc="T T T"
Ba       0.03459633      -0.01329442       0.03981267       0.03459633      -0.01329442       0.03981267      -0.36776248      -0.03697425      -0.17687929
Ti       2.01615510       2.02978283       2.03123755      -0.00086842       0.01275932       0.01421403      -0.52182026      -0.47333136       0.12780255
O       -0.02063020       2.00750982       2.03079449      -0.02063020      -0.00951369       0.01377097       0.70349650       0.20568827       0.34547568
O        2.08476140       0.09009557       2.05003572       0.06773789       0.09009557       0.03301221      -0.43995054       0.15096530      -0.05113277
O        1.96803825       2.01609880      -0.06804614      -0.04898527      -0.00092471      -0.06804614       0.14443840       0.24116796       0.30420301
Ba       0.01104242       0.00262551       3.99803477       0.01104242       0.00262551      -0.03601226      -0.13093440      -0.03163997       0.26269384
Ti       1.97901829       2.06501401       6.03368962      -0.03800522       0.04799050      -0.01738092      -0.24618175      -0.34624745       0.08472352
O       -0.05648166       2.12469010       5.96262618      -0.05648166       0.10766659      -0.08844436       0.23810441      -0.46431741       0.34654626
O        1.84669473      -0.01441435       6.01374984      -0.17032878      -0.01441435      -0.03732070       0.69542266       0.35311974      -0.12343384
O        1.98564370       2.12996716       4.04682516      -0.03137982       0.11294365       0.01277813       0.31609186      -0.42978672      -0.61309941
Ba       0.00180286       4.04649903      -0.02296634       0.00180286       0.01245200      -0.02296634      -0.13091596       0.07871839       0.23858363
Ti       2.04443429       6.00591159       2.05911983       0.02741078      -0.04515895       0.04209632       0.74503109      -0.28989329      -0.25568555
O       -0.09040234       5.94858463       1.98233162      -0.09040234      -0.10248591      -0.03469189       0.96655278       0.83621121       0.50339739
O        2.11013516       4.11269114       1.92322288       0.09311164       0.07864411      -0.09380063      -0.62610344      -0.70046115       0.38458136
O        2.13322116       6.09321813      -0.02448218       0.11619764       0.04214759      -0.02448218      -0.72547975      -0.02404025      -0.11713340
Ba      -0.08752080       3.94812805       4.08497394      -0.08752080      -0.08591898       0.05092691       0.37931289       0.62834549      -0.42318870
Ti       2.02161367       6.05236589       6.05096752       0.00459015       0.00129535      -0.00010302      -0.29171845       0.37460071       0.29081644
O       -0.04616849       5.99253096       6.11318977      -0.04616849      -0.05853958       0.06211923       0.67519007       0.18443991      -0.24932959
O        2.05098103       4.07129910       5.94751688       0.03395752       0.03725207      -0.10355366      -0.06585338      -0.26993181       0.67721728
O        2.03543943       6.04072472       4.05376874       0.01841592      -0.01034582       0.01972171      -0.30121138       0.20015441      -0.45197984
Ba       4.03281190       0.01959517      -0.01321081      -0.00123513       0.01959517      -0.01321081       0.08681166      -0.35400761       0.14895559
Ti       5.97664244       2.04209107       2.01569436      -0.07442810       0.02506756      -0.00132916       0.58921298      -0.36847769      -0.40596104
O        4.06405732       2.03620828       2.01633320       0.03001030       0.01918477      -0.00069031      -0.80695770       0.23960300      -0.21746021
O        5.95724654      -0.01752330       2.00475438      -0.09382400      -0.01752330      -0.01226914       0.36074906       0.19766723       0.39600428
O        6.12779351       2.07508179       0.12390854       0.07672297       0.05805828       0.12390854      -0.54115672      -0.14195036      -1.08126557
Ba       4.09746573       0.00715137       4.02154052       0.06341870       0.00715137      -0.01250651      -0.46560832      -0.12881178       0.13105745
Ti       5.99979886       2.02768268       6.05559399      -0.05127168       0.01065917       0.00452345       0.49106428      -0.47149797      -0.09647586
O        4.01697396       1.99477294       6.08657366      -0.01707307      -0.02225057       0.03550312       0.01315007       0.08271753      -0.01321813
O        6.10396658       0.06619333       6.10870066       0.05289604       0.06619333       0.05763012      -0.16066986       0.21791354      -0.21104766
O        5.87062414       2.03629532       4.01453808      -0.18044640       0.01927181      -0.01950895       0.87896582       0.05314950       0.66237762
Ba       4.03184254       4.00793011      -0.05104129      -0.00220449      -0.02611691      -0.05104129       0.11040370       0.52855739       0.32382224
Ti       6.07075093       6.02862051       2.06330820       0.01968039      -0.02245003       0.04628469       0.21017379       0.11871864      -1.16834702
O        3.94974467       6.03301007       2.02649058      -0.08430236      -0.01806047       0.00946707       0.32497206       0.27985621       0.29296330
O        6.03266496       4.12535804       1.99092971      -0.01840558       0.09131101      -0.02609380      -0.35163498      -0.90290981       0.48664501
O        6.09836302       6.04946797       0.03535497       0.04729247      -0.00160257       0.03535497      -0.55226962       0.11512290      -0.18250521
Ba       4.08103240       4.05521126       4.04131289       0.04698537       0.02116424       0.00726586      -0.44905633       0.10583430      -0.05886755
Ti       6.04654535       6.03922783       6.05496062      -0.00452519      -0.01184271       0.00389008       0.41687638       0.14299866       0.84140575
O        4.08184328       6.10187124       6.08423851       0.04779625       0.05080070       0.03316797      -0.39338467      -0.04754823      -0.25075891
O        6.06955124       4.03076878       6.07804741       0.01848070      -0.00327825       0.02697687      -0.54116858      -0.23043359      -0.00429975
O        6.08406905       6.01673960       4.12757020       0.03299851      -0.03433094       0.09352317      -0.23618189       0.37671042      -0.69720294
40
Lattice="8.068094053620344 9.776809850035287e-19 -3.3327685695080746e-17 -2.7662683574551683e-17 8.068094053620369 -1.4422252443536244e-14 3.55521166950041e-16 -1.8723970188776863e-14 8.068094053620369" Properties=species:S:1:pos:R:3:u_disp:R:3:forces:R:3 system=batio3_cubic model=mace_mp0 T=100.0 seed=2 supercell=2x2x2 source="SSCHA free-energy-Hessian ensemble (final auxiliary dyn)" index=77 pair=38 energy=-319.0506756100853 pbc="T T T"
Ba      -0.02750676      -0.02646460      -0.04290927      -0.02750676      -0.02646460      -0.04290927       0.21703817       0.55368990       0.03043096
Ti       1.94388565       2.09613079       2.01021815      -0.07313786       0.07910727      -0.00680536       0.28507804      -0.67574510       0.57937751
O       -0.06515427       2.08763703       2.02062448      -0.06515427       0.07061352       0.00360096       0.55053441      -0.15927736      -0.57352518
O        1.97229712       0.01057777       2.09795623      -0.04472639       0.01057777       0.08093271       0.15546433       0.21002539      -0.65309904
O        2.05159576       2.00645565      -0.07096841       0.03457224      -0.01056787      -0.07096841      -0.41757896       0.11345956       1.14545306
Ba      -0.00750595      -0.03927167       4.04173298      -0.00750595      -0.03927167       0.00768596       0.15982911       0.33930462       0.23067778
Ti       2.01722493       2.06277860       6.03989969       0.00020142       0.04575509      -0.01117085      -0.53378156      -0.39864418       0.17322736
O       -0.01347195       2.01659120       6.11028579      -0.01347195      -0.00043232       0.05921525      -0.34071457       0.19952729      -0.18971282
O        2.01886654      -0.02532234       6.06823275       0.00184303      -0.02532234       0.01716221      -0.27289624       0.10849863      -0.29164770
O        1.79358724       2.05961774       3.98290988      -0.22343627       0.04259423      -0.05113715       1.10356147      -0.06476466       0.12962348
Ba       0.03806771       3.97697145      -0.01127076       0.03806771      -0.05707558      -0.01127076      -0.23500993       0.11854541       0.00463415
Ti       1.97526750       6.08215462       2.03075829      -0.04175601       0.03108408       0.01373478       0.38692925       0.59942224       1.26929582
O        0.06674516       6.05015084       1.96657901       0.06674516      -0.00091970      -0.05044450      -0.59647354      -0.09008792       0.07181693
O        2.01433527       4.07863329       2.04695424      -0.00268825       0.04458626       0.02993072       0.01087597      -0.26177040      -0.57276766
O        2.01319733       6.16469582      -0.05162446      -0.00382619       0.11362528      -0.05162446       0.12503403      -0.71888631       0.91488532
Ba      -0.02924354       4.01596681       4.08670775      -0.02924354      -0.01808022       0.05266072       0.17678491       0.18425796      -0.16336562
Ti       2.03679844       6.08241304       6.13995539       0.01977493       0.03134250       0.08888485       0.61965565       0.60041344      -1.24497345
O        0.03379230       6.00167569       5.97954605       0.03379230      -0.04939485      -0.07152449      -0.81009358       0.13926774       0.62428241
O        2.00084051       3.99424275       6.09002657      -0.01618300      -0.03980427       0.03895603       0.22958397       0.23254926      -0.12159609
O        2.05619240       6.08574057       4.01975553       0.03916889       0.03467003      -0.01429150      -0.19637945      -0.34069767      -0.66106000
Ba       4.06267969       0.01359259      -0.05480880       0.02863266       0.01359259      -0.05480880      -0.28923530       0.01910843       0.38258501
Ti       6.02976263       2.06796617       2.06914263      -0.02130791       0.05094266       0.05211911       0.16074030      -0.02331381       0.21679103
O        3.99499803       2.11339813       2.07060598      -0.03904900       0.09637462       0.05358247       0.05429312      -0.45328707      -0.26630137
O        6.11819193       0.02187855       2.01146999       0.06712139       0.02187855      -0.00555352      -0.12982726      -0.59796241      -0.23477704
O        6.04039323       2.01392541      -0.06023005      -0.01067731      -0.00309811      -0.06023005      -0.24019363       0.47497404       0.49667508
Ba       4.04628999       0.02055209       4.02001356       0.01224296       0.02055209      -0.01403347      -0.25654137      -0.30859581       0.15178842
Ti       5.99896185       2.04864959       6.08978052      -0.05210869       0.03162607       0.03870998       0.67536022      -1.11384097       0.06291694
O        3.96779030       1.95324392       6.08734880      -0.06625672      -0.06377959       0.03627826       0.49086177       0.57953681      -0.61976244
O        6.01125439       0.06653751       6.11907021      -0.03981615       0.06653751       0.06799967       0.28237392      -0.55053123      -0.25598097
O        6.07439196       1.97477563       4.04489062       0.02332142      -0.04224789       0.01084359      -0.29196446       0.26650113      -0.17443855
Ba       4.05160113       4.02680347       0.00069015       0.01755410      -0.00724356       0.00069015      -0.16422681       0.14327956       0.14895053
Ti       6.09202825       6.10589225       1.99201496       0.04095771       0.05482171      -0.02500855      -1.21283580       0.10140759       0.56185677
O        4.14150668       6.12858685       2.08080379       0.10745966       0.07751631       0.06378028       0.07772087      -0.39212256      -0.63879226
O        6.05946491       3.99476382       2.07812395       0.00839437      -0.03928320       0.06110044       0.00975122       0.41045037      -0.32063393
O        6.04321192       5.94948950      -0.03254777      -0.00785862      -0.10158104      -0.03254777       0.37049803       0.41575524       0.52253704
Ba       4.05883878       4.01240856       4.02402629       0.02479175      -0.02163847      -0.01002074      -0.39543266       0.63424819       0.05659368
Ti       6.10473877       6.00989975       6.07153758       0.05366823      -0.04117079       0.02046704      -0.56035945       0.40150825      -0.82564602
O        4.00817679       6.10925482       6.03556867      -0.02587023       0.05818428      -0.01550187       0.21683475      -0.39454596       0.23047802
O        5.94520904       4.07422318       6.01130560      -0.10586150       0.04017616      -0.03976494       0.37677505      -0.34428039       0.21727037
O        6.06451285       6.06611658       4.08091240       0.01344231       0.01504604       0.04686537       0.20796601       0.04262278      -0.41406759
40
Lattice="8.068094053620344 9.776809850035287e-19 -3.3327685695080746e-17 -2.7662683574551683e-17 8.068094053620369 -1.4422252443536244e-14 3.55521166950041e-16 -1.8723970188776863e-14 8.068094053620369" Properties=species:S:1:pos:R:3:u_disp:R:3:forces:R:3 system=batio3_cubic model=mace_mp0 T=100.0 seed=2 supercell=2x2x2 source="SSCHA free-energy-Hessian ensemble (final auxiliary dyn)" index=125 pair=62 energy=-319.0110515617525 pbc="T T T"
Ba      -0.04660417       0.06012748       0.02345981      -0.04660417       0.06012748       0.02345981       0.29197562      -0.69917047       0.04087428
Ti       2.02424678       1.98085711       2.01304945       0.00722327      -0.03616641      -0.00397406       0.54706911       0.59555211       0.53787805
O        0.04204622       2.07529423       1.99645438       0.04204622       0.05827072      -0.02056913      -0.84300979      -0.46247551       0.18508600
O        2.10804440       0.01918575       2.00478708       0.09102088       0.01918575      -0.01223643      -0.76265137      -0.14012359       0.15794637
O        1.99307907       1.93077325      -0.00614514      -0.02394445      -0.08625026      -0.00614514       0.08610326       0.18922820      -0.33599777
Ba      -0.01481680      -0.02353831       4.10969396      -0.01481680      -0.02353831       0.07564694      -0.18949673       0.11351011      -0.51352487
Ti       2.05141560       2.04193256       6.09039602       0.03439209       0.02490905       0.03932548      -0.19996900       0.79978898      -0.39980544
O       -0.03643057       2.01738975       6.08507341      -0.03643057       0.00036624       0.03400287      -0.53274196      -0.50874269      -0.17865924
O        1.98128810       0.02049165       5.94766360      -0.03573542       0.02049165      -0.10340694       0.08503020      -0.39803570       0.29015130
O        2.03681803       2.15726196       4.00058093       0.01979451       0.14023844      -0.03346610      -0.36615631      -0.82284886       0.05393768
Ba       0.04821352       4.00478683       0.00127213       0.04821352      -0.02926019       0.00127213      -0.00081189       0.61468799      -0.14732940
Ti       2.11605685       6.10923257       2.04698338       0.09903333       0.05816203       0.02995987      -0.04787333      -0.71198196      -0.44657292
O       -0.06876710       6.03845680       2.04281453      -0.06876710      -0.01261374       0.02579102       0.25790442       0.45507348      -0.24685921
O        1.98702967       4.06116451       1.95660904      -0.02999384       0.02711748      -0.06041448       0.20910436       0.35967890       0.04573827
O        2.16257353       6.11337658      -0.04979317       0.14555002       0.06230604      -0.04979317      -0.85248770       0.12681148       0.17626187
Ba      -0.02304155       4.08837063       3.99349169      -0.02304155       0.05432360      -0.04055533       0.43871680      -0.23814660       0.40310418
Ti       1.99146877       6.12430971       6.01202119      -0.02555475       0.07323917      -0.03904935       0.17388746      -0.47417311       0.76619968
O        0.06308494       6.00094277       5.98999986       0.06308494      -0.05012777      -0.06107068       0.25206681       0.35845563       0.43293879
O        2.01858808       3.96961129       6.11988991       0.00156457      -0.06443573       0.06881937       0.03431506      -0.08022514      -0.27590524
O        2.08132171       6.10005348       4.01358808       0.06429820       0.04898294      -0.02045895      -0.27662710      -0.28975808       0.01728008
Ba       4.06144409       0.03523790      -0.08299381       0.02739706       0.03523790      -0.08299381      -0.10618220      -0.40490408       0.65934586
Ti       6.12972883       2.04452065       2.01892627       0.07865829       0.02749713       0.00190275      -0.28068231      -0.99594915       0.05813593
O        3.97802235       2.04145726       2.00979082      -0.05602468       0.02443375      -0.00723269       0.62577655       0.07396774      -0.11064415
O        6.04915033       0.03313662       1.93780930      -0.00192021       0.03313662      -0.07921422       0.04858078       0.39639270       0.31843687
O        6.10399432       2.08806262       0.04809583       0.05292378       0.07103911       0.04809583      -0.38939613      -0.44772191      -0.54349561
Ba       4.01227887       0.02910245       4.04817451      -0.02176816       0.02910245       0.01412749       0.40581938      -0.22691668      -0.29782487
Ti       6.07210169       2.02231699       6.08757707       0.02103115       0.00529348       0.03650653       0.46823349       1.17490966      -0.45104854
O        3.99186481       1.95241745       6.00247064      -0.04218222      -0.06460607      -0.04859990       0.51994911       0.23629389       0.46622749
O        5.93298336      -0.13334556       6.03101309      -0.11808718      -0.13334556      -0.02005745       0.88480208       1.52051411       0.33218970
O        6.04445516       1.98929367       4.04239519      -0.00661538      -0.02772985       0.00834817       0.16665929       0.07586771      -0.03092445
Ba       3.97037247       4.02925284       0.04298814      -0.06367456      -0.00479419       0.04298814       0.23758712       0.23506745      -0.35004831
Ti       6.06656428       5.98659886       2.03663904       0.01549374      -0.06447168       0.01961552       0.60987996       0.74793049       0.09497187
O        4.00570642       6.06570946       2.06311489      -0.02834060       0.01463892       0.04609138       0.23913901      -0.18987434      -0.12876797
O        6.10780232       4.06918083       2.00850474       0.05673178       0.03513380      -0.00851877      -0.50101542      -0.60039182       0.19667124
O        5.99300967       5.96888386      -0.01914948      -0.05806087      -0.08218668      -0.01914948       0.41246071       0.35450636       0.46592987
Ba       4.04925671       3.89741751       3.97960569       0.01520968      -0.13662952      -0.05444134      -0.15653757       0.87636853       0.50009951
Ti       6.00528905       6.03781623       6.09542718      -0.04578149      -0.01325431       0.04435664      -0.62436537      -0.61396276      -0.20109749
O        4.06000209       5.97493896       6.09513980       0.02595507      -0.07613158       0.04406926      -0.28848708       0.12850217      -0.56324996
O        6.08996592       4.01197261       6.08442365       0.03889538      -0.02207441       0.03335311      -0.30358918      -1.18233750      -0.25657483
O        6.08214379       6.02266613       4.06685136       0.03107324      -0.02840441       0.03280433      -0.27298019       0.05463223      -0.72107460
40
Lattice="8.068094053620344 9.776809850035287e-19 -3.3327685695080746e-17 -2.7662683574551683e-17 8.068094053620369 -1.4422252443536244e-14 3.55521166950041e-16 -1.8723970188776863e-14 8.068094053620369" Properties=species:S:1:pos:R:3:u_disp:R:3:forces:R:3 system=batio3_cubic model=mace_mp0 T=100.0 seed=2 supercell=2x2x2 source="SSCHA free-energy-Hessian ensemble (final auxiliary dyn)" index=170 pair=85 energy=-318.8436146370509 pbc="T T T"
Ba       0.00987312      -0.01281176      -0.05839102       0.00987312      -0.01281176      -0.05839102       0.13375845       0.30266981       0.24363420
Ti       2.02580768       1.98292330       1.99014302       0.00878416      -0.03410021      -0.02688049       0.21730300       0.20391868       0.57167350
O       -0.03539467       2.04338413       1.96849783      -0.03539467       0.02636062      -0.04852568      -0.43614852       0.22995967       0.33092918
O        1.97782661       0.04631622       2.05048547      -0.03919690       0.04631622       0.03346196      -0.31206941       0.41353151      -0.15689142
O        2.00548060       2.10287011       0.04555278      -0.01154291       0.08584660       0.04555278       0.12951224      -0.34958462      -0.42248000
Ba      -0.00585229      -0.01288348       4.05017372      -0.00585229      -0.01288348       0.01612670       0.37392732       0.07575466       0.04838556
Ti       2.02688338       2.02996467       6.08043018       0.00985987       0.01294115       0.02935964       0.16643620       0.02353682      -0.73570602
O        0.04409987       1.95944380       6.05782767       0.04409987      -0.05757972       0.00675713       0.09211788       0.15726538       0.10296325
O        2.05643295      -0.02233623       6.15608661       0.03940944      -0.02233623       0.10501607       0.10284890       0.30402474      -0.41549646
O        2.03659826       2.14439591       4.05173905       0.01957475       0.12737240       0.01769202      -0.34930486      -0.63773930       0.43156043
Ba      -0.05352815       4.04605268       0.00586729      -0.05352815       0.01200565       0.00586729       0.41437665      -0.23073978      -0.07668431
Ti       1.96063155       6.03979087       1.97537931      -0.05639196      -0.01127967      -0.04164420       0.80785954      -0.60503679       0.96074548
O       -0.00256488       6.08553467       1.97489547      -0.00256488       0.03446413      -0.04212804      -1.37964336       0.10525048       0.09115760
O        2.00291729       4.10777442       2.04483583      -0.01410623       0.07372740       0.02781231      -0.13754391      -0.31252392      -0.40315324
O        2.03132818       6.10241858       0.06442537       0.01430466       0.05134804       0.06442537       0.04967837      -0.22069686      -1.03451234
Ba       0.00902331       4.03408871       4.00120558       0.00902331       0.00004168      -0.03284144       0.31784730       0.09293431       0.20758612
Ti       2.07549313       6.01915863       6.07771487       0.05846961      -0.03191191       0.02664433      -1.01570595       0.28239304      -0.61463085
O        0.09030882       6.04317516       6.03158321       0.09030882      -0.00789538      -0.01948733      -0.82966282      -0.14711005       0.29847586
O        2.06675949       4.01004175       6.15498185       0.04973597      -0.02400528       0.10391131      -0.11695479       0.48962260      -0.20363361
O        1.94728829       6.07377859       3.98771439      -0.06973522       0.02270805      -0.04633264       0.23657697       0.05417473       1.38979276
Ba       4.01202110       0.01972800       0.06028724      -0.02202592       0.01972800       0.06028724      -0.01098888       0.14572977      -0.23839066
Ti       6.08447002       1.99055225       2.04355753       0.03339948      -0.02647126       0.02653402       0.24603382       0.56183551      -0.39392584
O        3.93085625       1.93118572       2.04039480      -0.10319078      -0.08583779       0.02337129       0.69601466       0.66137164      -0.08438665
O        6.05825257       0.19430250       2.01651161       0.00718203       0.19430250      -0.00051190      -0.11808762      -1.98247380       0.17083109
O        5.99425921       2.03013851       0.00482023      -0.05681133       0.01311500       0.00482023       0.19722724       0.30967177       0.26929874
Ba       3.98590723      -0.03890354       3.98318895      -0.04813979      -0.03890354      -0.05085808      -0.14541354       0.35605238       0.43029051
Ti       6.06846123       2.03265737       6.03275784       0.01739069       0.01563385      -0.01831270      -0.55101917       0.14096125       0.13208412
O        4.08703953       2.04180478       5.98450730       0.05299250       0.02478127      -0.06656324      -0.82207031      -0.48027559       0.64549365
O        6.02051259      -0.03261751       6.10554104      -0.03055795      -0.03261751       0.05447050       0.22565551      -0.91413828      -0.30051892
O        6.04899375       2.07885332       4.10768892      -0.00207679       0.06182981       0.07364189       0.28772724      -0.76545080      -1.40778291
Ba       4.06130092       4.02098582       0.00095219       0.02725389      -0.01306121       0.00095219      -0.26485717      -0.14550230       0.26938696
Ti       6.06521280       6.05165449       2.01122352       0.01414226       0.00058395      -0.00579999      -0.22995450      -0.95840125       0.76634453
O        3.93759211       6.11745739       2.14289063      -0.09645491       0.06638685       0.12586712       1.58951469       0.11464777      -0.93855991
O        5.97348160       4.10570616       2.05217972      -0.07758894       0.07165914       0.03515621       0.28305270       0.62111757      -0.34584519
O        6.10990803       6.09383570       0.00057125       0.05883749       0.04276516       0.00057125      -0.51456445      -0.27211397      -0.05089727
Ba       4.11879055       4.01231044       4.04384895       0.08474353      -0.02173659       0.00980192      -0.88034670       0.09174434      -0.27249144
Ti       6.01988377       6.10865641       6.08524628      -0.03118677       0.05758587       0.03417574       0.28747514       0.57472334      -0.61441942
O        4.03545960       6.05746824       6.06206393       0.00141257       0.00639770       0.01099339       0.63083125      -0.27690105       0.04536402
O        6.01509451       3.90541434       5.91154461      -0.03597603      -0.12863269      -0.13952593       0.56909819       1.76433528       1.23455417
O        6.07388251       6.09193588       4.01263163       0.02281197       0.04086534      -0.02141540       0.05946271       0.22146132       0.06985471
40
Lattice="8.068094053620344 9.776809850035287e-19 -3.3327685695080746e-17 -2.7662683574551683e-17 8.068094053620369 -1.4422252443536244e-14 3.55521166950041e-16 -1.8723970188776863e-14 8.068094053620369" Properties=species:S:1:pos:R:3:u_disp:R:3:forces:R:3 system=batio3_cubic model=mace_mp0 T=100.0 seed=2 supercell=2x2x2 source="SSCHA free-energy-Hessian ensemble (final auxiliary dyn)" index=182 pair=91 energy=-319.1676089695378 pbc="T T T"
Ba      -0.00177592      -0.00305706      -0.00289942      -0.00177592      -0.00305706      -0.00289942      -0.06345540       0.01723955       0.23693868
Ti       1.97642120       2.03567436       1.97184629      -0.04060232       0.01865085      -0.04517722      -0.72628247      -0.93666891       0.08012875
O        0.07953142       2.03617922       1.96529371       0.07953142       0.01915571      -0.05172980      -0.18662924       0.03697586       0.42379706
O        2.00430575      -0.03398496       1.98442753      -0.01271777      -0.03398496      -0.03259598       0.01995535      -0.02548983       0.39196051
O        2.02334019       2.01329259       0.08898067       0.00631668      -0.00373092       0.08898067       0.33714567       0.38974692      -0.89227893
Ba       0.03013301       0.00537094       3.99876068       0.03013301       0.00537094      -0.03528635      -0.26967186       0.22955483       0.01110383
Ti       2.02298547       2.04385449       6.02164034       0.00596195       0.02683098      -0.02943020      -0.15826717      -0.92985151      -0.57403908
O       -0.03563007       1.98999258       5.99188275      -0.03563007      -0.02703093      -0.05918779       0.49386844       0.26026568       0.29541276
O        1.96374679       0.05285373       6.18635212      -0.05327672       0.05285373       0.13528158       0.20318160      -0.54843026      -0.73670443
O        2.03928703       2.01600091       4.07403738       0.02226351      -0.00102260       0.03999036       0.01132003       0.13019270       0.56941102
Ba       0.05190854       4.04235577      -0.00748264       0.05190854       0.00830874      -0.00748264      -0.55974841      -0.12710310       0.20432489
Ti       2.05443252       5.98123628       2.09580417       0.03740901      -0.06983426       0.07878065       0.13423342       1.23972912      -1.11496229
O       -0.10693289       6.08767032       1.86733582      -0.10693289       0.03659978      -0.14968769       0.30942927      -0.68505590       0.55905314
O        2.01004606       3.99129808       2.00902288      -0.00697746      -0.04274894      -0.00800063       0.24756127       0.73430715       0.32567999
O        2.02282978       6.04429459       0.02645456       0.00580626      -0.00677595       0.02645456      -0.10161433      -0.35632226      -1.05187218
Ba      -0.01359692       4.00773626       4.00008212      -0.01359692      -0.02631077      -0.03396490      -0.35646510      -0.25505680       0.04138411
Ti       1.95829467       6.02997659       6.10117880      -0.05872884      -0.02109395       0.05010826       0.50057960       0.56171808       0.97682924
O       -0.00859384       6.04358497       6.09463811      -0.00859384      -0.00748557       0.04356757       0.43050662      -0.07437725      -0.25889789
O        1.93513552       4.02010099       6.07501176      -0.08188799      -0.01394603       0.02394122       0.51003394       0.25917660      -0.11138421
O        1.87772934       6.07374331       3.96818857      -0.13929418       0.02267277      -0.06585846       0.50840515      -0.37799311       0.77832960
Ba       3.95827609       0.01632095       0.02501650      -0.07577093       0.01632095       0.02501650       0.26307161      -0.42946486      -0.16286379
Ti       5.94942963       1.97717850       2.02002122      -0.10164091      -0.03984501       0.00299771       0.58758252      -0.22725105       0.78519424
O        4.06272023       1.92672496       2.10336270       0.02867320      -0.09029855       0.08633919       0.17572886       0.48708397      -0.55193673
O        6.12458837       0.01265458       2.06721170       0.07351783       0.01265458       0.05018818      -0.58607967       0.12290269      -0.46318714
O        6.09701718       1.99578371      -0.03428020       0.04594664      -0.02123980      -0.03428020      -0.35872238       0.10596468       0.44508375
Ba       4.04070109       0.03608604       4.04515804       0.00665406       0.03608604       0.01111101       0.00469820      -0.27700420       0.14912689
Ti       6.06423612       1.97091211       6.11827580       0.01316558      -0.04611141       0.06720526       0.20228080      -0.29145461      -0.46733458
O        4.07432949       1.91137172       6.02892470       0.04028246      -0.10565179      -0.02214584      -0.68942045       0.82974718       0.19745855
O        6.04047246      -0.03337488       6.10064951      -0.01059808      -0.03337488       0.04957897       0.17614760       0.21109467      -0.43937275
O        6.08161958       1.91720407       4.00274384       0.03054904      -0.09981944      -0.03130319      -0.10012297       0.71888733      -0.16815231
Ba       4.07571425       4.02942585      -0.00201956       0.04166722      -0.00462118      -0.00201956      -0.06036894       0.25007662      -0.10613231
Ti       6.05752291       6.05421148       2.00706762       0.00645237       0.00314094      -0.00995590       0.61266552       0.30620262      -0.32476448
O        3.99109584       6.05254421       1.98882486      -0.04295119       0.00147367      -0.02819865      -0.23367085      -0.23127862       0.47812513
O        5.99310351       4.01041545       2.00792327      -0.05796703      -0.02363158      -0.00910024       0.10355328       0.12462430       0.00137961
O        5.94044062       6.15710742      -0.04169964      -0.11062992       0.10603688      -0.04169964       0.32934242      -0.70331274       0.30204205
Ba       4.06931765       4.07557671       4.04077406       0.03527063       0.04152968       0.00672704       0.08749162      -0.35922237       0.15980635
Ti       6.07198557       6.03998490       6.04214047       0.02091503      -0.01108564      -0.00893007      -0.68198123       0.44534844       0.63067198
O        4.04188554       6.04183096       6.05539199       0.00783851      -0.00923958       0.00432145      -0.86688468      -0.17801247      -0.52063563
O        6.04888865       4.03689288       6.09880922      -0.00218190       0.00284585       0.04773868      -0.02016553       0.01648797      -0.38861996
O        6.09085690       6.10169098       3.98853974       0.03978636       0.05062044      -0.04550729      -0.22923210      -0.46397710       0.28989656
40
Lattice="8.068094053620344 9.776809850035287e-19 -3.3327685695080746e-17 -2.7662683574551683e-17 8.068094053620369 -1.4422252443536244e-14 3.55521166950041e-16 -1.8723970188776863e-14 8.068094053620369" Properties=species:S:1:pos:R:3:u_disp:R:3:forces:R:3 system=batio3_cubic model=mace_mp0 T=100.0 seed=2 supercell=2x2x2 source="SSCHA free-energy-Hessian ensemble (final auxiliary dyn)" index=220 pair=110 energy=-319.0479062243666 pbc="T T T"
Ba       0.01004721       0.00445798      -0.03703254       0.01004721       0.00445798      -0.03703254      -0.03474129       0.29195153       0.15505289
Ti       2.00999695       1.97842333       1.96763493      -0.00702657      -0.03860018      -0.04938858       0.62365203      -0.55716908       0.41917307
O        0.10319772       2.06407509       1.98347553       0.10319772       0.04705157      -0.03354798      -1.53717524      -0.28746633       0.05349841
O        2.10452046       0.06304695       2.07773417       0.08749694       0.06304695       0.06071066      -0.39745195      -1.07104030      -0.43834002
O        1.98131082       1.92065238       0.01257496      -0.03571269      -0.09637113       0.01257496       0.21443863       0.50019559      -0.54345214
Ba       0.00555044      -0.00515390       4.06371034       0.00555044      -0.00515390       0.02966331       0.39087306       0.01753943      -0.26340185
Ti       2.03656329       2.08732938       6.00838581       0.01953978       0.07030586      -0.04268473      -0.46343371      -0.42068611      -0.37376794
O        0.05621746       2.07343210       6.01263977       0.05621746       0.05640859      -0.03843077      -0.35276568      -0.25322261       0.06027178
O        2.01431724      -0.00960656       5.95497360      -0.00270628      -0.00960656      -0.09609694      -0.40078512      -0.38016140       0.43727009
O        2.03608574       2.03961037       3.99900290       0.01906223       0.02258686      -0.03504413      -0.01205288       0.35294053       0.70698873
Ba      -0.04989069       4.03923383      -0.00203545      -0.04989069       0.00518680      -0.00203545       0.19020598      -0.35623940      -0.35408195
Ti       2.01789625       5.98638938       2.02992131       0.00087274      -0.06468116       0.01289780      -0.05844444       0.05098873       1.17087243
O        0.06299685       6.01030604       2.11797487       0.06299685      -0.04076450       0.10095136      -0.23674834       0.21859793      -0.60324244
O        2.10762314       4.08303552       1.94642700       0.09059963       0.04898849      -0.07059652      -0.50858136       0.36634137      -0.00874835
O        1.89654469       6.06130431      -0.11908258      -0.12047882       0.01023377      -0.11908258       0.47161717       0.16705245       1.67789541
Ba       0.05872812       4.07645637       4.05650021       0.05872812       0.04240935       0.02245318      -0.08590996      -0.22768283       0.09803292
Ti       1.98790717       6.08616621       6.11442542      -0.02911634       0.03509567       0.06335488       0.51589616       0.41255685      -1.20702101
O       -0.05433186       6.03869437       6.04912313      -0.05433186      -0.01237617      -0.00194741      -0.17520208       0.10063202      -0.18707481
O        2.03532626       4.04194551       6.07414940       0.01830274       0.00789848       0.02307886       0.14122922      -0.48553406      -0.01666647
O        2.07512767       5.99428129       4.04472769       0.05810416      -0.05678925       0.01068066      -0.33913606       0.07559749      -0.79877962
Ba       4.02601249       0.05499332      -0.00843730      -0.00803454       0.05499332      -0.00843730       0.00105115      -0.16873431       0.22908659
Ti       6.10371843       2.03998082       2.08796889       0.05264789       0.02295731       0.07094537      -0.55111188      -0.24280257      -0.18613901
O        4.00914587       2.00487636       1.98506572      -0.02490116      -0.01214716      -0.03195779       1.46310450       0.35716072       0.03976625
O        6.03844685      -0.06296985       2.00630434      -0.01262369      -0.06296985      -0.01071917       0.37214936       0.24208942      -0.29903214
O        6.05426990       2.04786577      -0.14059525       0.00319936       0.03084226      -0.14059525       0.12414628      -0.13431049       0.61762673
Ba       4.03050673      -0.07323610       4.07580811      -0.00354030      -0.07323610       0.04176108      -0.34457487       0.36627191      -0.45466479
Ti       6.03003956       1.97735053       6.02161963      -0.02103098      -0.03967298      -0.02945091       0.21468993       0.73519546       1.09046027
O        3.98860043       1.85681510       6.08287617      -0.04544660      -0.16020841       0.03180563       0.49784009       0.91655514      -0.42642126
O        6.08683547       0.06014861       6.04011365       0.03576492       0.06014861      -0.01095689       0.01054070      -0.68993459      -0.05727023
O        6.14669816       2.02495126       3.98018963       0.09562762       0.00792775      -0.05385740      -0.40694473      -0.15561074      -0.41201388
Ba       3.96969034       4.02575761       0.02766086      -0.06435668      -0.00828942       0.02766086       0.48624502      -0.21956911      -0.40287378
Ti       6.04807542       6.01694973       1.96803336      -0.00299512      -0.03412081      -0.04899015      -0.36362897       0.87949564       0.41649562
O        4.06006562       5.93452387       2.08107760       0.02601859      -0.11654667       0.06405408       0.30659773       0.43448234      -0.78277373
O        6.15088971       3.97322428       2.00057209       0.09981917      -0.06082275      -0.01645142      -0.37788986       0.19045365       0.05895991
O        6.06067890       6.00509781      -0.00864772       0.00960836      -0.04597273      -0.00864772      -0.05465050       0.16945646       0.44325349
Ba       4.05066959       4.04899008       4.02073132       0.01662256       0.01494305      -0.01331571      -0.17936098      -0.16173484       0.17640695
Ti       6.03759272       6.07089941       6.03524841      -0.01347782       0.01982887      -0.01582213      -0.16987719      -0.83198212      -0.46976875
O        3.99720887       6.08455168       6.07510909      -0.03683815       0.03348114       0.02403855       0.48850022      -0.04005430       0.24019154
O        5.98848418       4.03150502       5.97786252      -0.06258636      -0.00254200      -0.07320802       0.07682953       0.31477870       0.04921377
O        5.98177405       6.12290910       4.04322298      -0.06929649       0.07183856       0.00917596       0.46086033      -0.47639819       0.14501733
40
Lattice="8.068094053620344 9.776809850035287e-19 -3.3327685695080746e-17 -2.7662683574551683e-17 8.068094053620369 -1.4422252443536244e-14 3.55521166950041e-16 -1.8723970188776863e-14 8.068094053620369" Properties=species:S:1:pos:R:3:u_disp:R:3:forces:R:3 system=batio3_cubic model=mace_mp0 T=100.0 seed=2 supercell=2x2x2 source="SSCHA free-energy-Hessian ensemble (final auxiliary dyn)" index=238 pair=119 energy=-319.00280061945904 pbc="T T T"
Ba       0.08791312       0.01259174      -0.06604119       0.08791312       0.01259174      -0.06604119      -0.16531329      -0.00073866       0.23223136
Ti       2.01590584       1.97101119       2.08046063      -0.00111767      -0.04601232       0.06343711       0.03966984      -0.59142013      -1.61851148
O        0.04604540       2.03359900       2.00138654       0.04604540       0.01657549      -0.01563698      -0.26671287       0.18265568       0.38008090
O        2.00178712      -0.04241406       2.08132249      -0.01523639      -0.04241406       0.06429898       0.10635104       1.70409043       0.12250443
O        2.03297140       2.06517203       0.05722462       0.01594789       0.04814852       0.05722462       0.19759905      -0.22566890       0.46411623
Ba      -0.01155508       0.02582326       4.00501199      -0.01155508       0.02582326      -0.02903504       0.11585957      -0.49280027       0.35977033
Ti       2.07583032       2.04975191       5.99466109       0.05880681       0.03272839      -0.05640945      -0.69822306      -0.27695818       1.32794470
O        0.07352927       1.97967672       6.04515117       0.07352927      -0.03734680      -0.00591937       0.09266498       0.17883423      -0.12617203
O        2.07575741      -0.03078082       6.07692941       0.05873390      -0.03078082       0.02585887      -0.06001603       0.54993815       0.11129067
O        2.08839906       2.06118424       4.11179967       0.07137554       0.04416072       0.07775264      -0.11589808      -0.10614746      -0.76491336
Ba      -0.03665557       4.08121554       0.05019660      -0.03665557       0.04716852       0.05019660       0.11477727      -0.31906980      -0.37829842
Ti       1.94852187       6.00683150       2.04565186      -0.06850165      -0.04423904       0.02862835       0.32999892       0.63473407      -0.66213426
O       -0.03553980       6.14031514       2.07699309      -0.03553980       0.08924460       0.05996958      -0.25828736      -0.38565658      -0.27230512
O        2.00028397       4.15244701       2.13358508      -0.01673955       0.11839999       0.11656157      -0.21967740      -1.38952918      -0.04042894
O        1.90227322       6.00179568       0.04077879      -0.11475029      -0.04927486       0.04077879       0.25946099       0.33120198       0.10382567
Ba      -0.02684563       4.04363197       4.09869797      -0.02684563       0.00958495       0.06465095      -0.07918419       0.26158392      -0.07819458
Ti       1.95553283       6.03540237       6.05230277      -0.06149068      -0.01566817       0.00123223       0.01025330       0.26371109       0.11252482
O       -0.05042140       5.98913041       5.97609147      -0.05042140      -0.06194013      -0.07497907       0.49818979       0.03846905       0.44574002
O        2.01514775       4.05393444       6.16194378      -0.00187576       0.01988741       0.11087324       0.16998099      -0.84962199      -0.59700287
O        1.96345525       6.07741126       4.16325370      -0.05356826       0.02634072       0.12920668       0.15005961      -0.21192577      -0.69275584
Ba       4.11134954      -0.00853844       0.00677606       0.07730251      -0.00853844       0.00677606      -0.54105290      -0.00338720      -0.08871746
Ti       6.07836753       2.01433965       2.05795616       0.02729699      -0.00268387       0.04093264      -0.20934643      -0.22024466      -0.56064662
O        4.03128483       2.05012164       2.00063227      -0.00276220       0.03309813      -0.01639125       0.17468123      -0.12937008       0.40558534
O        6.08519412       0.04428943       1.99819199       0.03412358       0.04428943      -0.01883153      -0.35426619       0.65738825       0.02105903
O        6.05070053       2.08583502      -0.04715798      -0.00037001       0.06881151      -0.04715798       0.22133979      -0.45274919       0.63999024
Ba       4.03773962      -0.07378730       4.02183434       0.00369260      -0.07378730      -0.01221269      -0.07225335       0.00461805       0.14586198
Ti       6.07258491       1.98529989       6.03399652       0.02151437      -0.03172362      -0.01707402       0.05521933       0.62748881       0.88802494
O        4.14239551       1.97164948       6.04259740       0.10834849      -0.04537403      -0.00847314      -0.62249004      -0.08814111      -0.15212117
O        6.20663160      -0.10469599       6.08813457       0.15556106      -0.10469599       0.03706403      -0.90019678       0.95019888      -0.34385878
O        6.10828626       2.04636635       4.03898125       0.05721572       0.02934283       0.00493422      -0.17987128      -0.18222285      -0.63219835
Ba       3.98679349       4.01260132       0.01192296      -0.04725354      -0.02144571       0.01192296       0.18676953       0.20224595      -0.10810867
Ti       6.04757767       6.07263142       1.97054010      -0.00349287       0.02156088      -0.04648341       0.33324477      -0.40670684       0.31786334
O        3.91031357       6.09051763       2.03261547      -0.12373346       0.03944709       0.01559195       1.02925575       0.05811895      -0.02518817
O        6.01006096       4.13984169       2.03899167      -0.04100958       0.10579466       0.02196815       0.16517909      -0.71414261      -0.12020229
O        6.07284183       6.06083274      -0.02163400       0.02177129       0.00976220      -0.02163400      -0.27730438      -0.00222969       0.52818689
Ba       3.98824306       4.05115553       3.95493791      -0.04580397       0.01710851      -0.07910912       0.49708712       0.30249044       0.54774917
Ti       6.00340219       6.02614647       6.01711968      -0.04766835      -0.02492407      -0.03395086       0.31848898      -0.16072167       0.06073811
O        4.01675354       5.99731199       6.03959915      -0.01729349      -0.05375855      -0.01147139       0.57462323       0.23117544       0.03118311
O        6.05820352       4.00525753       6.08315268       0.00713298      -0.02878950       0.03208214       0.05212676      -0.02499050      -0.40840827
O        6.09111917       6.07111891       3.97292772       0.04004863       0.02004837      -0.06111931      -0.67278732       0.05549991       0.42389536
40
Lattice="8.068094053620344 9.776809850035287e-19 -3.3327685695080746e-17 -2.7662683574551683e-17 8.068094053620369 -1.4422252443536244e-14 3.55521166950041e-16 -1.8723970188776863e-14 8.068094053620369" Properties=species:S:1:pos:R:3:u_disp:R:3:forces:R:3 system=batio3_cubic model=mace_mp0 T=100.0 seed=2 supercell=2x2x2 source="SSCHA free-energy-Hessian ensemble (final auxiliary dyn)" index=284 pair=142 energy=-318.5797537835391 pbc="T T T"
Ba      -0.02365473      -0.06173330       0.04889054      -0.02365473      -0.06173330       0.04889054       0.15994020       0.64109671      -0.47915119
Ti       1.98515548       1.98386100       1.97453886      -0.03186804      -0.03316252      -0.04248466       0.60984915      -0.00177728      -0.68780865
O        0.13985433       2.04017512       1.95593953       0.13985433       0.02315161      -0.06108398      -0.92199448      -0.18719274       0.74049442
O        2.07805745       0.05151475       1.99047226       0.06103394       0.05151475      -0.02655126      -0.34939693       0.26346834       0.54887885
O        1.96619463       2.04237766       0.05230682      -0.05082888       0.02535414       0.05230682       0.60493597      -0.01011314      -0.27965521
Ba       0.04217111       0.01362095       4.05581167       0.04217111       0.01362095       0.02176465      -0.09075391      -0.06955761       0.26586742
Ti       2.06507572       2.03733410       6.03789394       0.04805221       0.02031059      -0.01317660      -1.11932652       0.32081930       0.22541010
O        0.10356469       2.06353550       6.03700966       0.10356469       0.04651198      -0.01406088      -0.78968084      -0.32151040       0.16210962
O        1.97556762      -0.08502936       6.12238018      -0.04145589      -0.08502936       0.07130964       0.15396721       0.47928294      -0.36696634
O        1.98058055       2.05810638       4.14404733      -0.03644296       0.04108287       0.11000031       0.53189797      -0.30565168      -0.45501976
Ba      -0.01694803       3.98170816       0.02278750      -0.01694803      -0.05233887       0.02278750      -0.05867513       0.02290871       0.00113911
Ti       2.04465648       6.01848731       2.00177252       0.02763296      -0.03258323      -0.01525100       1.22268127      -0.41121460      -0.12027987
O       -0.02743768       6.01010821       1.98357733      -0.02743768      -0.04096233      -0.03344618       0.23419099       0.47776194       0.40043255
O        2.05777221       4.11916155       2.04651555       0.04074870       0.08511452       0.02949203      -0.25554997      -0.51694621      -0.01511581
O        2.00984509       6.16454833       0.09091683      -0.00717842       0.11347779       0.09091683      -0.37732155      -0.52096544      -1.12274460
Ba       0.07397920       4.01657213       3.95031989       0.07397920      -0.01747489      -0.08372714      -0.54673078       0.12036713       0.28958225
Ti       1.98913098       6.05596421       6.09080178      -0.02789254       0.00489367       0.03973124       0.78726408      -0.01398752       0.08509894
O       -0.09368534       6.00339886       6.10693437      -0.09368534      -0.04767168       0.05586383       1.25299528       0.14481406      -0.68647290
O        2.09471833       4.08366927       6.12210014       0.07769481       0.04962224       0.07102960      -0.49957930      -0.12833809      -0.21308797
O        2.09570297       6.11690671       3.99626964       0.07867946       0.06583617      -0.03777738      -0.63438656      -0.14721951       1.00360156
Ba       3.96995226       0.05227566      -0.05104392      -0.06409476       0.05227566      -0.05104392       0.42407260      -0.38029654       0.34490512
Ti       6.01020023       1.94049139       1.99638736      -0.04087031      -0.07653212      -0.02063615      -0.96706308       2.26535316      -0.84438645
O        4.08821615       2.02983828       1.99279228       0.05416912       0.01281477      -0.02423123      -0.20339841      -0.29125609       0.46235433
O        6.07144971       0.02797009       2.10025316       0.02037916       0.02797009       0.08322965       0.22634342      -0.48702213      -0.52934385
O        6.03632491       2.09105857       0.07335957      -0.01474563       0.07403506       0.07335957       0.48932897      -0.71561965      -0.63837169
Ba       3.96559243      -0.01254312       3.97569396      -0.06845459      -0.01254312      -0.05835307       0.40986089      -0.22217209       0.29986369
Ti       6.02743832       2.03512477       5.94448706      -0.02363222       0.01810126      -0.10658348       0.35391891      -0.55689195       0.43939192
O        4.05059589       1.99796427       6.11417925       0.01654886      -0.01905924       0.06310871       0.13187286       0.11520960      -0.52294395
O        5.97055623       0.00286568       6.09957468      -0.08051431       0.00286568       0.04850414       0.63495606       0.28838059      -0.52429050
O        6.10959519       1.91376394       3.99053747       0.05852465      -0.10325957      -0.04350955      -0.02839896       0.52315841       1.25556644
Ba       4.05818649       4.07253529      -0.01248768       0.02413946       0.03848826      -0.01248768       0.09817354      -0.16726170       0.78187783
Ti       6.12883319       6.15325000       2.08035483       0.07776265       0.10217946       0.06333132      -1.43224152      -2.03795238       0.13574964
O        4.04796269       5.98448275       1.92838550       0.01391566      -0.06658779      -0.08863801      -0.36570827       0.83197535       0.10553124
O        6.00868182       4.01807607       1.97593962      -0.04238872      -0.01597096      -0.04108389       0.72564620      -0.21929658       0.33422153
O        6.09351416       6.09910385      -0.04305550       0.04244362       0.04803331      -0.04305550      -0.16364597      -0.26531039       0.06742446
Ba       4.02838735       4.07507840       4.10959160      -0.00565968       0.04103137       0.07554458       0.15666858       0.03982266      -0.95128060
Ti       6.07329454       6.00530365       6.17590963       0.02222400      -0.04576689       0.12483909      -0.80296020       0.67245895      -0.10792974
O        4.05352048       5.99160329       6.16062806       0.01947345      -0.05946725       0.10955752      -0.58465018       0.35582655      -0.49292059
O        6.06645706       4.00642241       5.97192743       0.01538652      -0.02762462      -0.07914311      -0.03975062      -0.35671083       0.22235332
O        5.88017577       5.96526965       3.89324782      -0.17089477      -0.08580089      -0.14079921       1.02264902       0.77156014       0.86591530
40
Lattice="8.068094053620344 9.776809850035287e-19 -3.3327685695080746e-17 -2.7662683574551683e-17 8.068094053620369 -1.4422252443536244e-14 3.55521166950041e-16 -1.8723970188776863e-14 8.068094053620369" Properties=species:S:1:pos:R:3:u_disp:R:3:forces:R:3 system=batio3_cubic model=mace_mp0 T=100.0 seed=2 supercell=2x2x2 source="SSCHA free-energy-Hessian ensemble (final auxiliary dyn)" index=288 pair=144 energy=-318.979557028402 pbc="T T T"
Ba      -0.00570082       0.04349527      -0.03025819      -0.00570082       0.04349527      -0.03025819      -0.19709714      -0.05048653       0.17702849
Ti       2.02923139       1.96447370       2.01973992       0.01220788      -0.05254981       0.00271641       0.71676899       0.69284794      -0.30619699
O        0.02470122       1.95938282       2.05872674       0.02470122      -0.05764070       0.04170322      -1.62948913       0.40459994      -0.12631314
O        2.06464190       0.13206449       1.96614169       0.04761838       0.13206449      -0.05088182       0.04698852      -1.87230946       0.47157376
O        1.95029841       2.03202248      -0.00003843      -0.06672510       0.01499896      -0.00003843       0.16011076       0.24306769      -0.36192609
Ba      -0.03400233      -0.02872930       4.10693385      -0.03400233      -0.02872930       0.07288683       0.11018222       0.18115887      -0.27055178
Ti       2.04027896       2.01902002       6.02766910       0.02325545       0.00199651      -0.02340144       0.66179149       0.11882909       0.35430089
O       -0.09832933       2.14105953       6.01405016      -0.09832933       0.12403601      -0.03702038       0.91037858      -0.44406986       0.08444861
O        1.90233778       0.02534453       6.16801624      -0.11468573       0.02534453       0.11694570       0.33004954      -0.34507527      -0.82812276
O        1.99816390       1.99172227       4.02377680      -0.01885962      -0.02530125      -0.01027023      -0.23193186       0.03216294       0.82595318
Ba       0.04910037       4.03219838      -0.01839823       0.04910037      -0.00184865      -0.01839823      -0.07144816       0.22200136      -0.02505644
Ti       2.04325442       6.10180174       1.97811353       0.02623091       0.05073120      -0.03890999      -1.33403739      -0.88377904      -0.92184058
O        0.07965423       6.28452348       1.92772203       0.07965423       0.23345294      -0.08930148       0.00932153      -0.90943489       0.75192346
O        1.93490558       4.08936106       2.01408388      -0.08211793       0.05531403      -0.00293963       0.40366598       0.97335983       0.17530689
O        2.04414598       6.10120994       0.03743001       0.02712246       0.05013940       0.03743001       0.00287259      -0.32560558       0.25051631
Ba       0.00467532       3.98084444       3.98636676       0.00467532      -0.05320259      -0.04768027       0.01503437       0.45274486       0.32102430
Ti       2.03631321       6.05309457       6.02902912       0.01928970       0.00202403      -0.02204142      -0.12597970      -0.15482014       0.32974456
O       -0.03951640       5.99174043       6.04110696      -0.03951640      -0.05933011      -0.00996358       0.61148826       0.27161479       0.10907479
O        2.07160694       4.00179085       6.05428785       0.05458343      -0.03225618       0.00321731      -0.21508412       0.49973749       0.06981597
O        2.02242906       6.03664646       4.13717468       0.00540554      -0.01442408       0.10312766       0.18126367       0.43793181      -0.57980717
Ba       3.97402903      -0.00933446      -0.04503628      -0.06001800      -0.00933446      -0.04503628       0.52864678       0.56286494       0.13966462
Ti       6.14308306       2.04437377       2.01394597       0.09201252       0.02735026      -0.00307754      -0.44228499      -0.60675333      -0.33909804
O        3.94267565       2.03727466       2.09067495      -0.09137137       0.02025115       0.07365143       0.85003824       0.32062133      -0.25515457
O        6.05176699       0.01406394       2.02875511       0.00069645       0.01406394       0.01173160      -0.19614182       0.05189304       0.26898470
O        5.93347739       1.92100069      -0.03200540      -0.11759315      -0.09602282      -0.03200540       0.56836145       0.80456787       1.23673161
Ba       4.05264553      -0.05189920       4.02134660       0.01859850      -0.05189920      -0.01270043       0.07859005       0.70335153       0.20953368
Ti       6.08054531       2.06941296       6.02606200       0.02947476       0.05238945      -0.02500854      -0.26722789      -0.06600002       0.40455404
O        3.99916672       1.96639489       6.02746053      -0.03488031      -0.05062862      -0.02361001      -0.77705919       0.18770718      -0.07384425
O        6.11164798       0.05970495       6.11674376       0.06057744       0.05970495       0.06567322      -0.20074630      -0.90972969      -0.78321591
O        5.99878594       2.04717854       4.07372698      -0.05228460       0.03015503       0.03967996       0.14029555      -0.08064974      -1.09987804
Ba       4.08745939       4.03787244       0.06143254       0.05341236       0.00382541       0.06143254      -0.32827877      -0.29421531      -0.42760145
Ti       6.02156197       6.08706154       2.06060171      -0.02950857       0.03599100       0.04357819       0.54062159       0.44611525      -0.20679941
O        4.09003012       6.09201843       1.96750036       0.05598310       0.04094789      -0.04952316      -0.33756855      -0.11025115       0.49446378
O        6.08576884       4.04592831       1.93787440       0.03469830       0.01188129      -0.07914912       0.17988739      -0.20195586       0.33414120
O        6.05055152       6.09771560      -0.03288793      -0.00051902       0.04664506      -0.03288793       0.09198586      -0.20425336       0.27316806
Ba       3.97108095       4.01158560       4.03571028      -0.06296608      -0.02246142       0.00166325       0.34116281      -0.16262809       0.09480524
Ti       6.06883357       6.09073101       6.11145957       0.01776303       0.03966047       0.06038903       0.25760165      -0.27487302       0.43656979
O        4.04727207       6.10554179       6.14010325       0.01322504       0.05447125       0.08903271      -0.50487905      -0.12242534      -0.62869762
O        6.09023574       4.05326352       6.06722152       0.03916520       0.01921649       0.01615098      -0.69716558       0.17601191       0.08701025
O        6.07063101       6.01383489       4.02579530       0.01956047      -0.03723565      -0.00825172      -0.18068825       0.23612602      -0.66623394
40
Lattice="8.068094053620344 9.776809850035287e-19 -3.3327685695080746e-17 -2.7662683574551683e-17 8.068094053620369 -1.4422252443536244e-14 3.55521166950041e-16 -1.8723970188776863e-14 8.068094053620369" Properties=species:S:1:pos:R:3:u_disp:R:3:forces:R:3 system=batio3_cubic model=mace_mp0 T=100.0 seed=2 supercell=2x2x2 source="SSCHA free-energy-Hessian ensemble (final auxiliary dyn)" index=311 pair=155 energy=-319.18282608177833 pbc="T T T"
Ba      -0.00357664      -0.02370473      -0.04593998      -0.00357664      -0.02370473      -0.04593998       0.29983612       0.38245596       0.29864799
Ti       1.97744782       1.98992741       2.05992055      -0.03957569      -0.02709610       0.04289704       0.26386763      -0.57018586      -0.92238422
O        0.02647159       2.05073693       2.02129343       0.02647159       0.03371342       0.00426992      -0.27737101      -0.02996465      -0.24110556
O        2.03273210       0.02676691       1.96267615       0.01570859       0.02676691      -0.05434737      -0.22374655       0.31092229       0.12527570
O        2.04278197       2.08818007       0.01347791       0.02575845       0.07115656       0.01347791      -0.32832383      -0.15898482      -0.23693336
Ba       0.02182178       0.03795471       4.00806858       0.02182178       0.03795471      -0.02597845      -0.11753625      -0.48082896       0.15298592
Ti       2.02033731       1.99335951       6.02320417       0.00331380      -0.02366400      -0.02786638      -0.00855598      -0.45849251       0.80406471
O        0.03461699       2.03905194       6.05924036       0.03461699       0.02202843       0.00816982      -0.75226029       0.07137860      -0.31967950
O        2.07527421       0.04219732       6.05015644       0.05825069       0.04219732      -0.00091410      -0.33370311       0.08327188       0.09622892
O        1.95916458       1.89052517       3.99239912      -0.05785893      -0.12649835      -0.04164791       0.41167972       0.77754381       0.45241321
Ba       0.02347505       4.00249382       0.00417461       0.02347505      -0.03155321       0.00417461       0.12992910       0.09513357       0.17640277
Ti       2.06052442       6.02368087       2.04359613       0.04350091      -0.02738967       0.02657261       0.09367476       0.29136055      -0.03741154
O        0.01308874       6.12518718       2.07554571       0.01308874       0.07411664       0.05852219      -0.84347503      -0.20394225      -0.57846749
O        1.96747643       4.07607081       2.10560002      -0.04954708       0.04202378       0.08857651       0.30664453      -0.13085163      -0.23153863
O        2.03249885       6.03930278      -0.00596461       0.01547534      -0.01176776      -0.00596461      -0.40689896      -0.07568553      -0.47191077
Ba      -0.03547327       4.02226871       4.08287100      -0.03547327      -0.01177832       0.04882398       0.23374591       0.47776668      -0.30668094
Ti       1.99858153       6.02983976       6.06935344      -0.01844198      -0.02123078       0.01828290       0.21734241       0.11302019       0.16723771
O       -0.02630837       6.15546440       6.05724968      -0.02630837       0.10439386       0.00617914      -0.00544482      -0.27989966       0.29147494
O        2.02552376       4.06541499       6.01840368       0.00850024       0.03136796      -0.03266686      -0.28647932       0.37511702      -0.18861401
O        2.01888234       6.10223267       4.00534716       0.00185882       0.05116213      -0.02869987       0.11047531      -0.05963816       0.41108296
Ba       4.07218538       0.00330031       0.01354614       0.03813835       0.00330031       0.01354614      -0.59058676       0.32294600       0.13293168
Ti       6.05874930       2.04045410       2.01414013       0.00767875       0.02343058      -0.00288338      -0.38001296      -0.09585934      -0.27001426
O        4.04751670       2.00781638       2.01759832       0.01346967      -0.00920713       0.00057481       0.26125471       0.34449888      -0.01855812
O        6.10335920       0.05560289       2.00506097       0.05228866       0.05560289      -0.01196255      -0.11675464      -0.30923869      -0.07104621
O        6.06041214       2.09142551      -0.09772951       0.00934160       0.07440199      -0.09772951      -0.01588190      -0.05276469       0.15688380
Ba       4.07978096       0.00950083       4.06772020       0.04573393       0.00950083       0.03367318      -0.29067419      -0.24862139      -0.28750730
Ti       6.03722003       2.07106869       6.00471366      -0.01385051       0.05404517      -0.04635688       0.16124575      -0.78566586       1.23784197
O        3.94649493       2.11189128       6.05069098      -0.08755210       0.09486777      -0.00037956       1.00775398      -0.06824010      -0.56750612
O        5.95001173       0.10279365       6.08996272      -0.10105881       0.10279365       0.03889218       0.45145444       0.04563224      -0.43279977
O        6.04238805       2.08368494       3.91558397      -0.00868249       0.06666143      -0.11846305       0.04233061      -0.12280287       1.32814858
Ba       4.01435226       3.98241214      -0.03682127      -0.01969476      -0.05163489      -0.03682127      -0.18818834       0.22404887       0.44799201
Ti       6.10362104       6.06849215       2.06257405       0.05255050       0.01742161       0.04555054       0.13856703      -0.29586775       0.72091412
O        4.00380966       6.12549272       1.91967166      -0.03023737       0.07442218      -0.09735185       0.36017079      -0.37751326       0.87636845
O        6.09901421       4.06808798       2.03576060       0.04794367       0.03404095       0.01873708      -0.18835686       0.23322941      -0.31230407
O        5.91010457       6.03257151       0.02200642      -0.14096597      -0.01849903       0.02200642       1.01566667       0.19686989      -0.26973765
Ba       3.98665916       4.00175223       3.99509390      -0.04738787      -0.03229480      -0.03895313       0.16403897       0.46121938       0.00471148
Ti       6.00487069       6.03901830       6.18078304      -0.04619985      -0.01205224       0.12971250      -0.00899081       0.05165990      -0.99728303
O        3.99858131       6.11366019       6.07652458      -0.03546572       0.06258965       0.02545403       0.39918442      -0.34072919      -0.24815157
O        6.05885302       4.09452617       6.07203839       0.00778248       0.06047915       0.02096785      -0.12774763      -0.19853710      -0.16535514
O        6.09344054       6.00187885       4.06962996       0.04237000      -0.04919169       0.03558293      -0.57787365       0.48623914      -0.70661768
40
Lattice="8.068094053620344 9.776809850035287e-19 -3.3327685695080746e-17 -2.7662683574551683e-17 8.068094053620369 -1.4422252443536244e-14 3.55521166950041e-16 -1.8723970188776863e-14 8.068094053620369" Properties=species:S:1:pos:R:3:u_disp:R:3:forces:R:3 system=batio3_cubic model=mace_mp0 T=100.0 seed=2 supercell=2x2x2 source="SSCHA free-energy-Hessian ensemble (final auxiliary dyn)" index=322 pair=161 energy=-318.8352815290537 pbc="T T T"
Ba      -0.00899273       0.01424047      -0.04190063      -0.00899273       0.01424047      -0.04190063      -0.24659367       0.02025206       0.35106247
Ti       1.98212297       1.99681983       1.99307175      -0.03490054      -0.02020369      -0.02395176      -0.36655109       0.41589308      -0.54954486
O        0.09273923       1.98351239       2.00148908       0.09273923      -0.03351113      -0.01553443       0.26553723      -0.13724758       0.02415955
O        2.04134602      -0.04068392       1.99202175       0.02432251      -0.04068392      -0.02500176       0.39581537      -0.15351833       0.23375194
O        2.04923055       2.05203513       0.08049258       0.03220704       0.03501162       0.08049258       0.21169827      -0.33742790      -0.38766042
Ba       0.00193906      -0.07883527       4.06536939       0.00193906      -0.07883527       0.03132237      -0.23784100       0.27056514      -0.33800355
Ti       2.06922587       1.94786324       6.02365619       0.05220236      -0.06916027      -0.02741435      -0.32586468       1.67133631      -0.15613731
O       -0.01183107       2.02264768       6.08111859      -0.01183107       0.00562417       0.03004805       0.56343816      -0.21048385      -0.30149119
O        2.05466438       0.03282830       6.03153872       0.03764086       0.03282830      -0.01953182      -0.14640918      -0.73473230       0.39975468
O        2.07995020       1.97046080       4.11489071       0.06292669      -0.04656272       0.08084368      -0.29527998      -0.02838522      -0.23152454
Ba      -0.00141740       4.07592196      -0.02985911      -0.00141740       0.04187494      -0.02985911      -0.31996420      -0.25284959       0.15449407
Ti       2.02299278       6.03967558       2.01906701       0.00596927      -0.01139496       0.00204349      -1.70928317      -0.10631704       0.60034185
O        0.08842457       6.09344711       1.81920267       0.08842457       0.04237657      -0.19782085       0.95370728      -0.34940718       0.97090808
O        2.10742153       3.99703394       2.16272871       0.09039802      -0.03701309       0.14570519      -0.03322396       0.13999142      -0.84210964
O        2.10016599       6.05143717      -0.03333214       0.08314248       0.00036663      -0.03333214       0.10914535       0.09323837       0.02523022
Ba       0.03020856       3.98232757       4.00890339       0.03020856      -0.05171946      -0.02514363      -0.26664195       0.27270990       0.18763277
Ti       2.00034067       6.07247370       6.11712715      -0.01668284       0.02140316       0.06605661      -0.01620906      -1.69620449      -0.44711302
O       -0.05661426       6.00447348       6.05197831      -0.05661426      -0.04659706       0.00090776       1.08242852       0.55164037       0.11816858
O        1.99418431       4.03951252       6.08201972      -0.02283920       0.00546549       0.03094918       0.16368207       0.25492216       0.00610490
O        2.00368016       5.97103700       4.00804759      -0.01334336      -0.08003354      -0.02599944       0.03484601       0.82316963       0.04031874
Ba       4.05329449      -0.00336323      -0.02903902       0.01924747      -0.00336323      -0.02903902       0.23166640       0.26126377       0.08305182
Ti       6.01256023       2.01236160       2.09503183      -0.03851031      -0.00466192       0.07800831       0.07285352       1.13422460      -0.14306451
O        4.15063018       1.88736500       1.94671508       0.11658315      -0.12965851      -0.07030843      -0.61371422       0.24551138       0.39470228
O        6.08897491      -0.06521056       2.08581197       0.03790437      -0.06521056       0.06878846       0.17050645       0.54518019      -0.40179641
O        6.02659481       2.05388841      -0.08302246      -0.02447573       0.03686490      -0.08302246       0.31892837      -0.51370828       0.24142537
Ba       3.92221237       0.02860174       4.01518565      -0.11183466       0.02860174      -0.01886137       0.86827187      -0.13722314       0.10588682
Ti       6.05336231       2.05046878       6.10874299       0.00229177       0.03344526       0.05767245       0.17911968       0.62219074       0.31257046
O        4.09949262       2.05798201       5.97385564       0.06544559       0.04095849      -0.07721490      -1.08526107      -0.51685882       0.39280991
O        6.01525994       0.02665709       5.99751978      -0.03581060       0.02665709      -0.05355076       0.05230162      -0.46357673       0.07338815
O        6.13502731       2.04009584       3.92068331       0.08395677       0.02307233      -0.11336372      -0.19362865      -0.39482023       0.75663824
Ba       4.08471615       4.06779707       0.02119834       0.05066912       0.03375004       0.02119834       0.02057273      -0.44183230      -0.07203898
Ti       5.95625625       6.14588388       2.01502298      -0.09481429       0.09481334      -0.00200053       2.00211344      -1.26654776      -0.32444684
O        4.19932266       6.03891844       2.19787108       0.16527563      -0.01215210       0.18084757      -2.53936585       0.16370141      -1.01312482
O        6.07855173       4.00082050       2.07464437       0.02748119      -0.03322653       0.05762085       0.07327056      -0.29997664      -0.48833487
O        6.00900973       6.01056816      -0.01958854      -0.04206081      -0.04050238      -0.01958854      -0.08440266       0.59300258       0.53529661
Ba       4.03065388       4.06814999       4.09241988      -0.00339315       0.03410296       0.05837285       0.22281755      -0.33545195      -0.04972397
Ti       6.00190178       6.10432380       5.98905160      -0.04916876       0.05325326      -0.06201894       0.18638139      -0.65053058       0.20005513
O        4.06622456       5.98170816       6.06282422       0.03217754      -0.06936238       0.01175368      -0.96200649       0.75727833      -0.19744343
O        5.94841854       4.02957679       6.09409420      -0.10265200      -0.00447024       0.04302366       0.72221918      -0.21598858      -0.39166803
O        6.04184581       5.98903827       4.06393546      -0.00922473      -0.06203227       0.02988844       0.54091985       0.40701706       0.12747375
40
Lattice="8.068094053620344 9.776809850035287e-19 -3.3327685695080746e-17 -2.7662683574551683e-17 8.068094053620369 -1.4422252443536244e-14 3.55521166950041e-16 -1.8723970188776863e-14 8.068094053620369" Properties=species:S:1:pos:R:3:u_disp:R:3:forces:R:3 system=batio3_cubic model=mace_mp0 T=100.0 seed=2 supercell=2x2x2 source="SSCHA free-energy-Hessian ensemble (final auxiliary dyn)" index=343 pair=171 energy=-318.8582196450953 pbc="T T T"
Ba      -0.01851402      -0.02365400       0.04793366      -0.01851402      -0.02365400       0.04793366       0.35994296       0.09071878      -0.39215326
Ti       2.05203356       2.00692311       2.00998356       0.03501004      -0.01010040      -0.00703995       0.26271079       0.35871647      -0.61904083
O       -0.02394307       2.04360654       2.05555875      -0.02394307       0.02658303       0.03853524      -0.49409957       0.10623652       0.15569336
O        1.93644953       0.10928004       1.98062577      -0.08057398       0.10928004      -0.03639774       0.55933062      -1.08651730       0.22954101
O        1.92101991       2.14514925       0.10339036      -0.09600361       0.12812573       0.10339036       0.52222914      -0.50638499      -0.89473372
Ba       0.02197183       0.10244713       4.04650919       0.02197183       0.10244713       0.01246217      -0.04662014      -0.79830858      -0.01761104
Ti       2.00738643       2.07442396       6.01792657      -0.00963709       0.05740044      -0.03314397       0.51552321      -0.46386776       0.15246549
O        0.09202891       2.06279477       5.97101684       0.09202891       0.04577125      -0.08005370      -0.87262130      -0.15914990       0.41557957
O        1.95056469      -0.00806718       6.15780536      -0.06645882      -0.00806718       0.10673482       0.33607293       0.00984381      -0.64574391
O        1.98912763       1.95327150       4.03073921      -0.02789588      -0.06375201      -0.00330781       0.46279237       0.35663547       0.65362910
Ba      -0.00036767       3.98967226       0.09657026      -0.00036767      -0.04437477       0.09657026       0.06424061       0.33420550      -0.49056843
Ti       1.97188719       6.06323682       2.05737522      -0.04513632       0.01216628       0.04035170       0.24681605      -0.46549294      -0.89569874
O        0.04130130       6.07386296       1.98726798       0.04130130       0.02279242      -0.02975553      -0.47564769      -0.19245271       0.05694174
O        2.08392299       4.00649333       2.04184977       0.06689947      -0.02755369       0.02482626      -0.46260100       0.78681162       0.11981771
O        2.04640518       6.02987733      -0.04025424       0.02938167      -0.02119321      -0.04025424       0.08862488      -0.06279801       0.21095223
Ba       0.01001818       4.00968027       4.06706367       0.01001818      -0.02436676       0.03301664      -0.14942250       0.41579499      -0.31610523
Ti       2.04060647       6.04748367       5.99331281       0.02358296      -0.00358687      -0.05775773      -0.54384509       0.47038545       1.28771503
O       -0.01490202       6.01339339       6.14379938      -0.01490202      -0.03767715       0.09272884      -0.64739510      -0.10284778      -0.82566076
O        1.98200481       4.03874893       6.04128649      -0.03501870       0.00470190      -0.00978405       0.23009763      -0.39939656      -0.24009079
O        1.97699815       6.03532280       3.93095390      -0.04002537      -0.01574774      -0.10309313      -0.16598646       0.37199542       0.95726023
Ba       4.02498538      -0.02633235      -0.00903343      -0.00906165      -0.02633235      -0.00903343      -0.13559865       0.41646171      -0.02357154
Ti       6.09074332       2.02275664       2.00066359       0.03967278       0.00573313      -0.01635992      -0.56737635       0.12651837      -0.80056410
O        4.10134726       2.04301943       1.97510473       0.06730024       0.02599592      -0.04191878      -0.40324958      -0.38202821       0.24660757
O        6.03155742      -0.02529684       2.10230356      -0.01951312      -0.02529684       0.08528004       0.18174491      -0.11726184      -0.30456296
O        6.07826471       1.88012257      -0.01853374       0.02719417      -0.13690095      -0.01853374       0.31323058       0.84406480       0.60390723
Ba       4.05763064      -0.02564573       4.03690654       0.02358361      -0.02564573       0.00285952      -0.09110051       0.23934302       0.00301323
Ti       6.11331939       1.98422917       5.97810069       0.06224885      -0.03279435      -0.07296985      -1.10965287       0.13476884       0.97167232
O        4.07697748       1.95761234       6.08044288       0.04293045      -0.05941117       0.02937234      -0.53633698       0.19885374      -0.17841994
O        6.09621508      -0.01646642       6.17548272       0.04514454      -0.01646642       0.12441218      -0.19937958      -0.28713516      -1.16486677
O        6.06326775       1.99218421       4.06495705       0.01219721      -0.02483930       0.03091003       0.07679839      -0.15568226      -0.12658978
Ba       3.99861702       4.09202989      -0.04579800      -0.03543001       0.05798287      -0.04579800       0.07587875      -0.54593858       0.25205990
Ti       6.03582924       6.08238182       1.98461179      -0.01524130       0.03131128      -0.03241172      -0.32171928      -0.15836889       0.68642171
O        4.01538142       6.06904639       2.08538969      -0.01866561       0.01797585       0.06836618       0.34058413       0.24284828      -0.57686228
O        5.98104092       4.04490400       2.01384625      -0.07002962       0.01085698      -0.00317726       0.55159369      -0.09378531      -0.17114846
O        6.07443693       6.08439486      -0.02847155       0.02336639       0.03332432      -0.02847155      -0.64977062      -0.39972073       0.39846490
Ba       4.03022810       4.02664197       3.95044896      -0.00381893      -0.00740506      -0.08359807       0.14864728      -0.15926122       0.21467736
Ti       6.06945941       6.01906494       6.05185091       0.01838887      -0.03200560       0.00078037       1.06525659      -0.01199893      -0.38737492
O        3.92794412       5.98341281       5.89699827      -0.10610291      -0.06765773      -0.15407227       0.76318910       0.44300579       0.54162762
O        5.99848542       3.99790723       5.98020358      -0.05258512      -0.03613979      -0.07086696       0.33509347       0.30497632       0.56262143
O        6.02899091       6.00796455       4.01632959      -0.02207963      -0.04310600      -0.01771744       0.37202518       0.29621277       0.35069872
40
Lattice="8.068094053620344 9.776809850035287e-19 -3.3327685695080746e-17 -2.7662683574551683e-17 8.068094053620369 -1.4422252443536244e-14 3.55521166950041e-16 -1.8723970188776863e-14 8.068094053620369" Properties=species:S:1:pos:R:3:u_disp:R:3:forces:R:3 system=batio3_cubic model=mace_mp0 T=100.0 seed=2 supercell=2x2x2 source="SSCHA free-energy-Hessian ensemble (final auxiliary dyn)" index=378 pair=189 energy=-319.2075825270575 pbc="T T T"
Ba       0.00299832       0.00434013       0.03334746       0.00299832       0.00434013       0.03334746      -0.19929260       0.21398503       0.10902057
Ti       2.05544968       2.00402178       2.02328175       0.03842617      -0.01300174       0.00625824      -0.19426958      -0.84036264      -0.13324122
O        0.05448499       1.95856148       1.92311507       0.05448499      -0.05846203      -0.09390844       0.25185805       0.32820533       0.38730597
O        2.07034936      -0.05742865       2.01662314       0.05332585      -0.05742865      -0.00040037      -0.26041184       0.85661959      -0.00151203
O        2.09059735       2.08495860      -0.03280657       0.07357383       0.06793508      -0.03280657       0.00388362      -0.06034143       0.26846772
Ba       0.04157466      -0.00036980       4.06019806       0.04157466      -0.00036980       0.02615104      -0.18618047      -0.18535532      -0.20701657
Ti       2.02793204       1.99728652       6.05824658       0.01090853      -0.01973699       0.00717604      -0.42716074      -0.31827160       0.44962597
O        0.05924101       1.97676858       6.09440146       0.05924101      -0.04025494       0.04333092       0.10607269       0.28600400      -0.32129814
O        2.04767344       0.05133415       6.04270733       0.03064993       0.05133415      -0.00836321      -0.07138584      -0.12719016       0.04471518
O        2.01882280       2.03379783       3.97615347       0.00179928       0.01677432      -0.05789356       0.04723429       0.06382537      -0.21333897
Ba       0.00822445       4.08810920      -0.00511436       0.00822445       0.05406218      -0.00511436      -0.13110728      -0.58964069       0.21233372
Ti       2.04072323       5.98161513       2.04447920       0.02369971      -0.06945541       0.02745568      -0.74462886       1.12606321       0.25283790
O       -0.04802608       5.94896970       2.07943350      -0.04802608      -0.10210084       0.06240999       0.06396279       0.44366624      -0.29124037
O        1.97778973       4.12294895       2.09240771      -0.03923378       0.08890192       0.07538420       0.50109401      -1.28997411      -0.50767440
O        1.94405723       6.06721133       0.04566632      -0.07296628       0.01614079       0.04566632       0.39183672      -0.24444313      -0.49786267
Ba      -0.01951709       3.98152315       4.02229389      -0.01951709      -0.05252387      -0.01175314      -0.03680053       0.34240272       0.14138708
Ti       1.99547702       5.98929307       6.11282791      -0.02154649      -0.06177747       0.06175737       0.86807972       0.01701863      -0.50589350
O       -0.02047539       6.11105833       6.17097698      -0.02047539       0.05998779       0.11990644       0.12829286      -0.39893368      -0.67946383
O        2.11347431       4.05053108       6.03970808       0.09645079       0.01648405      -0.01136246      -0.70901606       0.33296174       0.02863065
O        1.98317953       6.04178037       4.03560454      -0.03384398      -0.00929017       0.00155751       0.02614614       0.09276593       0.17227907
Ba       3.94889568      -0.02278378      -0.00778238      -0.08515135      -0.02278378      -0.00778238       0.61866536       0.26916190       0.07550284
Ti       6.07638532       2.02203147       2.07455020       0.02531478       0.00500796       0.05752669      -0.32385852      -0.44159827      -0.77137221
O        4.09621566       1.95700423       1.96748092       0.06216863      -0.06001929      -0.04954259      -1.03920351       0.43427559       0.36715633
O        5.98061120      -0.03459509       2.02156609      -0.07045934      -0.03459509       0.00454258       0.62760950      -0.21073251       0.08342501
O        6.02817336       1.99267455       0.00390611      -0.02289718      -0.02434896       0.00390611       0.15210890      -0.03883326      -0.93718946
Ba       4.03275912      -0.03183920       4.02292450      -0.00128790      -0.03183920      -0.01112253       0.06916307       0.04556517       0.06301549
Ti       6.00114530       2.07115872       6.06664824      -0.04992524       0.05413521       0.01557770       0.03620280      -0.15197899       0.71636101
O        4.07716756       2.00296051       5.95677225       0.04312053      -0.01406300      -0.09429829       0.20064452       0.19448140       0.13130246
O        6.03243198      -0.01843445       5.96986456      -0.01863856      -0.01843445      -0.08120599       0.13033170      -0.29741833       0.34359215
O        6.13690170       2.02288963       3.97651215       0.08583116       0.00586612      -0.05753488      -0.11083891       0.04662177       0.42517569
Ba       4.13553441       4.07912593       0.00243538       0.10148738       0.04507890       0.00243538      -0.39058849      -0.47035513      -0.22447166
Ti       6.01770476       6.04141874       2.05263832      -0.03336578      -0.00965180       0.03561481       0.75544113       0.78212131       0.40969653
O        4.10066930       6.05968928       1.97026827       0.06662227       0.00861874      -0.04675524      -1.07188009      -0.48629187       0.20444376
O        5.99386352       3.97024411       1.96757045      -0.05720702      -0.06380292      -0.04945307       0.36955182       0.39124717       0.22565937
O        6.01201120       6.09761837      -0.01470254      -0.03905934       0.04654783      -0.01470254       0.13644159      -0.24658687      -0.28713856
Ba       3.96155858       4.07715019       3.93988788      -0.07248845       0.04310316      -0.09415915       0.57617781      -0.21578780       0.80204959
Ti       6.08235540       6.11668202       6.10800019       0.03128486       0.06561148       0.05692965      -0.41295557       0.42575563      -0.43087527
O        3.97688023       6.03057607       6.01530750      -0.05716680      -0.02049447      -0.03576304       0.04952860       0.12303250       0.44880089
O        6.09632770       3.99496473       6.09537946       0.04525716      -0.03908229       0.04430892      -0.09695484       0.03220272      -0.24969276
O        5.99170726       6.02572933       4.04797213      -0.05936328      -0.02534121       0.01392510       0.29620602      -0.23388717      -0.10350333
40
Lattice="8.068094053620344 9.776809850035287e-19 -3.3327685695080746e-17 -2.7662683574551683e-17 8.068094053620369 -1.4422252443536244e-14 3.55521166950041e-16 -1.8723970188776863e-14 8.068094053620369" Properties=species:S:1:pos:R:3:u_disp:R:3:forces:R:3 system=batio3_cubic model=mace_mp0 T=100.0 seed=2 supercell=2x2x2 source="SSCHA free-energy-Hessian ensemble (final auxiliary dyn)" index=456 pair=228 energy=-319.2228551455099 pbc="T T T"
Ba       0.01275419      -0.00757836      -0.04199867       0.01275419      -0.00757836      -0.04199867      -0.20855877       0.00500879       0.20964328
Ti       2.06440764       1.98892343       2.00377850       0.04738413      -0.02810008      -0.01324501      -1.32486205      -0.01038562       0.47906549
O        0.08957446       2.10314356       1.93595618       0.08957446       0.08612004      -0.08106733       0.31162276      -0.54870867       0.26259731
O        2.03108653       0.02120044       2.10972015       0.01406302       0.02120044       0.09269664       0.08860335      -0.02162529      -0.21504932
O        2.11371495       2.00347925      -0.01906668       0.09669144      -0.01354427      -0.01906668      -0.17611945       0.18745622       0.59405658
Ba      -0.00209857       0.01760189       4.00822945      -0.00209857       0.01760189      -0.02581758       0.03580848       0.05775876       0.20306873
Ti       1.94133487       2.03204951       6.08364175      -0.07568864       0.01502600       0.03257121       1.14174741      -0.18107425      -0.53406873
O        0.13537029       1.92610910       6.10883272       0.13537029      -0.09091441       0.05776218      -1.46253613       0.61317814      -0.26678021
O        2.01399947      -0.00619891       6.10771307      -0.00302405      -0.00619891       0.05664253      -0.03393298      -0.31565435      -0.42237063
O        2.00799466       2.10090680       4.04976416      -0.00902885       0.08388329       0.01571714       0.24180618      -0.40859721      -0.37520499
Ba       0.06023223       4.04174459       0.00895963       0.06023223       0.00769756       0.00895963      -0.54564807      -0.06125864       0.16525732
Ti       1.98791945       6.02513303       2.05486198      -0.02910406      -0.02593751       0.03783847       0.32768738      -0.36496337      -0.55853284
O       -0.00515019       6.07003118       1.98916326      -0.00515019       0.01896064      -0.02786026       1.02561016       0.12295342       0.26233855
O        2.07600098       4.09129786       2.06355602       0.05897747       0.05725084       0.04653251       0.03332302       0.21959953      -0.21703755
O        2.04108181       5.99553679       0.00006196       0.02405830      -0.05553375       0.00006196      -0.20839163       0.39314172       0.55678071
Ba      -0.05555431       4.06315990       4.05005499      -0.05555431       0.02911287       0.01600796       0.30750220      -0.31450217      -0.34547580
Ti       2.00311191       6.05002715       6.05607414      -0.01391160      -0.00104339       0.00500360       0.14166518       0.02603456       0.16877584
O       -0.06848880       5.96198037       6.02664807      -0.06848880      -0.08909017      -0.02442247       0.54650569       0.56430589      -0.03778098
O        2.04479440       4.08263181       6.06655578       0.02777089       0.04858478       0.01548524      -0.10155195      -0.57798512       0.27155863
O        2.03891576       5.93588757       4.13985375       0.02189225      -0.11518297       0.10580672      -0.24734393       0.83512073      -1.27485376
Ba       4.05322302      -0.01027987      -0.02570902       0.01917600      -0.01027987      -0.02570902       0.01221400      -0.12576731      -0.12827109
Ti       5.98325971       1.95524267       2.02835618      -0.06781083      -0.06178084       0.01133267       0.73256969       0.68435584      -0.65520739
O        4.10649139       2.02498818       1.93851793       0.07244437       0.00796467      -0.07850558      -0.62579004       0.02012704       0.57371636
O        6.07485559       0.01801800       1.95466533       0.02378505       0.01801800      -0.06235819       0.27695016       0.29567819       0.37472602
O        5.99627112       2.00717150      -0.02445446      -0.05479943      -0.00985201      -0.02445446       0.54105225       0.09536957      -0.23956112
Ba       4.05670978      -0.02118810       4.07007687       0.02266275      -0.02118810       0.03602985      -0.19356796       0.08691021       0.02924994
Ti       5.99808825       2.08379893       6.03429927      -0.05298229       0.06677541      -0.01677127      -1.07593863      -0.72522116       0.74626046
O        4.06367741       1.99861632       6.02581297       0.02963038      -0.01840719      -0.02525757       0.58804414       0.17417326      -0.10646675
O        6.04376757       0.00914898       6.05366170      -0.00730297       0.00914898       0.00259116       0.37062392      -0.36503260      -0.30973947
O        6.03406966       1.99777144       4.01441571      -0.01700088      -0.01925207      -0.01963132       0.37789537      -0.02964584      -0.14545036
Ba       3.99519681       4.01189457      -0.00720396      -0.03885022      -0.02215245      -0.00720396       0.51379776       0.33787551       0.06163193
Ti       6.07331364       6.05232464       2.02411186       0.02224310       0.00125410       0.00708835      -0.83377052      -0.85790340      -0.20697981
O        4.12406115       6.12233854       1.94904565       0.09001413       0.07126800      -0.06797787      -0.72358243      -0.23515021       0.41102886
O        6.12231815       4.05668557       1.96919651       0.07124761       0.02263854      -0.04782700      -0.29872734       0.03347297       0.17694732
O        6.06682602       6.05367710      -0.06394953       0.01575548       0.00260656      -0.06394953       0.00805531      -0.10988603      -0.19179803
Ba       4.01123723       4.04514563       4.08375158      -0.02280979       0.01109860       0.04970455       0.05967711      -0.04342436      -0.29973422
Ti       6.03073299       6.06795033       6.05429179      -0.02033756       0.01687979       0.00322125       0.12986064       0.62791020       0.62103436
O        4.04949741       6.12268044       5.99668715       0.01545038       0.07160990      -0.05438339       0.01827097      -0.49419220       0.25816374
O        6.05708977       3.97675519       6.01158438       0.00601923      -0.05729184      -0.03948616       0.03175397       0.11520693       0.07122361
O        6.03071891       6.02071232       3.99082471      -0.02035163      -0.03035822      -0.04322231       0.19767477       0.29534031       0.03323803
40
Lattice="8.068094053620344 9.776809850035287e-19 -3.3327685695080746e-17 -2.7662683574551683e-17 8.068094053620369 -1.4422252443536244e-14 3.55521166950041e-16 -1.8723970188776863e-14 8.068094053620369" Properties=species:S:1:pos:R:3:u_disp:R:3:forces:R:3 system=batio3_cubic model=mace_mp0 T=100.0 seed=2 supercell=2x2x2 source="SSCHA free-energy-Hessian ensemble (final auxiliary dyn)" index=490 pair=245 energy=-318.98490734766506 pbc="T T T"
Ba      -0.05754067      -0.01282088      -0.01291399      -0.05754067      -0.01282088      -0.01291399       0.38466580       0.22895667       0.26857515
Ti       1.98949941       2.01212412       1.98361197      -0.02752411      -0.00489940      -0.03341154      -0.70763609       0.30128472       0.07917454
O        0.12254934       1.94704841       1.96691038       0.12254934      -0.06997510      -0.05011313      -0.78278796       0.20500003       0.21871249
O        2.08930494      -0.00486372       2.01531883       0.07228143      -0.00486372      -0.00170468      -0.22759297      -0.31995525       0.13414561
O        2.05328559       1.97707730       0.00300155       0.03626208      -0.03994621       0.00300155      -0.24925317       0.14296205      -0.02257464
Ba      -0.00616021      -0.03438162       4.07730903      -0.00616021      -0.03438162       0.04326200       0.32652779       0.05703521      -0.66833210
Ti       1.98824562       2.03910643       6.06147579      -0.02877789       0.02208291       0.01040525       0.96202523      -0.47596849      -0.36621790
O       -0.07684429       2.07162733       5.99002040      -0.07684429       0.05460382      -0.06105014       0.44523607      -0.56569476       0.26597865
O        2.00660355      -0.04482523       6.02501689      -0.01041996      -0.04482523      -0.02605365       0.15745892       0.28665171       0.21160559
O        1.94510216       1.96488501       4.09308103      -0.07192135      -0.05213850       0.05903401       0.41675543       0.36035560       0.01917927
Ba       0.04908691       4.11704324       0.00489658       0.04908691       0.08299622       0.00489658      -0.31887456      -0.49511170       0.24423821
Ti       2.03365956       6.09638806       1.94697957       0.01663604       0.04531752      -0.07004394       0.09543102      -0.16664640       0.67354575
O       -0.08553683       5.96007731       2.03436645      -0.08553683      -0.09099323       0.01734294       0.70318145       0.52185175      -0.24279389
O        2.02297760       4.00278379       2.02694274       0.00595408      -0.03126324       0.00991923       0.19019508      -0.18414769      -0.23389471
O        2.09533778       6.10510455       0.06799631       0.07831427       0.05403401       0.06799631      -0.56098948      -0.30111950      -0.66903714
Ba      -0.01455105       4.03323437       4.11077748      -0.01455105      -0.00081266       0.07673045       0.23088346       0.04299219      -0.80704908
Ti       1.98103595       6.02153153       6.02222375      -0.03598757      -0.02953901      -0.02884679       0.95516737       0.70374259      -0.32633975
O        0.17462881       6.13986262       6.01468878       0.17462881       0.08879208      -0.03638176      -1.36197478      -0.89747901       0.32472423
O        2.08228329       4.03402155       6.16811913       0.06525978      -0.00002548       0.11704859      -0.52174609      -0.12410430      -0.49745573
O        2.00838523       6.00654189       3.95405609      -0.00863829      -0.04452865      -0.07999093       0.27677398       0.04758885       0.84997024
Ba       4.02333063       0.06798239      -0.00616025      -0.01071640       0.06798239      -0.00616025       0.05690583      -0.44858602      -0.03732948
Ti       5.99562333       2.00654394       2.05564125      -0.05544721      -0.01047958       0.03861773      -0.00690524      -0.14649164      -0.23535033
O        4.09918295       2.00166480       2.05180183       0.06513592      -0.01535872       0.03477832       0.10452778       0.01626683      -0.33720993
O        6.02628646      -0.06212317       1.97575480      -0.02478408      -0.06212317      -0.04126871       0.19083545       0.64180549       0.34491303
O        6.09632138       2.07213461      -0.08910352       0.04525084       0.05511110      -0.08910352      -0.20851487      -0.51492350       0.16941890
Ba       4.01084005      -0.02254344       4.08453354      -0.02320698      -0.02254344       0.05048651      -0.25973460      -0.02275594      -0.29064979
Ti       6.08396192       1.99111921       6.01701070       0.03289138      -0.02590430      -0.03405984      -0.20151549       1.05912366       0.88998799
O        3.95698791       1.96519072       6.07760137      -0.07705912      -0.05183279       0.02653083       0.46623479       0.12272371      -0.40496908
O        6.08809160      -0.09210523       6.00336468       0.03702106      -0.09210523      -0.04770586      -0.13243204       1.01891125      -0.11056539
O        6.00094745       1.98973801       3.96077485      -0.05012309      -0.02728550      -0.07327218       0.38243349      -0.14897226       0.30235221
Ba       4.12127252       4.02031687      -0.02102106       0.08722549      -0.01373016      -0.02102106      -0.30001312       0.08387096      -0.07783814
Ti       6.02997042       6.01924925       2.04475390      -0.02110013      -0.03182129       0.02773039       0.56659512       0.51378243      -0.22210768
O        4.05651497       6.04864520       1.93255699       0.02246794      -0.00242534      -0.08446652       0.15089059      -0.29481981       0.55132634
O        6.06712758       4.01633041       2.01528417       0.01605704      -0.01771662      -0.00173934      -0.09947302      -0.30784711      -0.11405428
O        6.14537664       6.17905188      -0.05128232       0.09430610       0.12798134      -0.05128232      -0.29476192      -1.11212122      -0.14700996
Ba       4.00582892       4.02023086       3.97115460      -0.02821811      -0.01381617      -0.06289243      -0.10369584       0.06086676       0.37724138
Ti       5.99768386       6.08099198       6.04248601      -0.05338668       0.02992144      -0.00858453      -0.85612336      -0.55264871       0.26873093
O        4.05810530       5.98840973       6.05096632       0.02405827      -0.06266081      -0.00010422       0.70256368       0.32272000      -0.08482992
O        6.07551612       3.98235549       5.97326422       0.02444558      -0.05169153      -0.07780632      -0.13998357       0.10032058       0.30211559
O        6.12411956       5.99438932       4.09288145       0.07304902      -0.05668122       0.05883443      -0.43128014       0.24058025      -0.60032718
40
Lattice="8.068094053620344 9.776809850035287e-19 -3.3327685695080746e-17 -2.7662683574551683e-17 8.068094053620369 -1.4422252443536244e-14 3.55521166950041e-16 -1.8723970188776863e-14 8.068094053620369" Properties=species:S:1:pos:R:3:u_disp:R:3:forces:R:3 system=batio3_cubic model=mace_mp0 T=100.0 seed=2 supercell=2x2x2 source="SSCHA free-energy-Hessian ensemble (final auxiliary dyn)" index=501 pair=250 energy=-319.11818934255376 pbc="T T T"
Ba       0.11742561       0.06880473       0.01509553       0.11742561       0.06880473       0.01509553      -0.64477886      -0.87400632      -0.03431690
Ti       2.04033374       2.01458756       2.03653297       0.02331023      -0.00243595       0.01950945      -0.34853217       0.13842914      -0.32624680
O       -0.00297844       1.99874167       1.95460397      -0.00297844      -0.01828185      -0.06241954      -0.60894387       0.33130884       0.30545612
O        1.99309619      -0.01008660       1.93404701      -0.02392733      -0.01008660      -0.08297650       0.20557307       0.44806744       0.39399500
O        1.94558218       2.01761155      -0.05374227      -0.07144134       0.00058804      -0.05374227       0.61699847       0.27755062      -0.71885717
Ba      -0.00176823       0.03431553       3.94185605      -0.00176823       0.03431553      -0.09219097      -0.08313119      -0.34747541       0.23924062
Ti       2.05876626       1.92791285       6.05401256       0.04174275      -0.08911066       0.00294202      -0.11153031      -0.28083620       0.79527588
O       -0.01519750       1.91282554       6.05350801      -0.01519750      -0.10419797       0.00243747      -0.22471499       0.47647186      -0.27315473
O        1.96917267      -0.05809874       6.12288895      -0.04785084      -0.05809874       0.07181841       0.29826374       1.58298533      -0.68057992
O        2.01795936       2.00303186       3.89731399       0.00093585      -0.01399166      -0.13673304      -0.27737640      -0.10211604       1.10440033
Ba       0.02381677       4.00246338      -0.02110015       0.02381677      -0.03158365      -0.02110015       0.13406655       0.47871757       0.25984412
Ti       2.03708696       6.02759055       2.02172413       0.02006345      -0.02347999       0.00470061       0.02622729      -0.14756529      -0.63572300
O       -0.05033321       6.03252983       2.08938919      -0.05033321      -0.01854071       0.07236567       0.04080477       0.47723552      -0.14221323
O        2.00804848       4.06873703       1.97024785      -0.00897503       0.03469000      -0.04677566       0.00712266      -0.29502233       0.23127464
O        1.93617584       6.02938147       0.00583807      -0.08084767      -0.02168907       0.00583807       0.20429100      -0.11878944       0.28374348
Ba      -0.05940214       4.02123494       4.12205890      -0.05940214      -0.01281209       0.08801187       0.22152555       0.14731443      -0.81929562
Ti       1.94181744       5.99442360       5.98968731      -0.07520608      -0.05664694      -0.06138323       0.65508625       0.31515927       0.58801782
O        0.05131587       6.01898988       6.05157736       0.05131587      -0.03208066       0.00050682      -1.70859423       0.26465950      -0.15660272
O        1.97523312       4.09237229       5.93076635      -0.04179039       0.05832526      -0.12030419       0.20629881      -1.23855942       0.38396761
O        1.93150037       6.07545682       4.01566724      -0.08552315       0.02438628      -0.01837979       0.45926974       0.06995047      -0.25804902
Ba       4.02933634      -0.02717297       0.03925882      -0.00471069      -0.02717297       0.03925882      -0.21725877      -0.29539561      -0.20366058
Ti       6.02572087       1.98272859       1.91055471      -0.02534967      -0.03429492      -0.10646881       0.46661579      -0.72162913       0.64413805
O        3.98453498       2.10142056       1.99189819      -0.04951205       0.08439705      -0.02512532       0.54964879      -0.12631065      -0.07188716
O        5.98507064       0.08622970       2.10687905      -0.06599990       0.08622970       0.08985554       0.17746389       0.62200832      -0.50848464
O        5.99334239       2.05294321       0.04957497      -0.05772815       0.03591969       0.04957497       0.03294020      -0.10729100      -0.17577100
Ba       4.04672846       0.03883489       4.07117042       0.01268143       0.03883489       0.03712339      -0.14014750      -0.60003191      -0.28758251
Ti       6.10407509       2.02785154       6.01185873       0.05300455       0.01082803      -0.03921181       0.20259473      -0.03223524      -0.59288585
O        3.95955885       2.00270287       5.97372743      -0.07448818      -0.01432064      -0.07734311      -0.23061101       0.08569689       0.45884070
O        6.00296446       0.01509525       6.11822668      -0.04810608       0.01509525       0.06715614       0.25729881      -0.55657390      -0.21766916
O        5.99159326       1.98467826       4.09568686      -0.05947728      -0.03234525       0.06163983       0.25949849       0.44309270       0.04455748
Ba       4.05778916       4.02038191      -0.01330657       0.02374213      -0.01366512      -0.01330657      -0.44678069       0.55756688      -0.08851726
Ti       6.07029734       6.00768516       2.01125797       0.01922680      -0.04338538      -0.00576555       0.15299824       0.38874704      -0.02710087
O        4.02513031       6.08574740       1.96177112      -0.00891671       0.03467686      -0.05525239      -0.52003165      -0.14523888       0.31437490
O        6.10214490       4.19456740       1.98304600       0.05107436       0.16052037      -0.03397751      -0.47665372      -1.79344974       0.24388670
O        6.03702675       6.10026659       0.01772712      -0.01404379       0.04919605       0.01772712       0.11324382      -0.07411503      -0.63282677
Ba       4.00651677       4.00488153       4.06415359      -0.02753026      -0.02916550       0.03010657       0.09260859       0.49167924      -0.24357348
Ti       6.03507947       6.12897496       6.06290430      -0.01599107       0.07790442       0.01183376      -0.57600616       0.33514356       0.04028989
O        3.98040812       6.10538644       6.08820974      -0.05363891       0.05431590       0.03713920       0.99244620      -0.44122557      -0.06567389
O        6.10885440       3.96034005       6.06444292       0.05778386      -0.07370698       0.01337238      -0.40372482       0.26908719       0.15748339
O        5.90546785       6.05410453       4.06534741      -0.14560269       0.00303399       0.03130039       0.64593090       0.09699530       0.67188555
