40
Lattice="8.068094053620344 -2.1964715756072374e-18 -3.57858694001601e-18 1.423320202482727e-17 8.068094053620344 -1.6494814640004157e-15 -1.8675508390931994e-17 -2.4390007123341064e-15 8.068094053620339" Properties=species:S:1:pos:R:3:u_disp:R:3:forces:R:3 system=batio3_cubic model=mace_mp0 T=100.0 seed=1 supercell=2x2x2 source="SSCHA free-energy-Hessian ensemble (final auxiliary dyn)" index=22 pair=11 energy=-319.1528403890714 pbc="T T T"
Ba       0.06170432       0.03713441       0.01029351       0.06170432       0.03713441       0.01029351      -0.12125156      -0.19896965      -0.23883340
Ti       2.09497132       1.97088130       1.95873741       0.07794781      -0.04614221      -0.05828611       0.15410708      -0.09677025      -0.10229880
O        0.00369846       2.04328963       2.06169340       0.00369846       0.02626612       0.04466988      -0.46394941       0.02266863      -0.06186791
O        1.99817861       0.05474706       2.00697078      -0.01884490       0.05474706      -0.01005273       0.11130999      -0.60018062       0.51438593
O        2.01866219       1.90981853       0.06166789       0.00163867      -0.10720498       0.06166789       0.10305480       0.65078036      -0.29790481
Ba       0.01171357       0.01628738       4.01174367       0.01171357       0.01628738      -0.02230336       0.06626051       0.22786218       0.30567822
Ti       2.01252622       2.06545836       6.00587132      -0.00449730       0.04843484      -0.04519922      -0.24760691      -0.71643745      -0.17041693
O       -0.00852822       2.09475043       6.00122645      -0.00852822       0.07772692      -0.04984409       0.47111079      -0.33949293       0.50430025
O        2.05301842       0.05575287       6.07887320       0.03599491       0.05575287       0.02780266      -0.18948930      -0.30691440      -0.44238763
O        2.01892569       2.04025217       4.05155559       0.00190218       0.02322866       0.01750856       0.16067727       0.10680204       0.65166561
Ba      -0.07244001       3.96746357      -0.02090729      -0.07244001      -0.06658346      -0.02090729       0.50433782       0.40686870       0.04871310
Ti       2.00912594       5.96115857       2.10015615      -0.00789757      -0.08991197       0.08313263       0.30413381      -0.13101922      -1.12310763
O        0.03550203       6.09188112       2.11131259       0.03550203       0.04081058       0.09428908      -0.72243973      -0.08254864      -0.22832982
O        2.00785957       4.01891113       1.96529683      -0.00916395      -0.01513590      -0.05172668      -0.00204930       0.58645306       0.17162545
O        1.94963348       6.03250564      -0.02111916      -0.06739003      -0.01856490      -0.02111916       0.34926008       0.14074991       0.14933852
Ba      -0.02346632       3.99596258       4.06277925      -0.02346632      -0.03808445       0.02873223       0.06256916      -0.01878642      -0.11339993
Ti       1.97748445       6.01189404       6.06479910      -0.03953907      -0.03917650       0.01372856       0.19655091       0.38756995       1.29682672
O        0.09629295       6.06921339       6.09630862       0.09629295       0.01814285       0.04523808      -0.66698135      -0.16963455      -0.84371072
O        1.98649311       4.00391966       6.17535527      -0.03053040      -0.03012737       0.12428473       0.30791788      -0.03258160      -0.53983212
O        2.13788515       5.88169960       4.00683256       0.12086163      -0.16937094      -0.02721447      -0.83221845       0.89845356       0.25664897
Ba       4.03832749      -0.12428075       0.01078662       0.00428046      -0.12428075       0.01078662      -0.13671047       0.68632402      -0.15111319
Ti       6.12472099       2.03800025       2.02299639       0.07365045       0.02097674       0.00597288      -0.31660437      -0.28716996      -0.35307832
O        4.05720348       2.00634916       2.06724854       0.02315645      -0.01067436       0.05022503      -0.33693250       0.25237382      -0.03959196
O        6.01554649       0.07111256       2.01997379      -0.03552405       0.07111256       0.00295027       0.40117145      -0.84063218      -0.00081660
O        6.05996279       2.11199017       0.04385642       0.00889225       0.09496666       0.04385642       0.10175871      -0.54437829      -0.15555656
Ba       3.99238026       0.03487915       4.00627353      -0.04166676       0.03487915      -0.02777349       0.25318599      -0.00517510       0.16752109
Ti       6.00711085       2.03029298       6.03003868      -0.04395969       0.01326947      -0.02103186       0.06518627       0.21846270      -0.05395867
O        4.09691927       2.03103173       6.10017300       0.06287224       0.01400822       0.04910246      -0.23583176      -0.08271102      -0.25337246
O        6.16340203      -0.04946277       6.01987452       0.11233149      -0.04946277      -0.03119602      -0.55672881       0.26953770       0.15341288
O        6.12051040       2.00622814       4.08171470       0.06943986      -0.01079537       0.04766767      -0.40484612       0.10712654      -0.15888218
Ba       4.03584018       4.06721080       0.04938979       0.00179315       0.03316377       0.04938979      -0.02804229      -0.24703841      -0.31079327
Ti       6.12225859       6.06902221       1.98687902       0.07118805       0.01795167      -0.03014449      -0.30088907      -0.18325771      -0.09946558
O        4.00055146       6.08993859       1.97732685      -0.03349557       0.03886805      -0.03969666       0.33079000      -0.08436849       0.13170211
O        6.02226802       4.07202894       1.99706847      -0.02880252       0.03798192      -0.01995505       0.25214664       0.53612537       0.30637585
O        6.12676790       6.05479840      -0.04354575       0.07569736       0.00372786      -0.04354575      -0.17572004       0.04156459       0.89200784
Ba       4.01543339       4.14256958       4.00431418      -0.01861364       0.10852255      -0.02973284       0.51543077      -0.96401070       0.18504431
Ti       6.04244873       6.07557771       6.00114405      -0.00862181       0.02450717      -0.04992649      -0.30575558      -0.03895509       0.31010958
O        3.99248454       6.04190989       6.07793119      -0.04156249      -0.00916065       0.02686065       0.79621689       0.15245577      -0.09953577
O        6.01500729       4.06177899       6.01861822      -0.03606325       0.02773196      -0.03245232       0.27745059      -0.01664563       0.07992208
O        6.01715533       6.02744601       4.04216463      -0.03391521      -0.02362453       0.00811761       0.25941962       0.29549941      -0.28702425
40
Lattice="8.068094053620344 -2.1964715756072374e-18 -3.57858694001601e-18 1.423320202482727e-17 8.068094053620344 -1.6494814640004157e-15 -1.8675508390931994e-17 -2.4390007123341064e-15 8.068094053620339" Properties=species:S:1:pos:R:3:u_disp:R:3:forces:R:3 system=batio3_cubic model=mace_mp0 T=100.0 seed=1 supercell=2x2x2 source="SSCHA free-energy-Hessian ensemble (final auxiliary dyn)" index=49 pair=24 energy=-318.6016500440108 pbc="T T T"
Ba       0.00481532       0.01778315       0.00092287       0.00481532       0.01778315       0.00092287       0.27978577      -0.04018500       0.39046467
Ti       2.04950797       2.08756063       2.05645547       0.03248445       0.07053712       0.03943196      -0.60160258      -0.28594399      -0.55158950
O       -0.00147491       1.99548460       1.85457590      -0.00147491      -0.02153891      -0.16244762      -0.92846164       0.21279336       0.47709535
O        1.86085032       0.01487808       1.95530541      -0.15617319       0.01487808      -0.06171810       1.06274822      -0.80333327       0.62338799
O        2.11029255       2.04245151       0.08676822       0.09326904       0.02542800       0.08676822      -0.28430357      -0.04746025      -1.53230201
Ba       0.00259521       0.04758650       4.04863025       0.00259521       0.04758650       0.01458323       0.25518832      -0.02406368      -0.47550620
Ti       2.01986035       2.02223871       6.08478483       0.00283684       0.00521520       0.03371429      -0.99652837       0.56786015       0.27019374
O        0.06356678       2.15675918       6.06300299       0.06356678       0.13973567       0.01193245       0.22144401      -0.89701942       0.26559890
O        2.00014420       0.06167401       6.08790206      -0.01687932       0.06167401       0.03683152       0.36759178      -0.12967166       0.04411717
O        1.98790085       2.05781257       4.00137783      -0.02912266       0.04078906      -0.03266920       0.17260375      -0.37238924       1.06292860
Ba       0.01014046       4.00130182       0.01768122       0.01014046      -0.03274521       0.01768122      -0.07597350       0.35485628       0.02019092
Ti       2.05070933       6.03941180       2.08937209       0.03368581      -0.01165874       0.07234858      -0.01126396      -0.09689789      -0.40183579
O       -0.00643703       6.02863839       2.17310325      -0.00643703      -0.02243215       0.15607974       0.09011090      -0.01781950      -0.73107939
O        1.96394320       4.05311596       2.12437636      -0.05308032       0.01906893       0.10735284      -0.06784612       0.03572240      -0.31780638
O        2.04481835       5.96773759       0.05127589       0.02779484      -0.08333296       0.05127589      -0.26671250       0.73617921      -0.45016387
Ba      -0.01030635       4.03903768       4.05543943      -0.01030635       0.00499065       0.02139240      -0.00543070       0.03695402      -0.05109671
Ti       2.04382227       6.10669441       6.10474252       0.02679876       0.05562387       0.05367198      -0.15384921      -0.90397633       0.04652153
O        0.05042153       6.14672056       6.05116689       0.05042153       0.09565002       0.00009635      -0.62247141      -0.23585802       0.08574500
O        2.12527050       4.06944028       6.15620480       0.10824699       0.03539326       0.10513426      -0.63395587      -0.28517498      -0.69809186
O        2.12086824       6.05565778       4.07816658       0.10384473       0.00458724       0.04411956      -0.25716503       0.31768192       0.06202614
Ba       4.05584226      -0.03946305      -0.00978241       0.02179524      -0.03946305      -0.00978241      -0.46684914       0.02088969       0.52955305
Ti       6.04830858       2.01024101       1.93108252      -0.00276196      -0.00678250      -0.08594100       0.82188474       1.13686072       0.74327508
O        3.94725955       2.05543995       2.03518556      -0.08678747       0.03841643       0.01816204       1.33049717      -0.60895540       0.14192269
O        6.09776136      -0.07245526       2.07789378       0.04669082      -0.07245526       0.06087027      -0.67975552       0.99395420      -0.37401533
O        6.01286447       2.01750319      -0.01609327      -0.03820607       0.00047968      -0.01609327      -0.05809293      -0.47376777      -0.26162376
Ba       4.00467452      -0.02791998       3.96773323      -0.02937251      -0.02791998      -0.06631380       0.01308221       0.06158060      -0.07900054
Ti       5.97432756       1.97780444       6.02395324      -0.07674298      -0.03921907      -0.02711730       0.63937369       1.55383496      -0.20743157
O        4.05464609       2.00630741       6.03133519       0.02059906      -0.01071611      -0.01973535       0.35062929      -0.19086796      -0.32529400
O        5.99012219       0.02829462       6.03330975      -0.06094835       0.02829462      -0.01776079       0.30843190      -0.22256296      -0.06359358
O        6.22302724       2.03540370       3.94972562       0.17195670       0.01838019      -0.08432141      -1.02587657      -0.33243078       0.84637202
Ba       3.99382930       4.04226843      -0.08486619      -0.04021772       0.00822140      -0.08486619       0.53467784       0.15437426       0.89622269
Ti       6.10185894       6.07014261       2.01944209       0.05078840       0.01907207       0.00241857      -0.03199220      -0.93290640      -0.29946434
O        4.03186530       5.86140725       1.98871981      -0.00218172      -0.18966329      -0.02830370      -0.61819392       1.33736836       0.53880934
O        6.00137723       4.02824429       1.99061776      -0.04969331      -0.00580274      -0.02640575       0.43323991      -0.97123515       0.04952292
O        5.98951402       6.06853919       0.07502120      -0.06155652       0.01746865       0.07502120       0.65204184       0.26585342      -1.04906283
Ba       4.02642812       3.98354657       4.08908115      -0.00761890      -0.05050046       0.05503413       0.26531963       0.46187893      -0.52759715
Ti       6.06649821       6.13415479       6.00681504       0.01542767       0.08308425      -0.04425550       0.02261219      -1.54917472      -0.12788854
O        4.01987463       6.03176677       6.06471209      -0.01417239      -0.01930377       0.01364155       0.64150502       0.72942265      -0.03814311
O        6.07530552       4.03234656       6.05461660       0.02423498      -0.00170046       0.00354606      -0.21192604       0.12976361      -0.02009651
O        6.08373740       6.02999839       4.02096423       0.03266686      -0.02107215      -0.01308279      -0.46451741       0.31386562       1.48873516
40
Lattice="8.068094053620344 -2.1964715756072374e-18 -3.57858694001601e-18 1.423320202482727e-17 8.068094053620344 -1.6494814640004157e-15 -1.8675508390931994e-17 -2.4390007123341064e-15 8.068094053620339" Properties=species:S:1:pos:R:3:u_disp:R:3:forces:R:3 system=batio3_cubic model=mace_mp0 T=100.0 seed=1 supercell=2x2x2 source="SSCHA free-energy-Hessian ensemble (final auxiliary dyn)" index=82 pair=41 energy=-319.0831801291392 pbc="T T T"
Ba      -0.03394643      -0.12253980      -0.00152064      -0.03394643      -0.12253980      -0.00152064       0.41659966       0.69891060      -0.12300413
Ti       2.05817417       2.08043735       2.03294286       0.04115065       0.06341384       0.01591935      -0.49381275      -0.09477464      -0.34998054
O        0.04785627       2.02423444       2.05009154       0.04785627       0.00721093       0.03306803      -0.81193955      -0.29080839      -0.00068460
O        1.96756614      -0.04171446       2.02049108      -0.04945738      -0.04171446       0.00346756       0.67003198      -0.46487406       0.05236142
O        2.04149629       2.07656737      -0.02587770       0.02447278       0.05954386      -0.02587770      -0.19814396      -0.31373843       0.20772704
Ba       0.05794152       0.05419475       4.07980967       0.05794152       0.05419475       0.04576264      -0.53436093      -0.37086431      -0.15819010
Ti       1.94476040       2.01477565       6.03095954      -0.07226311      -0.00224787      -0.02011100       0.19317130       0.20312470       0.64637367
O       -0.00023255       2.07610638       6.02506348      -0.00023255       0.05908287      -0.02600706       0.63273489      -0.17363696       0.02559642
O        2.04423164       0.02464921       6.04087038       0.02720813       0.02464921      -0.01020016      -0.10370398       0.34459452       0.08334456
O        2.07631272       2.00002718       4.01201845       0.05928921      -0.01699633      -0.02202857      -0.24287897       0.05108512       0.33430396
Ba      -0.01345686       4.06627665       0.02253233      -0.01345686       0.03222962       0.02253233      -0.00919695      -0.03320187      -0.21622686
Ti       2.01096662       6.10712714       1.98766975      -0.00605689       0.05605660      -0.02935376      -0.58677555       0.19891112      -0.61327772
O        0.02561251       6.13614678       2.06269457       0.02561251       0.08507624       0.04567106       0.60955000      -0.62861079       0.16758931
O        1.97836350       4.02357905       2.08580115      -0.03866001      -0.01046798       0.06877764       0.34436055       0.07294337      -0.35429030
O        1.92447693       6.04401729      -0.02592932      -0.09254658      -0.00705325      -0.02592932       0.65214557       0.03524459       1.30278175
Ba       0.01419867       4.05008896       3.97092179       0.01419867       0.01604194      -0.06312524      -0.44819097       0.16760355       0.52861011
Ti       2.00421918       6.06463916       5.99128449      -0.01280433       0.01356862      -0.05978605      -0.10779575      -0.44453884       0.64828835
O       -0.04595553       6.12167427       6.00505701      -0.04595553       0.07060373      -0.04601353       0.51357657      -0.35010391       0.37539038
O        2.04626947       4.07693385       6.06555363       0.02924595       0.04288682       0.01448309      -0.26578928      -0.51911573      -0.13592840
O        1.98085777       5.99718573       4.15778143      -0.03616574      -0.05388481       0.12373440       0.38157116       0.46589831      -1.54148453
Ba       4.09129981       0.08407228       0.01028749       0.05725278       0.08407228       0.01028749      -0.45993211      -0.57660762      -0.28618460
Ti       6.10716041       1.98405841       2.01975239       0.05608987      -0.03296511       0.00272888       0.53306084       1.08487625       0.35718965
O        3.98032953       1.93305330       2.02152334      -0.05371750      -0.08397021       0.00449982       0.69546467       0.25611181      -0.20173131
O        6.04534300      -0.07242084       2.06875404      -0.00572754      -0.07242084       0.05173053      -0.00998077       1.41464603       0.02797155
O        6.19398605       2.04418316       0.02876578       0.14291551       0.02715965       0.02876578      -0.80150096      -0.50664233       0.31506972
Ba       4.02795761       0.00737917       4.04637872      -0.00608941       0.00737917       0.01233169       0.27216546      -0.19196464       0.21052981
Ti       6.03863561       2.01224214       6.09385264      -0.01243493      -0.00478137       0.04278210      -0.12328933       0.17971482      -0.74831503
O        4.04045391       2.03874159       6.09223449       0.00640688       0.02171808       0.04116395       0.41500110      -0.23371577       0.01375100
O        6.10536982       0.01588639       5.99377445       0.05429928       0.01588639      -0.05729609      -0.48358529       0.50236497       0.59589517
O        6.04407757       2.04562397       4.08426083      -0.00699297       0.02860045       0.05021380       0.03551203      -0.26164531      -0.69184848
Ba       3.94671815       3.99340823      -0.04141708      -0.08732887      -0.04063879      -0.04141708       0.50602077       0.52087102       0.09915307
Ti       6.03763808       6.09222132       2.01703828      -0.01343246       0.04115078       0.00001477      -0.07519176      -0.89304575       0.08414108
O        4.13248070       5.96062628       2.05571434       0.09843368      -0.09044426       0.03869083      -1.46563404       0.56429196      -0.14551090
O        6.04690823       4.01119792       2.03741042      -0.00416231      -0.02284910       0.02038691       0.20550873      -0.85216634      -0.07075905
O        6.12904828       6.10694034       0.08291489       0.07797774       0.05586980       0.08291489      -0.41142379      -0.24828648      -0.36279760
Ba       4.03653992       3.95901067       4.01126919       0.00249289      -0.07503636      -0.02277784       0.32963846       0.51488379       0.31852455
Ti       6.01568408       6.03011671       6.03752236      -0.03538646      -0.02095383      -0.01354818       0.24123402      -0.24987624      -0.75757378
O        4.05946965       6.04204730       6.05875787       0.02542262      -0.00902324       0.00768733      -0.22795791       0.32028832       0.33564108
O        6.02969406       4.03870953       6.07963235      -0.02137648       0.00466250       0.02856181       0.10227737      -0.10584114       0.29658101
O        6.02858900       5.99836355       4.11268751      -0.02248154      -0.05270699       0.07864048       0.11145949       0.20769470      -0.26902672
40
Lattice="8.068094053620344 -2.1964715756072374e-18 -3.57858694001601e-18 1.423320202482727e-17 8.068094053620344 -1.6494814640004157e-15 -1.8675508390931994e-17 -2.4390007123341064e-15 8.068094053620339" Properties=species:S:1:pos:R:3:u_disp:R:3:forces:R:3 system=batio3_cubic model=mace_mp0 T=100.0 seed=1 supercell=2x2x2 source="SSCHA free-energy-Hessian ensemble (final auxiliary dyn)" index=92 pair=46 energy=-318.9872818748673 pbc="T T T"
Ba       0.07486800      -0.00240038      -0.01150204       0.07486800      -0.00240038      -0.01150204       0.12360648      -0.02174678      -0.03861925
Ti       2.00175781       2.06571378       2.10458242      -0.01526570       0.04869026       0.08755891      -0.82699782      -0.71276093      -1.13030659
O        0.06118527       1.97096720       1.94263968       0.06118527      -0.04605631      -0.07438383      -0.34029809       0.20738446       0.47718000
O        1.99127586      -0.05031006       2.05625853      -0.02574765      -0.05031006       0.03923501       0.16298800      -0.22869164      -0.01366008
O        2.04191145       2.02596789       0.00261074       0.02488794       0.00894437       0.00261074       0.55101708      -0.44129303       0.33628854
Ba      -0.04877881       0.02656276       4.03792206      -0.04877881       0.02656276       0.00387503       0.63914022      -0.33814644      -0.02740511
Ti       2.04091485       2.01625708       6.02725938       0.02389134      -0.00076643      -0.02381116      -0.83351110      -0.25854661       1.09478756
O        0.07315248       1.90350442       6.17842325       0.07315248      -0.11351909       0.12735271      -1.03810048       0.50130873      -0.83114219
O        2.08306790      -0.11375145       5.96855350       0.06604439      -0.11375145      -0.08251704       0.02402046       0.00991747       0.61989272
O        1.92993725       1.88154984       4.09930574      -0.08708626      -0.13547367       0.06525871       0.51117989       0.73920469      -0.99246273
Ba      -0.00150080       4.02448318       0.02161680      -0.00150080      -0.00956385       0.02161680       0.33919772      -0.12669997      -0.29255235
Ti       2.02118373       6.07677445       2.04654622       0.00416022       0.02570391       0.02952271       0.17150437       1.09838041      -0.58200795
O       -0.05906711       6.09161271       1.99633030      -0.05906711       0.04054217      -0.02069321      -0.22870229      -0.43564466       0.33218405
O        1.93946377       3.93269157       2.04459807      -0.07755975      -0.10135545       0.02757456       0.43685378       0.63677350       0.35136895
O        2.04960733       6.01705086       0.05077627       0.03258381      -0.03401968       0.05077627       0.04218102      -0.22838296       0.31162753
Ba      -0.08857309       4.07046357       4.05397499      -0.08857309       0.03641654       0.01992796       0.40436257      -0.22768823      -0.04371349
Ti       2.03861406       5.98908594       6.00642774       0.02159054      -0.06198460      -0.04464280      -0.37072358       1.11380888       0.27937340
O        0.05976053       6.00006858       6.09185399       0.05976053      -0.05100196       0.04078344      -1.07644871       0.10001879      -0.05410994
O        1.96649964       3.89970348       6.07650422      -0.05052388      -0.13434355       0.02543368       0.40681609       0.86291563      -0.41459464
O        1.91954091       6.00187316       4.08391579      -0.09748260      -0.04919738       0.04986877       0.20037789      -0.50447819      -0.48396242
Ba       4.04562025       0.00263830       0.02057145       0.01157322       0.00263830       0.02057145      -0.46989435      -0.05707612      -0.10290195
Ti       6.03548471       1.98492172       1.96757902      -0.01558583      -0.03210180      -0.04944449       0.33715169      -0.36128705      -0.14181437
O        4.08373805       2.04592653       2.05366545       0.04969102       0.02890301       0.03664194      -0.00304710      -0.15976582      -0.05354373
O        6.09430295      -0.03173694       1.88825375       0.04323241      -0.03173694      -0.12876976      -0.47704781       0.56759102       0.38253380
O        6.10373166       2.09247310       0.01028781       0.05266112       0.07544958       0.01028781      -0.51890169      -0.14094534      -0.43497753
Ba       4.08126909       0.02108389       4.07696962       0.04722206       0.02108389       0.04292259      -0.57456323      -0.27127141      -0.30393624
Ti       6.03668148       1.99291077       6.00453634      -0.01438906      -0.02411274      -0.04653420       0.36553918       0.02070485       0.52951614
O        4.05523833       2.03662300       6.00182149       0.02119130       0.01959948      -0.04924905       0.90898106      -0.09749815       0.07135275
O        6.06485755       0.06593020       6.04653330       0.01378701       0.06593020      -0.00453724      -0.22858120      -0.21658944       0.12086010
O        6.13938678       1.92282803       3.92276588       0.08831624      -0.09419548      -0.11128114      -0.23088321       0.62308326       0.92319842
Ba       4.08545950       4.03405121       0.00806506       0.05141247       0.00000419       0.00806506      -0.51865673      -0.03552210      -0.23217747
Ti       6.08357410       6.04359775       1.97946190       0.03250356      -0.00747279      -0.03756161       0.46133957       0.35226643      -0.23221524
O        3.92532248       6.11284162       2.17460259      -0.10872455       0.06177108       0.15757907       0.56564865      -0.57630043      -0.57888143
O        6.06435963       4.10710846       1.99185778       0.01328909       0.07306143      -0.02516573      -0.22659326      -0.28028263       0.33177885
O        6.00108252       6.04863717      -0.01976871      -0.04998802      -0.00243337      -0.01976871      -0.12887732      -0.03789664       0.05847488
Ba       3.98231573       4.03528114       3.96881121      -0.05173130       0.00123411      -0.06523581       0.27895255       0.12976206       0.43937544
Ti       6.04561596       6.05842913       6.01681465      -0.00545458       0.00735859      -0.03425589       0.08396439      -0.56502629       0.10175120
O        4.00723564       5.99195979       6.01898802      -0.02681138      -0.05911075      -0.03208252       0.58709348      -0.03252909       0.17000307
O        6.03944079       4.07449007       5.92537177      -0.01162975       0.04044304      -0.12569877       0.13570902      -0.42498441       0.34378265
O        5.99909285       6.13449080       4.08592068      -0.05197769       0.08342026       0.05187366       0.35420279      -0.18206581      -0.29034535
40
Lattice="8.068094053620344 -2.1964715756072374e-18 -3.57858694001601e-18 1.423320202482727e-17 8.068094053620344 -1.6494814640004157e-15 -1.8675508390931994e-17 -2.4390007123341064e-15 8.068094053620339" Properties=species:S:1:pos:R:3:u_disp:R:3:forces:R:3 system=batio3_cubic model=mace_mp0 T=100.0 seed=1 supercell=2x2x2 source="SSCHA free-energy-Hessian ensemble (final auxiliary dyn)" index=100 pair=50 energy=-318.9210156871237 pbc="T T T"
Ba      -0.00214310       0.05766644       0.02009954      -0.00214310       0.05766644       0.02009954      -0.09278991      -0.45701398      -0.09524397
Ti       1.92628680       2.02540987       2.04386989      -0.09073672       0.00838635       0.02684638       0.15418970      -0.51950548       0.15818487
O        0.05175061       2.05992238       2.02302714       0.05175061       0.04289887       0.00600363       0.40396319      -0.39348400       0.13922823
O        2.03330003      -0.06427971       2.00226776       0.01627651      -0.06427971      -0.01475576      -0.20325935       1.65100554       0.42402551
O        2.10066304       2.08210531      -0.01570290       0.08363953       0.06508179      -0.01570290       0.02521524      -0.49799066       0.31526175
Ba      -0.01141670       0.03617753       4.06934514      -0.01141670       0.03617753       0.03529811       0.09314033      -0.21695553      -0.18601392
Ti       2.03012482       1.98684545       6.09129150       0.01310131      -0.03017806       0.04022096      -0.96139486      -0.01991361       0.08040640
O        0.07459164       2.11025195       6.05147157       0.07459164       0.09322843       0.00040103       0.34849650      -0.08876629       0.03098842
O        1.88257766       0.05990056       6.00369448      -0.13444585       0.05990056      -0.04737606       0.72510077       0.41804729       0.44130440
O        2.09634488       2.04704126       4.01160518       0.07932137       0.03001775      -0.02244185      -0.31843583       0.06707992      -0.03854191
Ba       0.00239261       4.03714418      -0.06210873       0.00239261       0.00309715      -0.06210873      -0.26926701       0.24760069       0.39945521
Ti       1.98820278       5.98567435       1.91486398      -0.02882073      -0.06539619      -0.10215953       0.16671124       1.02087500       0.39360588
O       -0.07508109       6.02927692       1.92691778      -0.07508109      -0.02179362      -0.09010574      -0.41344949       0.26553013       0.81028022
O        1.91515792       4.10804408       2.04831478      -0.10186559       0.07399705       0.03129127       0.39870417      -1.53464694      -0.01468066
O        1.92017789       6.08450482       0.09849468      -0.09684563       0.03343428       0.09849468       0.29426413      -0.07564415      -1.28682549
Ba       0.09211361       4.02954242       4.08110790       0.09211361      -0.00450460       0.04706087      -0.46111042       0.00175729      -0.32150798
Ti       1.97663375       6.02310692       5.96342395      -0.04038976      -0.02796362      -0.08764659       0.31533201      -0.06478187       0.01392060
O       -0.07035315       6.04009066       6.01588975      -0.07035315      -0.01097988      -0.03518079      -0.06878553       0.02261917       0.14969457
O        2.09356456       4.07995851       6.16921200       0.07654105       0.04591149       0.11814146      -0.31436383      -0.07896242      -0.63770240
O        1.94064396       6.01910572       4.13691776      -0.07637955      -0.03196482       0.10287073      -0.12366073       0.08560164      -0.45104579
Ba       4.05601445      -0.08732675       0.00449947       0.02196743      -0.08732675       0.00449947      -0.09869426       0.16065393       0.13027763
Ti       5.98615741       2.02680863       1.95125586      -0.06491313       0.00978511      -0.06576766      -0.07857056       0.39788061      -0.48204158
O        4.09289718       2.10316964       2.16593764       0.05885016       0.08614612       0.14891413       0.16272980      -0.41345618      -0.83064630
O        6.06016226      -0.01052726       1.95780066       0.00909172      -0.01052726      -0.05922285      -0.27153598       0.30422360       0.22743274
O        6.09136817       2.14047876       0.05114231       0.04029763       0.12345525       0.05114231      -0.35918002      -0.55214386       0.30138387
Ba       4.00501178      -0.01218062       4.05500864      -0.02903525      -0.01218062       0.02096161      -0.11736927      -0.07041141      -0.40906416
Ti       6.00456805       2.05286974       5.99537539      -0.04650249       0.03584623      -0.05569515       0.65326542      -0.68631529       0.47042014
O        4.13193316       2.09111729       6.00625369       0.09788614       0.07409378      -0.04481685      -0.64677783      -0.44683808       0.28655626
O        6.12943915      -0.00547747       6.24780475       0.07836861      -0.00547747       0.19673421      -0.52470534       0.39224743      -0.82235397
O        6.12609099       1.92913119       4.14003570       0.07502045      -0.08789232       0.10598867      -0.09986041       0.32753854      -0.41537027
Ba       3.97633740       4.07050123      -0.00398205      -0.05770963       0.03645420      -0.00398205       0.48627108       0.06620853       0.17925702
Ti       6.08522574       6.04843658       2.08146414       0.03415520      -0.00263396       0.06444062       0.57946967      -0.19554327      -1.27741343
O        3.92416622       6.00101249       2.00402336      -0.10988081      -0.05005805      -0.01300015       0.93249612       0.01915478       0.28673432
O        6.12225154       4.00548031       2.02893222       0.07118100      -0.02856671       0.01190871      -0.37259761       0.08022354       0.66404478
O        6.03013457       5.95610153       0.00505576      -0.02093597      -0.09496901       0.00505576      -0.47958868       0.33545643      -0.37632353
Ba       4.09062043       3.97495475       3.99471424       0.05657340      -0.05909228      -0.03933279      -0.39654516       0.63671335       0.10559443
Ti       6.05685675       6.01140215       6.01953664       0.00578621      -0.03966839      -0.03153390       0.68494488       0.66500387       1.19040562
O        3.88597943       6.18235801       5.96706274      -0.14806760       0.13128747      -0.08400780       1.12144560      -0.34873255       0.59833309
O        6.08481958       4.08848106       6.06090592       0.03374904       0.05443404       0.00983538      -0.50587149      -0.20764036      -0.46131841
O        6.06716444       6.13325728       4.01294941       0.01609390       0.08218674      -0.02109762      -0.36792630      -0.29667533       0.30929782
40
Lattice="8.068094053620344 -2.1964715756072374e-18 -3.57858694001601e-18 1.423320202482727e-17 8.068094053620344 -1.6494814640004157e-15 -1.8675508390931994e-17 -2.4390007123341064e-15 8.068094053620339" Properties=species:S:1:pos:R:3:u_disp:R:3:forces:R:3 system=batio3_cubic model=mace_mp0 T=100.0 seed=1 supercell=2x2x2 source="SSCHA free-energy-Hessian ensemble (final auxiliary dyn)" index=170 pair=85 energy=-318.87775070818276 pbc="T T T"
Ba      -0.01218911      -0.08670460       0.02403627      -0.01218911      -0.08670460       0.02403627       0.18430603       0.57345429      -0.08187383
Ti       2.06516369       2.03387837       2.00069130       0.04814018       0.01685485      -0.01633221      -0.97079190      -0.10568508       0.74525671
O        0.02669844       2.11405228       2.01289885       0.02669844       0.09702877      -0.00412466      -1.33235590      -0.43794487       0.29083246
O        1.96043745       0.10451729       2.07399116      -0.05658606       0.10451729       0.05696764       0.27539108      -0.84922839      -0.33327490
O        1.92282625       2.03889018       0.06525593      -0.09419727       0.02186667       0.06525593       0.77173703      -0.11432491      -1.01384161
Ba      -0.07427655      -0.00716858       4.03193928      -0.07427655      -0.00716858      -0.00210775       0.85214778       0.08522550      -0.02818711
Ti       1.99949494       2.05289428       6.10934512      -0.01752858       0.03587076       0.05827458      -0.40851882       0.15363583      -1.02659977
O        0.02888789       1.99263879       6.02039685       0.02888789      -0.02438472      -0.03067369      -0.07620362      -0.15887162       0.17971104
O        2.01661294      -0.08646569       6.06427814      -0.00041057      -0.08646569       0.01320760       0.04465069       0.67148864      -0.00720838
O        2.02359498       1.98221211       4.04791704       0.00657147      -0.03481140       0.01387001      -0.00850671       0.38709628       0.44766403
Ba       0.01220056       4.06214631       0.00515611       0.01220056       0.02809929       0.00515611       0.07989620      -0.27800428       0.05814429
Ti       2.02304064       6.07045002       2.03253620       0.00601712       0.01937948       0.01551269      -0.16374671      -0.60100712      -0.39695528
O       -0.04199310       6.17330856       1.96891107      -0.04199310       0.12223802      -0.04811245       0.76218567      -0.60734374       0.95557202
O        1.96840402       4.09977737       1.96880131      -0.04861949       0.06573035      -0.04822220       0.52203410       0.16258238       0.41197979
O        1.96180866       6.04071325       0.01326721      -0.05521485      -0.01035729       0.01326721       0.46613163       0.21115332       0.34982705
Ba       0.00184142       4.03037138       4.00406857       0.00184142      -0.00367565      -0.02997846       0.15501752      -0.02506850       0.11430558
Ti       2.06722436       6.06221413       6.02119703       0.05020085       0.01114359      -0.02987351       0.04205130       0.24185059       0.39171575
O        0.03037359       5.99058060       6.10473647       0.03037359      -0.06048994       0.05366593      -0.55709624       0.41126659      -0.27087780
O        2.11909723       4.04660362       6.00114816       0.10207371       0.01255660      -0.04992238      -0.46349672      -0.94205339       0.47325635
O        2.05300908       6.01539197       4.02084705       0.03598557      -0.03567857      -0.01319997      -0.22477920       0.29160278      -0.16396830
Ba       3.96879931       0.04259978       0.00212670      -0.06524771       0.04259978       0.00212670       0.10152950      -0.44696631      -0.02845001
Ti       6.04599058       1.93473294       2.05494813      -0.00507996      -0.08229057       0.03792462       0.58926365       0.42313750      -0.65642448
O        4.03207239       1.95712905       2.10610376      -0.00197464      -0.05989447       0.08908025       0.23262340       0.46680715      -0.64771208
O        6.05310013      -0.02615765       2.01113843       0.00202959      -0.02615765      -0.00588509      -0.09731072       1.21627780       0.27763379
O        5.97396598       1.99198091      -0.01573079      -0.07710456      -0.02504260      -0.01573079       0.33396458       0.05488206       0.49598910
Ba       4.05241388       0.05617034       3.96879099       0.01836686       0.05617034      -0.06525604      -0.60468747      -0.57640235       0.59817149
Ti       6.01942678       1.99005634       6.03128359      -0.03164376      -0.02696718      -0.01978695       0.30347435       0.82191045       0.81639517
O        4.02154961       1.98750061       6.09413742      -0.01249741      -0.02952290       0.04306688       0.18570092       0.04597720      -0.12038044
O        5.97119836      -0.06453265       6.14917542      -0.07987218      -0.06453265       0.09810488       0.62982003       0.48873912      -0.11707042
O        5.99639104       1.98581702       4.04664885      -0.05467950      -0.03120649       0.01260183       0.32075396      -0.28091902       0.13390764
Ba       4.13884289       4.02460710      -0.03672316       0.10479586      -0.00943993      -0.03672316      -0.53421097       0.22080048       0.24855339
Ti       6.02324982       6.01070602       1.95843216      -0.02782072      -0.04036452      -0.05859136       0.13694610      -0.32939067       0.97821334
O        4.05799780       6.09024328       2.02618892       0.02395077       0.03917274       0.00916540      -0.83777277       0.20703080       0.01343518
O        5.94062391       4.06280518       2.17207749      -0.11044663       0.02875815       0.15505397       0.55253617      -0.45752073      -0.41812941
O        6.11969719       5.94393617       0.19994160       0.06862665      -0.10713437       0.19994160      -0.49008279       0.24818080      -2.16608355
Ba       4.04909111       4.03350628       4.05803781       0.01504408      -0.00054075       0.02399079      -0.20394228       0.13213930      -0.02963660
Ti       6.09590392       6.09816199       6.00548150       0.04483338       0.04709145      -0.04558904      -0.20971564      -0.64328804      -0.31790795
O        4.04660680       6.05989096       6.12854302       0.01255977       0.00882042       0.07747248       0.18840740      -0.29201610       0.07506276
O        6.17123109       3.98866784       6.07007682       0.12016055      -0.04537919       0.01900628      -0.81469517      -0.34287947      -0.02830169
O        6.02134304       6.08312567       4.18109498      -0.02972750       0.03205513       0.14704795       0.26734455      -0.02632426      -0.20274331
40
Lattice="8.068094053620344 -2.1964715756072374e-18 -3.57858694001601e-18 1.423320202482727e-17 8.068094053620344 -1.6494814640004157e-15 -1.8675508390931994e-17 -2.4390007123341064e-15 8.068094053620339" Properties=species:S:1:pos:R:3:u_disp:R:3:forces:R:3 system=batio3_cubic model=mace_mp0 T=100.0 seed=1 supercell=2x2x2 source="SSCHA free-energy-Hessian ensemble (final auxiliary dyn)" index=215 pair=107 energy=-318.9670307106079 pbc="T T T"
Ba       0.03188968       0.06594177      -0.04106325       0.03188968       0.06594177      -0.04106325      -0.45998772      -0.47394534       0.20648414
Ti       2.03881298       2.00878055       1.95622420       0.02178946      -0.00824296      -0.06079932      -0.43332711      -0.71286198      -0.61172277
O       -0.03287632       1.97015951       2.04815396      -0.03287632      -0.04686400       0.03113045       0.76283938       0.33671716       0.69019999
O        2.01062809       0.00750513       1.98757929      -0.00639543       0.00750513      -0.02944422      -0.12420189       0.80470357       0.32191855
O        1.87543439       2.05952721       0.02619007      -0.14158912       0.04250369       0.02619007       0.84184296       0.10159024       0.55817706
Ba       0.00268368      -0.02714492       3.98822312       0.00268368      -0.02714492      -0.04582390      -0.10274739       0.10794726       0.24291706
Ti       2.03806558       2.03115893       5.95454891       0.02104207       0.01413542      -0.09652163       0.62518824       0.09513886       0.60471242
O       -0.09330751       1.96465756       6.00235496      -0.09330751      -0.05236595      -0.04871558       1.41653527       0.24259803      -0.24768824
O        2.01710206      -0.05797549       6.09909954       0.00007855      -0.05797549       0.04802900       0.07398922       1.21562486      -0.45722674
O        2.18861347       2.11658947       4.08232221       0.17158996       0.09956595       0.04827518      -1.05093837      -0.45184083      -0.00203417
Ba      -0.03596961       4.01912255       0.02901552      -0.03596961      -0.01492447       0.02901552       0.00587235       0.07187236      -0.11454423
Ti       2.01208559       5.98777347       2.05447993      -0.00493793      -0.06329707       0.03745641       0.67925705       0.48780572       0.02647667
O       -0.10381619       6.01407023       1.96702449      -0.10381619      -0.03700031      -0.04999902       0.24713047       0.39180426       0.71223421
O        1.94164971       4.12427095       2.03507817      -0.07537381       0.09022393       0.01805465       0.14233451      -1.31606322      -0.10078205
O        2.01550870       6.01585302      -0.00657288      -0.00151481      -0.03521752      -0.00657288      -0.01607006       0.04530123       0.08270409
Ba      -0.00385886       4.08794853       4.08130816      -0.00385886       0.05390150       0.04726113       0.20516060      -0.31600829      -0.16967681
Ti       2.05106354       6.04621127       6.14023423       0.03404002      -0.00485927       0.08916369      -0.13312911       0.08625742       0.00177725
O        0.04743731       6.10386781       6.09275474       0.04743731       0.05279727       0.04168420      -1.10288496      -0.41913685      -0.39990116
O        2.06230251       4.07143687       6.07689112       0.04527900       0.03738985       0.02582058      -0.40963262      -1.07484860      -0.11838626
O        1.99028263       6.00918192       4.02309876      -0.02674088      -0.04188862      -0.01094827      -0.11254246       0.34770623      -0.40829060
Ba       4.04725171      -0.05220985      -0.00286730       0.01320468      -0.05220985      -0.00286730       0.25675106       0.15863803       0.05309725
Ti       6.02515245       2.00822752       2.03929196      -0.02591809      -0.00879599       0.02226844       0.40834338      -0.67940226      -0.93782721
O        4.05872795       2.01060841       2.03135090       0.02468093      -0.00641511       0.01432739      -1.19016940       0.43395176      -0.35624685
O        5.91822769       0.01249434       2.07821532      -0.13284285       0.01249434       0.06119181       0.55573357      -0.47049746       0.32812562
O        6.15143463       1.92136198       0.09698529       0.10036409      -0.09566153       0.09698529      -0.62564283       0.76405099      -0.02632240
Ba       3.99311088       0.01148941       4.04107509      -0.04093615       0.01148941       0.00702806       0.20071350      -0.23260467       0.06215107
Ti       6.06391123       2.03417332       5.96950145       0.01284069       0.01714981      -0.08156909      -0.23184973      -1.11460547       0.34427435
O        4.04069847       2.00349392       6.13578285       0.00665144      -0.01352959       0.08471231      -1.07059743       0.21538387      -0.00838365
O        5.94374470       0.05150496       6.01633457      -0.10732584       0.05150496      -0.03473597       0.53385890      -0.84434441       0.06594817
O        5.95911565       2.06462548       4.06171549      -0.09195489       0.04760196       0.02766846       0.31849520      -0.13596574      -0.22327076
Ba       4.05748826       3.99027099      -0.02363207       0.02344123      -0.04377604      -0.02363207       0.01504780       0.20250825       0.09514240
Ti       6.06917816       6.02071429       2.09602333       0.01810762      -0.03035625       0.07899982      -0.13428065       0.51985807      -1.24677234
O        3.96969425       6.01494213       1.97247744      -0.06435277      -0.03612841      -0.04454608       0.15795152      -0.03800103       0.35260452
O        6.03935563       4.05499554       2.04402952      -0.01171491       0.02094851       0.02700601      -0.12301786       0.18370255       0.15743151
O        6.10540731       6.09873254       0.02459576       0.05433677       0.04766200       0.02459576      -0.55666709      -0.37932356      -0.53129872
Ba       4.06243291       4.07535183       4.02184885       0.02838588       0.04130480      -0.01219818      -0.26309995      -0.01325370       0.14910539
Ti       6.07698288       6.02124639       6.05477593       0.02591234      -0.02982415       0.00370539      -0.12505118       0.94010938       0.84721480
O        4.03025202       6.03616357       6.04176693      -0.00379500      -0.01490697      -0.00930361       0.46088286      -0.16259607       0.24890372
O        6.07747591       3.96768219       6.00169072       0.02640537      -0.06636483      -0.04937982      -0.12761032       1.38671920       0.54610703
O        5.99833756       6.08970011       4.12676010      -0.05273298       0.03862957       0.09271307       0.48552032      -0.30468981      -0.73733229
40
Lattice="8.068094053620344 -2.1964715756072374e-18 -3.57858694001601e-18 1.423320202482727e-17 8.068094053620344 -1.6494814640004157e-15 -1.8675508390931994e-17 -2.4390007123341064e-15 8.068094053620339" Properties=species:S:1:pos:R:3:u_disp:R:3:forces:R:3 system=batio3_cubic model=mace_mp0 T=100.0 seed=1 supercell=2x2x2 source="SSCHA free-energy-Hessian ensemble (final auxiliary dyn)" index=220 pair=110 energy=-318.8750533033533 pbc="T T T"
Ba      -0.07328080      -0.08065171      -0.01445658      -0.07328080      -0.08065171      -0.01445658       0.11491329       0.57505042       0.09160131
Ti       2.02831929       2.02474683       2.02412886       0.01129577       0.00772332       0.00710535      -0.49123957       0.17287447       0.49482811
O        0.00361224       2.03521871       1.96395681       0.00361224       0.01819520      -0.05306671       0.90102679      -0.28546574       0.18868273
O        1.99974043      -0.06538375       1.99739713      -0.01728308      -0.06538375      -0.01962639      -0.16445398       0.67054749       0.21502334
O        2.07250099       1.94315526      -0.00140899       0.05547748      -0.07386825      -0.00140899      -0.42380963       0.58357624       0.13165062
Ba      -0.00895219      -0.02255692       4.00305424      -0.00895219      -0.02255692      -0.03099279       0.08569983       0.21444441       0.25795731
Ti       2.01823312       2.03354363       6.11387106       0.00120960       0.01652012       0.06280052       0.21164408      -0.60909483      -0.20838596
O        0.05488021       1.99815321       6.04839325       0.05488021      -0.01887030      -0.00267729      -0.72290329       0.08028792       0.03799793
O        1.97852171       0.00935097       6.10090480      -0.03850180       0.00935097       0.04983426       0.23082690      -0.27144345      -0.26864356
O        2.09857540       2.05970064       3.97747134       0.08155188       0.04267713      -0.05657569      -0.25919551      -0.53711265      -0.10863245
Ba       0.09372807       4.00473455      -0.03897091       0.09372807      -0.02931248      -0.03897091      -1.05717790       0.04521045       0.48798287
Ti       2.00703445       6.08025193       1.96687925      -0.00998906       0.02918139      -0.05014426       1.11810749       0.14829330       0.64455564
O       -0.10562651       6.13408774       1.97126388      -0.10562651       0.08301720      -0.04575963       1.14352955      -0.19557750      -0.16601754
O        1.93099774       4.05037792       2.10053894      -0.08602578       0.01633089       0.08351543       0.45587901      -0.12040662      -0.75552236
O        2.14774696       6.08085607       0.03696991       0.13072345       0.02978553       0.03696991      -0.76148769      -0.40509938      -0.18174936
Ba       0.06750122       4.05866319       4.08930419       0.06750122       0.02461616       0.05525716      -0.63821250      -0.15391533      -0.35302878
Ti       1.97119628       6.06595891       6.08050018      -0.04582723       0.01488837       0.02942964       0.43855059       0.58183002      -0.99671526
O       -0.00902627       6.07851606       6.14828653      -0.00902627       0.02744552       0.09721599       0.70970179      -0.29158358      -0.00462546
O        1.94752245       4.01613633       6.03468547      -0.06950106      -0.01791070      -0.01638507       0.30138152       0.05901593       0.37758295
O        1.92634696       6.06652954       4.07152584      -0.09067656       0.01545900       0.03747881       0.11231627       0.05235410       0.04644017
Ba       4.02194596       0.08615966       0.04731225      -0.01210107       0.08615966       0.04731225       0.38513141      -0.73242895      -0.23883092
Ti       6.07327472       2.01325160       2.02726464       0.02220418      -0.00377192       0.01024113       0.17122085       0.49510924      -0.21322488
O        4.10270144       1.98204801       1.94962915       0.06865441      -0.03497550      -0.06739436      -1.24843739       0.42483626       0.36610874
O        6.03533287       0.10753043       2.04189787      -0.01573767       0.10753043       0.02487436       0.26251962      -0.92210313      -0.09435236
O        6.04164733       2.09882627      -0.00071621      -0.00942321       0.08180276      -0.00071621       0.38641711      -0.50160904      -0.93611507
Ba       4.03382712       0.05464696       4.01675999      -0.00021991       0.05464696      -0.01728704       0.00542550      -0.49606398       0.19605119
Ti       6.08634691       2.01280082       6.05568489       0.03527637      -0.00422269       0.00461435      -0.24360811       0.55048152       0.17270647
O        4.01037017       2.04242528       6.12198052      -0.02367686       0.02540177       0.07090998       0.40035956      -0.19106848      -0.55061897
O        6.09207297      -0.07560784       6.04893912       0.04100243      -0.07560784      -0.00213142      -0.33281417       1.30017812       0.15326135
O        6.06759854       2.06229828       4.04408221       0.01652800       0.04527477       0.01003518      -0.06458659      -0.21522565       0.82001752
Ba       4.00926959       4.01020085      -0.04451574      -0.02477744      -0.02384618      -0.04451574       0.61850554       0.33395969       0.37080944
Ti       6.09791029       6.02313792       2.06464457       0.04683975      -0.02793262       0.04762106      -1.10936630      -0.93241592      -0.30199547
O        4.04750411       6.14963443       2.06313289       0.01345708       0.09856389       0.04610937      -0.60771937      -0.49840151       0.26903425
O        6.11090112       4.01953574       2.02425398       0.05983058      -0.01451128       0.00723047      -0.27582305       0.72456879       0.25428694
O        5.90629409       5.89479171       0.01154056      -0.14477645      -0.15627883       0.01154056       0.66591594       1.06249711       0.11385698
Ba       3.98757587       4.00698390       4.01553163      -0.04647116      -0.02706313      -0.01851540       0.49626153       0.45452781       0.02121783
Ti       6.00997299       6.04384744       6.06503693      -0.04109755      -0.00722310       0.01396639      -0.54074648      -0.57940269       0.20103445
O        4.02964561       5.96942472       5.93891792      -0.00440141      -0.08164582      -0.11215262      -0.45075773       0.50764225       0.33397998
O        6.02264780       4.08591154       6.08203932      -0.02842274       0.05186451       0.03096878       0.43562443      -1.32635383      -0.32169219
O        6.14811301       6.01670711       4.06300296       0.09704247      -0.03436343       0.02895593      -0.25861934       0.22748667      -0.54651753
40
Lattice="8.068094053620344 -2.1964715756072374e-18 -3.57858694001601e-18 1.423320202482727e-17 8.068094053620344 -1.6494814640004157e-15 -1.8675508390931994e-17 -2.4390007123341064e-15 8.068094053620339" Properties=species:S:1:pos:R:3:u_disp:R:3:forces:R:3 system=batio3_cubic model=mace_mp0 T=100.0 seed=1 supercell=2x2x2 source="SSCHA free-energy-Hessian ensemble (final auxiliary dyn)" index=224 pair=112 energy=-318.8296455705002 pbc="T T T"
Ba       0.01313285      -0.04705396      -0.00149754       0.01313285      -0.04705396      -0.00149754       0.10483996       0.28583546       0.08546893
Ti       2.07414115       1.96255750       2.11004151       0.05711763      -0.05446601       0.09301799      -0.40649055      -0.34006720      -0.65244325
O       -0.02287614       2.02660476       1.97965930      -0.02287614       0.00958125      -0.03736421       0.41428282       0.16598182       0.40228642
O        1.96595062      -0.06277806       2.04321772      -0.05107289      -0.06277806       0.02619421       0.36624603       1.68854609      -0.07897610
O        2.03174120       2.00385093      -0.04594868       0.01471768      -0.01317258      -0.04594868      -0.43619658       0.39365455       0.18965908
Ba      -0.02413684      -0.04169609       3.99389830      -0.02413684      -0.04169609      -0.04014873       0.20755396       0.04301663       0.30841652
Ti       2.02905777       2.10289192       6.03181628       0.01203426       0.08586841      -0.01925426       1.43278083      -1.21489555       0.91614233
O       -0.10361257       2.06976688       6.03947899      -0.10361257       0.05274336      -0.01159155       1.82441691      -0.03909408      -0.21525386
O        2.06668135      -0.02472188       6.08499658       0.04965784      -0.02472188       0.03392604      -0.85527417       0.31678319      -0.24270082
O        2.10564748       1.98376622       4.05718983       0.08862396      -0.03325729       0.02314281      -0.80254738       0.18652566      -0.49770594
Ba       0.02873609       4.06523846      -0.02236772       0.02873609       0.03119143      -0.02236772      -0.30132460      -0.22335499       0.33006260
Ti       2.03199937       5.96353747       2.08181499       0.01497586      -0.08753307       0.06479147       0.26035065       0.92628746       0.36258359
O       -0.03546953       6.05665955       1.97875912      -0.03546953       0.00558901      -0.03826439      -0.11577279      -0.47305392       0.24989151
O        2.11374284       4.04427392       2.16013069       0.09671932       0.01022690       0.14310717      -0.77844126      -0.23447290      -0.58838909
O        1.97030381       6.17821781       0.02439609      -0.04671970       0.12714727       0.02439609       0.20041234      -1.18625299      -0.30859579
Ba      -0.03800028       4.08981063       3.98478261      -0.03800028       0.05576361      -0.04926442       0.15101921      -0.11222716       0.17928011
Ti       1.99224186       6.05533728       6.11563529      -0.02478166       0.00426674       0.06456475       0.43727626       1.44629743      -0.33548149
O        0.05135464       5.97774984       5.93135460       0.05135464      -0.07332070      -0.11971594      -0.20283212       0.06148383       0.71274832
O        2.06460472       4.09198631       6.01952621       0.04758120       0.05793928      -0.03154433      -0.21274319      -0.88206321       0.11058585
O        2.06751656       6.19066953       4.00872075       0.05049305       0.13959899      -0.02532627      -0.39955637      -0.87317382      -0.21056965
Ba       4.00214078       0.06866983      -0.00923054      -0.03190625       0.06866983      -0.00923054       0.09030249      -0.42597121      -0.22079872
Ti       6.07644594       2.09969742       2.05630131       0.02537540       0.08267390       0.03927780       0.62285088       0.08745202      -0.26836224
O        4.00450077       2.09249982       1.98419816      -0.02954626       0.07547630      -0.03282535       0.00859731      -0.62761354       0.13567081
O        6.10157109      -0.04639602       2.03393037       0.05050055      -0.04639602       0.01690686      -0.50875199      -0.29993757      -0.12541898
O        6.13323020       1.94933484       0.01831540       0.08215966      -0.06768867       0.01831540      -0.56667088       0.32104206      -0.07044322
Ba       3.98268871       0.00394962       4.00592620      -0.05135832       0.00394962      -0.02812082       0.43105291      -0.32191437       0.63513253
Ti       6.16989893       1.97710961       6.09446039       0.11882839      -0.03991390       0.04338985      -1.34076883      -0.21113398       0.18800077
O        3.95577233       1.92923242       6.05566837      -0.07827470      -0.08779110       0.00459783      -0.15487603       0.63671494      -0.03591914
O        6.14119843      -0.04842420       6.04143940       0.09012789      -0.04842420      -0.00963114      -0.19478114       0.31761244       0.26112444
O        6.06619139       2.03447968       4.02525695       0.01512085       0.01745617      -0.00879008      -0.13005600      -0.18273187      -0.33615446
Ba       3.98124686       4.02234928      -0.01313385      -0.05280017      -0.01169775      -0.01313385       0.44580877       0.09588462       0.07245558
Ti       6.02824533       6.11797992       2.01502061      -0.02282521       0.06690938      -0.00200290      -0.04737142      -0.05755967      -0.16855193
O        4.01560599       6.03657595       2.03495146      -0.01844104      -0.01449459       0.01792795       0.56041473       0.06481951      -0.20926220
O        6.04952399       4.02746255       2.05194400      -0.00154655      -0.00658448       0.03492048      -0.00340907      -0.37100659      -0.06593244
O        5.99519359       5.88148852      -0.05143318      -0.05587695      -0.16958202      -0.05143318       0.43247367       0.84340289       0.80540367
Ba       4.11556216       3.98544944       4.08919192       0.08151513      -0.04859759       0.05514489      -0.19781280       0.49046692       0.01037889
Ti       6.03488647       6.00225337       6.05921860      -0.01618407      -0.04881717       0.00814806      -0.65402583       0.55650594      -0.03263037
O        4.03136593       6.13246699       6.05510960      -0.00268110       0.08139645       0.00403906       0.30038502      -0.59678109       0.02643847
O        6.00262157       3.97627544       6.09511396      -0.04844897      -0.05777159       0.04404342       0.12310178       0.13607693      -0.26244149
O        6.05849193       6.06263064       4.11386456       0.00742139       0.01156010       0.07981754      -0.10446354      -0.39108469      -1.05569924
40
Lattice="8.068094053620344 -2.1964715756072374e-18 -3.57858694001601e-18 1.423320202482727e-17 8.068094053620344 -1.6494814640004157e-15 -1.8675508390931994e-17 -2.4390007123341064e-15 8.068094053620339" Properties=species:S:1:pos:R:3:u_disp:R:3:forces:R:3 system=batio3_cubic model=mace_mp0 T=100.0 seed=1 supercell=2x2x2 source="SSCHA free-energy-Hessian ensemble (final auxiliary dyn)" index=236 pair=118 energy=-318.98363270391064 pbc="T T T"
Ba      -0.00534583       0.01354252       0.01915433      -0.00534583       0.01354252       0.01915433       0.19178202      -0.10906472      -0.35617363
Ti       2.05993192       2.01371998       2.14716821       0.04290841      -0.00330353       0.13014470       0.41807734       0.42041167      -0.99844755
O       -0.03088309       1.83940222       2.10603883      -0.03088309      -0.17762130       0.08901532       0.45868264       1.03060217      -0.43645410
O        2.07197497      -0.12299660       2.00927080       0.05495146      -0.12299660      -0.00775272      -0.21345420       1.26896185      -0.17250062
O        1.98032115       2.02822718      -0.09598534      -0.03670237       0.01120366      -0.09598534       0.13288991      -0.26256253       0.57107886
Ba      -0.04523653       0.02922968       4.03693034      -0.04523653       0.02922968       0.00288331       0.32325735      -0.73404328       0.28867837
Ti       2.00062590       2.05082373       6.13002656      -0.01639761       0.03380022       0.07895602       0.34100543       0.35316178       0.38979994
O       -0.00634130       1.93948897       6.01572746      -0.00634130      -0.07753455      -0.03534308       0.52849450       0.49869994      -0.33394990
O        2.08008688      -0.00664936       6.01683622       0.06306337      -0.00664936      -0.03423432       0.03227263       0.36945899      -0.19990454
O        2.12912836       2.01315604       3.94952135       0.11210484      -0.00386748      -0.08452568      -0.81079117      -0.18753869       0.39041615
Ba      -0.01529074       4.02878140       0.02811044      -0.01529074      -0.00526563       0.02811044       0.46216415       0.06037987      -0.30043112
Ti       1.99673762       6.05186173       1.99447143      -0.02028589       0.00079119      -0.02255208       0.14439056      -0.31160652       0.37900022
O        0.08171031       5.98811513       2.03514873       0.08171031      -0.06295541       0.01812522      -1.12348097       0.37350556      -0.29726766
O        2.01869554       4.03974349       1.96901109       0.00167203       0.00569646      -0.04801242      -0.13602226      -1.35413245       0.05814139
O        1.96029012       5.96189966      -0.14408402      -0.05673340      -0.08917088      -0.14408402       0.30785568       0.33928117       1.32825637
Ba       0.01769601       3.99856807       4.03201500       0.01769601      -0.03547896      -0.00203203      -0.01123766       0.52212868       0.17456742
Ti       1.99935267       6.13009823       6.03144803      -0.01767085       0.07902769      -0.01962252       0.10590305      -0.24197934       0.10632406
O        0.15257702       6.11734842       6.04084163       0.15257702       0.06627788      -0.01022891      -1.77481595      -0.59722302      -0.41534868
O        2.11311467       3.96628468       6.03046458       0.09609115      -0.06776235      -0.02060596      -0.56122138      -0.54135043      -0.28004415
O        2.05836250       5.96178208       3.99734674       0.04133899      -0.08928846      -0.03670029       0.13869353       0.23767974      -0.22406691
Ba       4.00028248       0.02290766       0.01528138      -0.03376454       0.02290766       0.01528138       0.12616325       0.02668345      -0.31608128
Ti       6.09821594       1.99486594       2.05106369       0.04714540      -0.02215758       0.03404018      -0.30500554      -0.17988278       0.11576640
O        4.01713478       2.01164894       2.07530146      -0.01691225      -0.00537457       0.05827795      -0.12812486      -0.06410105      -0.72179086
O        6.03610045       0.02987601       1.92617441      -0.01497009       0.02987601      -0.09084910      -0.03055796      -0.65591303       0.19196750
O        6.11150227       2.03564366      -0.08107742       0.06043173       0.01862015      -0.08107742      -0.20494733       0.05222995       0.66811283
Ba       4.05473595      -0.00149341       4.01675323       0.02068892      -0.00149341      -0.01729380      -0.05449320      -0.36198482       0.28724624
Ti       6.04986171       2.04645838       6.03700536      -0.00120883       0.02943486      -0.01406518      -0.51998347      -0.28195847       0.47528013
O        4.08429879       2.02067753       6.02357830       0.05025176       0.00365402      -0.02749224      -0.12821750      -0.31439966       0.04061848
O        6.10633926      -0.01675153       6.02904065       0.05526872      -0.01675153      -0.02202989      -0.28251836      -0.79878163      -0.08769545
O        6.01381928       1.87290422       3.98224093      -0.03725126      -0.14411929      -0.05180609       0.27628871       0.70083338      -0.28814819
Ba       4.09792406       4.07638257      -0.00617216       0.06387703       0.04233555      -0.00617216      -0.61331953      -0.35156243      -0.11666053
Ti       6.04262893       6.05120962       1.99779300      -0.00844161       0.00013908      -0.01923051      -0.38974513      -0.27658163       0.82155369
O        4.01907602       6.03883841       1.86813640      -0.01497101      -0.01223213      -0.14888712       1.11467954      -0.04937426       0.33413132
O        6.08401136       4.06266742       2.06396166       0.03294082       0.02862040       0.04693814       0.06851277      -0.37721650      -0.56107955
O        6.12642952       6.10244504      -0.06491520       0.07535898       0.05137450      -0.06491520       0.08102095      -0.58722110       0.33288239
Ba       3.96427611       4.01344319       4.01960622      -0.06977091      -0.02060384      -0.01444080       0.50431154       0.39431488       0.18403946
Ti       6.01007185       6.06522039       6.08310016      -0.04099869       0.01414985       0.03202962      -0.61353142       0.62339437      -0.39422613
O        4.05184729       6.04702725       6.16963727       0.01780026      -0.00404329       0.11856673       1.39961430       0.08227646      -0.66097145
O        6.01401720       3.98204780       5.95883129      -0.03705335      -0.05199923      -0.09223925       0.61858158       0.66196348       0.20735144
O        6.02840577       5.98579397       3.98361617      -0.02266477      -0.06527657      -0.05043086       0.12682644       0.62251097      -0.18397034
40
Lattice="8.068094053620344 -2.1964715756072374e-18 -3.57858694001601e-18 1.423320202482727e-17 8.068094053620344 -1.6494814640004157e-15 -1.8675508390931994e-17 -2.4390007123341064e-15 8.068094053620339" Properties=species:S:1:pos:R:3:u_disp:R:3:forces:R:3 system=batio3_cubic model=mace_mp0 T=100.0 seed=1 supercell=2x2x2 source="SSCHA free-energy-Hessian ensemble (final auxiliary dyn)" index=293 pair=146 energy=-318.76727425873645 pbc="T T T"
Ba       0.09838577      -0.02095049      -0.00446378       0.09838577      -0.02095049      -0.00446378      -0.91851814       0.22888209       0.06734121
Ti       2.02845142       1.96278649       2.02292397       0.01142790      -0.05423702       0.00590046       0.24121073       0.12215123      -0.90851750
O        0.03316275       1.99511820       1.97282440       0.03316275      -0.02190532      -0.04419912      -0.52127686       0.21260908       0.46940609
O        2.04119127      -0.02890783       2.07908464       0.02416775      -0.02890783       0.06206112      -0.54520951       0.59127503      -0.12365627
O        2.05462575       2.07250559      -0.05996322       0.03760224       0.05548207      -0.05996322      -0.09660475      -0.27728845       1.45134994
Ba       0.05613249      -0.04441273       4.02504117       0.05613249      -0.04441273      -0.00900586      -0.71544349       0.20931338       0.08674151
Ti       1.94555999       2.00649929       5.95838885      -0.07146352      -0.01052422      -0.09268169      -0.08257858       0.50540859       1.75937301
O       -0.05684277       2.06852914       6.09883484      -0.05684277       0.05150562       0.04776430       0.49466958      -0.18086131      -0.39909482
O        1.99621561       0.11010383       6.12942077      -0.02080791       0.11010383       0.07835023       0.27451945      -1.66123625      -0.45067257
O        1.97847747       2.00336743       4.14452845      -0.03854604      -0.01365608       0.11048142      -0.09365413      -0.01398558      -1.96351935
Ba       0.01601344       4.07246460      -0.05088916       0.01601344       0.03841757      -0.05088916      -0.15736848      -0.37791296       0.03057228
Ti       1.99489631       6.00695875       2.04862728      -0.02212720      -0.04411179       0.03160377       0.34838284       0.30953342      -0.15581925
O       -0.04613369       5.98635579       1.95706270      -0.04613369      -0.06471475      -0.05996081       0.16048106       0.12820031       0.75991637
O        1.99898354       3.97706137       2.04652217      -0.01803998      -0.05698565       0.02949865       0.13388254       0.39829990       0.14142148
O        2.02673892       6.08542437       0.10609652       0.00971541       0.03435383       0.10609652       0.36006746      -0.33062981      -0.73506722
Ba       0.00000683       4.05394941       3.93631791       0.00000683       0.01990239      -0.09772912      -0.00821605      -0.30872840       0.71217671
Ti       2.04630138       6.05589952       6.05529304       0.02927787       0.00482898       0.00422250      -0.67567429      -0.60536161      -0.35850635
O        0.07929822       6.04023874       6.13381596       0.07929822      -0.01083180       0.08274542       0.20495703       0.21866650      -0.46134855
O        1.99627332       4.01689359       6.02572466      -0.02075019      -0.01715344      -0.02534588       0.31099183       1.35299146       0.20583199
O        2.03802030       6.03539666       4.05147896       0.02099679      -0.01567388       0.01743193      -0.48390148       0.14909886       0.90946441
Ba       4.02114134       0.02860012       0.00665278      -0.01290569       0.02860012       0.00665278       0.38831528      -0.02482127       0.03255684
Ti       6.07934278       2.05508738       1.97131187       0.02827224       0.03806387      -0.04571164      -0.02136405      -1.40585772      -0.18174754
O        3.96681930       1.96782406       2.07995826      -0.06722773      -0.04919945       0.06293474       0.05119503       0.30429451      -0.26215624
O        6.06481230       0.01431321       2.00464370       0.01374176       0.01431321      -0.01237982      -0.04271461       0.07142892       0.36298633
O        6.03801214       1.99249270       0.02640343      -0.01305841      -0.02453081       0.02640343      -0.24704343       0.38121799       0.48394063
Ba       4.07235234       0.04186300       4.03821631       0.03830531       0.04186300       0.00416929       0.07438341      -0.08391602       0.10199241
Ti       6.01664772       2.02615641       6.03192353      -0.03442282       0.00913290      -0.01914701       0.12072746      -0.65073076      -0.28660591
O        4.08207010       2.06137750       5.98218983       0.04802307       0.04435398      -0.06888071      -0.08319979       0.00027688       0.61587121
O        6.11026753      -0.00246663       5.98366178       0.05919699      -0.00246663      -0.06740876      -0.05434255      -0.22646216       0.31909397
O        5.95393627       1.99952960       4.06741156      -0.09713427      -0.01749391       0.03336454       0.87698175       0.36645408      -0.68208980
Ba       3.89127756       4.00839482       0.06263021      -0.14276947      -0.02565221       0.06263021       0.61807060      -0.04557638      -0.42775613
Ti       5.98296016       5.99316284       2.06931691      -0.06811038      -0.05790770       0.05229339       0.15476733       1.24633587      -1.10887636
O        3.95443672       6.14877264       2.20422832      -0.07961031       0.09770210       0.18720481       0.54431560      -0.84392050      -0.96103125
O        5.95633794       4.02174477       2.03068814      -0.09473260      -0.01230226       0.01366463       0.19996638      -0.05144971      -0.01956474
O        5.97357881       6.08656366       0.04925433      -0.07749173       0.03549312       0.04925433       0.05039796      -0.41250655      -0.15426523
Ba       4.05773341       4.03975900       4.08912641       0.02368638       0.00571197       0.05507938      -0.34391642      -0.26324824      -0.07220968
Ti       6.03379260       6.00068991       6.02773877      -0.01727794      -0.05038063      -0.02333177      -0.02836896       0.64874891       0.80185008
O        4.10576386       6.06951097       6.06925250       0.07171684       0.01844043       0.01818196      -0.90623513      -0.11092917       0.07467949
O        6.12939746       4.06010811       6.01475913       0.07832692       0.02606108      -0.03631141      -0.31299998       0.41607317       0.19006944
O        5.97791206       6.01994200       4.03093824      -0.07315848      -0.03112854      -0.00310879       0.73034737       0.01416266       0.13586938
40
Lattice="8.068094053620344 -2.1964715756072374e-18 -3.57858694001601e-18 1.423320202482727e-17 8.068094053620344 -1.6494814640004157e-15 -1.8675508390931994e-17 -2.4390007123341064e-15 8.068094053620339" Properties=species:S:1:pos:R:3:u_disp:R:3:forces:R:3 system=batio3_cubic model=mace_mp0 T=100.0 seed=1 supercell=2x2x2 source="SSCHA free-energy-Hessian ensemble (final auxiliary dyn)" index=295 pair=147 energy=-318.97689444368274 pbc="T T T"
Ba      -0.00179791       0.00049228       0.03242705      -0.00179791       0.00049228       0.03242705      -0.09180183       0.29260622      -0.18803573
Ti       2.07275375       1.96649210       2.09245001       0.05573024      -0.05053141       0.07542649       0.41779012       0.42304131      -0.62124956
O       -0.02905842       2.05081089       1.90452613      -0.02905842       0.03378738      -0.11249739       0.31944727       0.02603409       0.53080712
O        2.04444025      -0.01372412       2.01055811       0.02741674      -0.01372412      -0.00646540      -0.23761027      -0.79960679       0.09974883
O        1.96985574       2.00082883      -0.08703165      -0.04716777      -0.01619469      -0.08703165       0.23759664       0.08227424       0.41924118
Ba       0.01580273       0.04211494       4.04496046       0.01580273       0.04211494       0.01091343      -0.34215174      -0.03044369       0.10656931
Ti       2.04009373       2.03817378       6.12591218       0.02307021       0.02115027       0.07484164       0.10124885       0.36469066       0.96845361
O       -0.02611079       2.07913730       6.09119228      -0.02611079       0.06211379       0.04012174      -0.26278608      -0.29672904      -0.49978901
O        1.89858937       0.04109705       6.16331802      -0.11843415       0.04109705       0.11224748       0.43199202      -1.05398357      -0.82036159
O        2.05832172       1.96538296       3.97839479       0.04129820      -0.05164055      -0.05565224      -0.22699740       0.09162314       0.08962387
Ba      -0.06044466       4.08824043      -0.05907593      -0.06044466       0.05419340      -0.05907593       0.53020921      -0.50882796      -0.09544311
Ti       2.00213746       6.03460482       2.03261848      -0.01488606      -0.01646572       0.01559497       0.64426810       0.19562146      -0.66246050
O       -0.02872066       6.12257183       2.02068215      -0.02872066       0.07150129       0.00365863       0.79625372      -0.74660400       0.24770311
O        2.09659201       3.93022585       2.02860506       0.07956850      -0.10382118       0.01158154      -0.57720860       1.17615890       0.11580069
O        1.97808769       6.06845079      -0.02683738      -0.03893583       0.01738025      -0.02683738      -0.13054026      -0.21352948       0.82951925
Ba      -0.01234505       3.99416976       3.96515163      -0.01234505      -0.03987727      -0.06889540      -0.04532461       0.07155843       0.65759597
Ti       1.95445710       6.12985184       6.01518193      -0.06256642       0.07878130      -0.03588861       0.15481080      -0.33606525       0.63675830
O       -0.08337190       6.08566830       5.94804182      -0.08337190       0.03459776      -0.10302872       0.98407787      -0.20397241       0.27872367
O        2.01084953       4.01740455       6.10018549      -0.00617399      -0.01664248       0.04911495      -0.04595608       0.18764532      -0.58295948
O        2.03018672       6.09079209       4.10626774       0.01316321       0.03972155       0.07222071      -0.09677199      -0.20501605      -1.00922583
Ba       4.00969912      -0.04043977       0.02389353      -0.02434791      -0.04043977       0.02389353       0.18132283       0.27788072      -0.14017850
Ti       6.10256121       2.01597955       2.00139340       0.05149067      -0.00104396      -0.01563011      -0.20842638      -0.88586165      -0.06775486
O        4.04183631       1.90420415       1.90833824       0.00778928      -0.11281936      -0.10868527      -0.41100871       0.48705111       0.56557236
O        6.12835300       0.04081924       2.13262469       0.07728246       0.04081924       0.11560118      -0.39675841      -0.41441827      -0.72080293
O        6.01306902       1.96841013       0.01034235      -0.03800152      -0.04861338       0.01034235       0.30847517       0.24110181      -0.24597907
Ba       4.09714676      -0.05299990       4.00607740       0.06309973      -0.05299990      -0.02796963       0.01903148       0.32141833       0.15914908
Ti       6.06979282       1.97989593       6.09581700       0.01872228      -0.03712758       0.04474646      -0.16924899       0.28139103       0.25085999
O        4.05777702       1.88549367       6.13516127       0.02372999      -0.13152985       0.08409073      -0.35851861       0.64345790      -0.73578548
O        6.02445347       0.00477881       6.07901747      -0.02661707       0.00477881       0.02794693       0.25489720       0.04818326      -0.17523277
O        6.08763055       2.01178513       3.99051698       0.03656001      -0.00523838      -0.04353005      -0.20339499       0.39222024       0.29408461
Ba       4.03677011       4.13925403       0.04287984       0.00272308       0.10520700       0.04287984      -0.21155326      -0.88546968      -0.55419498
Ti       6.10711179       6.00744559       1.99234018       0.05604124      -0.04362495      -0.02468333      -0.65297342       0.52276616       0.41208041
O        4.04768268       5.94649113       1.97996348       0.01363565      -0.10457941      -0.03706003      -0.67411255       0.77037108       0.26705127
O        6.00889681       4.07650308       1.95352017      -0.04217373       0.04245606      -0.06350334       0.48210129      -0.03645410       0.45920763
O        6.12345072       6.05388927      -0.02264019       0.07238018       0.00281873      -0.02264019      -0.36428086       0.27423510       0.58084462
Ba       4.03580130       3.99717189       4.04482096       0.00175427      -0.03687514       0.01077393       0.18772690       0.05079754       0.25639860
Ti       6.01970014       6.07268988       6.04834259      -0.03137040       0.02161934      -0.00272795      -0.02627914      -0.31986002      -0.41267933
O        4.03588169       6.01383263       6.05689689       0.00183467      -0.03723791       0.00582635      -0.41273420       0.41080649      -0.00130166
O        6.04828545       4.03928345       6.08372894      -0.00278509       0.00523642       0.03265840      -0.17439197      -0.16094390      -0.25083978
O        5.98957122       6.10522229       4.04247696      -0.06149932       0.05415175       0.00842994       0.26958089      -0.53514866      -0.44151931
40
Lattice="8.068094053620344 -2.1964715756072374e-18 -3.57858694001601e-18 1.423320202482727e-17 8.068094053620344 -1.6494814640004157e-15 -1.8675508390931994e-17 -2.4390007123341064e-15 8.068094053620339" Properties=species:S:1:pos:R:3:u_disp:R:3:forces:R:3 system=batio3_cubic model=mace_mp0 T=100.0 seed=1 supercell=2x2x2 source="SSCHA free-energy-Hessian ensemble (final auxiliary dyn)" index=301 pair=150 energy=-318.8482218101712 pbc="T T T"
Ba       0.00144308       0.01260262       0.01544114       0.00144308       0.01260262       0.01544114       0.28142923      -0.04620162       0.11012123
Ti       2.07463785       2.09059328       1.95337645       0.05761433       0.07356976      -0.06364707      -0.44478110      -0.69334127       0.69547422
O        0.03392365       1.98171146       1.98497812       0.03392365      -0.03531205      -0.03204539      -0.90101459       0.39582569      -0.21230366
O        2.02915991      -0.04622136       1.90471197       0.01213640      -0.04622136      -0.11231154      -0.01546401      -0.76576098       0.49216711
O        2.06305012       2.10457487       0.09386939       0.04602661       0.08755135       0.09386939      -0.09977687      -0.32026887      -1.71386514
Ba      -0.00783735       0.03809527       4.04383382      -0.00783735       0.03809527       0.00978679      -0.13951887      -0.01552129      -0.41837034
Ti       1.98431948       2.04784273       6.01738964      -0.03270403       0.03081922      -0.03368090      -0.71717775      -1.03241762      -0.55554518
O        0.05591101       1.91517032       5.96317068       0.05591101      -0.10185319      -0.08789986       0.23490843       0.57342197       1.04302413
O        2.08335115       0.00384844       6.06058837       0.06632764       0.00384844       0.00951783      -0.18828529      -0.43375277       0.21447200
O        1.91336400       1.91697412       3.95631006      -0.10365951      -0.10004940      -0.07773696       0.81567432       0.60824001       1.23377938
Ba       0.03969628       4.05199535      -0.07017448       0.03969628       0.01794832      -0.07017448      -0.24396988      -0.06802751       0.53467924
Ti       1.99490336       6.03566291       2.13329466      -0.02212016      -0.01540763       0.11627115      -0.20389568       0.86092522      -1.76236307
O       -0.00546535       5.92283407       2.07684232      -0.00546535      -0.12823647       0.05981880      -0.00485492       0.48254925      -0.01850153
O        2.02926941       4.00689587       2.04356933       0.01224590      -0.02715115       0.02654581       0.20099068       0.73052071       0.22439121
O        1.93308535       5.95274276      -0.01438312      -0.08393816      -0.09832778      -0.01438312       0.31380344       0.26753534      -0.62944927
Ba      -0.01243549       3.96813627       4.07141730      -0.01243549      -0.06591076       0.03737028      -0.21469988       0.04062140      -0.40030857
Ti       2.03188559       6.03460594       6.01044005       0.01486208      -0.01646460      -0.04063049      -0.18727213       0.92294166       1.65755340
O        0.00597418       6.12220603       5.93903092       0.00597418       0.07113549      -0.11203962       0.50623224      -0.60891054       0.66517183
O        2.01865174       4.00282813       6.06508421       0.00162823      -0.03121890       0.01401367       0.05404127       0.06412738      -0.52811879
O        2.00398176       6.08507638       4.01852078      -0.01304175       0.03400584      -0.01552625       0.36356685      -0.33294693       0.45034996
Ba       4.05903051      -0.09665430       0.04948064       0.02498348      -0.09665430       0.04948064      -0.41831588       0.38989919       0.05050180
Ti       6.04819860       2.06942420       2.00900486      -0.00287194       0.05240069      -0.00801865       0.15282136      -0.56978751       0.27166417
O        4.06987268       2.06848560       2.03828154       0.03582566       0.05146208       0.02125803      -0.15677665      -0.25818175       0.22476365
O        5.98692121       0.01810796       2.05323444      -0.06414933       0.01810796       0.03621092       0.52739556      -0.16913691      -0.11758578
O        5.95945609       2.11883051       0.04066257      -0.09161445       0.10180700       0.04066257       0.45955672      -0.53975030      -0.94351748
Ba       3.99373585      -0.00113762       4.08422974      -0.04031118      -0.00113762       0.05018271       0.32186158       0.15691935      -0.62207932
Ti       5.92315952       2.02207917       6.06171464      -0.12791102       0.00505565       0.01064410       0.62477110       0.15241337      -0.66709836
O        3.99761652       1.94135951       5.96890211      -0.03643051      -0.07566400      -0.08216843       0.82602715       0.56417220       0.33455721
O        6.10432545      -0.04468931       6.04948456       0.05325491      -0.04468931      -0.00158598      -0.49562964       0.87689906       0.46581171
O        6.12330426       2.03259696       4.06743782       0.07223372       0.01557345       0.03339079      -0.57520738      -0.02566501       0.27600225
Ba       4.05832667       4.05009191      -0.05078034       0.02427964       0.01604488      -0.05078034      -0.20487014       0.21011770       0.45701188
Ti       6.05562087       6.03721048       2.00882224       0.00455033      -0.01386006      -0.00820127      -0.13429477       0.43187633       0.04637831
O        4.07723358       6.10214011       2.02369426       0.04318655       0.05106957       0.00667075      -0.54161677      -0.58874805       0.22759791
O        5.95225760       4.03332205       2.05908219      -0.09881295      -0.00072497       0.04205867       0.54692243       0.24726490       0.05308482
O        6.05851673       6.07102922       0.06856774       0.00744619       0.01995868       0.06856774       0.33179318      -0.22722389      -0.13993536
Ba       4.03072857       4.08572322       4.00122099      -0.00331846       0.05167619      -0.03282603       0.32407914      -0.34827466       0.04180409
Ti       6.08834065       6.09116291       6.04585727       0.03727011       0.04009237      -0.00521327      -0.02312569       0.00705114      -0.77161648
O        4.06718552       6.03357408       6.11320621       0.03313849      -0.01749646       0.06213567      -0.71496103      -0.08121127      -0.28926402
O        6.09218700       4.02756874       5.99603727       0.04111646      -0.00647829      -0.05503327      -0.22166716      -0.64333261       0.56344696
O        6.01369634       6.07725969       4.13442820      -0.03737420       0.02618915       0.10038117      -0.03869860      -0.21486054      -0.54388609
40
Lattice="8.068094053620344 -2.1964715756072374e-18 -3.57858694001601e-18 1.423320202482727e-17 8.068094053620344 -1.6494814640004157e-15 -1.8675508390931994e-17 -2.4390007123341064e-15 8.068094053620339" Properties=species:S:1:pos:R:3:u_disp:R:3:forces:R:3 system=batio3_cubic model=mace_mp0 T=100.0 seed=1 supercell=2x2x2 source="SSCHA free-energy-Hessian ensemble (final auxiliary dyn)" index=388 pair=194 energy=-318.8776576795168 pbc="T T T"
Ba       0.00118915      -0.00874518      -0.04512056       0.00118915      -0.00874518      -0.04512056      -0.18106870      -0.04447966       0.32144015
Ti       2.08510550       2.04893146       2.04890006       0.06808198       0.03190795       0.03187655      -0.09412714      -0.32749182       0.80850811
O        0.09895454       1.97390820       2.05930139       0.09895454      -0.04311531       0.04227787      -0.50087033       0.51060963      -0.11728304
O        2.02871927      -0.01615387       1.95926969       0.01169576      -0.01615387      -0.05775383       0.01689839       0.06762729       0.00826564
O        2.11621675       2.07080027      -0.01644934       0.09919324       0.05377676      -0.01644934      -0.72441925      -0.58970292       0.17066344
Ba      -0.12805093       0.05274674       4.00217453      -0.12805093       0.05274674      -0.03187250       0.96276825      -0.53639625       0.17130660
Ti       2.07407621       1.93134234       6.12930164       0.05705270      -0.08568118       0.07823110      -0.43368663       1.16767741      -0.63861884
O       -0.03177579       1.83898349       6.06585381      -0.03177579      -0.17804003       0.01478327       0.92984724       0.77524395       0.00796225
O        2.06708860      -0.11478539       5.99604314       0.05006508      -0.11478539      -0.05502740      -0.05691359       0.85293224       0.31894934
O        2.10878168       2.03646477       4.02136779       0.09175816       0.01944126      -0.01267924      -0.18443164      -0.34393223       0.05111414
Ba      -0.04379151       4.05767201      -0.01334732      -0.04379151       0.02362499      -0.01334732       0.33813342      -0.26900435      -0.05461917
Ti       2.03310295       6.04852525       2.00535135       0.01607943      -0.00254529      -0.01167216       0.26170615       0.43674073       0.56709598
O       -0.06105998       6.03099428       1.96464692      -0.06105998      -0.02007626      -0.05237659      -0.05208383       0.01198573      -0.10626976
O        2.04660184       4.04578771       2.03266596       0.02957833       0.01174068       0.01564245      -0.05177516      -0.52880382      -0.32468002
O        2.14156011       5.97420555      -0.02866702       0.12453660      -0.07686499      -0.02866702      -0.76261340       0.29074752      -0.17895831
Ba       0.07952101       4.03149160       4.05718665       0.07952101      -0.00255543       0.02313962      -0.06883121      -0.05072149       0.05301176
Ti       2.06454007       6.04308193       6.05970178       0.04751656      -0.00798861       0.00863124      -0.31147484      -0.63522344      -0.12050888
O       -0.06110834       5.99046480       6.12475565      -0.06110834      -0.06060574       0.07368511       0.02922637       0.09933891      -0.25689173
O        2.02523575       3.97109534       6.00416657       0.00821224      -0.06295169      -0.04690397      -0.40939800      -0.09008564       0.16276755
O        1.97632678       5.98796900       3.96284428      -0.04069673      -0.06310154      -0.07120275      -0.06113488       0.28417746       0.36840511
Ba       4.02312957       0.00851478       0.01249675      -0.01091745       0.00851478       0.01249675       0.50421200      -0.14330749       0.35011253
Ti       6.13394126       2.06277948       2.01006395       0.08287072       0.04575597      -0.00695957      -0.71629186      -0.67185625      -0.63228524
O        4.12298977       1.97131075       2.13793692       0.08894274      -0.04571276       0.12091341      -0.55925663       0.35110479      -0.77828338
O        6.07193742       0.07892493       2.04438922       0.02086688       0.07892493       0.02736571       0.04392113      -0.83740923      -0.29222907
O        6.12499896       1.98902030      -0.00354193       0.07392842      -0.02800321      -0.00354193      -0.14255238       0.21880250       0.70447098
Ba       4.07252183       0.02808827       4.02015500       0.03847481       0.02808827      -0.01389203      -0.25099443      -0.20014728      -0.12890584
Ti       6.04435959       2.04212183       6.01323696      -0.00671095       0.02509831      -0.03783358       0.68629022      -0.39680610       0.48005476
O        4.01702836       2.07485762       6.24908435      -0.01701867       0.05783411       0.19801381       0.19616648      -0.78172458      -1.15459805
O        6.12192677      -0.02050913       6.02555702       0.07085623      -0.02050913      -0.02551352      -1.01364000      -0.98763712       0.16391103
O        6.03585297       1.94880439       4.09802073      -0.01521757      -0.06821912       0.06397370       0.07874719       0.52636442      -0.33420956
Ba       3.96848489       3.99407087      -0.01339061      -0.06556214      -0.03997616      -0.01339061       0.52182281       0.25192932       0.35360872
Ti       6.04629921       6.03369536       2.05868506      -0.00477133      -0.01737518       0.04166155       0.08306065       0.19310228       0.03735141
O        4.00342431       6.08567173       2.05630280      -0.03062272       0.03460119       0.03927929       0.29639127      -0.07805048      -0.13160185
O        6.02812236       4.01625486       1.98677211      -0.02294818      -0.01779217      -0.03025141       0.26994586       0.10093781       0.23543571
O        5.91940854       5.99742405      -0.02603911      -0.13166200      -0.05364649      -0.02603911       0.30465742       0.18252936      -0.39030599
Ba       4.03952417       4.08467577       4.06302338       0.00547715       0.05062874       0.02897636      -0.15297646      -0.46633864      -0.29149079
Ti       6.02827306       6.01847827       6.09770512      -0.02279748      -0.03259227       0.04663458       0.80535528       0.62716770       0.26088066
O        3.98118295       5.93156135       6.01191703      -0.05286407      -0.11950919      -0.03915351       0.63800081       0.40835921      -0.05363664
O        6.13812544       3.95959203       5.97591145       0.08705490      -0.07445500      -0.07515909      -0.40927966       0.56297273       0.30086018
O        6.01179668       6.02404787       3.98335791      -0.03927386      -0.02702267      -0.05068912       0.17066911       0.05876778       0.08920010
40
Lattice="8.068094053620344 -2.1964715756072374e-18 -3.57858694001601e-18 1.423320202482727e-17 8.068094053620344 -1.6494814640004157e-15 -1.8675508390931994e-17 -2.4390007123341064e-15 8.068094053620339" Properties=species:S:1:pos:R:3:u_disp:R:3:forces:R:3 system=batio3_cubic model=mace_mp0 T=100.0 seed=1 supercell=2x2x2 source="SSCHA free-energy-Hessian ensemble (final auxiliary dyn)" index=429 pair=214 energy=-318.60109120721177 pbc="T T T"
Ba       0.01155105      -0.01612502      -0.04166141       0.01155105      -0.01612502      -0.04166141       0.38422019      -0.01335610       0.30443420
Ti       2.02021859       1.96089414       2.09444690       0.00319508      -0.05612937       0.07742339      -1.13290966       0.25765624       0.09098954
O        0.02073876       1.94991421       1.85561837       0.02073876      -0.06710930      -0.16140515      -0.41397565       0.13766785       0.63903622
O        1.97572287       0.01618430       1.98031221      -0.04130064       0.01618430      -0.03671131       0.58733071       0.32379999      -0.04769213
O        2.01934548       2.00083279      -0.11517964       0.00232197      -0.01619072      -0.11517964       0.29544456      -0.02762509       0.23645856
Ba      -0.06712087       0.01084775       3.98524062      -0.06712087       0.01084775      -0.04880641       0.77478014      -0.04338101       0.01384999
Ti       2.11662231       1.95766370       6.08381135       0.09959880      -0.05935981       0.03274081      -1.05148867      -0.05562075      -0.02045508
O        0.03405548       2.12038037       6.00802143       0.03405548       0.10335685      -0.04304911      -1.12586408      -0.58366548       0.42620800
O        2.02147113       0.00235018       5.89689272       0.00444761       0.00235018      -0.15417782       0.09518579       0.50808691       0.34507661
O        1.93564993       2.04294845       3.96989562      -0.08137358       0.02592494      -0.06415141       0.50527366      -0.30127642      -0.52098088
Ba       0.04093113       3.99082403      -0.02906766       0.04093113      -0.04322299      -0.02906766      -0.10012388       0.26992774       0.53977238
Ti       2.06801987       6.02912046       1.98742487       0.05099636      -0.02195008      -0.02959864      -1.18568783      -0.25518222       1.04243217
O        0.07928886       6.05655307       2.04927029       0.07928886       0.00548253       0.03224677      -1.02679159       0.20824603      -0.20723421
O        1.94928956       4.03928202       2.06564959      -0.06773395       0.00523499       0.04862608       0.50552761      -0.28463758      -0.80879645
O        1.95681851       6.10626642      -0.14181359      -0.06020501       0.05519588      -0.14181359       0.68580413      -0.25460123       0.86298283
Ba      -0.00992571       4.03896961       4.10549349      -0.00992571       0.00492258       0.07144646       0.11534082       0.02604780      -0.86895099
Ti       1.99782234       6.03997263       6.02507308      -0.01920118      -0.01109791      -0.02599746       0.61265618       0.05857739      -0.19888623
O        0.12212847       6.05318233       5.98123433       0.12212847       0.00211179      -0.06983621      -1.87811610       0.21200614       0.12971141
O        1.96895160       4.04169233       5.97368105      -0.04807192       0.00764531      -0.07738949       0.69394564       0.17555555       0.16973667
O        2.04843306       6.06019084       3.94685676       0.03140955       0.00912030      -0.08719026       0.13031505       0.11104100       0.28518607
Ba       4.10900881       0.08500290       0.11477448       0.07496178       0.08500290       0.11477448      -0.74493847      -0.94016206      -1.07777135
Ti       6.01557335       1.96261534       1.99882391      -0.03549719      -0.05440817      -0.01819961       0.83290297       1.25613957       0.28791501
O        4.03093443       2.00570714       1.94901803      -0.00311260      -0.01131638      -0.06800549      -0.14164564       0.03246271       0.52286396
O        5.94103040      -0.03731154       1.95400760      -0.11004014      -0.03731154      -0.06301592       0.50270084       0.70605823       0.76122801
O        6.02906524       1.99478062       0.07651322      -0.02200530      -0.02224289       0.07651322      -0.01570977       0.15727856      -1.13569467
Ba       4.07241947       0.01878169       4.02699687       0.03837245       0.01878169      -0.00705016      -0.41905758      -0.40384269       0.35523179
Ti       6.11563915       2.04786384       6.09693059       0.06456861       0.03084033       0.04586005       0.79503634       0.19826443      -0.70035576
O        4.00138871       2.04402720       5.98794208      -0.03265832       0.02700368      -0.06312846       0.79884261      -0.08600430       0.15487339
O        6.14698447       0.09691130       6.09723172       0.09591393       0.09691130       0.04616118      -0.29371720      -0.72477671      -0.05713209
O        6.12790559       2.03996758       4.03096459       0.07683505       0.02294406      -0.00308244      -0.52472014      -0.16988289      -0.28678771
Ba       3.98043878       4.00282992      -0.00579512      -0.05360825      -0.03121711      -0.00579512       0.29577258       0.53986399      -0.00332400
Ti       6.02946146       6.06111402       2.03474526      -0.02160908       0.01004348       0.01772174       0.56487178      -1.51911647      -0.56415974
O        3.98237556       6.00566841       2.07264105      -0.05167146      -0.04540213       0.05561754       0.40393589       0.38708100      -0.48364846
O        5.95907723       4.07715611       1.90339769      -0.09199331       0.04310908      -0.11362582       0.36262261      -0.63611012       0.90592349
O        6.04610684       6.03311879       0.16147857      -0.00496371      -0.01795175       0.16147857       0.21866199       0.46298394      -1.68989943
Ba       3.93566335       4.02036243       4.04300200      -0.09838368      -0.01368460       0.00895497       0.54730626       0.33934815      -0.11420466
Ti       6.10693793       6.08378229       6.04084849       0.05586739       0.03271175      -0.01022205      -1.52170612      -0.61016026      -0.42279802
O        4.12904960       6.09223966       6.01754109       0.09500257       0.04116912      -0.03352945       0.54844528       0.03514794       0.32656903
O        6.07321867       4.05133997       6.08111661       0.02214813       0.01729294       0.03004607      -0.03096684       0.18530368       0.27332745
O        6.03242719       6.04318461       4.07119302      -0.01864335      -0.00788593       0.03714600       0.35049558       0.32085653       0.53496508
40
Lattice="8.068094053620344 -2.1964715756072374e-18 -3.57858694001601e-18 1.423320202482727e-17 8.068094053620344 -1.6494814640004157e-15 -1.8675508390931994e-17 -2.4390007123341064e-15 8.068094053620339" Properties=species:S:1:pos:R:3:u_disp:R:3:forces:R:3 system=batio3_cubic model=mace_mp0 T=100.0 seed=1 supercell=2x2x2 source="SSCHA free-energy-Hessian ensemble (final auxiliary dyn)" index=486 pair=243 energy=-319.1626933082747 pbc="T T T"
Ba       0.04014983      -0.05551814       0.00170891       0.04014983      -0.05551814       0.00170891      -0.25291911       0.82310005       0.10883402
Ti       2.04185881       2.08022645       1.99689901       0.02483530       0.06320294      -0.02012450       0.45839283       0.33275798      -0.32153310
O       -0.00484512       2.00509384       2.02458602      -0.00484512      -0.01192967       0.00756251       0.16862788      -0.28089973       0.05761608
O        2.11090700       0.00298823       2.04500767       0.09388349       0.00298823       0.02798415      -0.56559910      -0.17612758       0.10873070
O        1.98038812       2.04199340       0.06140162      -0.03663540       0.02496988       0.06140162      -0.06931554      -0.06251239      -0.48413700
Ba       0.05000891       0.01619881       4.05726413       0.05000891       0.01619881       0.02321710      -0.31892403       0.48398605      -0.04240721
Ti       2.04712949       2.07085653       6.03824400       0.03010598       0.05383302      -0.01282654      -0.14924288      -0.35721915      -0.46790136
O        0.03108147       2.20941837       6.03156836       0.03108147       0.19239486      -0.01950218      -0.02782624      -0.66868203       0.08137904
O        1.96315299       0.08548278       6.00933385      -0.05387053       0.08548278      -0.04173669      -0.00052931      -0.12433851       0.37785840
O        2.05320773       2.12532832       4.10218116       0.03618422       0.10830481       0.06813413      -0.13456404      -0.22618878      -0.14783831
Ba      -0.01019310       3.99794431      -0.04744608      -0.01019310      -0.03610272      -0.04744608      -0.02869752      -0.04306745       0.58488116
Ti       1.93684072       6.12977641       2.04476294      -0.08018279       0.07870587       0.02773943       0.82735011      -0.77438622      -0.15367128
O        0.04267516       6.10213101       2.02053685       0.04267516       0.05106047       0.00351334      -0.44767608      -0.03470730       0.04842735
O        2.03553437       4.10974679       1.99234076       0.01851086       0.07569977      -0.02468275      -0.30376577      -0.38198756       0.20226173
O        2.03772169       6.10468410       0.00623487       0.02069818       0.05361356       0.00623487      -0.42000861       0.17675322      -0.03502317
Ba      -0.05075762       4.05423550       4.01256597      -0.05075762       0.02018847      -0.02148105       0.23875995      -0.35336044      -0.04684096
Ti       1.96921902       6.05036828       6.05996306      -0.04780450      -0.00070226       0.00889252       1.32047307      -0.37370483       0.06111405
O       -0.02237688       5.93523043       5.99100646      -0.02237688      -0.11584011      -0.06006408       0.21507373       0.93657889       0.73135208
O        2.02210842       4.12905370       6.12095745       0.00508491       0.09500667       0.06988691       0.07875719      -0.11220203      -0.22644097
O        2.02031498       6.09434067       4.05754797       0.00329146       0.04327013       0.02350095      -0.14890353      -0.07537260       0.06353579
Ba       4.00154909      -0.03448938       0.00531029      -0.03249794      -0.03448938       0.00531029       0.23744477       0.36053120       0.00082324
Ti       6.07864802       2.00249356       2.08943796       0.02757747      -0.01452995       0.07241445      -0.00235402       0.34066071      -0.09442587
O        3.95500002       2.02160479       1.92913232      -0.07904701       0.00458127      -0.08789119       0.07733321       0.02521549       0.58844375
O        5.98989263       0.00775993       2.04010439      -0.06117791       0.00775993       0.02308088       0.37170767      -1.12760454      -0.09934525
O        6.02888623       1.98645945      -0.02489909      -0.02218431      -0.03056406      -0.02489909       0.34973474       0.21143400      -0.15429641
Ba       4.02837067      -0.05917666       4.04171173      -0.00567636      -0.05917666       0.00766470       0.17011589       0.43213877       0.20724161
Ti       6.07043940       2.02223551       6.12258726       0.01936886       0.00521200       0.07151672      -0.22309061      -0.03351673       0.21729159
O        4.07543913       2.10436084       6.05894719       0.04139210       0.08733733       0.00787665      -0.74505050      -0.31012796       0.04553850
O        6.09317913       0.11181965       6.11390725       0.04210859       0.11181965       0.06283671       0.29280270      -1.16838596      -0.27166400
O        6.03017474       1.94392404       4.00397592      -0.02089580      -0.07309948      -0.03007111       0.04997748       0.18728353       0.09382096
Ba       4.01895841       4.02752878      -0.06730785      -0.01508861      -0.00651825      -0.06730785       0.18392036       0.19413095       0.63682232
Ti       6.03771486       6.09875720       2.02717428      -0.01335568       0.04768666       0.01015076      -1.29689817       0.26998551      -0.11997597
O        4.10894508       5.99004848       2.11367908       0.07489805      -0.06102206       0.09665556       0.45946925       0.29627955      -0.26327248
O        6.05129281       3.88470899       2.06053478       0.00022227      -0.14933804       0.04351126       0.13975579       1.33224856      -0.15952553
O        5.99351420       6.07889980       0.06366105      -0.05755634       0.02782926       0.06366105       0.77707305      -0.16739753      -0.05373096
Ba       4.03806886       4.03302341       4.01917215       0.00402184      -0.00102361      -0.01487488       0.08231339       0.09278048       0.06691771
Ti       6.12032172       6.06150545       6.07765399       0.06925118       0.01043491       0.02658345      -1.39412774      -0.60707405      -0.48403523
O        4.03778587       6.07690572       6.13510398       0.00373884       0.02583518       0.08403344      -0.04700635       0.26791750      -0.57289916
O        6.02223864       4.06906160       6.04017821      -0.02883190       0.03501457      -0.01089233       0.18029503       0.52311335       0.16873298
O        6.10752992       6.07315873       4.10409677       0.05645938       0.02208819       0.07004974      -0.10287893       0.17196758      -0.25265882
