40
Lattice="8.068094053620344 -7.927176553288082e-19 -5.701750792830376e-18 4.008826256534409e-17 8.06809405362036 5.6915464259332475e-15 3.9693271986961044e-16 9.085540583848858e-16 8.068094053620342" Properties=species:S:1:pos:R:3:u_disp:R:3:forces:R:3 system=batio3_cubic model=mace_mp0 T=100.0 seed=3 supercell=2x2x2 source="SSCHA free-energy-Hessian ensemble (final auxiliary dyn)" index=4 pair=2 energy=-318.9808783141026 pbc="T T T"
Ba       0.04227189      -0.01997931       0.01357092       0.04227189      -0.01997931       0.01357092      -0.20133710       0.06744678      -0.03639499
Ti       1.92887813       2.09909560       2.03408369      -0.08814538       0.08207209       0.01706018       0.58899649      -0.00611364       0.83757589
O       -0.08743364       2.05788111       2.09192063      -0.08743364       0.04085760       0.07489712       1.17793918      -0.51262317      -0.77062183
O        1.95160188      -0.08498409       2.09539590      -0.06542164      -0.08498409       0.07837239       0.21673569      -0.12863786      -0.60856586
O        1.99139455       2.02080414      -0.08449276      -0.02562896       0.00378063      -0.08449276       0.20644377       0.15452969       0.93380762
Ba      -0.02504057      -0.00163721       4.02843741      -0.02504057      -0.00163721      -0.00560962      -0.07264013       0.25427786      -0.17954896
Ti       2.00184618       2.02249552       6.06220332      -0.01517733       0.00547200       0.01113278      -0.19340228       0.59424147       0.12693655
O        0.09060528       1.99575922       6.08828993       0.09060528      -0.02126430       0.03721939      -0.73890608      -0.16224935      -0.52982543
O        2.10766822       0.03213584       6.15060776       0.09064471       0.03213584       0.09953722      -0.47862488      -1.12340859      -0.89069641
O        1.96371928       2.04137502       3.92580734      -0.05330423       0.02435151      -0.10823969       0.23684097      -0.55275028       0.36032631
Ba       0.05972189       3.99125294      -0.02310991       0.05972189      -0.04279408      -0.02310991      -0.62243010       0.27307080      -0.09143547
Ti       2.06623483       6.07588393       2.01991077       0.04921132       0.02481339       0.00288726      -0.19178191       0.26380383      -0.54545891
O       -0.06115107       6.01089142       2.00824276      -0.06115107      -0.04017912      -0.00878076       0.69076894       0.35674628      -0.21372261
O        1.98797583       4.01718925       2.11513788      -0.02904768      -0.01685778       0.09811437       0.11231486       0.09450339      -0.76639001
O        2.00818423       5.98318439      -0.00217583      -0.00883928      -0.06788615      -0.00217583       0.15749416       0.20321955       0.34975364
Ba      -0.02658754       4.10552980       4.03316108      -0.02658754       0.07148278      -0.00088595      -0.24892033      -0.58449381      -0.05745317
Ti       2.01079873       6.11251867       5.97289607      -0.00622479       0.06144813      -0.07817447       0.18646073      -0.46847497       0.72579140
O        0.04990907       5.98541512       6.02346738       0.04990907      -0.06565542      -0.02760316       0.35682381       0.67125609       0.13639217
O        1.99259699       3.97959860       5.96746563      -0.02442652      -0.05444843      -0.08360491       0.55478847       0.39414240       0.26050001
O        1.95899680       6.05732403       4.01207803      -0.05802671       0.00625348      -0.02196899       0.51734741       0.12937414       0.35256712
Ba       4.04751146       0.01844529       0.03451365       0.01346444       0.01844529       0.03451365      -0.07770173      -0.02403694      -0.32628588
Ti       6.02212026       1.98361955       1.96148743      -0.02895028      -0.03340396      -0.05553609      -0.15354275       0.58299477       0.15269932
O        3.98189245       1.98681180       1.97144420      -0.05215458      -0.03021172      -0.04557932      -0.41155025       0.24199812       0.04086947
O        5.93007913       0.05164935       1.90054172      -0.12099141       0.05164935      -0.11648179       0.82566363      -0.73726085       0.60467563
O        6.08243052       1.99948837      -0.00678406       0.03135998      -0.01753515      -0.00678406      -0.09168479       0.21341496      -0.64513195
Ba       3.98526270      -0.02256697       4.01998791      -0.04878433      -0.02256697      -0.01405912       0.47226074       0.28827590      -0.16603923
Ti       6.04964680       1.94974367       5.99900054      -0.00142374      -0.06727985      -0.05207000      -0.48788656       0.59525393       0.01047718
O        4.09955307       1.97038176       5.96200629       0.06550605      -0.04664176      -0.08906425       0.10567940       0.10025021       0.31561750
O        6.11347023       0.00732995       6.06660852       0.06239969       0.00732995       0.01553798       0.01703479       0.27414008      -0.27367360
O        6.05542235       2.00553794       3.98458133       0.00435180      -0.01148557      -0.04946570      -0.02309246      -0.28783136       0.91477404
Ba       4.00264818       4.06701806       0.06960633      -0.03139885       0.03297103       0.06960633       0.47415809      -0.22444263      -0.57933535
Ti       6.09801715       6.05586172       1.97185871       0.04694661       0.00479118      -0.04516480      -0.06889767      -0.59045777       0.30200066
O        4.13510775       6.03458661       1.96334921       0.10106073      -0.01648393      -0.05367430      -1.55370699      -0.02602944       0.31186820
O        6.07575388       4.00563096       1.99773284       0.02468334      -0.02841607      -0.01929067      -0.42439377       0.65537438      -0.20653404
O        6.09617211       6.09787772      -0.06624345       0.04510157       0.04680718      -0.06624345       0.02455403      -0.24515883       0.18943944
Ba       4.04517585       3.98738714       4.09620705       0.01112882      -0.04665989       0.06216003       0.26036269       0.11359905      -0.37856687
Ti       6.08416090       6.07236619       6.04064662       0.03309036       0.02129565      -0.01042392      -0.57526535      -0.97019530       0.01383054
O        4.08076437       6.05937144       6.00880619       0.04671734       0.00830090      -0.04226435      -0.58808360       0.08707080      -0.03178950
O        6.01993730       4.07535852       5.95956826      -0.03113324       0.04131149      -0.09150228       0.39312179      -0.29319651       0.50492368
O        6.13306506       6.08569474       4.00779139       0.08199452       0.03462420      -0.02625564      -0.37194089       0.32837682      -0.14735632
40
Lattice="8.068094053620344 -7.927176553288082e-19 -5.701750792830376e-18 4.008826256534409e-17 8.06809405362036 5.6915464259332475e-15 3.9693271986961044e-16 9.085540583848858e-16 8.068094053620342" Properties=species:S:1:pos:R:3:u_disp:R:3:forces:R:3 system=batio3_cubic model=mace_mp0 T=100.0 seed=3 supercell=2x2x2 source="SSCHA free-energy-Hessian ensemble (final auxiliary dyn)" index=85 pair=42 energy=-318.36419378613834 pbc="T T T"
Ba       0.04721732      -0.01610879      -0.03998898       0.04721732      -0.01610879      -0.03998898      -0.16588423      -0.41228308       0.12547790
Ti       2.04735673       1.97053920       2.01297499       0.03033322      -0.04648432      -0.00404852      -0.39411864      -0.67702005       0.15069437
O       -0.04227275       1.88442742       1.99698690      -0.04227275      -0.13259609      -0.02003662       0.21888464       0.84305418       0.01186860
O        1.86336919       0.03131969       2.01977059      -0.15365433       0.03131969       0.00274708       1.07048632       0.25893315      -0.16078391
O        1.86915906       1.94917567      -0.02188073      -0.14786445      -0.06784784      -0.02188073       0.82904187       0.71970428      -0.53643685
Ba       0.04115423       0.07379763       4.02606994       0.04115423       0.07379763      -0.00797709      -0.44445484      -0.76236348       0.14551405
Ti       2.03979243       2.03453649       6.01892434       0.02276892       0.01751298      -0.03214620       1.09838371      -0.23474961      -0.10886888
O       -0.08444816       2.05183363       5.94675220      -0.08444816       0.03481012      -0.10431834       1.29352184       0.24891093       0.35004465
O        1.98579201      -0.06577972       6.05634209      -0.03123151      -0.06577972       0.00527155       0.36503798       1.84553861      -0.36049169
O        2.00239585       2.09030907       4.01287770      -0.01462767       0.07328556      -0.02116933       0.06845463      -0.45550461       0.57779866
Ba      -0.02574556       3.97579324      -0.05147681      -0.02574556      -0.05825378      -0.05147681       0.07842506       0.54000656       0.64728666
Ti       2.02207891       5.96036619       2.03282774       0.00505539      -0.09070435       0.01580423      -0.05445342       0.61204416      -0.15537661
O       -0.12708458       6.03907752       1.92116255      -0.12708458      -0.01199302      -0.09586097       0.23900896      -0.10115665       0.38606103
O        2.04020656       3.99328719       2.08158167       0.02318305      -0.04075984       0.06455815      -0.45806121       0.28251121      -0.73012518
O        2.04000963       6.08193512      -0.03075912       0.02298612       0.03086458      -0.03075912       0.11995002      -0.38903963       0.54536331
Ba      -0.02536340       4.01173328       3.98605706      -0.02536340      -0.02231375      -0.04798996      -0.36177376       0.32109046      -0.07539725
Ti       1.97543196       5.99839388       6.04068929      -0.04159155      -0.05267666      -0.01038126       0.05621329       0.81088570       0.61576627
O        0.08748028       6.00607122       6.09986089       0.08748028      -0.04499932       0.04879035      -0.34772281      -0.08573099      -0.36863175
O        2.14041875       4.11949111       6.00880159       0.12339524       0.08544408      -0.04226895      -0.92407144      -1.67656799       0.16368748
O        2.02619989       6.11657069       3.88140486       0.00917638       0.06550015      -0.15264217      -0.59414137      -0.34167048       0.69467858
Ba       4.01518555       0.02339091      -0.00547586      -0.01886147       0.02339091      -0.00547586      -0.18614022      -0.32774784      -0.28701664
Ti       6.04634350       1.89241203       2.06653203      -0.00472704      -0.12461148       0.04950852       0.39068236       1.83996894       1.06221134
O        4.06539790       1.99620675       1.96982804       0.03135087      -0.02081676      -0.04719547      -1.45608923      -0.19185339      -0.29508018
O        5.99191094       0.05830890       2.10395908      -0.05915960       0.05830890       0.08693557      -0.10069722      -1.85970983      -0.64071981
O        6.02890415       2.03588865      -0.05938698      -0.02216639       0.01886514      -0.05938698       0.22908270      -0.09036075       0.20794884
Ba       4.06561213       0.02778372       4.09938766       0.03156511       0.02778372       0.06534063      -0.06978954      -0.12616611       0.08828650
Ti       6.13526083       2.03932824       6.15437666       0.08419029       0.02230473       0.10330612      -1.65016604      -0.80530734      -1.20275362
O        4.07432919       2.18125561       6.02845094       0.04028217       0.16423209      -0.02261960      -1.41643828      -0.90301268       0.34438759
O        6.03112284      -0.00338165       6.03194112      -0.01994770      -0.00338165      -0.01912942       0.07391646       0.89583863       0.47035520
O        5.95843178       2.02326425       3.99817855      -0.09263876       0.00624074      -0.03586848       0.50507993       0.02770170       0.03313068
Ba       4.00527319       3.99071128       0.06627287      -0.02877384      -0.04333574       0.06627287       0.21621661       0.26986485      -0.33391711
Ti       6.02650117       6.06653530       2.01018135      -0.02456937       0.01546476      -0.00684216       1.08135310      -0.85123957       0.60719869
O        3.97828517       6.02943934       2.08737708      -0.05576185      -0.02163120       0.07035356       0.62991041       0.28512941      -0.77537365
O        6.06145629       3.96326601       2.08057764       0.01038575      -0.07078102       0.06355412      -0.17582024       1.42108609      -0.59002780
O        6.09292889       6.10884880      -0.02780327       0.04185835       0.05777826      -0.02780327      -0.80428126      -0.13632436       1.05241782
Ba       4.05973632       4.11611149       4.03083529       0.02568930       0.08206446      -0.00321173       0.33618500      -0.54534874       0.13248378
Ti       5.99159792       6.01468131       6.12059603      -0.05947262      -0.03638923       0.06952549      -0.18914648       0.73297561      -1.27305993
O        3.99610937       6.03214790       5.95287091      -0.03793765      -0.01892264      -0.09819964       0.79514886       0.34902101       0.59307780
O        6.05348302       4.14432093       6.06943051       0.00241248       0.11027391       0.01835997       0.23160236      -1.08059138       0.19549601
O        6.10908311       6.12270091       4.13029273       0.05801257       0.07163037       0.09624570      -0.13333586      -0.25051694      -1.30717492
40
Lattice="8.068094053620344 -7.927176553288082e-19 -5.701750792830376e-18 4.008826256534409e-17 8.06809405362036 5.6915464259332475e-15 3.9693271986961044e-16 9.085540583848858e-16 8.068094053620342" Properties=species:S:1:pos:R:3:u_disp:R:3:forces:R:3 system=batio3_cubic model=mace_mp0 T=100.0 seed=3 supercell=2x2x2 source="SSCHA free-energy-Hessian ensemble (final auxiliary dyn)" index=92 pair=46 energy=-318.6920331489857 pbc="T T T"
Ba       0.03506892      -0.00976039      -0.02184854       0.03506892      -0.00976039      -0.02184854      -0.19591923       0.50106181       0.58946961
Ti       2.04683682       2.03876064       2.05278689       0.02981331       0.02173713       0.03576338      -1.23239356       0.16007600       0.59495759
O        0.08564649       1.97473009       2.02007274       0.08564649      -0.04229342       0.00304923       0.16253756       0.08393256      -0.13823643
O        2.08963699       0.05136046       2.01844113       0.07261348       0.05136046       0.00141762       0.03979663      -0.30814536       0.15397657
O        2.09780754       2.07366538      -0.00996314       0.08078403       0.05664186      -0.00996314      -0.05045678      -0.53979422      -0.56813696
Ba      -0.04858500      -0.04442555       3.97679609      -0.04858500      -0.04442555      -0.05725094       0.14445843       0.72933341      -0.07740090
Ti       1.99225136       1.92576858       6.10615868      -0.02477216      -0.09125493       0.05508814      -1.11509766       1.75354513      -0.60495246
O        0.03307142       2.00797068       5.98088330       0.03307142      -0.00905283      -0.07018724       1.03970932      -0.23640010       0.24083342
O        1.99803543       0.07377964       5.93904720      -0.01898809       0.07377964      -0.11202334       0.21535577      -0.75028665       0.62066742
O        2.06700494       2.13229002       4.02111493       0.04998142       0.11526650      -0.01293210       0.33437753      -0.59025786       0.12656846
Ba      -0.03873202       4.10423396      -0.01297613      -0.03873202       0.07018693      -0.01297613       0.57726521      -0.62848516       0.40814948
Ti       1.97894897       6.05572448       2.05895507      -0.03807455       0.00465394       0.04193156      -0.11168512      -0.45527596      -0.09837391
O        0.02153487       6.10054622       2.08566700       0.02153487       0.04947568       0.06864349      -0.21304494      -0.17941491      -0.29830335
O        1.98158536       4.05255665       2.11690372      -0.03543816       0.01850962       0.09988020       0.31666896       0.14442266      -0.71407575
O        1.94816892       6.09372694       0.03502675      -0.06885459       0.04265640       0.03502675       0.35838122       0.26595693      -0.31086406
Ba      -0.04313110       4.06014482       4.00521253      -0.04313110       0.02609780      -0.02883450       0.34650686      -0.62168130       0.01717678
Ti       1.94927869       6.08768086       6.06203051      -0.06774482       0.03661032       0.01095997       1.32268034      -1.58988090      -0.03338955
O        0.07904371       6.03888244       6.06080729       0.07904371      -0.01218810       0.00973675      -1.63726893       0.40184209       0.04111172
O        2.01784293       4.05132643       6.14211145       0.00081942       0.01727940       0.09104091       0.22634301       0.31468571      -0.37137425
O        1.91652179       6.02915827       4.04386543      -0.10050172      -0.02191227       0.00981841       0.58060432       0.42473793       0.34196561
Ba       4.07454675       0.01801063       0.00499727       0.04049972       0.01801063       0.00499727      -0.16277728      -0.30577386       0.04742637
Ti       6.01280977       2.02253291       1.95067442      -0.03826077       0.00550940      -0.06634909       0.70752306       0.55031085       0.48642714
O        4.11545412       2.03355592       1.95092556       0.08140709       0.01653241      -0.06609795      -0.40983268      -0.23808249      -0.03101330
O        6.08058436      -0.00347225       1.99740674       0.02951382      -0.00347225      -0.01961677      -0.39298696      -0.27807616      -0.04271024
O        6.21438979       2.15927659      -0.03446807       0.16331925       0.14225307      -0.03446807      -0.68025290      -0.95747512       0.64655231
Ba       4.04467699       0.02513856       4.04904668       0.01062997       0.02513856       0.01499966      -0.00113403      -0.17537201      -0.22382570
Ti       6.06306271       1.99434387       6.01619472       0.01199217      -0.02267965      -0.03487582       0.76107547       0.20126224      -0.18366094
O        4.21643417       1.88754721       5.98678412       0.18238714      -0.12947631      -0.06428642      -1.82116167       0.70254395       0.55345829
O        6.04334585       0.06490210       6.11544063      -0.00772469       0.06490210       0.06437009       0.67243721      -1.80889417      -0.08019430
O        6.03908337       2.02406856       3.98349155      -0.01198717       0.00704505      -0.05055548       0.30452192      -0.18671965       0.17082465
Ba       4.03848453       3.95397084      -0.04510165       0.00443750      -0.08007618      -0.04510165      -0.14120808       0.64354160       0.21866436
Ti       5.97009019       6.06631166       2.00293938      -0.08098035       0.01524112      -0.01408414      -0.05715085      -0.25881530       0.18979606
O        4.01325943       5.96119700       2.04699716      -0.02078760      -0.08987354       0.02997365       0.59893384       0.53423422      -0.12523921
O        6.01141706       3.98001893       2.06649278      -0.03965348      -0.05402810       0.04946927       0.40279089       0.79517429      -0.23774411
O        6.11116787       6.08989270       0.10558314       0.06009733       0.03882216       0.10558314      -0.27520329      -0.21492095      -1.03077189
Ba       4.05890964       4.00534800       4.14096435       0.02486261      -0.02869903       0.10691732      -0.32502359       0.18887083      -0.45064174
Ti       6.08746762       6.04661642       6.05730460       0.03639708      -0.00445412       0.00623406      -1.09412483      -0.08677572      -0.53613089
O        4.00453993       6.07056931       6.05973831      -0.02950709       0.01949877       0.00866777       0.86345318       0.09742341       0.23221438
O        6.12516976       3.97788241       6.12349343       0.07409922      -0.05616461       0.07242289      -0.37617599       1.82999765      -0.46174716
O        6.01200786       6.06108305       4.05694726      -0.03906268       0.01001251       0.02290023       0.31747764       0.08757461       0.93854690
40
Lattice="8.068094053620344 -7.927176553288082e-19 -5.701750792830376e-18 4.008826256534409e-17 8.06809405362036 5.6915464259332475e-15 3.9693271986961044e-16 9.085540583848858e-16 8.068094053620342" Properties=species:S:1:pos:R:3:u_disp:R:3:forces:R:3 system=batio3_cubic model=mace_mp0 T=100.0 seed=3 supercell=2x2x2 source="SSCHA free-energy-Hessian ensemble (final auxiliary dyn)" index=104 pair=52 energy=-318.8368241099882 pbc="T T T"
Ba       0.00922289      -0.00373662       0.01776737       0.00922289      -0.00373662       0.01776737      -0.15664013       0.13876965       0.10332245
Ti       2.07366889       2.02313800       1.94430848       0.05664538       0.00611449      -0.07271503      -0.55629694       0.73135660       1.77163817
O       -0.04580341       2.02840973       1.95310889      -0.04580341       0.01138622      -0.06391462      -0.47232582      -0.02275192      -0.14465531
O        1.99629603      -0.03727281       2.08426079      -0.02072749      -0.03727281       0.06723728      -0.36403301       0.99342824      -0.70715927
O        1.96846930       2.04784794      -0.07482489      -0.04855422       0.03082442      -0.07482489       0.13079648      -0.39706937       0.90007156
Ba       0.04208195       0.01211273       4.04792397       0.04208195       0.01211273       0.01387695      -0.14533798       0.36853876      -0.39278785
Ti       2.01207998       2.09513718       6.09484478      -0.00494354       0.07811366       0.04377424       0.40135758      -0.77784212      -1.25825469
O        0.03557265       1.95669318       6.05907648       0.03557265      -0.06033034       0.00800594      -1.36522789       0.09342598       0.01649065
O        1.97247108      -0.06170452       6.00827572      -0.04455243      -0.06170452      -0.04279482       0.33825865      -0.50918082       0.47582742
O        1.91321285       2.04277869       3.96153866      -0.10381067       0.02575518      -0.07250836       0.47932290      -0.32505794       0.04465858
Ba       0.04041203       3.98719280      -0.01283029       0.04041203      -0.04685422      -0.01283029      -0.25264574       0.30553646       0.26786380
Ti       1.96423509       6.10961183       2.03018414      -0.05278842       0.05854129       0.01316063       1.15861429      -0.69661763       0.17332393
O       -0.07349678       6.00951146       1.94661449      -0.07349678      -0.04155908      -0.07040902      -0.35051535       0.06888321       0.43109218
O        2.03679284       4.02898750       2.07780462       0.01976933      -0.00505952       0.06078110      -0.40755149      -0.49484339      -0.48984726
O        2.01711215       6.00091924       0.09957549       0.00008864      -0.05015130       0.09957549      -0.42736517       0.17118293      -1.82568476
Ba      -0.03105745       4.01992501       3.98541036      -0.03105745      -0.01412201      -0.04863666       0.48226194      -0.09962006      -0.10049627
Ti       1.98359367       6.10860895       6.06248880      -0.03342984       0.05753841       0.01141826       0.59994368       0.91231725      -0.40818771
O        0.01728792       6.16796157       6.01211911       0.01728792       0.11689103      -0.03895143      -0.88289202      -0.76902032       0.14792747
O        1.92295628       3.92424585       6.01899618      -0.09406724      -0.10980118      -0.03207436       0.19772032       1.48930987       0.08610610
O        2.04764971       6.11131732       3.99877937       0.03062619       0.06024678      -0.03526765      -0.55096017      -0.58865205       1.16492720
Ba       4.08012617      -0.00487406       0.04079975       0.04607915      -0.00487406       0.04079975      -0.37299217      -0.08998412      -0.30977746
Ti       6.03526166       2.11277973       2.01597846      -0.01580888       0.09575621      -0.00104505       0.77029731      -0.89354993       0.00675673
O        3.93875987       2.06589921       1.91470196      -0.09528715       0.04887570      -0.10232155       0.31634421      -0.51822335       0.32769153
O        5.97792866      -0.02171251       1.90449555      -0.07314188      -0.02171251      -0.11252796       0.27462238      -0.51380673       0.41301115
O        5.93912670       2.07306580       0.00942086      -0.11194384       0.05604229       0.00942086       0.62984729      -0.11543871      -0.77298332
Ba       4.04794514      -0.01787605       4.04067340       0.01389812      -0.01787605       0.00662638      -0.37111953       0.24006424      -0.18948488
Ti       6.08823882       2.01893947       6.05347572       0.03716828       0.00191595       0.00240518      -0.41163102      -0.20627096       0.06020060
O        3.99855422       2.01357590       6.06254448      -0.03549280      -0.00344761       0.01147394      -0.02260528       0.15558000      -0.18570664
O        5.95525081       0.09642871       6.01419668      -0.09581973       0.09642871      -0.03687386       0.53765411      -1.10299798       0.24645186
O        6.01411104       2.03588268       3.98567236      -0.03695950       0.01885917      -0.04837466       0.06341683      -0.22094829       0.26453189
Ba       4.02517091       4.00477891      -0.01167598      -0.00887612      -0.02926812      -0.01167598      -0.12577370       0.53598606       0.15329009
Ti       6.05087938       6.07235229       2.00041922      -0.00019116       0.02128175      -0.01660430      -0.28844057       0.89178725       0.19879559
O        3.91461502       6.13315317       1.99171658      -0.11943200       0.08208263      -0.02530693       1.26007357      -0.55630116      -0.05120021
O        5.96822220       3.95107253       2.03918950      -0.08284834      -0.08297450       0.02216599       0.05133260       1.08395649      -0.20184952
O        6.09310657       5.97861278      -0.01159547       0.04203603      -0.07245776      -0.01159547      -0.36266582       0.13601371      -1.05252583
Ba       4.04683321       4.02987985       4.11339249       0.01278618      -0.00416718       0.07934547      -0.64047944       0.05957728      -0.67342393
Ti       6.06231915       6.05883521       6.05441803       0.01124861       0.00776467       0.00334749      -0.37301703      -0.28174467       0.18553283
O        3.99115231       6.02727241       6.03938569      -0.04289472      -0.02379813      -0.01168485       0.48293651      -0.00805444       0.22572192
O        6.03449076       4.01297435       5.95625081      -0.01657978      -0.02107268      -0.09481973       0.38190788       0.76343871       0.40290210
O        5.98433969       6.05035621       3.94634192      -0.06673085      -0.00071433      -0.08770511       0.34380775       0.04882325       0.69588910
40
Lattice="8.068094053620344 -7.927176553288082e-19 -5.701750792830376e-18 4.008826256534409e-17 8.06809405362036 5.6915464259332475e-15 3.9693271986961044e-16 9.085540583848858e-16 8.068094053620342" Properties=species:S:1:pos:R:3:u_disp:R:3:forces:R:3 system=batio3_cubic model=mace_mp0 T=100.0 seed=3 supercell=2x2x2 source="SSCHA free-energy-Hessian ensemble (final auxiliary dyn)" index=130 pair=65 energy=-319.0710319348396 pbc="T T T"
Ba       0.03574250       0.00359607      -0.06443129       0.03574250       0.00359607      -0.06443129      -0.10127652      -0.00235036       0.27028066
Ti       2.03483532       2.03238413       2.00306894       0.01781180       0.01536062      -0.01395458       0.41251731       0.49227196      -0.23848505
O        0.00052660       2.08077601       2.05538587       0.00052660       0.06375249       0.03836236       0.53336674      -0.41335773       0.34430712
O        2.07657234       0.02238447       1.97148044       0.05954882       0.02238447      -0.04554307      -0.40090278       0.31915865       0.06911106
O        2.03737975       2.06772175      -0.06096983       0.02035623       0.05069824      -0.06096983      -0.29926243      -0.34922061       1.15064838
Ba      -0.06780512       0.00545289       3.99984770      -0.06780512       0.00545289      -0.03419932       0.68004106      -0.01618841       0.21748418
Ti       2.04940511       2.04825238       6.00379222       0.03238159       0.03122887      -0.04727832      -0.28938822      -0.42747337       0.45441715
O       -0.02204882       2.03190170       6.04030181      -0.02204882       0.01487819      -0.01076873      -0.46990852      -0.36664775      -0.15757330
O        1.97069786      -0.02504548       5.95818076      -0.04632565      -0.02504548      -0.09288978       0.04196797      -0.05920710       0.81201125
O        2.04876317       2.04762980       4.08468247       0.03173965       0.03060628       0.05063545      -0.08082892      -0.12245237      -0.78920446
Ba       0.01517978       4.10432266      -0.06056637       0.01517978       0.07027563      -0.06056637      -0.27539253      -0.37673960       0.49422319
Ti       2.09900180       6.10898795       1.99152322       0.08197828       0.05791741      -0.02550029      -0.57767352      -0.74944146       0.32806442
O       -0.00988480       6.08408770       1.99839618      -0.00988480       0.03301716      -0.01862733      -0.39839231       0.02197813       0.21967299
O        1.96611382       4.07575165       2.07038257      -0.05090969       0.04170463       0.05335906       0.37622092      -0.70358788      -0.10522406
O        1.94255421       5.99156762       0.02242270      -0.07446931      -0.05950292       0.02242270       0.65589028       0.59975016      -0.24691037
Ba       0.02103124       4.06109854       4.10045913       0.02103124       0.02705151       0.06641211      -0.13845265      -0.08278664      -0.48983028
Ti       1.98836655       6.05313065       6.03978602      -0.02865696       0.00206011      -0.01128452       0.21817685       0.59076353      -0.44646522
O       -0.03996699       6.04771725       6.08988554      -0.03996699      -0.00335329       0.03881500      -0.38931439       0.14757269      -0.36800917
O        1.95318148       4.02199861       6.07008950      -0.06384203      -0.01204842       0.01901896       0.40781891       0.32644251      -0.41931756
O        1.97210901       6.16832628       4.05136195      -0.04491450       0.11725574       0.01731492      -0.09977123      -0.67688673       0.03224850
Ba       4.03641392      -0.04100352       0.04181992       0.00236690      -0.04100352       0.04181992       0.12253164       0.16018898      -0.17611220
Ti       6.14628163       1.98868472       1.99744348       0.09521109      -0.02833880      -0.01958003      -0.41167194       0.13796680      -0.40689784
O        4.05483681       1.97900519       2.00980763       0.02078978      -0.03801832      -0.00721588      -0.43665509       0.27228231      -0.08787963
O        6.19097455      -0.00867555       2.08088204       0.13990401      -0.00867555       0.06385853      -0.80765420       0.45687195      -0.24047832
O        6.20768381       2.02887716       0.09039029       0.15661327       0.01185365       0.09039029      -0.87816554      -0.43173131      -0.40675243
Ba       4.03690404      -0.01797014       4.08293460       0.00285701      -0.01797014       0.04888758      -0.30580741       0.22140577      -0.42629252
Ti       6.04188048       1.99265871       6.03621234      -0.00919006      -0.02436480      -0.01485820       0.33380785       1.03891529      -0.41701925
O        4.00441853       1.93166698       6.12505241      -0.02962850      -0.08535653       0.07398187       0.23086529       0.32723593       0.01043469
O        5.95466994      -0.02613213       5.99824787      -0.09640060      -0.02613213      -0.05282267       0.54107446      -0.13296243       0.25578814
O        5.90676626       2.09226282       4.10511296      -0.14430428       0.07523931       0.07106594       0.78734956      -0.40958392      -0.06565443
Ba       4.02864211       3.97387719       0.00479924      -0.00540492      -0.06016984       0.00479924       0.21186577       0.28314123       0.09162438
Ti       6.10760571       5.99702332       2.05108835       0.05653517      -0.05404722       0.03406484       0.60608609      -0.35295567      -0.91711810
O        3.99580181       5.99881261       2.07379249      -0.03824522      -0.05225793       0.05676897      -0.02497554       0.39244921      -0.26656350
O        6.12290092       4.07873632       1.93810567       0.07183038       0.04468929      -0.07891785      -0.35149293      -0.23085217       0.62553498
O        5.94295335       6.00505273      -0.00721199      -0.10811719      -0.04601781      -0.00721199       0.23598757       0.57088700      -0.31584648
Ba       4.01020815       4.03332935       4.06357528      -0.02383888      -0.00071768       0.02952825       0.04811995      -0.06077327      -0.28611524
Ti       6.00911910       6.08488515       6.00091586      -0.04195144       0.03381461      -0.05015468      -0.05601197      -0.76312320       1.00763359
O        3.98095547       6.04061535       6.00673568      -0.05309156      -0.01045519      -0.04433486       0.04562654      -0.06476095       0.27423994
O        5.99804499       3.99906191       6.06517137      -0.05302555      -0.03498512       0.01410083      -0.02258613       0.04918694       0.07217759
O        5.98480310       5.96196959       4.01086656      -0.06626744      -0.08910095      -0.02318047       0.32627000       0.38461391       0.54384720
40
Lattice="8.068094053620344 -7.927176553288082e-19 -5.701750792830376e-18 4.008826256534409e-17 8.06809405362036 5.6915464259332475e-15 3.9693271986961044e-16 9.085540583848858e-16 8.068094053620342" Properties=species:S:1:pos:R:3:u_disp:R:3:forces:R:3 system=batio3_cubic model=mace_mp0 T=100.0 seed=3 supercell=2x2x2 source="SSCHA free-energy-Hessian ensemble (final auxiliary dyn)" index=134 pair=67 energy=-319.0049317052578 pbc="T T T"
Ba      -0.02152118      -0.07999440      -0.00153927      -0.02152118      -0.07999440      -0.00153927       0.16743757       0.89204436      -0.20203878
Ti       1.99096818       1.96081905       2.08085538      -0.02605533      -0.05620446       0.06383187      -0.01423199       0.66396380      -0.74049444
O       -0.01957829       2.10843440       2.03472669      -0.01957829       0.09141088       0.01770317       0.10495112      -0.53684730       0.09997909
O        1.99375595       0.13785355       1.98958443      -0.02326756       0.13785355      -0.02743908       0.05697776      -1.34469273       0.14256724
O        1.94824896       2.05729441      -0.02101280      -0.06877456       0.04027089      -0.02101280       0.53821823      -0.26867122      -0.62204255
Ba       0.00996286      -0.00929148       4.04646361       0.00996286      -0.00929148       0.01241659      -0.04296983      -0.01988012       0.05983882
Ti       1.95430522       2.04575692       6.05363513      -0.06271830       0.02873341       0.00256459      -0.80581947      -0.08012102       0.99556447
O       -0.00440761       2.12006093       6.03179844      -0.00440761       0.10303741      -0.01927210       1.39446134      -0.65317586      -0.07137266
O        2.03594411      -0.07711488       6.07370386       0.01892060      -0.07711488       0.02263332       0.05699672       0.90185086      -0.23600815
O        2.00354866       2.07156818       4.03179425      -0.01347485       0.05454466      -0.00225277       0.25321467      -0.44842128       0.37359430
Ba       0.03114894       4.10438240       0.00623410       0.03114894       0.07033538       0.00623410      -0.49337998      -0.81444119      -0.22646917
Ti       2.00075295       5.98960019       1.96484411      -0.01627056      -0.06147035      -0.05217940       0.16235596      -0.63068747       0.44077611
O       -0.02906078       6.06426561       1.94594992      -0.02906078       0.01319507      -0.07107359       0.23456407       0.27431502       0.46149653
O        1.97365802       3.99394782       1.95712163      -0.04336549      -0.04009921      -0.05990189       0.28494557       1.33099175       0.31471501
O        1.95598133       5.99710916      -0.00403838      -0.06104218      -0.05396138      -0.00403838       0.42132782       0.22995652       0.30427468
Ba      -0.03566118       3.96425841       4.02959749      -0.03566118      -0.06978862      -0.00444954       0.11680451       0.71663796      -0.03674996
Ti       2.04604837       6.00889113       6.03649883       0.02902486      -0.04217941      -0.01457171      -0.46541523       0.83893650      -0.45106553
O        0.03450536       6.09609580       5.98382778       0.03450536       0.04502526      -0.06724276      -0.26038251      -0.29634493       0.50314018
O        2.03469688       4.00368529       6.01021183       0.01767337      -0.03036174      -0.04085871       0.27763153       0.07833843       0.19063230
O        1.97184585       6.00169226       4.03200425      -0.04517766      -0.04937828      -0.00204277       0.27529971       0.24923058      -0.25035526
Ba       4.13172541       0.01965435      -0.05357229       0.09767838       0.01965435      -0.05357229      -0.44383229       0.25892211       0.33402379
Ti       6.07768827       2.02675753       2.04548362       0.02661773       0.00973401       0.02846010      -0.20214455      -0.09392779      -0.54185885
O        4.08812306       2.05965380       2.09649279       0.05407604       0.04263028       0.07946928      -0.51163392       0.00134552      -0.30166091
O        6.03245028       0.06347085       2.03099860      -0.01862026       0.06347085       0.01397509       0.10877987      -0.37606942       0.01697845
O        6.06428108       2.04248455      -0.02680474       0.01321054       0.02546104      -0.02680474       0.09788609      -0.01240745       0.67268848
Ba       4.06862934       0.03454618       4.07130170       0.03458231       0.03454618       0.03725467      -0.07398721      -0.05355545      -0.17323630
Ti       6.03263447       2.10196430       6.04094133      -0.01843607       0.08494078      -0.01012921       0.29669023       0.09034191       0.66526952
O        4.17428418       2.07835932       6.10646246       0.14023715       0.06133581       0.05539192      -1.75075970      -0.37246958      -0.40154844
O        6.09786256       0.04207519       6.08002886       0.04679202       0.04207519       0.02895832      -0.06428695      -0.82183429      -0.38144058
O        6.06135593       2.15832794       4.05015709       0.01028539       0.14130443       0.01611006      -0.03181489      -0.74631781      -0.59176719
Ba       3.96401455       3.97416202       0.04681714      -0.07003248      -0.05988500       0.04681714       0.57968663       0.02127668      -0.17935042
Ti       6.05563230       6.02762713       1.98623121       0.00456176      -0.02344341      -0.03079230       0.41615805      -0.38046515       0.04256943
O        3.94865650       6.06781669       2.05956056      -0.08539052       0.01674615       0.04253704       0.40237154       0.08058901      -0.28582856
O        6.08675321       4.07521608       1.94206657       0.03568267       0.04116906      -0.07495694      -0.46396046       0.69209317       0.41937617
O        6.12584702       6.04066785       0.00152092       0.07477648      -0.01040269       0.00152092      -0.58726308       0.31613212       0.03774187
Ba       3.98052144       4.04227756       4.01876327      -0.05352558       0.00823054      -0.01528376       0.40409885       0.02010781       0.02169587
Ti       6.07034790       6.09572158       6.02132623       0.01927736       0.04465104      -0.02974431       0.32987032      -0.25630532      -0.11240135
O        4.05398194       6.13243219       6.11567214       0.01993491       0.08136165       0.06460160       0.19501221      -0.52970577      -0.43417039
O        6.07084503       4.03617721       6.01509381       0.01977449       0.00213018      -0.03597673      -0.09576739       1.16073454       0.19187637
O        6.17224190       6.09479351       4.03206795       0.12117136       0.04372297      -0.00197908      -0.86809091      -0.08146749      -0.04893919
40
Lattice="8.068094053620344 -7.927176553288082e-19 -5.701750792830376e-18 4.008826256534409e-17 8.06809405362036 5.6915464259332475e-15 3.9693271986961044e-16 9.085540583848858e-16 8.068094053620342" Properties=species:S:1:pos:R:3:u_disp:R:3:forces:R:3 system=batio3_cubic model=mace_mp0 T=100.0 seed=3 supercell=2x2x2 source="SSCHA free-energy-Hessian ensemble (final auxiliary dyn)" index=282 pair=141 energy=-318.96519868123346 pbc="T T T"
Ba      -0.01258146      -0.01154661       0.01453361      -0.01258146      -0.01154661       0.01453361       0.59110244      -0.00907015       0.10417205
Ti       2.01558545       1.98426347       2.11912455      -0.00143806      -0.03276005       0.10210104       0.14103785      -0.41758163      -1.52989269
O       -0.07779323       2.13306749       2.03173134      -0.07779323       0.11604398       0.01470782      -0.09879279      -0.44877339       0.25080506
O        1.93556408       0.10005572       2.00770154      -0.08145943       0.10005572      -0.00932197       0.21002641       0.46853091       0.45454712
O        2.05322996       2.02508112       0.10960068       0.03620645       0.00805761       0.10960068      -0.12635411       0.34704397      -1.57720556
Ba      -0.03205249       0.05007363       4.07340501      -0.03205249       0.05007363       0.03935798       0.04290537      -0.55927336      -0.24644595
Ti       2.05730758       1.98457588       6.06178872       0.04028407      -0.03244763       0.01071818      -0.53985952      -0.75015448       0.54099517
O        0.06938660       2.06836453       5.97202208       0.06938660       0.05134102      -0.07904846      -0.08024931      -0.15840304       0.54029014
O        2.03114644       0.02012537       6.09220933       0.01412293       0.02012537       0.04113879       0.11545488       0.78967393      -0.25815306
O        2.05159097       2.10974210       3.99825246       0.03456746       0.09271858      -0.03579456      -0.03548374      -0.26773547       1.19273506
Ba      -0.00961219       4.01346263      -0.02561861      -0.00961219      -0.02058439      -0.02561861       0.28407160       0.10430047       0.57145547
Ti       2.03468361       6.01330275       2.05388108       0.01766009      -0.03776779       0.03685757      -0.14496137      -0.10762868      -0.95517252
O        0.07387138       6.09837615       2.09346415       0.07387138       0.04730561       0.07644063      -1.41254508      -0.06804544      -0.26456727
O        1.95441713       4.14453419       2.01496609      -0.06260639       0.11048716      -0.00205743       0.32034355      -1.03906658       0.28585461
O        2.02498633       6.07080084       0.08149459       0.00796282       0.01973030       0.08149459      -0.00109568       0.08728368      -1.49219098
Ba       0.02052642       4.01017587       4.07646466       0.02052642      -0.02387115       0.04241763      -0.50846516       0.45355254      -0.56136299
Ti       1.94578806       5.96568637       6.00938492      -0.07123545      -0.08538417      -0.04168562       0.00256356       0.88070614       0.49961945
O        0.06244635       6.00775261       6.07543366       0.06244635      -0.04331793       0.02436312       0.67605953       0.33265746      -0.40183342
O        2.00416437       4.08229876       6.07211403      -0.01285914       0.04825173       0.02104349       0.39928089      -0.33938274      -0.11378140
O        2.08676549       6.15704520       3.98603336       0.06974197       0.10597466      -0.04801367      -0.11411612      -0.32044012       1.79328883
Ba       4.02347182      -0.01134045      -0.02668558      -0.01057521      -0.01134045      -0.02668558      -0.29479766      -0.29539078       0.34819748
Ti       6.05168680       1.99591280       1.99507654       0.00061626      -0.02111072      -0.02194697       0.02424406       0.38385744       0.27165598
O        4.03706664       1.96024895       2.05375363       0.00301961      -0.05677456       0.03673011       0.20647308       0.36217581      -0.17094267
O        6.09040790      -0.03890506       2.05293103       0.03933736      -0.03890506       0.03590751      -0.18639372       0.70172890      -0.12870108
O        6.05906661       1.95435025       0.01259328       0.00799607      -0.06267326       0.01259328      -0.05654678       0.44654027       0.00173014
Ba       4.05035064       0.02926783       4.00704561       0.01630362       0.02926783      -0.02700142       0.10451891      -0.52971286       0.08580576
Ti       6.03567013       1.98711493       6.05805515      -0.01540041      -0.02990858       0.00698461      -0.04076392      -0.44932236      -0.68911783
O        4.08119232       2.01367346       6.04008420       0.04714529      -0.00335005      -0.01098634      -0.55391244       0.20914722       0.25643800
O        6.06632472       0.01371406       6.02895983       0.01525418       0.01371406      -0.02211071       0.17972867       0.79066010       0.12189957
O        5.96179892       2.05610866       4.08957391      -0.08927162       0.03908515       0.05552688       0.62744026      -0.12737406      -0.06410324
Ba       3.98770958       3.98529025      -0.03835974      -0.04633744      -0.04875678      -0.03835974       0.05111073       0.41816008       0.64220146
Ti       6.09565786       6.05831209       1.98916328       0.04458732       0.00724155      -0.02786023      -0.05723626      -0.52972687       1.12506541
O        4.01811276       6.00896096       1.95519461      -0.01593427      -0.04210958      -0.06182890       0.87897330       0.62433624       0.05366722
O        5.97589568       4.09221348       2.08414569      -0.07517486       0.05816645       0.06712217       0.42683752      -0.59519601      -0.78034905
O        6.19919491       6.07707871      -0.03764244       0.14812437       0.02600817      -0.03764244      -0.44765447      -0.02115945       0.85058511
Ba       4.07759913       4.09593598       3.97784615       0.04355210       0.06188896      -0.05620087       0.05930361       0.00056448       0.07329575
Ti       6.01909925       6.00649415       6.11564132      -0.03197129      -0.04457639       0.06457078      -0.30236587       0.18195871      -1.04934220
O        4.15334804       6.00176741       6.06160342       0.11930101      -0.04930313       0.01053288      -1.00299131       0.37149830       0.24047159
O        6.05511610       4.13181074       6.06215420       0.00404556       0.09776372       0.01108366       0.27466161      -1.46492904       0.24147732
O        6.02836582       6.00485616       4.02011043      -0.02270472      -0.04621438      -0.01393660       0.38844745       0.54398985      -0.26309185
40
Lattice="8.068094053620344 -7.927176553288082e-19 -5.701750792830376e-18 4.008826256534409e-17 8.06809405362036 5.6915464259332475e-15 3.9693271986961044e-16 9.085540583848858e-16 8.068094053620342" Properties=species:S:1:pos:R:3:u_disp:R:3:forces:R:3 system=batio3_cubic model=mace_mp0 T=100.0 seed=3 supercell=2x2x2 source="SSCHA free-energy-Hessian ensemble (final auxiliary dyn)" index=311 pair=155 energy=-318.8354451467229 pbc="T T T"
Ba      -0.01445748       0.00192869      -0.00905500      -0.01445748       0.00192869      -0.00905500       0.16100114      -0.14745417      -0.32687817
Ti       1.98600496       2.01999683       2.00205435      -0.03101855       0.00297331      -0.01496916       0.23172944       0.54218240       0.13922322
O        0.00278525       2.01300302       1.99215803       0.00278525      -0.00402050      -0.02486549       0.37523645      -0.33755884      -0.00831306
O        2.08874440       0.04133794       1.98815715       0.07172088       0.04133794      -0.02886636      -0.37431544       0.00925164       0.06032515
O        2.03883730       2.02042276      -0.08584342       0.02181378       0.00339925      -0.08584342      -0.27046899      -0.04415452       1.68467421
Ba       0.00613307      -0.00529873       4.01432679       0.00613307      -0.00529873      -0.01972024      -0.08138490      -0.05707738       0.36169754
Ti       2.02428716       2.05179342       6.06727581       0.00726365       0.03476990       0.01620527       0.04068705       0.72997064      -0.11032397
O       -0.02764370       2.07828032       6.09601531      -0.02764370       0.06125681       0.04494477      -0.57128515      -0.35868034      -0.15559053
O        2.05004808      -0.02533172       6.04151680       0.03302456      -0.02533172      -0.00955374      -0.14984471       0.37740929       0.19847380
O        1.93414042       2.03859124       4.11020295      -0.08288309       0.02156772       0.07615592       0.23522771      -0.28933824      -1.08292363
Ba      -0.01119603       4.03367074       0.06450478      -0.01119603      -0.00037629       0.06450478       0.15873070       0.22547288      -0.55166753
Ti       2.07154737       6.11917542       2.04680451       0.05452385       0.06810488       0.02978100      -0.19811952      -1.14573127      -0.45476039
O        0.02308940       6.03681676       2.09669432       0.02308940      -0.01425378       0.07967080      -0.23205536       0.48353921      -0.25364495
O        2.04586173       4.08555686       2.12952684       0.02883821       0.05150983       0.11250333      -0.26082415      -1.14523257      -0.50409754
O        2.05247055       5.94491540       0.02879786       0.03544703      -0.10615514       0.02879786      -0.08815409       1.19728245       0.55498285
Ba       0.01923488       3.96189979       3.98813845       0.01923488      -0.07214724      -0.04590858      -0.12540766       0.58119102       0.51914911
Ti       2.05478543       6.13976871       6.00013821       0.03776192       0.08869817      -0.05093233      -0.15598253      -1.22116854       0.44282177
O        0.03292664       6.14392227       6.09541469       0.03292664       0.09285173       0.04434415       0.39518219      -0.21556497      -0.32446120
O        2.13415023       4.12488566       6.13736516       0.11712671       0.09083863       0.08629462      -0.74918697      -0.68656622      -0.73665086
O        2.17812548       6.12003519       4.02171343       0.16110197       0.06896465      -0.01233360      -1.02747572       0.04967826       0.20727063
Ba       4.05026878      -0.03151600      -0.01634176       0.01622176      -0.03151600      -0.01634176      -0.14670569       0.12222123      -0.27150686
Ti       5.98974125       1.98659355       2.00760210      -0.06132929      -0.03042996      -0.00942141      -0.41882693       1.14927311      -0.05623643
O        4.04372884       1.96987419       2.05105078       0.00968181      -0.04714932       0.03402726      -0.15550316       0.19535057      -0.20715640
O        6.01164495      -0.03708236       1.93856056      -0.03942559      -0.03708236      -0.07846296       0.25199305       0.08607425       0.49374518
O        5.95687520       2.04839298      -0.02800602      -0.09419534       0.03136947      -0.02800602       0.26014025      -0.33208409       0.11391213
Ba       4.02722879      -0.02767981       4.04994403      -0.00681824      -0.02767981       0.01589700       0.23295936       0.18781129       0.08746323
Ti       6.00978269       1.94885875       6.03959029      -0.04128785      -0.06816477      -0.01148025       0.38094762       0.05486314       0.27101781
O        3.94530095       2.01007697       6.05173256      -0.08874607      -0.00694654       0.00066202       1.13991005      -0.11983991      -0.17646020
O        6.03794763      -0.00129986       5.98705337      -0.01312291      -0.00129986      -0.06401717       0.05015046       1.45356409       0.31221679
O        5.97964572       2.11679300       4.01494766      -0.07142482       0.09976948      -0.01909936       0.46153347      -0.86274997       0.29815212
Ba       3.97498303       4.14704033       0.01684909      -0.05906399       0.11299330       0.01684909       0.35842654      -0.64697424      -0.20832342
Ti       6.06906136       6.07592609       1.96363940       0.01799082       0.02485555      -0.05338411       0.23306449      -1.04351722      -0.00466009
O        4.02429088       5.94112383       2.09649564      -0.00975615      -0.10994671       0.07947213       0.73568115       0.90375631      -0.49213725
O        6.10072387       4.01196129       2.07680320       0.04965333      -0.02208574       0.05977969      -0.19136137      -0.04775167      -0.49141231
O        6.08170038       5.99143670      -0.00116824       0.03062984      -0.05963384      -0.00116824      -0.10631703       0.57549253       1.34431029
Ba       4.04406266       4.01647178       4.03588273       0.01001563      -0.01757525       0.00183570      -0.06706688       0.19345104       0.22561055
Ti       6.08654832       5.98374575       6.00035935       0.03547778      -0.06732479      -0.05071119      -0.02760424      -0.25255278      -0.17895966
O        4.07778444       6.06155484       6.00090827       0.04373741       0.01048430      -0.05016227      -0.32201416       0.44721987       0.47016576
O        6.04566180       4.13648690       6.09620635      -0.00540874       0.10243988       0.04513581       0.07399568      -1.14961867      -0.12427870
O        6.10685224       5.98969178       4.10900503       0.05578170      -0.06137876       0.07495800      -0.05669214       0.53856040      -1.06476897
40
Lattice="8.068094053620344 -7.927176553288082e-19 -5.701750792830376e-18 4.008826256534409e-17 8.06809405362036 5.6915464259332475e-15 3.9693271986961044e-16 9.085540583848858e-16 8.068094053620342" Properties=species:S:1:pos:R:3:u_disp:R:3:forces:R:3 system=batio3_cubic model=mace_mp0 T=100.0 seed=3 supercell=2x2x2 source="SSCHA free-energy-Hessian ensemble (final auxiliary dyn)" index=362 pair=181 energy=-318.9260345413427 pbc="T T T"
Ba       0.09331202       0.01380422       0.00912311       0.09331202       0.01380422       0.00912311      -0.91678271       0.00092606       0.03330464
Ti       1.99501637       1.99732040       2.11367774      -0.02200715      -0.01970311       0.09665422       0.82247843       0.64045349      -0.52570000
O       -0.03875860       2.05534418       2.00955676      -0.03875860       0.03832067      -0.00746676       0.69755621      -0.09569308      -0.08412641
O        2.00290807       0.10450976       1.99242892      -0.01411544       0.10450976      -0.02459460      -0.21963955      -1.48446709       0.40164038
O        2.11126796       1.97581277       0.02515107       0.09424444      -0.04121074       0.02515107      -0.72090630       0.38807371      -0.83779674
Ba      -0.02983960       0.00528012       4.02520423      -0.02983960       0.00528012      -0.00884279       0.07764271      -0.27028607       0.17395652
Ti       2.06009014       2.00726262       6.10973421       0.04306662      -0.00976089       0.05866367       0.44264697      -0.86718681       0.24062652
O        0.02375750       2.06834025       6.06957252       0.02375750       0.05131674       0.01850198      -0.59565903      -0.07750110      -0.19152732
O        1.94523364      -0.01092250       6.10909017      -0.07178987      -0.01092250       0.05801963       0.16899959       0.34472499      -0.30247946
O        2.01062544       2.03813700       4.05116003      -0.00639807       0.02111349       0.01711300      -0.20574512      -0.01480501      -0.12663106
Ba       0.03905248       4.03899981       0.02507936       0.03905248       0.00495278       0.02507936      -0.54108413      -0.02719710       0.05231708
Ti       2.01041421       6.07575457       2.01996439      -0.00660930       0.02468403       0.00294087      -0.46761007      -0.73875614       0.27543231
O       -0.01304637       5.96951542       2.07431874      -0.01304637      -0.08155512       0.05729522       1.60500005       0.36332490      -0.15129216
O        2.08351431       4.00517550       1.96282035       0.06649080      -0.02887153      -0.05420316      -0.31068427       1.12215466       0.39604491
O        2.08379986       6.10234343       0.04000984       0.06677635       0.05127289       0.04000984      -0.55931800      -0.40924518       0.27256098
Ba       0.01035737       4.03606227       3.96052604       0.01035737       0.00201525      -0.07352099      -0.36163870       0.23961959       0.38208725
Ti       2.01384786       5.98162547       6.10054353      -0.00317566      -0.06944507       0.04947299       0.54076453       1.03705380      -0.63635465
O       -0.00100501       6.05720592       6.00536204      -0.00100501       0.00613538      -0.04570850       1.01145326      -0.18766069       0.31409332
O        2.12387656       4.03777623       6.10153238       0.10685305       0.00372920       0.05046184      -0.65273021       0.30986151      -0.11400722
O        2.14204014       6.08613525       4.06375828       0.12501662       0.03506471       0.02971125      -0.57099713      -0.23208099      -0.55996432
Ba       3.92294645      -0.00890533       0.00353923      -0.11110057      -0.00890533       0.00353923       1.19414208       0.27745061      -0.15213645
Ti       6.06117731       2.03552760       2.02206665       0.01010677       0.01850408       0.00504314      -0.67750849       0.22921379      -0.53733539
O        4.01423560       2.03542347       2.01095848      -0.01981143       0.01839995      -0.00606503      -0.05969076      -0.33791148       0.26855153
O        6.12285648      -0.04532822       2.05127923       0.07178594      -0.04532822       0.03425572      -0.13231854      -0.02969139      -0.09048556
O        6.00926894       1.88333600      -0.05454276      -0.04180160      -0.13368751      -0.05454276       0.31910165       0.48908558      -0.54300122
Ba       4.02908773       0.00035686       4.00447835      -0.00495929       0.00035686      -0.02956867       0.21994696       0.03918964       0.45074810
Ti       6.12265820       2.02178658       6.02046084       0.07158766       0.00476307      -0.03060970      -0.39660783       0.03319118       1.04867361
O        4.00156311       1.95631053       6.00014737      -0.03248392      -0.06071299      -0.05092317       0.01145641       0.38235033      -0.02421676
O        6.01187125      -0.02110603       5.99899791      -0.03919929      -0.02110603      -0.05207264       0.62380220       0.94036042      -0.05114683
O        6.04412706       2.00569615       3.94444380      -0.00694348      -0.01132736      -0.08960322       0.20022762       0.12546490       1.28523703
Ba       4.02708319       3.97777947      -0.04658190      -0.00696383      -0.05626756      -0.04658190       0.64861298       0.12959780       0.49339379
Ti       5.99222147       6.09156090       2.04748063      -0.05884907       0.04049036       0.03045712       0.58441160       0.28641944      -0.23845457
O        4.13111049       6.14777558       2.00741375       0.09706346       0.09670504      -0.00960976      -1.33090425      -0.48698828       0.08535551
O        6.00783947       3.94897623       1.94375746      -0.04323107      -0.08507080      -0.07326605       0.18770700       0.35464335       0.22044366
O        6.11438140       6.04920554       0.01340685       0.06331086      -0.00186500       0.01340685       0.06469226       0.15497060       0.06414281
Ba       3.96969580       4.04773460       4.05952081      -0.06435123       0.01368757       0.02547378       0.77527759      -0.00670381      -0.17762357
Ti       6.09037865       6.11387243       6.09931556       0.03930811       0.06280189       0.04824502      -0.64723469      -0.45647216       0.07032229
O        4.05935195       6.14286745       6.11691147       0.02530493       0.09179691       0.06584093      -0.75671467      -0.48193275      -0.17754330
O        6.05247140       4.10320376       6.11483856       0.00140086       0.06915673       0.06376802      -0.00491771      -1.46605233      -0.45163888
O        6.05736836       6.04386897       4.06608045       0.00629782      -0.00720157       0.03203342      -0.06722794      -0.21749889      -0.55547037
40
Lattice="8.068094053620344 -7.927176553288082e-19 -5.701750792830376e-18 4.008826256534409e-17 8.06809405362036 5.6915464259332475e-15 3.9693271986961044e-16 9.085540583848858e-16 8.068094053620342" Properties=species:S:1:pos:R:3:u_disp:R:3:forces:R:3 system=batio3_cubic model=mace_mp0 T=100.0 seed=3 supercell=2x2x2 source="SSCHA free-energy-Hessian ensemble (final auxiliary dyn)" index=375 pair=187 energy=-318.7910503701094 pbc="T T T"
Ba       0.03496986       0.01293722      -0.03168695       0.03496986       0.01293722      -0.03168695      -0.79727971       0.07985376       0.09636957
Ti       2.02283105       2.01544164       2.02133518       0.00580753      -0.00158188       0.00431167      -0.20306619       0.73379566      -0.16381516
O       -0.02678151       2.01760068       1.98364513      -0.02678151       0.00057717      -0.03337839       0.27019284       0.15594942       0.41780731
O        1.87446592      -0.01045453       2.02978382      -0.14255759      -0.01045453       0.01276031       0.97128121       0.14477999      -0.02058111
O        2.00408199       2.03503591      -0.05402038      -0.01294153       0.01801240      -0.05402038       0.12997291      -0.18295858       0.32214880
Ba      -0.02061792       0.01784943       4.06226315      -0.02061792       0.01784943       0.02821613      -0.44223250      -0.10811970      -0.01231083
Ti       1.98235545       2.07795325       6.01907084      -0.03466806       0.06092973      -0.03199970      -0.79843374       0.16406394       0.51492280
O       -0.09374821       2.02613969       5.92242484      -0.09374821       0.00911617      -0.12864570       1.55691094       0.42515141       0.52743250
O        1.82048424       0.01195758       6.07566492      -0.19653927       0.01195758       0.02459438       1.25585210      -0.30179258      -0.35197912
O        1.99276183       2.08557348       4.00705199      -0.02426169       0.06854997      -0.02699504       0.31682672      -0.59523669      -0.00193779
Ba       0.03679181       4.00059859       0.07634087       0.03679181      -0.03344844       0.07634087      -0.40720092       0.23218359      -0.69609391
Ti       1.97955226       6.11740403       2.00747151      -0.03747125       0.06633349      -0.00955200      -0.09461101      -0.47740125      -0.12958510
O       -0.02936923       6.12456006       2.01401403      -0.02936923       0.07348952      -0.00300949       0.47184811      -0.48226746       0.24890411
O        1.93748688       4.00057539       2.02914860      -0.07953663      -0.03347164       0.01212509       0.39518901       0.01997340      -0.08782482
O        2.04671023       6.01961638      -0.02353049       0.02968671      -0.03145416      -0.02353049      -0.35356282       0.19956565       0.26161978
Ba       0.02345801       4.00152792       4.02929442       0.02345801      -0.03251911      -0.00475261      -0.32625136       0.45919960       0.29347964
Ti       2.00043022       6.09379803       6.05601635      -0.01659329       0.04272749       0.00494581       0.10189788      -0.03381374       0.20116857
O       -0.12075114       6.03846859       6.07491646      -0.12075114      -0.01260195       0.02384592       1.38533000      -0.12874507      -0.39351652
O        2.07082485       4.01413488       6.07025086       0.05380133      -0.01991215       0.01918032      -0.56097609       0.14136870      -0.26367812
O        2.02644829       6.11136634       4.06185935       0.00942478       0.06029580       0.02781232       0.03520082      -0.25149118      -0.06870072
Ba       4.05376390      -0.04113657       0.03477564       0.01971687      -0.04113657       0.03477564       0.28686643       0.20287305      -0.21644598
Ti       6.08299645       2.03952901       2.03984429       0.03192591       0.02250549       0.02282078       0.30324760      -1.14805779      -0.89864248
O        4.04671771       1.97838433       2.01901319       0.01267069      -0.03863918       0.00198968      -0.64750293       0.23389546      -0.01950662
O        6.03662196       0.03323776       1.99039184      -0.01444858       0.03323776      -0.02663167      -0.22578663       0.05647612       0.51898639
O        6.15679998       1.96731627       0.03404874       0.10572944      -0.04970725       0.03404874      -0.79109756       0.87423143       0.23165450
Ba       4.00276926       0.02580693       3.99931374      -0.03127777       0.02580693      -0.03473329       0.31849049      -0.25070037       0.20496362
Ti       5.95328956       2.04389718       5.99408323      -0.09778098       0.02687367      -0.05698731       1.60476277      -0.07924658       0.63892120
O        4.04529932       2.11414746       6.05902534       0.01125229       0.09712395       0.00795480      -0.68867080      -0.86167016      -0.31996193
O        6.11337989       0.06611197       6.15787781       0.06230934       0.06611197       0.10680727      -0.95135028      -0.50054996      -0.78087941
O        6.09122958       2.06571109       4.02615486       0.04015904       0.04868758      -0.00789216      -0.62617615      -0.31736185      -0.46486635
Ba       4.07145148       3.95493223      -0.01961623       0.03740445      -0.07911479      -0.01961623      -0.07297338       0.55954763       0.10919053
Ti       6.03651964       6.02374961       2.04123035      -0.01455090      -0.02732093       0.02420683       0.24754634       0.62938508      -0.25226651
O        4.00639195       6.03647545       1.94814187      -0.02765508      -0.01459509      -0.06888165      -0.41589775       0.33410385       0.30758570
O        6.04408404       4.13920707       2.07603602      -0.00698650       0.10516005       0.05901251       0.03357014      -1.11455183      -0.28286348
O        6.14183507       6.00881218       0.00118008       0.09076453      -0.04225836       0.00118008      -0.74154262       0.05999456       0.25104675
Ba       4.05350079       4.06064498       3.99087699       0.01945376       0.02659795      -0.04317004      -0.20794556       0.19385293       0.23860210
Ti       6.03027795       6.05859083       6.08155490      -0.02079259       0.00752029       0.03048436       0.50080624      -0.18577188       0.17308165
O        4.04478125       6.05420538       6.13026148       0.01073423       0.00313484       0.07919094      -0.89152087       0.35992682      -0.28131248
O        6.04533162       4.02521770       5.97666937      -0.00573892      -0.00882932      -0.07440117      -0.29915004       0.03481095       0.52563906
O        5.92757830       6.00951891       4.06002043      -0.12349224      -0.04155163       0.02597341       0.35743637       0.72475370      -0.37675615
40
Lattice="8.068094053620344 -7.927176553288082e-19 -5.701750792830376e-18 4.008826256534409e-17 8.06809405362036 5.6915464259332475e-15 3.9693271986961044e-16 9.085540583848858e-16 8.068094053620342" Properties=species:S:1:pos:R:3:u_disp:R:3:forces:R:3 system=batio3_cubic model=mace_mp0 T=100.0 seed=3 supercell=2x2x2 source="SSCHA free-energy-Hessian ensemble (final auxiliary dyn)" index=377 pair=188 energy=-318.7879440217414 pbc="T T T"
Ba       0.08878985       0.00912868      -0.02668378       0.08878985       0.00912868      -0.02668378      -0.45126866       0.06667160       0.13252310
Ti       2.03158846       2.00300584       2.01745546       0.01456495      -0.01401768       0.00043194      -0.14402093       1.01963287      -0.33327331
O       -0.00038221       2.04642323       1.99355837      -0.00038221       0.02939972      -0.02346514       0.58374930      -0.47459418       0.27793140
O        1.99217761      -0.04949248       1.98554654      -0.02484591      -0.04949248      -0.03147697       0.00901804       1.38110864       0.24266517
O        2.04205310       2.03284966       0.01832594       0.02502958       0.01582615       0.01832594      -0.07527199      -0.36716159       0.21034606
Ba      -0.04478707       0.01741073       4.02634643      -0.04478707       0.01741073      -0.00770060       0.20991406      -0.39953086      -0.08597445
Ti       2.03619741       2.00681071       6.01481253       0.01917390      -0.01021280      -0.03625801      -1.02255605       0.32531908       0.24107690
O        0.10009840       1.92743463       5.96084992       0.10009840      -0.08958888      -0.09022062      -0.62348892       0.24524223       0.49010980
O        2.08043129      -0.04324138       6.11572097       0.06340778      -0.04324138       0.06465043      -0.30691342       0.35251054      -0.23506250
O        2.07720554       2.04317426       4.03781305       0.06018203       0.02615075       0.00376602      -0.11542407      -0.31450725       0.01571127
Ba       0.05023596       4.05120820      -0.03969909       0.05023596       0.01716118      -0.03969909      -0.40355387      -0.30590859       0.41660726
Ti       1.97707599       6.09990746       2.03399074      -0.03994753       0.04883692       0.01696723       1.16836720      -1.02806010       0.55306141
O       -0.00296804       6.02446275       2.07871709      -0.00296804      -0.02660779       0.06169358      -0.17373155       0.00607608      -0.55068399
O        2.04142893       4.05895373       2.01757755       0.02440542       0.02490670       0.00055403      -0.29235223      -0.98993644      -0.04078513
O        2.09225844       6.09792595       0.06842225       0.07523492       0.04685541       0.06842225      -0.76456175      -0.20534665      -0.99982168
Ba      -0.00616882       3.98724411       4.08406196      -0.00616882      -0.04680291       0.05001493      -0.02477214       0.34814864      -0.47660830
Ti       2.00016377       6.02456474       6.10662855      -0.01685975      -0.02650580       0.05555801       0.65096127      -0.05273066      -0.64490893
O       -0.03527478       5.95188024       6.03584922      -0.03527478      -0.09919030      -0.01522132       0.75090750       0.95594974       0.30458158
O        2.00803809       4.01483555       6.14700804      -0.00898543      -0.01921148       0.09593750       0.06645525       0.15566197      -0.40725702
O        2.04638281       6.04534825       4.03915887       0.02935930      -0.00572229       0.00511184      -0.36934745       0.09141592       0.88764596
Ba       4.01331130       0.04211321      -0.03025225      -0.02073573       0.04211321      -0.03025225       0.17791423      -0.61436922       0.57359116
Ti       6.06294348       1.97869189       2.01551207       0.01187294      -0.03833162      -0.00151144       0.09377193       0.75312764       0.04016492
O        4.06439236       2.06512807       2.03817806       0.03034533       0.04810456       0.02115455      -0.51886660      -0.66662040      -0.29025398
O        6.15723857      -0.07018736       2.04966844       0.10616803      -0.07018736       0.03264493      -0.46348785       0.56036076      -0.60687745
O        6.06907519       2.06054667       0.02900554       0.01800465       0.04352315       0.02900554      -0.06290424      -0.65021491      -1.37529272
Ba       3.96953377       0.03113978       4.09118735      -0.06451325       0.03113978       0.05714033       0.22674416      -0.83263518      -0.76304127
Ti       5.95513931       1.95958022       6.04340655      -0.09593123      -0.05744330      -0.00766399       0.39073993       0.59528644      -0.20498866
O        4.00700012       2.09001746       6.08626854      -0.02704691       0.07299395       0.03519800       1.05102646      -0.49494785      -0.07164786
O        5.98979843      -0.00226655       5.86542010      -0.06127211      -0.00226655      -0.18565044       0.23055849       0.93528448       1.18475610
O        5.95134716       1.97926727       3.98975299      -0.09972338      -0.03775624      -0.04429404       0.51441899       0.13741593       0.82895499
Ba       4.01035065       4.01330204       0.03644599      -0.02369638      -0.02074499       0.03644599       0.24506914       0.50621556       0.19002141
Ti       6.11269051       6.04011350       1.97025295       0.06161997      -0.01095704      -0.04677057      -0.70281285      -0.20871790       0.80184339
O        3.98451935       6.02871240       2.07879506      -0.04952768      -0.02235814       0.06177155       0.72195557       0.25632573      -0.36409013
O        6.11955795       3.97807841       2.00409828       0.06848741      -0.05596862      -0.01292524      -0.23469317       0.35595305       0.04959774
O        6.02149240       6.00764748      -0.04656137      -0.02957814      -0.04342306      -0.04656137       0.32814683       0.51264712       0.41215454
Ba       4.04658415       4.03487257       4.00967574       0.01253713       0.00082554      -0.02437129       0.01100430       0.59918257      -0.19240253
Ti       6.03640618       6.06695665       6.03369076      -0.01466436       0.01588611      -0.01737978      -0.28915839      -1.23402174      -0.38336296
O        4.01147454       6.06263367       6.13311895      -0.02257249       0.01156313       0.08204841      -0.10760238      -0.09207487      -0.41148306
O        6.06832311       4.11845966       5.94298987       0.01725257       0.08441263      -0.10808067      -0.21204364      -1.17656501       0.40748119
O        6.04686831       6.05867264       3.99339628      -0.00420223       0.00760210      -0.04065075      -0.07189050      -0.05159319       0.17699060
40
Lattice="8.068094053620344 -7.927176553288082e-19 -5.701750792830376e-18 4.008826256534409e-17 8.06809405362036 5.6915464259332475e-15 3.9693271986961044e-16 9.085540583848858e-16 8.068094053620342" Properties=species:S:1:pos:R:3:u_disp:R:3:forces:R:3 system=batio3_cubic model=mace_mp0 T=100.0 seed=3 supercell=2x2x2 source="SSCHA free-energy-Hessian ensemble (final auxiliary dyn)" index=380 pair=190 energy=-318.9229496668166 pbc="T T T"
Ba      -0.06831669      -0.04392572       0.04627732      -0.06831669      -0.04392572       0.04627732       0.32919758       0.15330728      -0.42103671
Ti       1.98648337       1.97010787       2.03927725      -0.03054014      -0.04691564       0.02225373      -0.35502596       0.34812949       0.53365244
O        0.02913915       1.97783730       2.12661375       0.02913915      -0.03918622       0.10959023       0.20684173       0.04161479      -0.65318104
O        2.00688115      -0.08215723       2.02378767      -0.01014236      -0.08215723       0.00676416       0.00525204       0.89223870       0.05048502
O        1.92179357       1.97206848      -0.05335069      -0.09522995      -0.04495504      -0.05335069       0.43007512       0.15058927       0.53836566
Ba      -0.01082631       0.07436115       4.02354204      -0.01082631       0.07436115      -0.01050499       0.34748462      -0.54894876       0.42127857
Ti       2.04498635       2.02534850       6.08604391       0.02796283       0.00832499       0.03497336      -0.44907175      -0.29705573      -0.02935985
O        0.00739071       1.97836589       5.98999716       0.00739071      -0.03865762      -0.06107338      -0.42710675       0.31828964       0.12602943
O        1.92948046      -0.07821566       6.06444671      -0.08754305      -0.07821566       0.01337617       0.36527986       1.03564488       0.17956572
O        2.04500301       1.98493673       3.99915589       0.02797949      -0.03208678      -0.03489114      -0.01201887       0.01864952      -0.18502684
Ba       0.07271580       4.07351584      -0.00837897       0.07271580       0.03946881      -0.00837897      -0.65016713      -0.52312933       0.06584864
Ti       2.00873334       6.04118036       2.04223513      -0.00829018      -0.00989018       0.02521162       0.72257853      -0.46027357      -0.15878967
O       -0.07283756       5.91126490       1.94827458      -0.07283756      -0.13980564      -0.06874893       0.54383314       0.89110238       0.71811960
O        2.02011682       4.09663937       2.05808447       0.00309331       0.06259234       0.04106096      -0.12190956      -0.58362208      -0.10266105
O        2.01947634       6.06252742       0.03036407       0.00245283       0.01145688       0.03036407      -0.20420682      -0.13485395       0.49782642
Ba      -0.04803086       4.07338297       4.07938355      -0.04803086       0.03933594       0.04533652       0.46739337      -0.36065974      -0.24062970
Ti       2.02863469       6.05448615       6.08719257       0.01161118       0.00341561       0.03612203       0.80117855       0.77876887      -0.61351973
O       -0.06011724       6.06473401       6.05396757      -0.06011724       0.01366347       0.00289703       0.29632582      -0.33327851       0.52866386
O        1.98805130       4.06924628       6.03632481      -0.02897221       0.03519925      -0.01474573       0.04343172      -0.79992749       0.20759722
O        1.97580809       6.08306059       4.16825151      -0.04121543       0.03199005       0.13420448       0.03004700      -0.20576225      -1.28869174
Ba       4.09209433      -0.00195799      -0.04794126       0.05804730      -0.00195799      -0.04794126      -0.42055485      -0.34700881       0.08878068
Ti       5.98683027       1.91386250       1.97044436      -0.06424027      -0.10316101      -0.04657915       0.02745595       1.21435513      -0.77688988
O        4.04890426       2.11377824       2.06217011       0.01485723       0.09675473       0.04514660      -0.33123954      -0.81496213      -0.32299320
O        5.99306064      -0.00905091       2.10676750      -0.05800990      -0.00905091       0.08974399       0.40204906       0.18828496      -0.40397988
O        5.97239241       2.02893952       0.00708142      -0.07867813       0.01191600       0.00708142       0.51641240      -0.42391578       0.78212303
Ba       4.08038620       0.02264294       3.99360124       0.04633917       0.02264294      -0.04044578      -0.62071874      -0.61395604       0.54397487
Ti       6.05907007       2.01005288       5.95919161       0.00799953      -0.00697063      -0.09187893       0.48096959       0.35896370       0.92895989
O        3.99036825       2.06858770       6.05588951      -0.04367878       0.05156419       0.00481897      -0.12482042      -0.56889562      -0.08768244
O        6.09327946      -0.02690040       6.13174586       0.04220892      -0.02690040       0.08067531      -0.20870427       0.61173930      -0.21095438
O        6.02217726       2.01081402       4.07554124      -0.02889328      -0.00620950       0.04149422      -0.04392281      -0.20864495       0.04695999
Ba       4.03125271       4.08792858      -0.05751847      -0.00279431       0.05388155      -0.05751847       0.16566136      -0.16020828       0.38700983
Ti       6.06634856       5.93979197       2.02443164       0.01527802      -0.11127857       0.00740813      -0.78060489      -0.60596376      -1.14026894
O        4.06755057       6.04081440       2.07526962       0.03350355      -0.01025614       0.05824611      -0.64518215      -0.06574843       0.24352791
O        6.07070276       3.95280601       2.05546263       0.01963222      -0.08124101       0.03843912      -0.03227043       0.64829010       0.36068953
O        5.93846338       5.93622142       0.10119763      -0.11260716      -0.11484912       0.10119763       0.75871934       0.59682490       0.34661381
Ba       4.04017933       3.97678318       4.03695400       0.00613231      -0.05726385       0.00290698      -0.25953539       0.62562735       0.00530531
Ti       6.13008382       6.05585633       5.99451649       0.07901328       0.00478579      -0.05655405      -1.18290541       0.04860797       0.73929407
O        4.07285383       6.14335721       6.13477724       0.03880680       0.09228667       0.08370670      -0.68773943      -0.43491401      -0.28956729
O        6.00069866       3.98986140       6.07960675      -0.05037188      -0.04418562       0.02853621       0.41832579      -0.06820374      -0.24344061
O        6.02702486       6.08816925       4.15923152      -0.02404568       0.03709871       0.12518450       0.19919261      -0.36109526      -1.17199857
40
Lattice="8.068094053620344 -7.927176553288082e-19 -5.701750792830376e-18 4.008826256534409e-17 8.06809405362036 5.6915464259332475e-15 3.9693271986961044e-16 9.085540583848858e-16 8.068094053620342" Properties=species:S:1:pos:R:3:u_disp:R:3:forces:R:3 system=batio3_cubic model=mace_mp0 T=100.0 seed=3 supercell=2x2x2 source="SSCHA free-energy-Hessian ensemble (final auxiliary dyn)" index=387 pair=193 energy=-318.9904684543913 pbc="T T T"
Ba       0.01314474       0.01237295      -0.00012680       0.01314474       0.01237295      -0.00012680      -0.11606224      -0.07019494      -0.04564129
Ti       2.05417218       2.10376436       1.99512909       0.03714867       0.08674084      -0.02189442      -0.85436903      -0.57311360      -0.39666171
O        0.08922718       2.05873111       2.06526714       0.08922718       0.04170760       0.04824363      -0.67298760      -0.18424333      -0.39807075
O        1.98883931       0.00294182       2.13097662      -0.02818420       0.00294182       0.11395311       0.40653209      -1.04171956      -0.37088999
O        2.04789711       2.03226605       0.04044959       0.03087360       0.01524254       0.04044959       0.07610518      -0.30567490       0.00250915
Ba       0.00265630      -0.00164528       4.03697096       0.00265630      -0.00164528       0.00292393       0.07675918       0.02711283       0.07315561
Ti       2.03612429       2.01832223       6.03773740       0.01910078       0.00129871      -0.01333314      -0.54024000       0.54596176       0.02391970
O       -0.03060338       1.99072197       6.06293478      -0.03060338      -0.02630154       0.01186424       0.59401440      -0.07577773      -0.03986044
O        1.97826655      -0.04772028       6.13500702      -0.03875696      -0.04772028       0.08393648       0.29085343       0.25519580      -0.66256047
O        2.03692133       2.10264657       4.11184709       0.01989782       0.08562305       0.07780007       0.25117567      -0.58609171       0.22904322
Ba      -0.06106693       4.02081891       0.02230538      -0.06106693      -0.01322812       0.02230538       0.18299075       0.24199616      -0.49465866
Ti       2.05157634       6.09571457       2.05114667       0.03455283       0.04464403       0.03412315       0.16484864       0.61335606       0.04625120
O       -0.13878592       6.07624213       2.04824456      -0.13878592       0.02517159       0.03122104       0.79795079      -0.12451874      -0.19026451
O        2.10447611       3.94167429       2.00273728       0.08745260      -0.09237274      -0.01428623      -0.33384072       1.27092321       0.14198539
O        1.89162661       6.06890344      -0.04081004      -0.12539690       0.01783290      -0.04081004       0.33575874      -0.17388437       0.67315406
Ba      -0.06670394       3.95928055       4.00558678      -0.06670394      -0.07476648      -0.02846024       0.36130116       0.57734367       0.48436082
Ti       2.07455470       6.04216000       6.07029778       0.05753119      -0.00891054       0.01922724      -0.03403674      -0.32272589       0.31860796
O       -0.13616166       6.06001251       6.03835290      -0.13616166       0.00894197      -0.01271764       1.75744243      -0.25133455      -0.01552105
O        2.02554025       4.01391776       6.10911486       0.00851674      -0.02012926       0.05804432      -0.12950087      -0.10782936      -0.11797243
O        2.00182739       5.97951432       4.02329699      -0.01519613      -0.07155622      -0.01075004       0.06109796       0.20844769      -0.37641913
Ba       4.04297800      -0.00415254      -0.00281676       0.00893098      -0.00415254      -0.00281676      -0.04308721      -0.03660950      -0.02777341
Ti       6.01046695       2.06714014       1.98440816      -0.04060359       0.05011663      -0.03261536       0.09889458       0.03637509       0.26925411
O        4.10061678       2.02113051       2.05841736       0.06656976       0.00410699       0.04139384       0.29742438      -0.14414885      -0.11025098
O        5.99298532       0.01017817       1.98057228      -0.05808522       0.01017817      -0.03645123       0.10685806       0.20245853       0.22039948
O        6.05795585       2.04013843      -0.11272762       0.00688531       0.02311491      -0.11272762      -0.04240276      -0.26658443       1.30175971
Ba       4.05764592      -0.00912939       4.10245667       0.02359889      -0.00912939       0.06840964      -0.13514075      -0.05095297      -0.30230946
Ti       6.03571295       1.95100859       6.03107559      -0.01535759      -0.06601493      -0.01999495       0.73337344       0.80382130       0.42112597
O        4.06065361       1.94147205       6.09070981       0.02660658      -0.07555146       0.03963927      -0.22333127      -0.00556542      -0.48661425
O        6.12951923      -0.08329059       6.02832687       0.07844869      -0.08329059      -0.02274367      -0.84517877       1.76255465      -0.12879156
O        6.14904527       2.06491670       4.00486187       0.09797473       0.04789318      -0.02918516      -0.72721148      -0.46201599      -0.33938602
Ba       4.05845980       4.12142154      -0.02745410       0.02441277       0.08737451      -0.02745410       0.05974635      -0.43472394      -0.25603586
Ti       6.04989655       6.12085152       2.01816971      -0.00117399       0.06978098       0.00114620       0.58215774      -0.40625579      -0.50072137
O        3.97636494       6.01471854       1.89944083      -0.05768209      -0.03635200      -0.11758269      -0.58057186       0.41196166       0.74616759
O        6.01293806       4.08810417       1.96862377      -0.03813248       0.05405715      -0.04839974       0.02214608      -0.94709992       0.13274169
O        6.00325524       6.04673652      -0.05406812      -0.04781530      -0.00433402      -0.05406812       0.03587717       0.24752029       1.27854945
Ba       4.06247220       4.00104274       4.01156654       0.02842518      -0.03300428      -0.02248049       0.04536255       0.31226699       0.42535589
Ti       6.09807634       6.05046477       6.00793620       0.04700580      -0.00060577      -0.04313434       0.31614681      -0.85995139       0.65827863
O        4.00871891       5.98387440       6.07688786      -0.02532811      -0.06719614       0.02581732      -1.19234109       0.54101589      -0.29745247
O        6.07251424       4.04349560       6.05035624       0.02144370       0.00944857      -0.00071430      -0.34745656      -0.98415226      -0.20193354
O        6.07215050       6.01044143       4.08534450       0.02107996      -0.04062911       0.05129747      -0.83705866       0.35685757      -1.68683027
40
Lattice="8.068094053620344 -7.927176553288082e-19 -5.701750792830376e-18 4.008826256534409e-17 8.06809405362036 5.6915464259332475e-15 3.9693271986961044e-16 9.085540583848858e-16 8.068094053620342" Properties=species:S:1:pos:R:3:u_disp:R:3:forces:R:3 system=batio3_cubic model=mace_mp0 T=100.0 seed=3 supercell=2x2x2 source="SSCHA free-energy-Hessian ensemble (final auxiliary dyn)" index=440 pair=220 energy=-318.7474462622611 pbc="T T T"
Ba      -0.02852304      -0.05453935      -0.01937803      -0.02852304      -0.05453935      -0.01937803       0.23805449       0.36105898       0.22165126
Ti       2.01524245       1.97364071       2.01022350      -0.00178106      -0.04338280      -0.00680001       0.37787952       0.45953856       0.26938669
O        0.01557841       1.89707403       2.06379501       0.01557841      -0.11994949       0.04677150      -0.67427865       0.52233571      -0.05065348
O        2.03895007      -0.01734781       2.09813732       0.02192656      -0.01734781       0.08111381       0.30547191      -0.54539627      -0.30612802
O        1.86931703       2.00561769       0.05350747      -0.14770648      -0.01140582       0.05350747       0.48201498       0.18602233      -0.68706220
Ba       0.02446251       0.00620853       4.03643351       0.02446251       0.00620853       0.00238649       0.02802211      -0.30976124      -0.11619006
Ti       1.98831774       2.03911238       6.05794331      -0.02870577       0.02208887       0.00687276       0.43617196       0.03101274       0.02148728
O       -0.02150304       2.06063659       5.91487019      -0.02150304       0.04361308      -0.13620035      -0.55930593      -0.02167861       0.49223970
O        2.01038855       0.07393878       6.14307354      -0.00663496       0.07393878       0.09200300      -0.09063684      -0.28870906      -0.51552233
O        2.04873547       2.02841389       3.95748332       0.03171195       0.01139037      -0.07656370      -0.21935000      -0.13248280       1.28642049
Ba      -0.00633174       4.06715656       0.00470848      -0.00633174       0.03310953       0.00470848       0.15408017      -0.29413035       0.16109310
Ti       1.98627887       6.05914407       1.97040232      -0.03074464       0.00807353      -0.04662119      -0.82289772      -0.37818329       0.05750087
O        0.08487360       6.06676137       2.04589160       0.08487360       0.01569083       0.02886809       0.05776057       0.14384592      -0.20666934
O        1.93321026       4.03673380       2.10249575      -0.08381325       0.00268678       0.08547223       0.31882608       0.46273861      -0.76339940
O        2.03991241       6.08848625       0.00454102       0.02288890       0.03741571       0.00454102       0.43093913      -0.30712136       0.81878740
Ba      -0.02934321       3.97381218       3.98730974      -0.02934321      -0.06023485      -0.04673729       0.40046034       0.57240163      -0.00362662
Ti       2.01346180       6.06762322       6.00435907      -0.00356171       0.01655268      -0.04671147       0.27174828      -0.26594104      -0.29856802
O        0.11327673       6.09119451       6.04213892       0.11327673       0.04012397      -0.00893162      -0.79059115      -0.34550463       0.35438901
O        2.04433545       4.01834097       6.05759701       0.02731194      -0.01570606       0.00652647       0.05733366      -0.26962954       0.43219718
O        2.02789953       5.92272495       4.14628055       0.01087602      -0.12834559       0.11223352       0.00286713       0.92268335      -0.66604979
Ba       4.06741954       0.04856690       0.06122565       0.03337251       0.04856690       0.06122565      -0.22542508      -0.02696381      -0.31808604
Ti       6.11198034       1.97046435       2.06523996       0.06090980      -0.04655916       0.04821644      -0.25496027      -0.02786043      -0.80833110
O        3.99243257       2.11090988       2.03251098      -0.04161446       0.09388637       0.01548746      -0.05462069      -0.44039943      -0.69317621
O        5.96237432       0.06501324       2.08994352      -0.08869622       0.06501324       0.07292001       0.20806990      -0.65771249      -0.34391940
O        6.11451083       1.95085596       0.03878051       0.06344029      -0.06616755       0.03878051      -0.19352184       0.44769200      -1.35137066
Ba       4.00366645       0.01305991       4.10100269      -0.03038058       0.01305991       0.06695566       0.14716275       0.02406585      -0.31511578
Ti       6.06197363       2.00316254       6.02061565       0.01090309      -0.01386097      -0.03045489      -0.04075589      -0.42598081       0.61584281
O        3.99716970       1.94108120       6.11301800      -0.03687732      -0.07594232       0.06194746       0.92283691       0.45270977      -0.15608225
O        6.17577212      -0.06717274       5.98613635       0.12470158      -0.06717274      -0.06493419      -0.37428131       1.52208075       0.47880801
O        6.00124150       2.05243870       3.92807145      -0.04982904       0.03541519      -0.10597558       0.09754438      -0.03922125       1.99093110
Ba       4.05627049       4.06965898       0.03426761       0.02222346       0.03561195       0.03426761      -0.21479584      -0.38325208      -0.23573025
Ti       5.97176981       6.04053632       2.02739734      -0.07930073      -0.01053422       0.01037383       0.39754742      -0.25219822       0.70051325
O        4.08599824       5.99141622       2.12830908       0.05195121      -0.05965432       0.11128557      -0.41753993       0.41901621      -0.56733908
O        6.02300473       4.05311619       2.02144667      -0.02806581       0.01906916       0.00442315       0.49441345       0.23055562      -0.13249588
O        6.07503596       6.04754212       0.09570453       0.02396542      -0.00352842       0.09570453      -0.11049560       0.23633558      -0.72165158
Ba       4.02975707       4.02718315       3.92108237      -0.00428996      -0.00686388      -0.11296466      -0.23307499      -0.05318927       0.78872805
Ti       6.09342040       6.02792473       6.03654057       0.04234986      -0.02314581      -0.01452997      -0.90278804       0.54272919      -1.00049520
O        4.11777403       6.16240915       5.88202225       0.08372700       0.11133861      -0.16904829       0.11228960      -0.42966672       1.27816506
O        6.03565077       4.12997293       6.03089483      -0.01541977       0.09592591      -0.02017571       0.15682599      -1.20654744       0.26395018
O        6.14600703       6.11429421       4.02445963       0.09493649       0.06322367      -0.00958739       0.08099906      -0.43529265       0.02557124
40
Lattice="8.068094053620344 -7.927176553288082e-19 -5.701750792830376e-18 4.008826256534409e-17 8.06809405362036 5.6915464259332475e-15 3.9693271986961044e-16 9.085540583848858e-16 8.068094053620342" Properties=species:S:1:pos:R:3:u_disp:R:3:forces:R:3 system=batio3_cubic model=mace_mp0 T=100.0 seed=3 supercell=2x2x2 source="SSCHA free-energy-Hessian ensemble (final auxiliary dyn)" index=442 pair=221 energy=-318.9189183470179 pbc="T T T"
Ba      -0.00526370      -0.05025081       0.04443506      -0.00526370      -0.05025081       0.04443506       0.24372599       0.44549067      -0.25110026
Ti       2.00226016       2.01764681       2.02221388      -0.01476335       0.00062329       0.00519037       0.67281948       0.10919069       0.09990825
O       -0.08516937       2.00209399       2.04854085      -0.08516937      -0.01492953       0.03151734       0.98435089       0.07592626      -0.37964129
O        1.98736911       0.02878271       1.91845581      -0.02965440       0.02878271      -0.09856771      -0.01951675      -0.12020775       0.86974447
O        1.98617975       1.89274132      -0.00883339      -0.03084376      -0.12428219      -0.00883339       0.06668831       1.02729495      -0.28188818
Ba      -0.03263990       0.05578627       4.06600330      -0.03263990       0.05578627       0.03195627       0.49576186      -0.27944973      -0.15774546
Ti       1.98126548       2.00595359       6.06435147      -0.03575804      -0.01106992       0.01328093      -0.60169450       0.17835928      -0.08373099
O        0.07164252       2.09090160       5.97678687       0.07164252       0.07387809      -0.07428367       0.15750249      -0.41569011       0.31479224
O        2.05660428       0.05935898       6.03427665       0.03958077       0.05935898      -0.01679389       0.08702362      -0.55106750      -0.03491836
O        1.98076796       2.16604733       4.02528819      -0.03625556       0.14902382      -0.00875884       0.25582863      -1.04052826      -0.56342259
Ba       0.00032760       4.09509415      -0.02847290       0.00032760       0.06104712      -0.02847290      -0.04057678      -0.58679981       0.10193519
Ti       2.03154535       6.02314710       1.96583813       0.01452183      -0.02792344      -0.05118539       0.46585286      -0.06311969      -0.40496862
O       -0.00026046       6.01393823       1.98850495      -0.00026046      -0.03713231      -0.02851856      -0.02663200       0.11655880       0.02401353
O        2.15188871       4.01030040       1.93433733       0.13486519      -0.02374662      -0.08268618      -0.98233418       0.17066557       0.20775046
O        2.03684810       6.06133661       0.03185674       0.01982458       0.01026607       0.03185674      -0.07482503       0.00840499      -0.41338575
Ba      -0.04806832       3.99991815       4.08208500      -0.04806832      -0.03412888       0.04803797       0.14157844       0.18654077      -0.34957560
Ti       2.01828037       6.11086991       6.01037510       0.00125686       0.05979937      -0.04069544      -0.51483830      -0.33328844      -0.24730204
O        0.07820850       6.08831534       6.06191894       0.07820850       0.03724480       0.01084840      -0.20986816      -0.15783275       0.05625651
O        2.08318625       4.04409671       5.93600520       0.06616274       0.01004968      -0.11506534       0.05287556       0.40058812       0.98411993
O        1.96277996       6.15325887       4.11517860      -0.05424356       0.10218833       0.08113157       0.56088117      -0.32148135      -0.42072649
Ba       4.03834603       0.04029878       0.05727172       0.00429901       0.04029878       0.05727172      -0.13695744      -0.25181461      -0.26344947
Ti       6.08667189       1.93372133       2.02507106       0.03560135      -0.08330218       0.00804755      -0.32865169       1.38676770       0.24667465
O        4.01831421       1.97844175       2.02474457      -0.01573282      -0.03858176       0.00772105      -0.08617559      -0.12952450      -0.17465899
O        6.05832754      -0.01562321       2.10911629       0.00725700      -0.01562321       0.09209278      -0.08577420      -0.26659893      -0.91170505
O        6.12505989       1.99957423      -0.10569071       0.07398935      -0.01744929      -0.10569071      -0.21095960      -0.31251491       0.51344335
Ba       4.05405081       0.01537637       3.98256254       0.02000378       0.01537637      -0.05148449      -0.33103212      -0.01030165       0.19298041
Ti       6.00862497       1.93405420       6.04241774      -0.04244557      -0.08296931      -0.00865280       0.14513760       0.85420225       0.38501565
O        4.11375698       1.93357622       6.02507954       0.07970995      -0.08344729      -0.02599100      -0.51507413       0.31720168      -0.06665796
O        6.09382346       0.04298130       6.00504698       0.04275292       0.04298130      -0.04602356       0.21014895      -0.97305173      -0.24486448
O        6.08704895       1.94498685       3.95336303       0.03597841      -0.07203666      -0.08068400      -0.30508057       0.44071468       0.28303535
Ba       4.06892748       3.97826631      -0.10539425       0.03488045      -0.05578071      -0.10539425      -0.01032132       0.13805134       0.75957827
Ti       6.08059412       6.05633148       2.08287891       0.02952358       0.00526094       0.06585539      -0.02328482      -1.22454526      -0.27170362
O        3.96199294       6.04218101       1.97978097      -0.07205408      -0.00888953      -0.03724255       0.51002351       0.29233165       0.31035359
O        6.05724396       4.01725952       1.89974318       0.00617342      -0.01678750      -0.11728033      -0.15951172       0.37601354       0.18463903
O        6.07987954       6.14600102      -0.08546436       0.02880900       0.09493048      -0.08546436       0.15191875      -0.36338433       0.11555223
Ba       4.00164202       4.04048656       4.10969525      -0.03240501       0.00643953       0.07564823       0.31514558      -0.17650049      -0.80705529
Ti       6.06392891       6.05937113       6.12639786       0.01285837       0.00830059       0.07532732      -0.37296527      -0.38825139       0.19325328
O        4.19082274       6.04154418       6.09421728       0.15677572      -0.00952636       0.04314674      -0.92984928       0.36645427      -0.48484772
O        6.01093743       3.98652451       6.00378855      -0.04013311      -0.04752252      -0.04728199       0.56842085       0.89125658       0.00598703
O        6.07658445       6.01216336       3.89595074       0.02551391      -0.03890718      -0.13809629      -0.11976105       0.18393939       0.96431480
40
Lattice="8.068094053620344 -7.927176553288082e-19 -5.701750792830376e-18 4.008826256534409e-17 8.06809405362036 5.6915464259332475e-15 3.9693271986961044e-16 9.085540583848858e-16 8.068094053620342" Properties=species:S:1:pos:R:3:u_disp:R:3:forces:R:3 system=batio3_cubic model=mace_mp0 T=100.0 seed=3 supercell=2x2x2 source="SSCHA free-energy-Hessian ensemble (final auxiliary dyn)" index=471 pair=235 energy=-319.12079224040946 pbc="T T T"
Ba      -0.01401462       0.02833172       0.02844098      -0.01401462       0.02833172       0.02844098       0.02033897      -0.23505102      -0.05683078
Ti       2.01568500       2.00272426       2.02906291      -0.00133851      -0.01429925       0.01203939      -1.25141193       0.03181427      -0.37203999
O       -0.02164573       1.93044255       1.95772030      -0.02164573      -0.08658097      -0.05930321       0.23013022       0.46150428       0.38245276
O        2.07578780       0.10717138       1.96710452       0.05876428       0.10717138      -0.04991899       0.03112132      -0.62215988       0.52441321
O        1.99935509       1.99043958       0.05832087      -0.01766842      -0.02658394       0.05832087       0.20363385       0.57280018      -0.60792938
Ba      -0.02543299      -0.04170607       4.01311184      -0.02543299      -0.04170607      -0.02093519       0.27849965       0.43072290      -0.05880925
Ti       2.02586132       1.99481840       6.02318660       0.00883781      -0.02220511      -0.02788394      -0.31683683      -0.28636648      -0.03415068
O       -0.06809006       2.05061393       6.09704018      -0.06809006       0.03359042       0.04596964      -0.07105613      -0.22717686      -0.06980705
O        2.06708625       0.00133106       6.01485105       0.05006274       0.00133106      -0.03621949      -0.49208454       0.24390797       0.13273596
O        1.91006151       2.04332548       4.03145401      -0.10696200       0.02630197      -0.00259301       0.39968406      -0.10490158       0.10045231
Ba      -0.03578911       4.02334665       0.01096842      -0.03578911      -0.01070037       0.01096842       0.20722607       0.23019743       0.38200801
Ti       2.03433796       6.07708270       2.06725065       0.01731445       0.02601216       0.05022713      -0.19723250      -1.04929224      -0.55996989
O       -0.02036722       6.03900719       2.17711943      -0.02036722      -0.01206335       0.16009592       0.52095261       0.49794434      -0.66261694
O        1.98289262       4.12416491       2.08222447      -0.03413090       0.09011789       0.06520096       0.28718811      -0.64152523      -0.26438164
O        2.05030143       6.03413356       0.05290193       0.03327791      -0.01693698       0.05290193      -0.29651956       0.26983776      -0.64491373
Ba       0.02570342       4.05713891       4.09379221       0.02570342       0.02309188       0.05974518      -0.14047791      -0.07937455      -0.58836167
Ti       1.99977632       6.03604316       6.02507710      -0.01724720      -0.01502738      -0.02599344       0.21901387       0.05032928       0.42876590
O       -0.04435978       6.16130473       6.03834465      -0.04435978       0.11023419      -0.01272589       0.35874614      -0.51566910      -0.03802127
O        2.02397306       4.09087479       5.99970818       0.00694955       0.05682777      -0.05136236      -0.32352999      -0.06511018       0.32400061
O        2.08500864       6.07198494       3.99239818       0.06798513       0.02091440      -0.04164884      -0.24191583       0.32103299       0.76625487
Ba       3.99262762       0.02311822      -0.03081845      -0.04141941       0.02311822      -0.03081845       0.18058807      -0.34807495       0.12858746
Ti       5.97553683       2.03503070       2.05107002      -0.07553371       0.01800718       0.03404651       1.56180163       0.36867811      -0.47326841
O        4.10046161       2.04738157       2.00599733       0.06641458       0.03035806      -0.01102619      -0.47953310       0.04603452       0.26663040
O        6.03859795      -0.04001733       1.98038493      -0.01247259      -0.04001733      -0.03663859      -0.16166468       0.71559363       0.46106439
O        6.04830529       1.99325991      -0.02826966      -0.00276525      -0.02376361      -0.02826966      -0.49012055       0.13293879       0.01054729
Ba       4.11249434      -0.02377607       4.06314964       0.07844731      -0.02377607       0.02910262      -0.69312072      -0.00572591      -0.33010336
Ti       6.08455502       2.02767630       6.03896303       0.03348448       0.01065278      -0.01210751       0.93337619       0.05887761       0.45239804
O        3.86524238       2.02269949       5.99478662      -0.16880465       0.00567597      -0.05628392       1.22063782       0.17737204       0.22463295
O        5.99431529       0.00387391       5.95148292      -0.05675525       0.00387391      -0.09958762      -0.09242496       0.11191680       0.59248901
O        6.10401397       2.01981225       4.08833950       0.05294343       0.00278873       0.05429247      -0.51812936      -0.06052923      -0.51260206
Ba       4.05756858       4.04192212      -0.04891101       0.02352155       0.00787510      -0.04891101      -0.23510908       0.31138028       0.34983172
Ti       6.03604344       6.09297447       2.00906032      -0.01502710       0.04190393      -0.00796319       0.25481720      -0.36934754      -0.78241005
O        4.06184320       6.01768864       2.03385301       0.02779617      -0.03338190       0.01682950      -0.13952738       0.19831427       0.05077638
O        6.13787586       4.04137556       2.10948374       0.08680532       0.00732853       0.09246023      -0.51462917      -0.89217442      -0.40296300
O        6.08966280       6.06770893       0.05832276       0.03859226       0.01663839       0.05832276      -0.25458110      -0.11654041      -0.38633691
Ba       4.06606559       3.96325549       4.01718610       0.03201856      -0.07079154      -0.01686093      -0.30452781       0.68029559      -0.04952195
Ti       6.01754624       6.08565424       5.96186693      -0.03352431       0.03458370      -0.08920361       0.32744462      -0.15481038       0.40046015
O        3.98524070       6.04492007       6.01501694      -0.04880632      -0.00615047      -0.03605360       0.55416363       0.07526992       0.20887351
O        6.04280070       4.05646888       6.07454618      -0.00826984       0.02242185       0.02347563      -0.27656734      -0.07663526      -0.18809136
O        6.05161744       6.07686192       4.03566684       0.00054690       0.02579138       0.00161981      -0.29836360      -0.13629772       0.89575444
