40
Lattice="8.068094053620356 -7.466764181286827e-18 2.325191567735132e-18 -1.9223038079951577e-17 8.06809405362036 -3.090195084308793e-16 -3.9949514890937837e-16 3.956508154217362e-15 8.068094053620356" Properties=species:S:1:pos:R:3:u_disp:R:3:forces:R:3 system=batio3_cubic model=mace_mp0 T=100.0 seed=0 supercell=2x2x2 source="SSCHA free-energy-Hessian ensemble (final auxiliary dyn)" index=0 pair=0 energy=-318.8171836259295 pbc="T T T"
Ba      -0.04296058       0.00454990      -0.00996190      -0.04296058       0.00454990      -0.00996190       0.14599079      -0.21615442       0.22713368
Ti       1.97736410       2.07522124       1.97802045      -0.03965941       0.05819773      -0.03900307       0.16796341      -1.26210224       0.48850874
O        0.07726696       1.87969930       1.91411772       0.07726696      -0.13732421      -0.10290579      -0.67310164       1.05524333       0.55464524
O        2.02658132      -0.03448885       1.97392588       0.00955781      -0.03448885      -0.04309764       0.54733426      -0.25936347      -0.18339949
O        1.98045793       2.05154050      -0.01341585      -0.03656558       0.03451698      -0.01341585       0.53792173      -0.24146380      -0.30341630
Ba       0.01107051      -0.02190746       4.04903552       0.01107051      -0.02190746       0.01498849       0.25442053      -0.10371132      -0.70506800
Ti       2.04018837       2.00380592       6.05810477       0.02316485      -0.01321759       0.00703423      -0.03543841      -0.24915226      -0.30604642
O       -0.01444737       1.99325711       5.96802513      -0.01444737      -0.02376640      -0.08304541       0.83267798      -0.00155346       0.48613902
O        1.93190054      -0.01555086       6.07681688      -0.08512297      -0.01555086       0.02574634       0.62586513      -0.09622037       0.16557390
O        2.00987967       1.95011912       4.01238862      -0.00714385      -0.06690439      -0.02165841       0.13085596       0.48657893       0.43005364
Ba      -0.00566603       4.04586015      -0.03586122      -0.00566603       0.01181312      -0.03586122      -0.18132347       0.14963565      -0.04046913
Ti       2.02562147       6.04317111       2.02305152       0.00859796      -0.00789943       0.00602800      -1.01097662       1.46279275       0.07035113
O        0.10392402       6.10261181       1.96101719       0.10392402       0.05154127      -0.05600632       0.02397207      -0.55039352       0.05297846
O        2.01242752       3.97861818       2.06024227      -0.00459599      -0.05542885       0.04321876       0.14570200       0.31136562      -0.04041125
O        2.11100252       5.97632857      -0.02193728       0.09397900      -0.07474197      -0.02193728      -0.28750874       0.12590824      -0.58559734
Ba      -0.02708650       4.00588817       4.06199544      -0.02708650      -0.02815886       0.02794841       0.32080150       0.33465608      -0.13029742
Ti       2.04981001       6.02961893       6.04655871       0.03278649      -0.02145161      -0.00451183      -0.09490214       0.71790129       0.20720887
O       -0.02783560       6.06097791       5.98522308      -0.02783560       0.00990737      -0.06584746       0.84643180      -0.31153321       0.09147407
O        1.97958401       3.95064861       6.14097213      -0.03743950      -0.08339841       0.08990159       0.33920472       0.70203871      -0.93178903
O        2.01836818       6.15595641       3.99921431       0.00134466       0.10488587      -0.03483271       0.32298006      -1.06724821       0.53465117
Ba       4.00522960      -0.02178090       0.01282948      -0.02881743      -0.02178090       0.01282948       0.37176133       0.25192304       0.18788707
Ti       6.08448261       2.04338389       2.00685755       0.03341207       0.02636038      -0.01016596      -0.94188633      -2.01803839      -0.90973843
O        4.10800654       1.97653897       2.03598418       0.07395951      -0.04048454       0.01896067       0.23946071       0.75793202      -0.05253903
O        6.04106195       0.04723377       1.94570890      -0.01000859       0.04723377      -0.07131461       0.17493913       0.42473539       0.19677421
O        6.04080457       2.03173089      -0.04034028      -0.01026597       0.01470737      -0.04034028       0.34565685       0.01447881       0.50185985
Ba       4.04545648       0.04702382       4.10607933       0.01140945       0.04702382       0.07203230      -0.09301494      -0.10427370      -0.86463993
Ti       6.14244382       2.03486501       5.97263656       0.09137328       0.01784150      -0.07843398      -0.72011595       0.64901615       0.96061856
O        4.14837985       2.00279352       5.99016855       0.11433282      -0.01423000      -0.06090199      -1.35645220       0.05932172       0.17527731
O        6.09382118      -0.06225525       5.89875800       0.04275064      -0.06225525      -0.15231254      -0.09455184       0.31811111       0.79299544
O        6.14908765       1.92120660       4.07032197       0.09801711      -0.09581692       0.03627494      -0.21417568       0.96596950      -1.40458219
Ba       3.99078603       4.03114936       0.02445018      -0.04326100      -0.00289766       0.02445018       0.69879435      -0.21744905      -0.39816961
Ti       6.00514708       5.97698328       2.05683008      -0.04592346      -0.07408726       0.03980657       0.27528581       1.72027205      -0.32639144
O        4.10014593       5.99484559       1.96576477       0.06609890      -0.05622495      -0.05125874      -0.43164930      -0.04453454       0.15054470
O        6.13803558       4.13497791       1.92075878       0.08696504       0.10093088      -0.09626474      -0.00565799      -1.77601524       0.55357536
O        6.08616268       6.07228231      -0.07014135       0.03509214       0.02121177      -0.07014135      -0.22404562       0.07785640      -0.46910958
Ba       4.02597871       4.05515266       4.06977670      -0.00806832       0.02110563       0.03572967       0.13308443      -0.21751884       0.00220916
Ti       6.09420649       6.13985910       6.05866889       0.04313595       0.08878856       0.00759835       0.07917093      -0.65266477       0.64588899
O        4.05396304       6.08705336       5.95944762       0.01991602       0.03598282      -0.09162292      -0.76155189      -0.45537020       0.25680438
O        6.17172032       4.03240125       6.01158708       0.12064978      -0.00164577      -0.03948346      -0.57143933      -0.27677603      -0.28808989
O        6.04603475       6.08575434       3.93050567      -0.00503579       0.03468380      -0.10354136       0.13751659      -0.46419979       0.20660152
40
Lattice="8.068094053620356 -7.466764181286827e-18 2.325191567735132e-18 -1.9223038079951577e-17 8.06809405362036 -3.090195084308793e-16 -3.9949514890937837e-16 3.956508154217362e-15 8.068094053620356" Properties=species:S:1:pos:R:3:u_disp:R:3:forces:R:3 system=batio3_cubic model=mace_mp0 T=100.0 seed=0 supercell=2x2x2 source="SSCHA free-energy-Hessian ensemble (final auxiliary dyn)" index=12 pair=6 energy=-318.6906569961293 pbc="T T T"
Ba       0.01063579      -0.01399272       0.03784922       0.01063579      -0.01399272       0.03784922      -0.31027704       0.17403337      -0.48206298
Ti       2.04343912       1.94200134       2.05104673       0.02641560      -0.07502218       0.03402321      -0.39174709       1.22418530       0.11513544
O       -0.04898398       2.04466561       1.99066018      -0.04898398       0.02764209      -0.02636333       0.18970911      -0.52069018       0.16767620
O        1.91934304       0.08785947       1.96589688      -0.09768048       0.08785947      -0.05112663       0.63142197      -0.91146896       0.40864825
O        1.93158035       1.99795962      -0.05159327      -0.08544316      -0.01906389      -0.05159327       0.70130866       0.56698281       0.72707230
Ba       0.05955963       0.03704736       4.05721332       0.05955963       0.03704736       0.02316629      -0.52365106      -0.19962727       0.08770309
Ti       2.07747174       2.04161872       6.09856375       0.06044822       0.02459521       0.04749321      -0.11415534      -0.20256415      -0.18523265
O       -0.07656653       2.02159993       6.15568829      -0.07656653       0.00457641       0.10461775       0.15722513       0.05405051      -0.80674849
O        1.97464180       0.09020342       6.08490132      -0.04238171       0.09020342       0.03383078      -0.04775294      -1.36997984      -0.43473390
O        2.01238906       2.06740600       4.08530430      -0.00463446       0.05038248       0.05125728      -0.19908598      -0.63685202      -1.07108985
Ba      -0.02058832       4.07146021      -0.00767727      -0.02058832       0.03741318      -0.00767727      -0.04867795      -0.54065277       0.05346014
Ti       2.03580577       6.02066402       2.05421969       0.01878226      -0.03040652       0.03719618      -0.45758034      -0.96846949       0.00897730
O       -0.02264922       6.05066712       1.91698302      -0.02264922      -0.00040342      -0.10004050       0.91761844      -0.04685498       0.68076878
O        2.06236648       4.01474990       2.07195408       0.04534297      -0.01929712       0.05493057      -0.17041646       0.70817155      -0.61127108
O        2.01151114       6.04907715      -0.00395281      -0.00551238      -0.00199339      -0.00395281       0.07378168      -0.00321495      -0.42044023
Ba       0.00310464       3.95345042       3.95860533       0.00310464      -0.08059660      -0.07544169      -0.01970485       0.25358308       0.31251333
Ti       2.00882210       6.05835241       6.02007895      -0.00820141       0.00728187      -0.03099159      -0.20438447      -0.37326473       0.21627841
O       -0.04952575       5.86535689       5.92932577      -0.04952575      -0.18571365      -0.12174477       0.36808223       1.03593249       0.57037553
O        2.08159999       4.05479355       5.91492058       0.06457648       0.02074652      -0.13614996      -0.22109575       0.64330093       0.92988606
O        2.01941046       6.04560517       3.94996025       0.00238695      -0.00546537      -0.08408678      -0.12288764       0.61904541       0.43065844
Ba       4.01267581      -0.00418268       0.04326525      -0.02137122      -0.00418268       0.04326525       0.24700799       0.10735544      -0.49486556
Ti       6.03690394       1.93400705       2.00959482      -0.01416660      -0.08301646      -0.00742870       0.78930500       0.96880840      -0.19567160
O        4.00170570       1.98718405       2.04773185      -0.03234133      -0.02983946       0.03070834      -0.07162452      -0.09275664      -0.33713973
O        6.05436159      -0.04326022       1.98025717       0.00329105      -0.04326022      -0.03676635      -0.15636970       0.65731214       0.08707811
O        6.04260994       1.94936406      -0.04696744      -0.00846060      -0.06765945      -0.04696744      -0.56259266       0.36925568       0.86691673
Ba       4.07306015       0.05355053       4.03695537       0.03901312       0.05355053       0.00290835      -0.03350545      -0.31651213       0.25970484
Ti       6.08380642       1.99954854       6.03329043       0.03273588      -0.01747497      -0.01778011       0.51901051       0.04912879       0.41203645
O        4.00840888       2.00570764       6.01549494      -0.02563815      -0.01131587      -0.03557560      -0.18088124      -0.02014720       0.48658018
O        6.07742958      -0.04759190       6.05451978       0.02635903      -0.04759190       0.00344924      -0.21860357      -0.75538396      -0.04030727
O        6.00764934       1.95033769       4.05249483      -0.04342120      -0.06668582       0.01844780       0.20343913      -0.39343119      -0.54172924
Ba       3.93575851       4.13079431      -0.00315270      -0.09828851       0.09674728      -0.00315270       0.57490013      -0.71688745       0.12386273
Ti       6.06032246       6.03753860       1.99637857       0.00925191      -0.01353194      -0.02064495       0.46794030      -0.41607370       0.45779235
O        4.06976939       6.02413625       2.08976880       0.03572236      -0.02693429       0.07274529      -0.79224957       0.25875429      -0.69584441
O        6.13246475       3.95567960       2.15455393       0.08139421      -0.07836742       0.13753041      -0.81193640       0.24365477      -0.88987524
O        6.11860691       6.00227296       0.05387908       0.06753637      -0.04879758       0.05387908      -0.83753613      -0.19574750      -1.16102433
Ba       4.05447766       4.01732099       4.05789894       0.02043063      -0.01672603       0.02385192       0.05493881      -0.08808923      -0.35859701
Ti       6.02968412       6.01700965       6.00099039      -0.02138642      -0.03406089      -0.05008015       1.03252924       0.46819094      -0.47124385
O        3.95640180       6.11879110       6.06073544      -0.07764523       0.06772055       0.00966490       0.50671521      -0.30059849      -0.14006940
O        6.06251795       3.97344011       5.88639976       0.01144741      -0.06060692      -0.16467078      -0.63118723       0.97962100       0.81310799
O        6.08751602       6.14020902       3.96231915       0.03644548       0.08913848      -0.07172788      -0.30703014      -0.31210011       1.12171421
40
Lattice="8.068094053620356 -7.466764181286827e-18 2.325191567735132e-18 -1.9223038079951577e-17 8.06809405362036 -3.090195084308793e-16 -3.9949514890937837e-16 3.956508154217362e-15 8.068094053620356" Properties=species:S:1:pos:R:3:u_disp:R:3:forces:R:3 system=batio3_cubic model=mace_mp0 T=100.0 seed=0 supercell=2x2x2 source="SSCHA free-energy-Hessian ensemble (final auxiliary dyn)" index=23 pair=11 energy=-318.6893871072295 pbc="T T T"
Ba       0.04750121      -0.01775330       0.00373309       0.04750121      -0.01775330       0.00373309      -0.27819085       0.42309250      -0.11028518
Ti       2.09524163       1.98469603       2.03990698       0.07821812      -0.03232748       0.02288347      -0.51740015       0.48899405      -0.18161953
O       -0.04788493       2.06012579       2.06622550      -0.04788493       0.04310227       0.04920199      -0.42822371      -0.43643596      -0.53708359
O        2.11919216       0.01268108       1.96703394       0.10216864       0.01268108      -0.04998958      -0.59197999      -0.55729592       0.06452587
O        1.94623068       2.05343460       0.08874147      -0.07079284       0.03641109       0.08874147       0.20082026      -0.21493624      -1.54884723
Ba      -0.03955288      -0.02908745       4.00649181      -0.03955288      -0.02908745      -0.02755522       0.42328929      -0.12578529       0.09407499
Ti       1.98406608       2.06248805       6.04115191      -0.03295743       0.04546454      -0.00991863      -0.47118455      -0.39508561       0.02429053
O        0.00395105       2.02281592       6.09456531       0.00395105       0.00579241       0.04349477       1.16067844      -0.09187071      -0.63052679
O        2.08552664       0.10821843       5.90746287       0.06850312       0.10821843      -0.14360767      -0.48632814       0.03081721       1.23114233
O        2.01278042       1.98338722       3.94626936      -0.00424309      -0.03363629      -0.08777767      -0.19368502       0.55836535       1.51124387
Ba       0.03315462       4.07927323       0.04196519       0.03315462       0.04522620       0.04196519      -0.06337607      -0.43014446       0.03279065
Ti       1.99284248       6.08065237       1.98361072      -0.02418104       0.02958183      -0.03341279      -0.40395094      -1.03275188       1.27581512
O       -0.01878014       6.09401112       2.01817511      -0.01878014       0.04294058       0.00115160       0.36760093       0.28364964       0.07558541
O        1.93333324       4.11669961       2.05065891      -0.08369027       0.08265259       0.03363540       0.49568786       0.29706282      -0.08048016
O        1.99078317       6.04421902       0.03123175      -0.02624035      -0.00685152       0.03123175       0.30771672       0.58274878       0.04471553
Ba      -0.12027044       4.02000307       4.01668260      -0.12027044      -0.01404396      -0.01736443       1.07872875       0.48187394      -0.14357820
Ti       2.02969279       6.07560749       6.12585369       0.01266927       0.02453695       0.07478315       1.09402015      -0.51194928      -1.55606522
O        0.07432860       5.99635519       6.05304492       0.07432860      -0.05471535       0.00197438      -0.75845026       0.62341074       0.04428208
O        2.03884514       4.09581376       6.14081760       0.02182162       0.06176673       0.08974706       0.02242753      -0.94809466      -0.46691616
O        2.02038973       6.06941140       4.07847298       0.00336621       0.01834086       0.04442595      -0.05352688       0.08840981      -0.44246248
Ba       4.04741904       0.05135505      -0.03448015       0.01337202       0.05135505      -0.03448015       0.17718560      -0.14729081      -0.14335968
Ti       6.17745469       2.02377158       2.05241349       0.12638415       0.00674807       0.03538997      -0.05081642       0.22041970      -0.21725780
O        3.89361309       2.06787344       1.97035385      -0.14043394       0.05084993      -0.04666966       1.66721110       0.06714313       0.14110715
O        5.95529380       0.00489547       1.97464988      -0.09577674       0.00489547      -0.04237363       0.46551286       0.48019629      -0.19507899
O        6.15228979       2.06182261      -0.12766823       0.10121925       0.04479910      -0.12766823      -0.52675448      -0.66377884       0.79948895
Ba       3.99336975      -0.02641303       4.03531388      -0.04067728      -0.02641303       0.00126685       0.34428089      -0.14603870       0.09865473
Ti       6.07746282       2.02351158       6.05741234       0.02639228       0.00648806       0.00634180       0.01821644      -0.12422970       0.80657157
O        4.11120401       2.06162286       6.05508666       0.07715699       0.04459934       0.00401612      -0.33089525      -0.03278616      -0.15424286
O        6.11668549      -0.05841711       5.94943082       0.06561495      -0.05841711      -0.10163972      -0.01347842       0.40092215       0.48143926
O        6.17070973       2.01207747       3.93739654       0.11963919      -0.00494604      -0.09665049      -0.90513434       0.09475009       0.42420096
Ba       4.02692742       3.96068352       0.02542065      -0.00711960      -0.07336351       0.02542065       0.13605550       0.46291681      -0.10623848
Ti       5.99197677       6.07947218       1.92245945      -0.05909377       0.02840164      -0.09456406       0.08814684      -0.35936584       0.42038926
O        4.12434261       6.03925740       2.10342222       0.09029558      -0.01181314       0.08639871      -0.87322297       0.06831896      -0.79851877
O        5.99431262       4.05773054       1.96313819      -0.05675792       0.02368351      -0.05388533       0.27359839      -0.60364502       0.12368152
O        6.12926609       6.03029597      -0.04241215       0.07819555      -0.02077457      -0.04241215      -0.45372885       0.35749031       0.36765134
Ba       4.02376667       4.03005360       4.07294568      -0.01028036      -0.00399343       0.03889866      -0.19380286       0.44259465      -0.21534927
Ti       6.17589857       6.01347157       6.02483802       0.12482803      -0.03759897      -0.02623252      -0.72411362       0.42525652      -0.42284138
O        3.98514823       6.08788983       6.07003514      -0.04889879       0.03681929       0.01896460       0.17999650      -0.19623993       0.33601045
O        6.20976710       4.01659570       6.12568656       0.15869656      -0.01745133       0.07461602      -0.82066391       0.26254446      -0.79813240
O        5.98814125       6.01312511       4.05942836      -0.06292929      -0.03794543       0.02538133       0.63773364      -0.12325292       0.35122261
40
Lattice="8.068094053620356 -7.466764181286827e-18 2.325191567735132e-18 -1.9223038079951577e-17 8.06809405362036 -3.090195084308793e-16 -3.9949514890937837e-16 3.956508154217362e-15 8.068094053620356" Properties=species:S:1:pos:R:3:u_disp:R:3:forces:R:3 system=batio3_cubic model=mace_mp0 T=100.0 seed=0 supercell=2x2x2 source="SSCHA free-energy-Hessian ensemble (final auxiliary dyn)" index=46 pair=23 energy=-318.73341569048176 pbc="T T T"
Ba      -0.06114097      -0.04000518      -0.02701622      -0.06114097      -0.04000518      -0.02701622       0.61274213       0.32010894       0.01690488
Ti       1.96845444       1.94852684       2.03765395      -0.04856907      -0.06849668       0.02063043      -1.12643601      -0.09498863      -0.81049199
O        0.03367453       2.00169533       1.94813616       0.03367453      -0.01532818      -0.06888735       0.44437455       0.27347968       0.73445323
O        1.99745066       0.04180987       2.02442936      -0.01957286       0.04180987       0.00740584       0.51363848      -0.55618258       0.28188792
O        1.96826618       1.97481094       0.02494370      -0.04875734      -0.04221257       0.02494370       0.41882121       0.19690136      -0.14927989
Ba      -0.02175694      -0.03199365       4.04759267      -0.02175694      -0.03199365       0.01354564      -0.00612266       0.49902324      -0.01927193
Ti       2.09350987       2.00787961       6.03137972       0.07648636      -0.00914390      -0.01969082      -0.41883920      -0.09330619       0.64055331
O       -0.06020248       2.00013352       6.00999124      -0.06020248      -0.01688999      -0.04107930       0.39663434       0.06623842      -0.37435557
O        2.11865011       0.00467260       5.94984291       0.10162659       0.00467260      -0.10122763      -0.77221428       0.46572449       0.14053744
O        2.12949317       2.04343585       3.98383505       0.11246965       0.02641234      -0.05021198      -0.38958104       0.14645962      -0.15741386
Ba       0.00271640       4.04528209      -0.01512768       0.00271640       0.01123507      -0.01512768       0.38742606      -0.08444315      -0.17618547
Ti       2.00858972       5.99137023       2.02467173      -0.00843379      -0.05970031       0.00764822      -0.21146648      -0.25515130      -0.45555153
O       -0.08208248       6.13789342       1.91289278      -0.08208248       0.08682288      -0.10413074       1.00159371      -0.71660561       0.86218520
O        1.94496384       4.09050373       1.97560656      -0.07205967       0.05645671      -0.04141695       0.30188416       0.55677410       0.18707804
O        1.98186989       6.12590797      -0.08611449      -0.03515362       0.07483743      -0.08611449       0.32759380      -0.30346493       1.77864821
Ba      -0.02232740       4.08973537       4.05870012      -0.02232740       0.05568835       0.02465309       0.13820576      -0.56557363       0.11786906
Ti       2.00864729       6.06008762       6.04163289      -0.00837622       0.00901708      -0.00943765       0.49562837       0.09538973       0.61878579
O        0.07180639       6.11517758       6.07482808       0.07180639       0.06410704       0.02375754      -1.07994790      -0.32220811      -0.50405102
O        1.95664938       4.03324381       6.05117170      -0.06037413      -0.00080321       0.00010116       0.36390199      -0.44973254      -0.00826917
O        2.06362791       5.98246843       4.10853680       0.04660440      -0.06860211       0.07448977      -0.24467503       0.26588231      -2.03873520
Ba       4.02140593      -0.03168505       0.03228939      -0.01264110      -0.03168505       0.03228939      -0.06340117       0.01056051      -0.45547469
Ti       6.02344222       2.06140689       2.03536726      -0.02762832       0.04438337       0.01834375       0.77034143      -0.78303235       1.18447927
O        4.19063585       2.03514080       1.94223050       0.15658882       0.01811729      -0.07479302      -1.14851135       0.04814743      -0.20266657
O        6.14305600       0.00099119       2.00227767       0.09198546       0.00099119      -0.01474585      -0.84231467      -0.33967889      -0.14354840
O        6.21624230       2.04168484      -0.09975576       0.16517176       0.02466133      -0.09975576      -1.01504488       0.04255773       1.60847105
Ba       4.02636576       0.02161756       4.02543104      -0.00768126       0.02161756      -0.00861599       0.30977514      -0.13886954       0.30994477
Ti       6.11902182       2.03674680       6.15795173       0.06795128       0.01972329       0.10688119       0.58392003      -0.25484554      -1.39859744
O        3.91853857       1.95833270       6.12673284      -0.11550845      -0.05869081       0.07566230       0.98658314       0.48460864      -0.10274528
O        6.09378760      -0.00199728       6.10866500       0.04271706      -0.00199728       0.05759446      -0.40547100      -0.33120899      -0.26838501
O        5.97551176       1.97506450       4.01612037      -0.07555878      -0.04195902      -0.01792666       0.32323423       0.25623942      -0.62723540
Ba       4.08350899       4.05384960       0.01286519       0.04946197       0.01980257       0.01286519      -0.51138284      -0.03897022      -0.52765089
Ti       6.04306792       6.03477039       1.96238043      -0.00800262      -0.01630015      -0.05464308       0.49590931       0.61998466      -0.45410125
O        4.08592733       5.89603390       2.00214050       0.05188030      -0.15503664      -0.01488301      -0.73274564       0.96454054       0.00777238
O        6.08283712       4.05339722       2.08766352       0.03176658       0.01935020       0.07064001       0.21441021       0.05432371      -0.30428225
O        6.07673949       5.98383943      -0.08206214       0.02566895      -0.06723111      -0.08206214      -0.21288572       0.14500297       1.36762382
Ba       4.04768270       4.04222585       4.02018730       0.01363567       0.00817882      -0.01385972      -0.01409522      -0.14379794       0.48945593
Ti       6.07136105       6.07719958       6.00196187       0.02029051       0.02612904      -0.04910867      -0.66596819       0.45607009       0.87631216
O        4.02024061       6.13370747       6.16480365      -0.01380641       0.08263693       0.11373311       0.77508559      -0.61273328      -0.65291611
O        6.04463292       3.99432200       6.08908988      -0.00643762      -0.03972503       0.03801934      -0.14823982       0.52574144      -0.54544943
O        6.03070934       6.11119470       4.12243181      -0.02036120       0.06012416       0.08838478       0.14763948      -0.40896560      -0.84630411
40
Lattice="8.068094053620356 -7.466764181286827e-18 2.325191567735132e-18 -1.9223038079951577e-17 8.06809405362036 -3.090195084308793e-16 -3.9949514890937837e-16 3.956508154217362e-15 8.068094053620356" Properties=species:S:1:pos:R:3:u_disp:R:3:forces:R:3 system=batio3_cubic model=mace_mp0 T=100.0 seed=0 supercell=2x2x2 source="SSCHA free-energy-Hessian ensemble (final auxiliary dyn)" index=121 pair=60 energy=-318.87796123424624 pbc="T T T"
Ba      -0.10300423      -0.02381493       0.01237581      -0.10300423      -0.02381493       0.01237581       0.23197227      -0.07200913      -0.00553841
Ti       2.03600276       2.02151536       2.03914450       0.01897925       0.00449185       0.02212099       0.29143455       0.61165166      -0.09670515
O        0.03922388       2.07656909       2.14480571       0.03922388       0.05954557       0.12778220      -0.11956489      -0.34127101      -0.78347808
O        2.06218857      -0.04179564       2.13280527       0.04516505      -0.04179564       0.11578176      -0.10162454      -0.28025291      -0.75038641
O        2.00822724       1.95111495       0.02182321      -0.00879627      -0.06590856       0.02182321      -0.27155215      -0.08497474       0.27385419
Ba      -0.00376389       0.02100279       4.03864764      -0.00376389       0.02100279       0.00460061      -0.17742629      -0.37135854      -0.09174365
Ti       2.01100274       1.90983038       6.04561270      -0.00602078      -0.10719314      -0.00545784       0.16777536       1.31219948      -0.16357365
O        0.03133927       1.91081037       5.99221142       0.03133927      -0.10621314      -0.05885913      -0.68654816       0.27158930       0.53858989
O        2.18323013      -0.00542878       6.04855835       0.16620662      -0.00542878      -0.00251219      -0.63172944      -0.17118551       0.20041077
O        2.00374401       2.05611902       4.08911451      -0.01327950       0.03909551       0.05506748       0.35970391      -0.42703586      -0.43081729
Ba       0.08947461       4.01700699       0.07154740       0.08947461      -0.01704004       0.07154740      -0.33782805       0.04802911      -0.48928391
Ti       2.02871841       6.09644532       1.96826653       0.01169490       0.04537478      -0.04875698      -1.08969767      -0.28540985       1.04481611
O       -0.02518495       6.01388304       2.01697766      -0.02518495      -0.03718750      -0.00004585       1.35032046       0.28498468      -0.21581347
O        2.06118262       3.99969631       2.03500988       0.04415911      -0.03435072       0.01798637      -0.14760183       0.56308786      -0.22965801
O        2.04999025       6.05467291       0.00772892       0.03296673       0.00360237       0.00772892      -0.08639028       0.26915201       0.61973857
Ba      -0.01605490       4.11758675       4.04211976      -0.01605490       0.08353972       0.00807273       0.35048822      -0.25576208       0.15179648
Ti       2.06059204       6.09921091       6.08964949       0.04356853       0.04814037       0.03857895       0.17560233      -1.15222425      -1.27991523
O       -0.05868686       6.19524352       6.04351507      -0.05868686       0.14417298      -0.00755547       1.10135018      -0.32699537       0.35043462
O        1.96612047       4.03181100       6.06843658      -0.05090304      -0.00223603       0.01736604       0.01882242       0.72573150       0.29293452
O        2.01466594       6.07057158       4.07529549      -0.00235757       0.01950104       0.04124846       0.21593514      -0.12368866      -0.24651381
Ba       4.05144078      -0.02239151       0.04294221       0.01739375      -0.02239151       0.04294221       0.30584164       0.32241967      -0.34484293
Ti       6.11721410       1.96297820       2.05083749       0.06614356      -0.05404532       0.03381397      -0.31281202      -0.16910359       0.48653365
O        4.00600561       2.08625328       1.94300919      -0.02804142       0.06922976      -0.07401432      -0.00022904      -0.51610578       0.39958202
O        6.01694582       0.03609542       2.03778419      -0.03412472       0.03609542       0.02076067       0.29105403       0.49041263      -0.54688586
O        6.15864600       2.10944109       0.05053988       0.10757546       0.09241758       0.05053988      -0.25074474      -0.35798281      -1.29116725
Ba       4.03847876      -0.00329666       3.96809774       0.00443173      -0.00329666      -0.06594929       0.43182759       0.00682106       0.55333370
Ti       6.06019939       2.02967105       6.08878733       0.00912885       0.01264754       0.03771679      -0.21177400      -0.16915258      -0.38506275
O        4.01034985       2.11332865       6.06455790      -0.02369717       0.09630514       0.01348736       1.04264816      -0.41695656       0.12778735
O        6.00090095      -0.00529762       5.97655350      -0.05016959      -0.00529762      -0.07451704      -0.08754601       1.39568500       0.72475738
O        6.08522723       1.99189244       3.95285903       0.03415669      -0.02513107      -0.08118800      -0.39183386       0.25463020       0.72757342
Ba       4.00803789       4.03513962      -0.02544204      -0.02600914       0.00109259      -0.02544204       0.21835803      -0.29979098      -0.20900939
Ti       6.00024045       5.92224213       1.96945546      -0.05083009      -0.12882841      -0.04756806       1.31832112       0.29289243       0.17446100
O        4.16836606       6.01565480       2.02703200       0.13431903      -0.03541574       0.01000849      -2.11819602       0.35310721      -0.20792553
O        6.01951148       4.06168499       2.05050421      -0.03155906       0.02763797       0.03348070       0.22902750      -0.28577221      -0.08665075
O        6.09760688       5.98113577      -0.02691828       0.04653634      -0.06993477      -0.02691828      -0.21708476       0.25392133       0.48520338
Ba       3.98125063       4.03420811       3.98438443      -0.05279640       0.00016108      -0.04966259       0.15398290      -0.07989052       0.58889839
Ti       6.07235233       6.03205897       5.99180364       0.02128179      -0.01901157      -0.05926690       0.00673036       0.12830532      -0.23464313
O        4.06348839       6.05630606       6.08710267       0.02944136       0.00523552       0.03603213      -0.90015444      -0.09758665      -0.02143174
O        6.07523489       4.08188109       5.88967348       0.02416435       0.04783406      -0.16139706       0.08004462      -1.18551847       0.76143489
O        6.07703662       6.09602910       4.05118907       0.02596608       0.04495856       0.01714204      -0.20090259      -0.11459239      -0.39109394
40
Lattice="8.068094053620356 -7.466764181286827e-18 2.325191567735132e-18 -1.9223038079951577e-17 8.06809405362036 -3.090195084308793e-16 -3.9949514890937837e-16 3.956508154217362e-15 8.068094053620356" Properties=species:S:1:pos:R:3:u_disp:R:3:forces:R:3 system=batio3_cubic model=mace_mp0 T=100.0 seed=0 supercell=2x2x2 source="SSCHA free-energy-Hessian ensemble (final auxiliary dyn)" index=194 pair=97 energy=-319.07701042652224 pbc="T T T"
Ba       0.01643285       0.05006397      -0.00940131       0.01643285       0.05006397      -0.00940131      -0.07173973      -0.43121799      -0.03069649
Ti       2.02316722       2.02998289       2.02933127       0.00614371       0.01295938       0.01230776       0.76054961      -0.32803195      -1.10207901
O       -0.06288492       2.01874845       2.02801239      -0.06288492       0.00172494       0.01098888       0.64906921      -0.01567300       0.40416632
O        1.98548592       0.02097322       2.14485378      -0.03153760       0.02097322       0.12783027       0.10165382      -0.09138598      -0.38974183
O        1.95489764       2.00002006       0.09294913      -0.06212588      -0.01700345       0.09294913       0.35427894       0.02523158       0.43364998
Ba      -0.07760249       0.02556417       4.05545679      -0.07760249       0.02556417       0.02140976       0.16490108      -0.39239404       0.12995243
Ti       2.00016926       1.97457667       5.95298531      -0.01685425      -0.04244684      -0.09808523      -0.63036624       0.27900018       0.72128003
O        0.02535605       1.96200272       6.00592717       0.02535605      -0.05502079      -0.04514337      -0.10717724       0.17079086       0.10027776
O        1.98204775      -0.08687612       6.12073281      -0.03497576      -0.08687612       0.06966227       0.40454142       1.01037611      -0.32185688
O        2.04071100       2.05815850       4.13502184       0.02368748       0.04113498       0.10097481      -0.23018567      -0.40878689      -1.30916984
Ba       0.05554295       4.05908845       0.02196895       0.05554295       0.02504142       0.02196895      -0.14014396      -0.19090089      -0.30557492
Ti       1.99995136       6.04699836       2.05535694      -0.01707216      -0.00407218       0.03833343       0.41794209       0.23793076      -0.10876739
O       -0.09642088       6.05254578       2.03944413      -0.09642088       0.00147524       0.02242062       1.57348118       0.20701116       0.21230399
O        2.06396524       4.04888703       2.00787036       0.04694173       0.01484000      -0.00915315      -0.75182225       0.32325299       0.39541074
O        2.01834813       6.00786751      -0.01698737       0.00132462      -0.04320303      -0.01698737       0.29915056       0.14111491       1.28842388
Ba      -0.01826839       4.09942186       4.04903078      -0.01826839       0.06537484       0.01498375       0.03421357      -0.17247502       0.21050887
Ti       1.98002261       6.02690822       6.06221424      -0.03700090      -0.02416232       0.01114370      -0.16915368       0.17601909       0.06201435
O        0.12690784       5.98746113       6.09816021       0.12690784      -0.06360942       0.04708967      -0.96254746       0.04763310      -0.21617115
O        2.05492791       3.99295280       6.00064385       0.03790439      -0.04109422      -0.05042669       0.08399614      -0.21110043       0.47661724
O        2.12103387       6.06638082       4.09618625       0.10401036       0.01531028       0.06213922      -0.52463267      -0.18493796      -1.09859233
Ba       4.05685624       0.00013144      -0.00180201       0.02280921       0.00013144      -0.00180201      -0.24530358      -0.08512821       0.17711824
Ti       6.12255972       2.06061841       2.05920288       0.07148918       0.04359489       0.04217937      -0.64473572      -0.17703162       0.05158518
O        4.01715227       2.17253451       2.03568660      -0.01689476       0.15551100       0.01866309      -0.35464707      -0.79384378      -0.15755690
O        5.93113132       0.00728523       2.04233245      -0.11993922       0.00728523       0.02530894       0.53770756       0.55726913       0.05592165
O        6.16642958       1.99149680      -0.03484968       0.11535904      -0.02552671      -0.03484968      -0.80598998       0.22322999      -0.22944176
Ba       4.12102315      -0.05985545       4.02524856       0.08697612      -0.05985545      -0.00879846      -0.39136748       0.10428639       0.10840672
Ti       5.97394126       2.00303979       6.09563904      -0.07712928      -0.01398372       0.04456850       0.57845015      -0.31622219       0.01652638
O        4.01742750       1.98270853       5.99899495      -0.01661953      -0.03431499      -0.05207559       0.75513530      -0.05990283       0.60541659
O        6.01551585      -0.05971140       6.09764606      -0.03555469      -0.05971140       0.04657552       0.37201345       0.90978085      -0.16774056
O        6.04811729       2.15873706       4.04156496      -0.00295325       0.14171355       0.00751793       0.10432507      -0.73397040      -0.12096190
Ba       3.99598585       4.00341401      -0.04271750      -0.03806118      -0.03063302      -0.04271750      -0.02616477       0.08845811       0.24770229
Ti       6.03046789       6.02016853       1.96137125      -0.02060265      -0.03090201      -0.05565227       0.12793092       0.33395513       0.22733113
O        4.03590343       6.05126270       2.06022716       0.00185641       0.00019216       0.04320365      -0.62202730      -0.13473560      -0.27608701
O        6.13975539       4.04423304       1.96771100       0.08868485       0.01018601      -0.04931251      -0.54516747      -0.34173089       0.17603416
O        6.07602971       6.03517505       0.09114929       0.02495917      -0.01589549       0.09114929      -0.15701106       0.03986207      -0.77676747
Ba       4.01396317       4.01470208       3.95958189      -0.02008386      -0.01934494      -0.07446514       0.21633316       0.32045239       0.48292514
Ti       5.98491463       5.95868295       6.06710746      -0.06615591      -0.09238759       0.01603692      -0.16556010       0.75324199      -0.61835438
O        4.12634213       6.06659775       6.09689164       0.09229510       0.01552721       0.04582110      -0.05456790      -0.33651143       0.12587653
O        6.04689333       4.04333608       6.07947206      -0.00417721       0.00928905       0.02840152       0.06714581      -0.48642540       0.23274274
O        6.07798646       6.02752052       4.09545720       0.02691592      -0.02355002       0.06141017      -0.00250772      -0.05649029       0.28736746
40
Lattice="8.068094053620356 -7.466764181286827e-18 2.325191567735132e-18 -1.9223038079951577e-17 8.06809405362036 -3.090195084308793e-16 -3.9949514890937837e-16 3.956508154217362e-15 8.068094053620356" Properties=species:S:1:pos:R:3:u_disp:R:3:forces:R:3 system=batio3_cubic model=mace_mp0 T=100.0 seed=0 supercell=2x2x2 source="SSCHA free-energy-Hessian ensemble (final auxiliary dyn)" index=196 pair=98 energy=-318.9821079663942 pbc="T T T"
Ba      -0.05039946      -0.03104221       0.02768485      -0.05039946      -0.03104221       0.02768485       0.20712265       0.25162433      -0.34974526
Ti       1.98384212       1.92808805       1.99503684      -0.03318140      -0.08893547      -0.02198668       0.04279354      -0.09264229       0.41912450
O       -0.00207797       1.97807360       2.04160555      -0.00207797      -0.03894991       0.02458204      -0.17049609       0.32820361      -0.19546241
O        1.91898607      -0.00433392       1.99551239      -0.09803745      -0.00433392      -0.02151113       0.42724210       0.12129584      -0.02341810
O        2.04506206       2.06253664       0.10499360       0.02803855       0.04551313       0.10499360      -0.15664287       0.17553247      -0.92761675
Ba       0.04580997       0.05292916       4.02509219       0.04580997       0.05292916      -0.00895484      -0.12285603      -0.13943545       0.20763610
Ti       2.00084264       2.07827027       6.09294569      -0.01618087       0.06124675       0.04187515      -0.88607162      -1.52351335      -1.11349750
O        0.02218513       2.10311431       6.01246480       0.02218513       0.08609080      -0.03860574      -0.06497654       0.23774822       0.37043077
O        1.91495402       0.14312202       6.06755655      -0.10206949       0.14312202       0.01648600       0.40681119      -0.72498886       0.35960636
O        2.05906622       2.00492790       4.12187122       0.04204271      -0.01209561       0.08782420      -0.21185754       0.28406812      -0.69249390
Ba       0.00946647       4.08525408      -0.00370570       0.00946647       0.05120705      -0.00370570      -0.25934913      -0.36719050      -0.03189198
Ti       2.05387220       5.97560679       1.97085640       0.03684868      -0.07546375      -0.04616711       0.51736362       0.16685604       0.53387269
O       -0.08172605       6.05348961       2.06882630      -0.08172605       0.00241907       0.05180279       0.80352444      -0.09956731      -0.62223878
O        2.06654723       4.03740200       2.01902606       0.04952372       0.00335497       0.00200255      -0.46310468       0.60297024       0.05921501
O        1.99319210       6.06624388      -0.04980006      -0.02383141       0.01517334      -0.04980006       0.20142716      -0.08634594       0.17841546
Ba      -0.00369571       4.09684643       4.11807079      -0.00369571       0.06279940       0.08402377       0.03714545      -0.50262437      -0.62718315
Ti       2.08509189       6.04420251       6.03064323       0.06806837      -0.00686803      -0.02042731      -0.29093854       0.45589224      -0.36441053
O       -0.03989929       5.92971687       6.00999911      -0.03989929      -0.12135367      -0.04107143      -0.12618141       0.84518743       0.08780852
O        2.00252392       4.13648806       5.97812151      -0.01449959       0.10244103      -0.07294903       0.54505219      -0.07786493       0.66013067
O        2.02215682       6.12666758       4.02744410       0.00513330       0.07559704      -0.00660293      -0.13443151      -0.18532671       0.02142310
Ba       4.08448388       0.07269524      -0.01691900       0.05043686       0.07269524      -0.01691900      -0.25120113      -0.53285029       0.01093388
Ti       6.05352910       2.00817307       2.04102984       0.00245856      -0.00885044       0.02400632       0.15667355      -0.56307880       0.38914403
O        3.99840613       1.93652433       1.99335455      -0.03564090      -0.08049918      -0.02366897       0.46115840       0.48741165       0.09842446
O        6.00024005       0.02796937       1.96016149      -0.05083049       0.02796937      -0.05686203       0.19249015       0.37199314       0.32427385
O        6.06991653       1.98097219      -0.08530801       0.01884599      -0.03605132      -0.08530801      -0.23785621       0.34219657       0.35956505
Ba       4.04058085      -0.05861516       3.98135321       0.00653382      -0.05861516      -0.05269382      -0.11613488       0.42840933      -0.07303933
Ti       5.98960751       2.04188282       6.03417658      -0.06146303       0.02485931      -0.01689396       0.76776497       0.08597209       0.30682645
O        3.99599002       2.05090293       5.99170247      -0.03805701       0.03387942      -0.05936807       0.62293158      -0.09605038       0.58554474
O        6.13855939       0.04919081       5.98594258       0.08748885       0.04919081      -0.06512796      -0.39647448      -0.45102874      -0.17043618
O        6.06020229       2.11957819       3.96856088       0.00913175       0.10255467      -0.06548615      -0.21356868      -0.48196846       0.06972642
Ba       4.05144644       3.96939084       0.03716091       0.01739941      -0.06465619       0.03716091       0.14145863       0.42888492      -0.00238408
Ti       6.09529038       5.98055964       2.02315133       0.04421984      -0.07051090       0.00612781      -0.01687212       0.38057088       0.11879167
O        3.98376832       6.05885959       2.01342675      -0.05027871       0.00778905      -0.00359676      -0.38898504      -0.08120082      -0.32293411
O        6.07397246       4.04975828       2.04417603       0.02290192       0.01571125       0.02715252      -0.40444461      -0.41890686      -0.86199441
O        6.08896724       6.12437434      -0.04874537       0.03789670       0.07330380      -0.04874537      -0.40888172      -0.42144791      -0.34500928
Ba       3.96180683       3.93106397       4.05375204      -0.07224020      -0.10298305       0.01970501       0.36746658       0.54870333      -0.41599591
Ti       6.06958454       6.08221646       6.00867721       0.01851400       0.03114592      -0.04239333       0.42053302      -0.01886740       0.48485104
O        4.06710114       6.20632895       5.91022910       0.03305411       0.15525841      -0.14084144      -0.45536038      -0.65758271       0.73328290
O        5.98979579       4.00705959       6.10661543      -0.06127475      -0.02698743       0.05554489      -0.09606415       0.51515711      -0.34240993
O        6.08725894       5.98265305       3.92940053       0.03618840      -0.06841749      -0.10464650      -0.44620988       0.46380450       1.10313394
40
Lattice="8.068094053620356 -7.466764181286827e-18 2.325191567735132e-18 -1.9223038079951577e-17 8.06809405362036 -3.090195084308793e-16 -3.9949514890937837e-16 3.956508154217362e-15 8.068094053620356" Properties=species:S:1:pos:R:3:u_disp:R:3:forces:R:3 system=batio3_cubic model=mace_mp0 T=100.0 seed=0 supercell=2x2x2 source="SSCHA free-energy-Hessian ensemble (final auxiliary dyn)" index=223 pair=111 energy=-319.292609812213 pbc="T T T"
Ba      -0.04987381      -0.02024207       0.00330766      -0.04987381      -0.02024207       0.00330766       0.41993591       0.13762138      -0.34544359
Ti       1.96846325       1.98377976       1.97711454      -0.04856026      -0.03324375      -0.03990897       1.32938503       0.56215810       0.02822429
O       -0.01682998       1.97371405       1.99018295      -0.01682998      -0.04330946      -0.02684056      -0.01979502      -0.18114633      -0.00915839
O        1.98511306      -0.04184883       1.97507526      -0.03191045      -0.04184883      -0.04194826       0.03303303       0.09445198       0.21666741
O        2.03995843       2.01809364      -0.03178708       0.02293492       0.00107013      -0.03178708      -0.21469451      -0.03253406       1.00250212
Ba      -0.03438017      -0.05110636       4.08790681      -0.03438017      -0.05110636       0.05385979       0.12153268       0.08427374      -0.13352800
Ti       2.02212179       1.97109053       6.04019974       0.00509828      -0.04593298      -0.01087080      -0.05605936       0.13811530      -0.29159191
O        0.07176754       1.94699763       6.01969495       0.07176754      -0.07002588      -0.03137559      -1.30489571       0.27048630       0.27929499
O        2.01014622       0.01525323       6.07488061      -0.00687729       0.01525323       0.02381007       0.09334281      -0.90125539       0.11033766
O        1.97719694       1.96942750       4.11126321      -0.03982658      -0.04759601       0.07721618       0.18343525      -0.00874627      -1.02991695
Ba       0.02915504       4.03478844       0.01623597       0.02915504       0.00074141       0.01623597      -0.19291301       0.01057093      -0.42480009
Ti       1.92113615       6.07753492       1.96559882      -0.09588736       0.02646438      -0.05142470       0.14743730      -0.24482887      -0.21564321
O        0.04577119       6.01897686       1.96828255       0.04577119      -0.03209368      -0.04874096       0.12769732       0.18970072       0.11612665
O        1.93204085       3.98976144       2.09727501      -0.08498266      -0.04428558       0.08025149       0.32772094      -0.00668033      -0.42385972
O        2.10725768       6.04426473       0.00843485       0.09023416      -0.00680581       0.00843485      -0.62194729       0.01902417       0.40614791
Ba       0.07826190       3.97722266       4.04649547       0.07826190      -0.05682437       0.01244844      -0.62019765       0.35155692       0.21359580
Ti       2.03898720       6.04943245       5.99763505       0.02196369      -0.00163809      -0.05343549       0.30021712      -0.21539684       0.18845247
O       -0.10651289       6.03548466       6.02596434      -0.10651289      -0.01558588      -0.02510620       1.36555460       0.01134598       0.20864248
O        2.03960983       4.02850310       6.08268749       0.02258631      -0.00554393       0.03161695      -0.20384626       0.58378328      -0.22188120
O        2.02624136       6.10569563       4.07264983       0.00921785       0.05462509       0.03860280      -0.08295025      -0.20403942      -0.03305376
Ba       4.04893393       0.01233972       0.01526494       0.01488690       0.01233972       0.01526494      -0.32649329       0.16709994      -0.13877820
Ti       6.10965361       2.00852748       2.01890884       0.05858307      -0.00849603       0.00188533      -0.85549574       0.82733255       0.21972701
O        3.98149717       1.98688568       1.99560379      -0.05254985      -0.03013783      -0.02141972      -0.07346620      -0.03567529       0.09385442
O        6.04813416      -0.04695715       1.94576020      -0.00293638      -0.04695715      -0.07126332       0.10890981       0.36409568       0.12703759
O        6.02562269       2.11122777      -0.02866578      -0.02544785       0.09420426      -0.02866578       0.28915219      -0.68724531      -0.38349796
Ba       4.04929218       0.01737741       4.02720604       0.01524515       0.01737741      -0.00684099      -0.18980957       0.04589946      -0.05269682
Ti       6.04087916       2.06624331       6.04091382      -0.01019138       0.04921979      -0.01015672      -0.47530613       1.14201383       0.07627765
O        4.06196640       1.96433355       5.98972529       0.02791937      -0.05268996      -0.06134525       0.59800583       0.07388376       0.27829507
O        6.03533413      -0.07219619       6.01111674      -0.01573641      -0.07219619      -0.03995380      -0.04386963       1.40765754       0.17573518
O        6.02509468       1.97915947       3.97442986      -0.02597586      -0.03786404      -0.05961717       0.35424047      -0.04882036       0.02306254
Ba       4.01404323       4.06219539      -0.02662428      -0.02000379       0.02814836      -0.02662428       0.11166469      -0.36332012       0.13874878
Ti       5.98306019       6.07358239       2.02542283      -0.06801035       0.02251185       0.00839931      -0.18321339      -0.61472286       1.02834588
O        4.09430550       5.98628848       2.01939992       0.06025848      -0.06478206       0.00237640      -0.07792373       0.26559538      -0.17510706
O        6.10646330       4.01451039       1.98881381       0.05539276      -0.01953664      -0.02820971      -0.07696263      -0.16728787       0.02149073
O        6.08450394       6.10412076      -0.05968708       0.03343340       0.05305022      -0.05968708      -0.24167234      -0.36465012       0.98461329
Ba       4.05601729       4.11928329       4.03746914       0.02197026       0.08523626       0.00342211       0.01160173      -0.59591144      -0.10152292
Ti       6.03927994       6.14960998       6.13639981      -0.01179060       0.09853944       0.08532927       0.27902514      -1.25939106      -1.09639127
O        4.02286325       6.00616016       6.07729178      -0.01118378      -0.04491038       0.02622124      -0.62661937       0.38100767      -0.18555715
O        6.01288179       4.03468214       5.95190701      -0.03818875       0.00063511      -0.09916353       0.25554517      -1.37965397       0.43585281
O        6.04135346       6.05249460       4.02056017      -0.00971708       0.00142406      -0.01348685       0.03069407       0.18363130      -1.11060455
40
Lattice="8.068094053620356 -7.466764181286827e-18 2.325191567735132e-18 -1.9223038079951577e-17 8.06809405362036 -3.090195084308793e-16 -3.9949514890937837e-16 3.956508154217362e-15 8.068094053620356" Properties=species:S:1:pos:R:3:u_disp:R:3:forces:R:3 system=batio3_cubic model=mace_mp0 T=100.0 seed=0 supercell=2x2x2 source="SSCHA free-energy-Hessian ensemble (final auxiliary dyn)" index=261 pair=130 energy=-319.0020193007454 pbc="T T T"
Ba      -0.00080807       0.07027393       0.00314494      -0.00080807       0.07027393       0.00314494      -0.04530619      -0.21857875      -0.11486613
Ti       1.99453497       2.02946178       1.98635667      -0.02248855       0.01243827      -0.03066684      -0.61478011      -0.73439661      -0.02372022
O        0.05131517       1.95402590       2.09001455       0.05131517      -0.06299762       0.07299104      -0.62995606       0.74555490      -0.42415167
O        1.91391567       0.06311952       1.96925746      -0.10310785       0.06311952      -0.04776605       0.94225817      -0.64472131       0.21030850
O        1.96981485       2.06369299      -0.01477393      -0.04720866       0.04666947      -0.01477393       0.27999024       0.07285137       0.46888011
Ba      -0.00262794      -0.12111172       4.03589414      -0.00262794      -0.12111172       0.00184712      -0.07335804       1.13789272      -0.03539502
Ti       2.07644478       2.06344624       6.00733318       0.05942127       0.04642272      -0.04373736      -1.32047236       0.11331659       0.00080829
O       -0.05510018       2.05117715       6.09964254      -0.05510018       0.03415364       0.04857200      -0.16707321      -0.13123753      -0.38389735
O        2.03571874      -0.01308754       6.12519569       0.01869522      -0.01308754       0.07412515       0.09349958      -0.15458430      -0.50318200
O        1.92014143       2.09182570       4.06045617      -0.09688208       0.07480219       0.02640915       0.72266997      -0.35821514       0.33127477
Ba      -0.02618528       4.04602507      -0.02305043      -0.02618528       0.01197804      -0.02305043       0.12640266      -0.15255234      -0.09536396
Ti       2.07910814       6.00184604       2.08684859       0.06208463      -0.04922450       0.06982508      -0.63473280       0.33924736      -0.78624119
O       -0.02794497       6.08034358       1.89733220      -0.02794497       0.02927304      -0.11969131       0.29833042      -0.58916465       0.71065684
O        2.03956764       4.03397627       2.04277093       0.02254413      -0.00007076       0.02574741      -0.04359991       0.88684264      -0.05591845
O        2.08151745       6.01171736      -0.05903593       0.06449394      -0.03935318      -0.05903593      -0.08953313       0.17416348       0.32439551
Ba       0.06974768       4.09633258       4.00101044       0.06974768       0.06228556      -0.03303659      -0.61025437      -0.71539040       0.35072183
Ti       2.01036663       6.10713296       6.08459535      -0.00665689       0.05606242       0.03352481      -0.37492713       0.00268079       1.23038369
O       -0.01565164       6.08581296       6.11578738      -0.01565164       0.03474242       0.06471684       0.42954289      -0.21483654      -0.19570873
O        2.04806777       4.05490682       6.08216812       0.03104426       0.02085980       0.03109758      -0.03564512       0.25655922      -0.57562050
O        1.98785464       6.16144944       4.00040230      -0.02916887       0.11037890      -0.03364473       0.22136406      -0.62198182       0.10783943
Ba       3.94270903      -0.02357770       0.10605904      -0.09133799      -0.02357770       0.10605904       0.38406811       0.21549435      -0.44554101
Ti       6.02899360       1.96407183       2.04177463      -0.02207694      -0.05295168       0.02475112       0.25841849       0.26255620       0.32286505
O        4.02586522       2.01199098       2.04080976      -0.00818181      -0.00503253       0.02378624       0.17620181      -0.24688974      -0.05114023
O        6.16661780      -0.02148137       2.00721244       0.11554726      -0.02148137      -0.00981107      -0.94039143       0.36238019       0.20711671
O        6.02247393       1.98729174      -0.05157157      -0.02859661      -0.02973177      -0.05157157      -0.25180133      -0.05564517       0.01139426
Ba       4.07624295      -0.04196793       4.05159700       0.04219593      -0.04196793       0.01754997      -0.15019381       0.44120778      -0.01411704
Ti       6.00053946       1.99795559       6.05733833      -0.05053108      -0.01906792       0.00626779       1.69015045      -0.04914194       0.14452526
O        3.95942303       2.03892415       6.07098158      -0.07462399       0.02190064       0.01991104       0.74173996      -0.14873783      -0.23008760
O        6.06733721      -0.00389992       5.95114088       0.01626667      -0.00389992      -0.09992966      -0.34344867       0.09006521       0.32464993
O        6.00482503       2.01543701       3.99625426      -0.04624551      -0.00158650      -0.03779277      -0.08356569       0.01996286      -0.22833337
Ba       4.03521902       4.02412987      -0.05334397       0.00117200      -0.00991716      -0.05334397      -0.00060847      -0.02233756       0.30040814
Ti       6.06557629       6.02464099       2.00294489       0.01450575      -0.02642955      -0.01407863       0.88484601       0.04524905      -0.50041017
O        4.01461194       6.05192444       2.11185964      -0.01943509       0.00085390       0.09483613      -0.33612683       0.14596874      -0.29769007
O        6.03318913       3.97806701       1.88134648      -0.01788141      -0.05598002      -0.13567703       0.12376015       0.40157376       0.66770894
O        5.97246493       6.12315964       0.08007816      -0.07860561       0.07208910       0.08007816       0.04679562      -0.39265823      -0.74475734
Ba       4.06129609       4.06311672       4.00381711       0.02724906       0.02906969      -0.03022992       0.13251142      -0.40099294       0.17929027
Ti       6.02537036       6.04976845       6.06626453      -0.02570018      -0.00130209       0.01519399       0.26694649       0.10342979      -0.07689412
O        4.10700355       6.09725135       6.13012874       0.07295653       0.04618081       0.07905820      -0.41306796      -0.22605187      -0.67651496
O        6.09290093       4.03083140       5.94115846       0.04183039      -0.00321562      -0.10991208      -0.50850278       0.32949197       0.60393983
O        6.07284122       6.03150340       4.02451254       0.02177068      -0.01956714      -0.00953449      -0.15215110      -0.06837429      -0.03761625
40
Lattice="8.068094053620356 -7.466764181286827e-18 2.325191567735132e-18 -1.9223038079951577e-17 8.06809405362036 -3.090195084308793e-16 -3.9949514890937837e-16 3.956508154217362e-15 8.068094053620356" Properties=species:S:1:pos:R:3:u_disp:R:3:forces:R:3 system=batio3_cubic model=mace_mp0 T=100.0 seed=0 supercell=2x2x2 source="SSCHA free-energy-Hessian ensemble (final auxiliary dyn)" index=265 pair=132 energy=-318.86252659242916 pbc="T T T"
Ba      -0.06306518       0.02306536       0.00228621      -0.06306518       0.02306536       0.00228621       0.44474646      -0.24769320       0.07169785
Ti       1.99068891       1.98225094       2.07039112      -0.02633460      -0.03477257       0.05336761       0.08804817       0.36178778      -0.06818476
O       -0.02083608       1.97705633       2.06691456      -0.02083608      -0.03996718       0.04989105       0.00665222       0.39610990      -0.31872414
O        1.89171975       0.06238465       2.05621606      -0.12530376       0.06238465       0.03919255       1.05329295      -0.43687662      -0.31507510
O        1.92937265       2.04523469      -0.01676154      -0.08765086       0.02821117      -0.01676154       0.28938299      -0.22995170      -0.40160629
Ba       0.07905667       0.07418723       3.98588663       0.07905667       0.07418723      -0.04816040      -0.90197317      -0.48901776       0.33378119
Ti       2.03630330       2.06645098       6.08077208       0.01927978       0.04942747       0.02970154       1.00599249       0.37849374       0.30570614
O       -0.10496510       1.98012011       6.08915475      -0.10496510      -0.03690340       0.03808421       1.80752179       0.11758725      -0.07018831
O        1.99323435      -0.00197510       5.98155704      -0.02378916      -0.00197510      -0.06951350      -0.05103425       0.32800491       0.11304999
O        1.97868730       2.05694184       3.99073053      -0.03833621       0.03991832      -0.04331650       0.20608507      -0.25853156       0.58369918
Ba      -0.01777855       3.96304228       0.00730814      -0.01777855      -0.07100475       0.00730814       0.51122294       0.57574610       0.00619563
Ti       1.99369349       6.01146888       2.04899489      -0.02333002      -0.03960166       0.03197138       0.36792689      -0.62701844       0.14245393
O        0.06845240       6.11373177       1.89657953       0.06845240       0.06266123      -0.12044398      -0.41292836      -0.32549638       0.28046558
O        2.01658837       4.03633147       2.11903804      -0.00043515       0.00228445       0.10201453      -0.28635393       0.52921818      -0.95988407
O        2.19286919       6.09409204      -0.10899017       0.17584567       0.04302150      -0.10899017      -1.00660348      -0.26024281       0.76340743
Ba      -0.04195463       4.06862446       4.00253268      -0.04195463       0.03457744      -0.03151434       0.02702441      -0.11844963       0.25827814
Ti       1.97430263       6.10372051       6.04507372      -0.04272089       0.05264997      -0.00599682       0.32041765      -0.10294653       0.44803329
O        0.06227703       5.98247516       6.01211016       0.06227703      -0.06859538      -0.03896038      -0.64517313       0.22908478       0.37634066
O        2.05025382       3.97334417       6.02906088       0.03323030      -0.06070286      -0.02200966      -0.33441399      -0.72036111       0.16409903
O        1.98640030       5.94315470       4.02375423      -0.03062321      -0.10791584      -0.01029280       0.22658814       0.79959865      -0.87250530
Ba       3.98607190       0.01185255      -0.00896016      -0.04797513       0.01185255      -0.00896016       0.08274247       0.00451204       0.00811678
Ti       6.02164227       2.05733870       1.99229478      -0.02942827       0.04031518      -0.02472874      -0.21959732      -0.63500934       1.09573956
O        4.04986262       2.08279912       1.95744084       0.01581560       0.06577560      -0.05958267      -0.46337085      -0.27077984       0.20293123
O        5.90705946       0.03558858       2.03340853      -0.14401108       0.03558858       0.01638502       0.76083670      -0.49963748      -0.28760178
O        6.11257192       2.06756070       0.08586436       0.06150138       0.05053719       0.08586436      -0.09349528      -0.20070706      -0.66926484
Ba       4.06893356      -0.03621976       4.06562954       0.03488654      -0.03621976       0.03158252       0.10397584       0.24577633      -0.13047608
Ti       6.15213725       2.00833686       6.08571222       0.10106671      -0.00868666       0.03464167      -1.88970846       0.23631517      -1.53600172
O        4.10534618       2.00338392       6.08352615       0.07129916      -0.01363959       0.03245561      -1.40836219      -0.18149118       0.21964935
O        6.06266465      -0.04631169       5.95942849       0.01159411      -0.04631169      -0.09164205       0.08110994      -0.22856627       0.96304942
O        6.03398487       2.03903256       4.09202381      -0.01708567       0.02200905       0.05797678       0.16538896      -0.18463414      -0.22927960
Ba       4.12607255       4.01744799       0.00328168       0.09202552      -0.01659904       0.00328168      -0.78176248       0.16019957      -0.18687803
Ti       6.05274661       6.04576971       1.98145603       0.00167607      -0.00530083      -0.03556749      -0.78298448       0.38677340       0.95265330
O        4.04977216       6.01049811       1.93340570       0.01572514      -0.04057243      -0.08361781       0.06820393       0.28488793       0.33715165
O        6.06287964       4.04734314       2.10067713       0.01180910       0.01329611       0.08365361       0.18022041       0.39672088      -0.52105153
O        6.11174341       6.01715980       0.00120560       0.06067287      -0.03391074       0.00120560      -0.21800059       0.16530135      -0.25715259
Ba       4.01053902       3.99724259       4.07135278      -0.02350800      -0.03680444       0.03730575       0.29665151       0.13172793      -0.05404834
Ti       6.03066077       6.05466125       6.07639457      -0.02040977       0.00359071       0.02532403      -0.29288652       0.01418147      -1.06661878
O        3.99894984       6.03555580       5.99919782      -0.03509718      -0.01551474      -0.05187272       1.25833445       0.04738418       0.07099545
O        6.06225820       4.01527406       6.00547220       0.01118766      -0.01877296      -0.04559834       0.10535638       0.42954533       0.57959519
O        6.03991544       6.08321834       4.02364323      -0.01115510       0.03214780      -0.01040380       0.33092575      -0.20154580      -0.33254869
40
Lattice="8.068094053620356 -7.466764181286827e-18 2.325191567735132e-18 -1.9223038079951577e-17 8.06809405362036 -3.090195084308793e-16 -3.9949514890937837e-16 3.956508154217362e-15 8.068094053620356" Properties=species:S:1:pos:R:3:u_disp:R:3:forces:R:3 system=batio3_cubic model=mace_mp0 T=100.0 seed=0 supercell=2x2x2 source="SSCHA free-energy-Hessian ensemble (final auxiliary dyn)" index=285 pair=142 energy=-318.6393164846665 pbc="T T T"
Ba      -0.03286240       0.01255973      -0.02136933      -0.03286240       0.01255973      -0.02136933       0.06301796       0.14147434       0.22528810
Ti       2.10015163       2.12103959       2.09476769       0.08312811       0.10401608       0.07774418       0.17090926      -0.65763436      -0.38700253
O       -0.07580264       2.00219843       2.04136473      -0.07580264      -0.01482508       0.02434122      -0.07868266      -0.00924482      -0.08260800
O        2.01924358       0.00278169       1.99941836       0.00222007       0.00278169      -0.01760515      -0.34025379      -0.04446687      -0.03793562
O        1.90784688       2.10380135      -0.03971554      -0.10917663       0.08677783      -0.03971554       0.65925346      -0.09223790       0.06458406
Ba       0.02434388      -0.05052682       4.03169930       0.02434388      -0.05052682      -0.00234773       0.06804693       0.25405279      -0.43726302
Ti       2.05826210       2.03639070       6.05174226       0.04123858       0.01936719       0.00067172      -0.97879723       0.30456312       0.77583612
O       -0.00215723       2.06281746       6.01328151      -0.00215723       0.04579395      -0.03778903      -0.03540395      -0.35122029      -0.30036250
O        2.02365683       0.03298364       6.07579909       0.00663331       0.03298364       0.02472855      -0.22058599      -0.32304961      -0.10691659
O        2.03137756       1.95023131       4.01595640       0.01435405      -0.06679221      -0.01809063      -0.16419241       0.43426863       0.10492323
Ba      -0.03845598       4.02375441       0.01436101      -0.03845598      -0.01029261       0.01436101       0.21344231       0.28027380      -0.46666461
Ti       2.02355851       6.13187972       1.95884334       0.00653499       0.08080918      -0.05818017      -0.10189231       0.31257941       1.27531860
O       -0.01763168       6.05446267       1.85516411      -0.01763168       0.00339213      -0.16185941      -0.38792255       0.14676244       0.80445171
O        1.90452492       4.07938507       2.12350233      -0.11249859       0.04533805       0.10647882       0.81747680      -1.20306353      -0.71895243
O        1.98409722       6.10107752       0.01080192      -0.03292629       0.05000698       0.01080192       0.11119544      -0.32100035      -0.97594890
Ba       0.01829277       3.99132933       3.98888578       0.01829277      -0.04271769      -0.04516124       0.00921466       0.42849842       0.53265202
Ti       2.02312952       6.10825775       6.12275758       0.00610601       0.05718721       0.07168704      -0.02790867      -0.85224317      -0.69930721
O       -0.03857087       5.96946160       5.97990457      -0.03857087      -0.08160894      -0.07116597       0.27805962       0.58244895      -0.04054938
O        2.12829100       4.10167688       6.00333921       0.11126749       0.06762985      -0.04773133      -0.36068723      -0.33659071       0.26092888
O        2.01777955       6.03510405       3.97055673       0.00075603      -0.01596649      -0.06349030      -0.07118270       0.54902610       0.56169425
Ba       4.03752099      -0.03161246       0.06738482       0.00347396      -0.03161246       0.06738482       0.06571173       0.32109874       0.01080808
Ti       6.12414225       2.07744199       1.95517251       0.07307171       0.06041847      -0.06185100      -0.23018262      -0.95873058       0.54644640
O        3.97680983       1.92032315       2.06554347      -0.05723720      -0.09670036       0.04851996      -0.51526146       1.06832064      -0.54643979
O        5.91609193      -0.02878370       1.94200664      -0.13497861      -0.02878370      -0.07501687       0.83978419       0.52427588       0.16920911
O        6.09271894       2.09851267      -0.02531813       0.04164840       0.08148915      -0.02531813      -0.49984201      -0.26251734       0.29861702
Ba       4.03557768      -0.03656472       4.16201591       0.00153065      -0.03656472       0.12796888      -0.24630893       0.20599918      -1.27276731
Ti       6.02327814       2.00635671       5.97751447      -0.02779240      -0.01066681      -0.07355607       1.05402221       0.99409064      -0.10452852
O        4.01443515       2.00343695       6.07857725      -0.01961188      -0.01358656       0.02750671       0.44229687      -0.01131688      -0.07612760
O        6.13179912      -0.02174706       6.00797683       0.08072858      -0.02174706      -0.04309371      -0.34920652       0.31218701      -0.16013577
O        5.97159651       2.01204758       3.96180960      -0.07947403      -0.00497593      -0.07223743       0.20465500      -0.24764564       1.06166877
Ba       4.04471734       4.01229381      -0.03997806       0.01067032      -0.02175321      -0.03997806       0.02707746       0.33677848       0.09211307
Ti       6.03037893       6.04261315       2.01652626      -0.02069161      -0.00845739      -0.00049726       0.14447350       1.01987407      -0.78153319
O        4.01160449       6.08415526       1.97277854      -0.02244254       0.03308472      -0.04424497      -0.26292483      -0.57132117      -0.34276031
O        5.99979118       4.06728780       2.18746284      -0.05127936       0.03324078       0.17043933       0.08330214      -0.61117151      -1.31235933
O        6.08148071       6.11939264      -0.09226187       0.03041017       0.06832210      -0.09226187      -0.38278398      -0.60333540      -0.26173151
Ba       4.04583799       4.05458153       4.03434792       0.01179096       0.02053450       0.00030089      -0.23681079       0.21016948      -0.01045410
Ti       6.06081366       6.10671493       5.96558819       0.00974312       0.05564439      -0.08548235       0.51645169      -0.64223481       1.54412353
O        4.01814884       6.11280083       6.13466423      -0.01589819       0.06173029       0.08359369       0.15733497      -0.22575482      -0.56007498
O        6.13376267       3.99536255       6.02974855       0.08269213      -0.03868448      -0.02132199      -0.97089024       0.09771285      -0.39066127
O        5.94785886       6.12668678       3.88762128      -0.10321168       0.07561624      -0.14642574       0.53599469      -0.19967521       1.74442152
40
Lattice="8.068094053620356 -7.466764181286827e-18 2.325191567735132e-18 -1.9223038079951577e-17 8.06809405362036 -3.090195084308793e-16 -3.9949514890937837e-16 3.956508154217362e-15 8.068094053620356" Properties=species:S:1:pos:R:3:u_disp:R:3:forces:R:3 system=batio3_cubic model=mace_mp0 T=100.0 seed=0 supercell=2x2x2 source="SSCHA free-energy-Hessian ensemble (final auxiliary dyn)" index=351 pair=175 energy=-318.96194345093744 pbc="T T T"
Ba       0.00689840       0.08178659       0.00436937       0.00689840       0.08178659       0.00436937      -0.54155557      -0.44219884       0.11201729
Ti       1.99220622       2.05061073       1.97022602      -0.02481729       0.03358722      -0.04679750       0.56617258      -0.72778219       0.36135629
O       -0.06401699       2.04943006       1.96638119      -0.06401699       0.03240654      -0.05064232       1.57724519       0.25356381       0.10628076
O        1.99350568       0.03646307       2.11121284      -0.02351783       0.03646307       0.09418932       0.13187099      -0.39950455      -0.62460152
O        2.00211690       1.95193378       0.00897735      -0.01490661      -0.06508973       0.00897735      -0.25848285       0.44910133      -0.44923684
Ba       0.00704611      -0.03652518       4.02085944       0.00704611      -0.03652518      -0.01318759      -0.15988510      -0.04105498      -0.06743443
Ti       1.95576576       2.03550220       5.99311616      -0.06125775       0.01847869      -0.05795438       0.42406465       0.61344566      -0.56718892
O       -0.06228971       2.05021342       5.90513522      -0.06228971       0.03318990      -0.14593532       0.87782499      -0.51456672       1.02407581
O        2.04669477      -0.03823658       6.05573117       0.02967126      -0.03823658       0.00466063      -0.12855054       0.17949795      -0.02780995
O        1.93535267       1.94018232       4.02526116      -0.08167085      -0.07684119      -0.00878587       0.52449763       0.33219887       0.54694017
Ba      -0.01375181       4.05132326       0.01374830      -0.01375181       0.01727624       0.01374830      -0.38223647       0.06149714      -0.08409263
Ti       1.97256570       6.04273420       2.07992795      -0.04445781      -0.00833634       0.06290444      -0.16254578       0.61684699       0.39211614
O       -0.01743238       6.10282557       2.07492268      -0.01743238       0.05175503       0.05789917       0.68914858      -0.25827467      -0.47265201
O        2.07007766       4.01546992       2.01239730       0.05305414      -0.01857711      -0.00462621      -0.38759128       0.20875247      -0.06263026
O        1.91842022       6.05028670       0.00965820      -0.09860329      -0.00078384       0.00965820       0.50398988      -0.05098317      -0.52666589
Ba       0.00628822       3.96205099       4.05011902       0.00628822      -0.07199604       0.01607200      -0.19103189       0.74431870      -0.40597574
Ti       1.99969696       6.14721078       6.11981723      -0.01732655       0.09614024       0.06874669      -0.11080515      -0.53410936      -0.20748543
O       -0.00156625       6.08530229       6.00429596      -0.00156625       0.03423175      -0.04677458       0.88912030      -0.06706509       0.14018701
O        2.03695999       3.99580334       5.92566896       0.01993648      -0.03824369      -0.12540158      -0.16690830      -0.73209510       0.83391474
O        2.06648710       6.03161289       3.98561910       0.04946358      -0.01945765      -0.04842793      -0.13512351       0.05237691      -0.19929358
Ba       4.03092553       0.03376655       0.02347680      -0.00312150       0.03376655       0.02347680       0.32965266      -0.04863667       0.07044105
Ti       6.07446075       1.95965053       2.04423475       0.02339021      -0.05737298       0.02721124      -0.55363751       0.42266715      -1.09274855
O        4.05406861       2.04262849       1.96809384       0.02002158       0.02560498      -0.04892967      -1.08524022       0.00167605       0.31220168
O        6.08685508       0.10484310       2.05144668       0.03578454       0.10484310       0.03442317      -0.16904330      -1.51450429      -0.20364411
O        6.04607732       2.01824663       0.07127276      -0.00499322       0.00122311       0.07127276       0.17005448       0.33717941      -1.54973111
Ba       4.13081081      -0.01926273       4.04852770       0.09676378      -0.01926273       0.01448067      -0.48190461       0.03763252      -0.20084883
Ti       6.04447855       2.04105812       5.98711116      -0.00659199       0.02403460      -0.06395938      -0.49652058      -0.33402170       0.67049703
O        4.08955845       1.94684975       6.07458736       0.05551143      -0.07017376       0.02351682      -0.41689968       0.61995523      -0.43756390
O        5.97997462      -0.01822472       6.13758607      -0.07109592      -0.01822472       0.08651553       0.56885933       0.66097863      -0.70928798
O        6.08572370       1.97554616       3.94322553       0.03465316      -0.04147736      -0.09082150      -0.36224414       0.34421286       1.94820916
Ba       3.99870967       4.00630776      -0.01076108      -0.03533735      -0.02773927      -0.01076108       0.48124364       0.04447634       0.04667117
Ti       6.02169748       6.01967380       2.01682815      -0.02937306      -0.03139674      -0.00019537       0.01666982      -0.82817423       0.22561264
O        4.09298948       6.07250307       1.94775323       0.05894245       0.02143253      -0.06927029      -0.41413007       0.13794778       0.22422225
O        6.04573123       4.10373675       2.00305748      -0.00533931       0.06968972      -0.01396603       0.09117282       0.74165360      -0.05898222
O        6.05691356       6.09429637      -0.08138848       0.00584302       0.04322583      -0.08138848       0.16663461      -0.37101555       0.84198378
Ba       4.01769971       4.03399505       4.04507723      -0.01634732      -0.00005198       0.01103020       0.25086335      -0.00632473      -0.24351541
Ti       6.04847284       6.04308035       6.05616168      -0.00259770      -0.00799019       0.00509114      -0.04299197       0.33486873       0.04299272
O        4.06128968       5.99241266       5.98304598       0.02724265      -0.05865788      -0.06802457      -0.75177485       0.16290032       0.44830700
O        6.14513128       4.05381253       5.95580342       0.09406074       0.01976551      -0.09526712      -0.55668929      -0.94399119       0.54617082
O        6.08431803       6.01735320       4.04762682       0.03324749      -0.03371734       0.01357979      -0.30329282       0.45655457      -0.70280819
40
Lattice="8.068094053620356 -7.466764181286827e-18 2.325191567735132e-18 -1.9223038079951577e-17 8.06809405362036 -3.090195084308793e-16 -3.9949514890937837e-16 3.956508154217362e-15 8.068094053620356" Properties=species:S:1:pos:R:3:u_disp:R:3:forces:R:3 system=batio3_cubic model=mace_mp0 T=100.0 seed=0 supercell=2x2x2 source="SSCHA free-energy-Hessian ensemble (final auxiliary dyn)" index=379 pair=189 energy=-319.21075533168334 pbc="T T T"
Ba       0.07983688       0.02774988      -0.01780106       0.07983688       0.02774988      -0.01780106      -0.56793593      -0.30374432       0.21173010
Ti       1.99430921       2.05130014       2.00233879      -0.02271431       0.03427663      -0.01468473       0.05358920       0.05430211       1.08361894
O       -0.06699221       2.05612435       2.14744534      -0.06699221       0.03910083       0.13042183       0.46042287      -0.12734734      -0.95325471
O        1.96527360       0.01627091       2.07859339      -0.05174992       0.01627091       0.06156988       0.01052640      -0.10083094      -0.46869475
O        2.04787883       2.02706901      -0.06830199       0.03085531       0.01004550      -0.06830199      -0.28475831      -0.17728463       1.19850627
Ba      -0.00562664       0.01483519       4.04900530      -0.00562664       0.01483519       0.01495827       0.18703719      -0.00210929      -0.14701499
Ti       1.98725116       2.00524346       6.07508705      -0.02977235      -0.01178005       0.02401651       0.56596658       0.25155416      -0.67898152
O        0.04117617       1.93585747       6.05133806       0.04117617      -0.08116604       0.00026752      -0.20346072       0.38867931      -0.09520627
O        2.09472407       0.04697390       6.01351654       0.07770056       0.04697390      -0.03755400      -0.41624642      -1.34173184       0.30240774
O        2.08093602       2.01485690       4.01233373       0.06391251      -0.00216661      -0.02171330      -0.46351159       0.29495617      -0.27898775
Ba      -0.02811202       4.01440487      -0.00752793      -0.02811202      -0.01964216      -0.00752793      -0.13893462       0.19571490       0.08472932
Ti       2.05085826       6.06840949       2.00370446       0.03383475       0.01733895      -0.01331905       0.30048079       0.01374007       0.31281601
O       -0.04796577       6.04145637       2.00202259      -0.04796577      -0.00961417      -0.01500092      -0.31365862      -0.16489968       0.36561953
O        2.02176063       4.01464435       1.97269365       0.00473712      -0.01940267      -0.04432986      -0.13516923      -0.59086365       0.17341295
O        2.00889683       6.01611646       0.11437388      -0.00812668      -0.03495408       0.11437388       0.09660053       0.45047077      -1.13594310
Ba      -0.01083396       4.05361002       4.07511852      -0.01083396       0.01956299       0.04107149       0.13714192      -0.18475903      -0.12652609
Ti       2.05099413       6.07108168       6.05388335       0.03397061       0.02001114       0.00281281      -0.25082665      -0.62889318      -0.62252808
O       -0.04508485       6.05512510       6.15071853      -0.04508485       0.00405456       0.09964799       0.47834336       0.07539143      -0.43074422
O        1.98446394       4.05722384       6.11901549      -0.03255958       0.02317681       0.06794495      -0.05062862       0.37922208      -0.25859344
O        2.02571654       5.98376843       4.03178249       0.00869303      -0.06730211      -0.00226453      -0.37151261       0.31339239       1.01974156
Ba       4.07975324       0.01169546      -0.01795503       0.04570622       0.01169546      -0.01795503      -0.13961198      -0.09868699       0.10456169
Ti       5.99564841       1.97436204       1.99541242      -0.05542213      -0.04266148      -0.02161109       0.23693962       0.23705125       0.19084177
O        4.02902776       1.91566944       2.07153969      -0.00501926      -0.10135407       0.05451618       0.00994261       0.39919715      -0.56243768
O        6.02376285      -0.02441373       2.05264977      -0.02730769      -0.02441373       0.03562625       0.12081318       0.16314665       0.00998034
O        6.02176467       1.86105433      -0.07471958      -0.02930587      -0.15596918      -0.07471958       0.24579748       0.70375856       1.17100001
Ba       4.01706569      -0.01557694       3.98413455      -0.01698133      -0.01557694      -0.04991248      -0.11860251       0.20719434       0.28435800
Ti       6.04182395       2.00367598       6.00951712      -0.00924659      -0.01334753      -0.04155342      -0.45486764       0.37383343       0.15961900
O        3.99968306       1.98178139       6.05213951      -0.03436396      -0.03524213       0.00106897       0.75511309       0.21168649      -0.10479948
O        6.12188888       0.00243773       6.04944201       0.07081834       0.00243773      -0.00162853      -0.58871704      -0.80159729      -0.29121247
O        6.07076414       2.01505176       4.04467357       0.01969360      -0.00197175       0.01062655      -0.26075171      -0.11945738       0.04996200
Ba       3.99965635       4.04746759      -0.01992030      -0.03439068       0.01342056      -0.01992030       0.31314824      -0.16054473       0.12402007
Ti       6.09419443       6.04621101       2.04450064       0.04312389      -0.00485953       0.02747712       0.02264691      -0.17068577      -0.73839853
O        3.98402592       6.03253322       2.10613787      -0.05002110      -0.01853732       0.08911435      -0.06636164       0.26042993      -0.40642385
O        5.91013569       4.02591253       2.03143988      -0.14093485      -0.00813450       0.01441637       0.54132400      -0.20696537      -0.28063065
O        6.03863245       6.10116466       0.02505879      -0.01243810       0.05009412       0.02505879      -0.27299096      -0.24108982      -0.00241919
Ba       4.04421591       4.02899334       4.04737323       0.01016888      -0.00505368       0.01332621      -0.22935057      -0.25744654      -0.02382488
Ti       6.03128836       6.09734773       6.03299873      -0.01978218       0.04627719      -0.01807181       0.72552233      -0.04036059       0.54703199
O        4.01153409       5.97481297       6.06474921      -0.02251294      -0.07625757       0.01367867      -0.11051149       0.49943269       0.15230707
O        6.07385568       3.97552858       6.10406275       0.02278514      -0.05851844       0.05299221      -0.04084721       0.12532874      -0.16466594
O        6.02155318       6.01517373       4.06820992      -0.02951736      -0.03589681       0.03416289       0.21789977       0.12081577       0.22502324
40
Lattice="8.068094053620356 -7.466764181286827e-18 2.325191567735132e-18 -1.9223038079951577e-17 8.06809405362036 -3.090195084308793e-16 -3.9949514890937837e-16 3.956508154217362e-15 8.068094053620356" Properties=species:S:1:pos:R:3:u_disp:R:3:forces:R:3 system=batio3_cubic model=mace_mp0 T=100.0 seed=0 supercell=2x2x2 source="SSCHA free-energy-Hessian ensemble (final auxiliary dyn)" index=445 pair=222 energy=-318.9787297351416 pbc="T T T"
Ba       0.02833585       0.03477060       0.04671804       0.02833585       0.03477060       0.04671804      -0.31640651      -0.30181980      -0.07120481
Ti       1.97133833       1.96924174       2.01059849      -0.04568519      -0.04778178      -0.00642502       0.87726951       0.53455519      -0.24981777
O        0.04609140       2.17501482       1.98868950       0.04609140       0.15799131      -0.02833401      -0.36384125      -0.97356202       0.34919486
O        2.08584702      -0.04002362       1.89236056       0.06882350      -0.04002362      -0.12466295      -0.92551455       0.26645320       0.83794724
O        2.00959643       2.00624764       0.05424451      -0.00742708      -0.01077588       0.05424451       0.05249123       0.00001231      -0.38647600
Ba      -0.02419244      -0.04248589       4.06932171      -0.02419244      -0.04248589       0.03527468      -0.15956279       0.23855005      -0.18579729
Ti       1.97502894       2.04579459       6.04664016      -0.04199457       0.02877108      -0.00443038       0.02714671       0.44288021      -0.53848166
O        0.02667274       1.99615595       6.04350253       0.02667274      -0.02086756      -0.00756801      -0.11391105      -0.17300610       0.15425544
O        1.93591666      -0.07482145       6.11480941      -0.08110685      -0.07482145       0.06373887       0.29129173      -0.14799775      -0.04630745
O        2.13241424       1.96305809       4.13473735       0.11539073      -0.05396543       0.10069032      -0.65492394      -0.34841939      -0.44885997
Ba       0.03097058       4.01929794      -0.01248010       0.03097058      -0.01474909      -0.01248010      -0.16227906       0.13479560       0.01541905
Ti       2.01084818       6.00704310       1.99967022      -0.00617533      -0.04402744      -0.01735329       0.24601096      -0.38011783      -0.44006200
O       -0.07626469       5.92534038       1.96312433      -0.07626469      -0.12573016      -0.05389919       0.89283100       0.92290099       0.27334971
O        2.01649996       4.01045174       2.00097115      -0.00052355      -0.02359528      -0.01605236       0.12799758       0.53960363       0.34118459
O        2.03227303       5.94301395       0.02415853       0.01524952      -0.10805659       0.02415853      -0.02716424       0.27930131      -0.33934766
Ba       0.00784275       4.01996977       3.97408291       0.00784275      -0.01407725      -0.05996411      -0.11246259       0.06939959       0.27906995
Ti       1.94898115       6.11878078       6.00933642      -0.06804237       0.06771024      -0.04173412       0.16241341      -0.08022727       0.14355343
O       -0.06910566       6.08238463       6.10410160      -0.06910566       0.03131409       0.05303106       0.52708501      -0.12142282       0.04982431
O        1.96020484       3.95948075       5.95948056      -0.05681868      -0.07456628      -0.09158998       0.41853092       0.28387790       0.63279930
O        1.97898262       6.04284713       4.07038825      -0.03804089      -0.00822341       0.03634122      -0.22465354       0.16892684       0.07668144
Ba       4.03154058       0.04704882       0.03212901      -0.00250645       0.04704882       0.03212901      -0.00091148      -0.25167765      -0.05355612
Ti       6.03178806       2.07895483       1.99020167      -0.01928248       0.06193132      -0.02682184      -0.31585381      -0.16607206       0.61471960
O        3.95527508       2.08591753       2.07481642      -0.07877195       0.06889402       0.05779291       1.12768286      -0.27572242      -0.41274928
O        6.12796137       0.05074447       2.16186038       0.07689083       0.05074447       0.14483687      -0.33997119       0.00546741      -0.67520712
O        6.05961295       1.93653058       0.03014773       0.00854241      -0.08049293       0.03014773       0.07733687       0.43584878       0.19909401
Ba       4.06775733      -0.03592915       4.05402215       0.03371030      -0.03592915       0.01997513      -0.02945353       0.39923770      -0.14677170
Ti       6.03123082       1.99388145       6.06858905      -0.01983972      -0.02314207       0.01751851      -0.27878533      -0.17319167      -0.32254163
O        4.07946974       1.93715367       6.13770410       0.04542272      -0.07986985       0.08663356      -0.09051819       0.44563664      -0.20715379
O        6.02209049       0.04507900       6.07192226      -0.02898005       0.04507900       0.02085172       0.47413353      -0.37344416      -0.19661522
O        6.07993046       2.12651928       3.99219799       0.02885992       0.10949576      -0.04184904      -0.09753914      -0.39648696       0.32555280
Ba       3.99679079       4.06099199      -0.08215928      -0.03725624       0.02694496      -0.08215928      -0.04635245      -0.22310908       0.50712218
Ti       6.02416351       6.05759863       1.99965707      -0.02690703       0.00652809      -0.01736645       0.52662580      -0.13365827       0.45516281
O        3.96919098       6.08849437       2.11396669      -0.06485605       0.03742383       0.09694318       0.30614569      -0.26295697      -0.26200106
O        6.06267092       4.08875035       1.94497640       0.01160038       0.05470332      -0.07204712      -0.56973378      -0.87877193       0.18774976
O        5.99262265       6.03584805       0.09518899      -0.05844789      -0.01522249       0.09518899      -0.15522918       0.43317157      -1.14845117
Ba       4.08135688       4.04543014       4.03039607       0.04730986       0.01138311      -0.00365095      -0.30517796      -0.15561966      -0.07190728
Ti       6.03637536       6.01825146       6.09357932      -0.01469518      -0.03281908       0.04250878      -0.11146526       0.02757928      -0.69746217
O        4.07723896       6.14286382       5.97264296       0.04319193       0.09179328      -0.07842758      -0.28826549      -0.60680228       0.57483567
O        6.04751790       4.00207162       6.06032847      -0.00355264      -0.03197540       0.00925793      -0.09491521       0.55019941       0.38070094
O        6.13127408       5.98966708       4.04384765       0.08020354      -0.06140346       0.00980062      -0.35010130       0.24568848       0.50255407
40
Lattice="8.068094053620356 -7.466764181286827e-18 2.325191567735132e-18 -1.9223038079951577e-17 8.06809405362036 -3.090195084308793e-16 -3.9949514890937837e-16 3.956508154217362e-15 8.068094053620356" Properties=species:S:1:pos:R:3:u_disp:R:3:forces:R:3 system=batio3_cubic model=mace_mp0 T=100.0 seed=0 supercell=2x2x2 source="SSCHA free-energy-Hessian ensemble (final auxiliary dyn)" index=455 pair=227 energy=-318.9177153397925 pbc="T T T"
Ba      -0.00920942      -0.03960931      -0.01626064      -0.00920942      -0.03960931      -0.01626064      -0.10545294       0.47351244      -0.00891787
Ti       1.96992624       2.03530580       2.08260226      -0.04709727       0.01828229       0.06557874      -0.64832380       0.16235326       0.53210413
O        0.06718864       2.01389219       2.18765789       0.06718864      -0.00313132       0.17063438      -0.19995621      -0.12715950      -0.74200273
O        2.05314024      -0.03001123       2.06033458       0.03611673      -0.03001123       0.04331106      -0.29592789       0.46747827      -0.20720955
O        1.94569746       2.01257138      -0.05712923      -0.07132605      -0.00445214      -0.05712923       0.11771012       0.02207268       1.41340001
Ba       0.00918567      -0.05976444       4.03173940       0.00918567      -0.05976444      -0.00230762       0.24465359       0.34557674       0.20064285
Ti       2.04116283       2.05956318       6.10497414       0.02413932       0.04253967       0.05390360       0.38549700      -0.46020330      -0.69612245
O       -0.07447901       2.04431186       6.04563225      -0.07447901       0.02728835      -0.00543829       0.57488368      -0.36426674       0.20270681
O        2.04351589      -0.08551690       6.10955838       0.02649238      -0.08551690       0.05848784      -0.26383372       0.14206035      -0.04877460
O        1.95170900       2.05188898       4.15032701      -0.06531452       0.03486547       0.11627998       0.54761180      -0.30872847      -0.90609113
Ba      -0.05491360       4.03669253      -0.00325364      -0.05491360       0.00264551      -0.00325364       0.05262966      -0.35141436       0.09265333
Ti       2.06380264       6.07028580       1.98292179       0.04677912       0.01921526      -0.03410172       0.23334920      -0.04178902       0.57155768
O       -0.00190840       6.05512160       2.07339806      -0.00190840       0.00405106       0.05637454      -0.63664152      -0.01204909      -0.66681066
O        1.94492485       4.03850849       2.09745146      -0.07209866       0.00446146       0.08042795       0.55173690      -0.74093767      -0.56508069
O        1.99426703       6.03485274       0.02593401      -0.02275648      -0.01621780       0.02593401      -0.14413888      -0.16821304       0.08503634
Ba       0.05127150       4.05604852       4.03825465       0.05127150       0.02200150       0.00420763      -0.20194119      -0.21344216       0.11895253
Ti       1.95505131       6.02505988       6.10427683      -0.06197221      -0.02601066       0.05320629       1.03689475       1.04784312      -0.96202117
O       -0.01722496       6.05081044       6.07465802      -0.01722496      -0.00026010       0.02358748      -0.25881189      -0.03383441       0.18017636
O        1.91308812       4.01157779       6.12161753      -0.10393539      -0.02246924       0.07054699       0.43222834       0.01895719       0.04996993
O        1.99598900       6.01669012       4.08723378      -0.02103451      -0.03438042       0.05318676      -0.04795823       0.06849006      -0.03900690
Ba       4.05547755       0.03621464       0.02658041       0.02143052       0.03621464       0.02658041      -0.09292646      -0.17306707      -0.56728256
Ti       5.98221386       2.06075217       2.04578455      -0.06885668       0.04372865       0.02876104       0.13667115      -0.26884160      -0.48413712
O        4.05251340       1.93663771       2.13296515       0.01846638      -0.08038580       0.11594164       0.13588511       0.69954887      -0.64183232
O        6.11500578      -0.01062381       2.04003698       0.06393524      -0.01062381       0.02301347      -0.21009364       0.23354660       0.13153214
O        6.04962932       1.98728574       0.01146013      -0.00144122      -0.02973778       0.01146013       0.03631236       0.27378974       1.38994646
Ba       4.10041493      -0.00975983       3.95234889       0.06636791      -0.00975983      -0.08169814      -0.58451663      -0.23679488       0.97753397
Ti       6.09482605       1.96290165       5.98049208       0.04375551      -0.05412187      -0.07057846      -0.31778970      -0.27169586       0.52670097
O        4.06562535       2.01630472       6.10680728       0.03157832      -0.00071880       0.05573674      -1.18346012       0.25083180       0.04639733
O        6.02723449      -0.00246637       5.91557427      -0.02383605      -0.00246637      -0.13549627       0.27912083      -0.40822705       0.59850874
O        5.94675688       2.02396230       4.13075834      -0.10431366       0.00693879       0.09671131       0.46866637       0.21543622      -1.63222835
Ba       4.00336184       4.00835971      -0.03622985      -0.03068519      -0.02568732      -0.03622985       0.26135533       0.17565239       0.04099426
Ti       6.12103999       6.05458927       1.96847316       0.06996945       0.00351873      -0.04855035      -0.03958964       0.28917594      -0.02875292
O        3.96466257       6.01710026       1.97394781      -0.06938446      -0.03397028      -0.04307570       0.15517164       0.02606318       0.34209085
O        6.08044165       4.05837785       2.09863275       0.02937111       0.02433082       0.08160924      -0.19762784      -0.75335204      -0.67649794
O        5.86827425       6.16122429       0.01140214      -0.18279629       0.11015375       0.01140214       1.21059916      -0.74787107       0.25692941
Ba       4.03202724       4.14916996       4.06758433      -0.00201979       0.11512293       0.03353731      -0.22657526      -0.65234102      -0.03545038
Ti       6.07411459       5.97918261       5.96860776       0.02304405      -0.07188793      -0.08246278      -1.18006968       0.23971117       0.10944397
O        4.04621482       5.95562246       6.01067063       0.01216779      -0.09544808      -0.04039991      -0.04149486       0.14299169       0.30688710
O        6.09444403       4.05137099       6.03563957       0.04337349       0.01732396      -0.01543097      -0.10881862       0.66403694       0.27668788
O        6.02376054       5.99212621       3.98622904      -0.02731000      -0.05894433      -0.04781799       0.12497173       0.37509969       0.45736626
40
Lattice="8.068094053620356 -7.466764181286827e-18 2.325191567735132e-18 -1.9223038079951577e-17 8.06809405362036 -3.090195084308793e-16 -3.9949514890937837e-16 3.956508154217362e-15 8.068094053620356" Properties=species:S:1:pos:R:3:u_disp:R:3:forces:R:3 system=batio3_cubic model=mace_mp0 T=100.0 seed=0 supercell=2x2x2 source="SSCHA free-energy-Hessian ensemble (final auxiliary dyn)" index=462 pair=231 energy=-318.8564194045675 pbc="T T T"
Ba      -0.02246632      -0.02575374       0.02793537      -0.02246632      -0.02575374       0.02793537       0.62270201       0.21161911      -0.11428746
Ti       2.05454139       2.01575712       2.05321737       0.03751788      -0.00126639       0.03619385      -0.60556473       0.35150926      -0.38948025
O        0.03194106       2.03768419       2.03869153       0.03194106       0.02066068       0.02166801      -0.81430271       0.04949135      -0.27525223
O        2.00699010      -0.01472026       2.11476131      -0.01003342      -0.01472026       0.09773780       0.63867060       0.43136601      -0.48652829
O        2.00739476       1.96283923      -0.02315407      -0.00962875      -0.05418428      -0.02315407       0.13037187       0.26597643      -0.19253784
Ba      -0.05218473      -0.01955177       4.04769859      -0.05218473      -0.01955177       0.01365156       0.47363101       0.22548574      -0.08164199
Ti       1.93814632       2.08517183       6.03616488      -0.07887719       0.06814832      -0.01490566       0.30798418      -0.58011560       0.37224624
O        0.03215354       2.08582399       6.06078348       0.03215354       0.06880047       0.00971294      -0.33839723      -0.26503656      -0.04068337
O        1.99913032      -0.02481803       6.04651696      -0.01789319      -0.02481803      -0.00455358      -0.00200996       0.20539975       0.21022642
O        2.04585531       2.00377049       4.05545056       0.02883180      -0.01325303       0.02140354      -0.01020204      -0.06119790      -0.06086695
Ba       0.01993508       4.05795671       0.03562404       0.01993508       0.02390968       0.03562404       0.30247522      -0.00160309       0.05413286
Ti       2.09245249       6.12671082       2.04885391       0.07542898       0.07564028       0.03183040      -0.95268323       0.16120345      -0.06061844
O        0.15225004       6.11472516       2.02279759       0.15225004       0.06365462       0.00577407      -1.64021414      -0.54645357       0.03002189
O        2.00181345       3.93756164       2.01838706      -0.01521006      -0.09648539       0.00136354       0.15946771       0.62960555       0.20491874
O        2.09054618       6.11769681       0.12668404       0.07352267       0.06662627       0.12668404      -0.08711207      -0.50031827      -0.90848458
Ba      -0.02374062       4.00352536       3.95636739      -0.02374062      -0.03052166      -0.07767963       0.27283162       0.22990141       0.19898974
Ti       2.03664890       6.09795218       6.00151985       0.01962539       0.04688164      -0.04955069       0.06805032       0.81384006      -0.60432573
O        0.06929541       6.13634254       5.96252452       0.06929541       0.08527200      -0.08854602      -0.71332583      -0.97068751       0.82769711
O        2.05258517       4.01453309       5.92040092       0.03556166      -0.01951394      -0.13066962      -0.03685966       0.08328436       0.74318766
O        1.99412637       6.17787508       4.03382991      -0.02289715       0.12680454      -0.00021712       0.54187833      -0.92843192       0.30787388
Ba       4.02312004      -0.06707909       0.01161776      -0.01092699      -0.06707909       0.01161776      -0.15974644       0.51982207      -0.34622609
Ti       6.02960116       1.99498804       1.96968780      -0.02146939      -0.02203547      -0.04733572       0.39095568      -0.08004250       0.59285163
O        4.00719197       2.15009312       1.96488983      -0.02685505       0.13306961      -0.05213368       0.61268393      -0.90616728       0.19346712
O        6.06065793       0.08446454       2.08572974       0.00958739       0.08446454       0.06870622      -0.20934111      -0.51249085      -0.45862025
O        6.02654255       2.00616721       0.00692729      -0.02452799      -0.01085630       0.00692729       0.34825933      -0.24819369       0.05220111
Ba       4.04416153       0.06310730       4.07599953       0.01011451       0.06310730       0.04195251      -0.06786836      -0.33581268       0.08450047
Ti       6.04710237       2.01708365       6.09948731      -0.00396817       0.00006014       0.04841677      -0.92585145      -0.03894101      -0.53834142
O        4.12053343       1.90380483       6.04008090       0.08648640      -0.11321869      -0.01098964       0.25597900       0.58104639       0.21845281
O        6.08663143      -0.10468626       6.00716184       0.03556089      -0.10468626      -0.04390870       0.05535133       0.84395376       0.46607362
O        6.04403154       2.01169041       4.02741142      -0.00703900      -0.00533311      -0.00663560       0.09018978       0.51230670       0.14466015
Ba       4.01833663       4.05186544      -0.01145746      -0.01571039       0.01781842      -0.01145746      -0.25544323      -0.08865898      -0.07132629
Ti       6.06184195       6.05017137       2.01311189       0.01077141      -0.00089917      -0.00391162      -0.31949552      -0.46784929       0.14242070
O        4.11713149       6.04101673       2.05297210       0.08308446      -0.01005381       0.03594859       0.25116360       0.30077064      -0.02681673
O        5.94285366       4.08924190       1.93432421      -0.10821688       0.05519488      -0.08269931       1.07027776       0.24988328       0.28601356
O        6.12746762       6.12103637      -0.00562706       0.07639708       0.06996583      -0.00562706      -0.18364398      -0.19300591       0.56384437
Ba       4.04905805       3.98149767       3.97915579       0.01501103      -0.05254936      -0.05489123      -0.07266357       0.35556164       0.39329273
Ti       6.09424019       6.02352697       6.05034840       0.04316965      -0.02754357      -0.00072214       0.02103472       0.69449174      -0.42906337
O        3.97836333       6.15016189       6.01282291      -0.05568370       0.09909135      -0.03824763       0.66548581      -0.70644883       0.31937245
O        6.03724266       4.02594044       6.20929909      -0.01382788      -0.00810658       0.15822855       0.11327812      -0.02991917      -0.69521805
O        6.08869040       6.01470377       4.08093510       0.03761986      -0.03636677       0.04688808       0.00200329      -0.25514411      -0.62612592
