40
Lattice="7.885923316173807 1.0069592335564976e-16 8.542169513234906e-17 -4.423270641486721e-16 7.885923316173807 5.750029842555389e-15 -4.23394682124048e-16 3.380001409386728e-15 7.885923316173799" Properties=species:S:1:pos:R:3:u_disp:R:3:forces:R:3 system=srtio3_cubic model=mace_mp0 T=600.0 seed=3 supercell=2x2x2 source="SSCHA free-energy-Hessian ensemble (final auxiliary dyn)" index=4 pair=2 energy=-301.41747778549933 pbc="T T T"
Sr       0.17274872       0.04990044      -0.01930386       0.17274872       0.04990044      -0.01930386      -3.21011045      -0.93304676      -1.54569013
Ti       2.01785143       1.91796280       2.28704874       0.04637060      -0.05351803       0.31556791      -3.24691590       3.43862240     -41.89780945
O       -0.06642697       2.46982327       2.20043216      -0.06642697       0.49834244       0.22895133       1.79232788      -0.66153092      -0.33332327
O        1.36454310       0.12195845       1.60165956      -0.60693773       0.12195845      -0.36982127       3.56277800       0.65860458       4.46968533
O        1.64175488       2.09201141      -0.32043469      -0.32972595       0.12053058      -0.32043469      -4.55109678       1.64496902      25.64768840
Sr       0.20749899      -0.04765299       3.77862969       0.20749899      -0.04765299      -0.16433197      -1.59239540      -0.58132793       0.26293428
Ti       1.91528906       2.03826901       6.18759645      -0.05619177       0.06678818       0.27315396       5.74280068      -1.26240994     -27.18423934
O       -0.00708519       2.56062444       5.65142723      -0.00708519       0.58914361      -0.26301526      -0.40556922      -2.21152777       2.26060362
O        1.35910034       0.10320295       5.82888933      -0.61238049       0.10320295      -0.08555316       1.92613319      -0.83864099       0.27659731
O        2.13490575       1.79712465       3.60984401       0.16342492      -0.17435618      -0.33311765       3.68776103      -3.71265777      39.50914646
Sr      -0.13143410       3.85648822       0.11010356      -0.13143410      -0.08647343       0.11010356       0.07633730       1.00139437      -0.16034130
Ti       1.98207718       5.69723560       2.01183140       0.01059635      -0.21720689       0.04035057      -0.18961170       6.05192899       0.62293436
O       -0.13734988       5.76262444       2.16985179      -0.13734988      -0.15181805       0.19837096       1.16733213      -0.22760358      -0.10253400
O        2.46513911       4.08322173       1.96692829       0.49365828       0.14026007      -0.00455253      -0.43780453      -4.41971147      -0.40545203
O        1.73139272       5.76452049      -0.12001511      -0.24008811      -0.14992199      -0.12001511      -0.28809399      -0.42894737       1.51376500
Sr      -0.21064270       4.03063201       4.09799056      -0.21064270       0.08767035       0.15502890      -0.37942675      -0.94757244      -3.79784274
Ti       1.91720177       5.97656724       6.01219825      -0.05427906       0.06212476       0.09775576       1.79268712       0.06139810      -2.88730008
O       -0.14669462       5.44243931       5.61958565      -0.14669462      -0.47200318      -0.29485684       0.85085901       3.21455153       3.20154908
O        2.50574020       4.02907935       5.51926820       0.53425937       0.08611769      -0.39517429      -2.75998100       0.03516959       3.29191711
O        2.15386140       6.05117736       3.90393874       0.18238057       0.13673488      -0.03902292      -0.84763011       0.07943654      -1.10993972
Sr       4.00529941       0.03431700       0.06702043       0.06233775       0.03431700       0.06702043       0.60320621      -0.92586722      -1.57107269
Ti       6.03875161       1.93423303       1.90896972       0.12430912      -0.03724780      -0.06251111      -2.11405348       0.33678883       1.49201033
O        3.91191221       1.51742427       1.51425812      -0.03104945      -0.45405656      -0.45722270      -1.27730520       4.43101466       4.02611438
O        6.09673330       0.15124476       1.81105592       0.18229081       0.15124476      -0.16042491       0.89924259      -1.88937128       0.50255990
O        6.10548781       2.20213188       0.12434961       0.19104532       0.23065105       0.12434961       0.10822258       0.13829126      -2.71792452
Sr       4.06809237      -0.19122220       3.75690542       0.12513071      -0.19122220      -0.18605624      -2.12329494       3.21264231       0.92335588
Ti       5.95168556       1.78345615       5.88457861       0.03724307      -0.18802468      -0.02986387      -1.14507197       0.46289034      -0.64666369
O        3.94663867       1.59648167       6.22861602       0.00367702      -0.37499916       0.31417353       0.18606345       1.63622601      -1.07169607
O        6.44118187       0.06419476       6.18241789       0.52673938       0.06419476       0.26797540      -1.42498275       0.34356815      -1.48284438
O        5.67813276       1.92191988       3.98035999      -0.23630972      -0.04956095       0.03739833       0.40692835      -0.34794314       0.47284707
Sr       3.93183996       3.95736462      -0.04978089      -0.01112169       0.01440296      -0.04978089       0.77800754      -0.37973645      -0.29710885
Ti       5.89897284       5.88549350       1.96311104      -0.01546965      -0.02894899      -0.00836979      -0.90004012       0.30731094       1.04352196
O        3.83814951       6.49665932       1.74160831      -0.10481215       0.58221683      -0.22987252      -0.70180976      -3.38006492       1.11077116
O        5.59784732       4.03916072       2.00291169      -0.31659516       0.09619907       0.03143086      -0.16307283       0.50668511      -0.05235233
O        6.04508250       5.77546865       0.02574852       0.13064002      -0.13897383       0.02574852       0.00518522      -0.20174967       0.09015520
Sr       3.95166319       4.03553963       3.91452295       0.00870154       0.09257797      -0.02843871       1.41149557      -0.00825313      -0.86972774
Ti       5.90694506       5.75818381       6.07566370      -0.00749743      -0.15625868       0.16122121      -1.73910795       1.39292842      -1.99600361
O        3.97712303       6.53927026       6.22374775       0.03416137       0.62482778       0.30930526      -1.05296699      -2.84041476      -1.93660171
O        5.35117110       4.02972340       5.72160363      -0.56327139       0.08676174      -0.19283886       1.72645544       0.28727234       1.77096293
O        5.39385924       6.15468601       3.94962755      -0.52058325       0.24024353       0.00666589       3.82651853      -3.04331599      -0.42265213
40
Lattice="7.885923316173807 1.0069592335564976e-16 8.542169513234906e-17 -4.423270641486721e-16 7.885923316173807 5.750029842555389e-15 -4.23394682124048e-16 3.380001409386728e-15 7.885923316173799" Properties=species:S:1:pos:R:3:u_disp:R:3:forces:R:3 system=srtio3_cubic model=mace_mp0 T=600.0 seed=3 supercell=2x2x2 source="SSCHA free-energy-Hessian ensemble (final auxiliary dyn)" index=85 pair=42 energy=-305.9760531551506 pbc="T T T"
Sr      -0.03800142       0.00065509       0.04998431      -0.03800142       0.00065509       0.04998431       0.70844635      -1.02658497       0.49878759
Ti       2.17508137       2.04381266       1.97675845       0.20360054       0.07233183       0.00527762      -0.60254201      -0.18591291      -1.05136746
O       -0.15893739       1.87629794       2.32434225      -0.15893739      -0.09518289       0.35286142       7.89136038      -0.87578880       0.92886999
O        1.89417092      -0.07136178       1.96901672      -0.07730991      -0.07136178      -0.00246411       0.39749034       1.28619551       1.19992033
O        1.35096572       1.82292132      -0.05832485      -0.62051511      -0.14855950      -0.05832485       1.77126429       0.93377903       0.45044149
Sr      -0.12126062      -0.12847353       4.06265787      -0.12126062      -0.12847353       0.11969621       0.17198899       0.52139601      -0.71299556
Ti       2.06186518       1.74738621       5.94473272       0.09038435      -0.22409462       0.03029023      -8.65303676       2.36164178      -0.42923222
O       -0.35915140       1.74916933       5.71884207      -0.35915140      -0.22231150      -0.19560042      23.48315640      -1.53491462      -6.38094569
O        1.74037038       0.00741037       5.73551241      -0.23111045       0.00741037      -0.17893007       0.44806164      -1.65944780      -0.36970385
O        2.09767112       2.20603901       4.01644777       0.12619029       0.23455818       0.07348611       0.16577305      -1.02278208      -1.28434398
Sr       0.00681122       4.09855462       0.04365267       0.00681122       0.15559296       0.04365267      -0.06686458      -0.65243847      -0.79380033
Ti       1.89770370       5.97676382       2.31233941      -0.07377713       0.06232133       0.34085858       1.57570247       0.15403919     -13.29516969
O        0.06663101       5.76188238       1.58926479       0.06663101      -0.15256011      -0.38221604      -0.33200595       1.13598164       2.75557157
O        1.91032734       3.91216646       1.89892137      -0.06115349      -0.03079520      -0.07255946       0.26607989      -0.62694832       0.10799942
O        1.98731917       5.99514082      -0.03400111       0.01583834       0.08069834      -0.03400111       0.64609301       0.29477502       0.26117285
Sr       0.19502438       3.93355726       3.86756073       0.19502438      -0.00940440      -0.07540093      -0.84781696      -0.12560435       0.85326024
Ti       2.13191006       5.83941320       6.08971637       0.16042923      -0.07502929       0.17527388     -15.63371068       0.70593171       0.30964253
O       -0.16458901       6.01530353       6.00247998      -0.16458901       0.10086104       0.08803749       1.53224885       0.16688812       0.08797525
O        1.67306037       4.05772576       5.95712151      -0.29842046       0.11476411       0.04267902       0.60152646      -1.68685978      -0.15044816
O        1.81373531       5.80138555       3.86748600      -0.15774552      -0.11305694      -0.07547565      -0.54692534      -0.47105975       9.68151122
Sr       3.99993986       0.00932422      -0.04207529       0.05697820       0.00932422      -0.04207529      -0.46049593      -0.52703267       1.14645514
Ti       6.15341066       2.20899911       2.12743140       0.23896817       0.23751828       0.15595057      -8.27887871      -6.02317561      -1.27884037
O        3.95688423       1.94445928       1.56787826       0.01392257      -0.02702155      -0.40360257      -2.09699124      -0.43445901       1.06473667
O        6.02203962      -0.21977231       1.91258961       0.10759713      -0.21977231      -0.05889122       0.34942431      10.36343323       0.01910784
O        6.01503877       2.19839872       0.07990444       0.10059629       0.22691789       0.07990444       1.14864995      -1.66028691      -0.83073896
Sr       3.93616355       0.13497804       3.93514434      -0.00679811       0.13497804      -0.00781732      -1.17692349      -1.71643902      -0.30441330
Ti       6.16531960       1.87764016       6.10486426       0.25087712      -0.09384067       0.19042178     -25.32390330       4.14392164       4.74466736
O        3.61543304       1.90256623       6.20491283      -0.32752862      -0.06891460       0.29047034       7.96735278       0.26636300       1.43855221
O        5.68368442      -0.08376288       6.04299626      -0.23075807      -0.08376288       0.12855378      -0.12825450       0.95074645       0.07718320
O        5.48014804       1.56332128       3.96043678      -0.43429445      -0.40815955       0.01747512       1.96716462       2.26357364      -0.29642710
Sr       3.79129096       4.08009627      -0.35117323      -0.15167070       0.13713461      -0.35117323       1.45445492      -1.08447028       2.33810327
Ti       5.92695052       6.10616544       1.84917785       0.01250803       0.19172295      -0.12230298      -0.72646641     -11.82009616       0.01727983
O        4.10298838       5.79558614       1.94196708       0.16002672      -0.11885634      -0.02951375      -2.86054721       0.82815104       1.38123851
O        5.87326710       3.78725502       1.97017651      -0.04117539      -0.15570664      -0.00130432       0.21265514       6.56367712       1.27585050
O        5.71046270       5.65999204       0.00702953      -0.20397979      -0.25445045       0.00702953       0.60394173       0.92438660      -1.89843838
Sr       4.06331063       3.81513985       3.95167438       0.12034898      -0.12782181       0.00871273       0.20136885       0.45312827      -0.89947042
Ti       6.01365200       6.00455091       5.81305092       0.09920952       0.09010842      -0.10139157      -1.71621495      -3.45590407       1.11524647
O        3.64751147       5.91237529       5.94844231      -0.29545019      -0.00206719       0.03399982      14.52124792       0.88666765      -2.27866681
O        5.60869452       3.80263210       5.63244504      -0.30574797      -0.14032956      -0.28199745       1.27946677      -0.01635663       1.44726806
O        6.01645112       5.73921522       3.97905024       0.10200863      -0.17522726       0.03608859       0.08665892       1.40188557      -0.94583927
40
Lattice="7.885923316173807 1.0069592335564976e-16 8.542169513234906e-17 -4.423270641486721e-16 7.885923316173807 5.750029842555389e-15 -4.23394682124048e-16 3.380001409386728e-15 7.885923316173799" Properties=species:S:1:pos:R:3:u_disp:R:3:forces:R:3 system=srtio3_cubic model=mace_mp0 T=600.0 seed=3 supercell=2x2x2 source="SSCHA free-energy-Hessian ensemble (final auxiliary dyn)" index=92 pair=46 energy=-310.54045129679344 pbc="T T T"
Sr       0.12824740       0.16937850      -0.02294035       0.12824740       0.16937850      -0.02294035      -0.57992374      -0.24945823      -0.57831320
Ti       2.14303243       1.90457505       1.93808521       0.17155160      -0.06690578      -0.03339562      -6.16854856      -0.66247251       0.66680099
O       -0.10646310       1.55051431       1.82642747      -0.10646310      -0.42096652      -0.14505336      -0.96779271       1.15920630       0.78979775
O        2.25294246      -0.05833610       1.57611504       0.28146163      -0.05833610      -0.39536579      -0.44814690      -0.24699473       1.17075198
O        1.88610540       2.19206408      -0.01802221      -0.08537543       0.22058325      -0.01802221       0.13198150      -0.34830044      -0.44151332
Sr       0.03263984       0.04168321       4.07558021       0.03263984       0.04168321       0.13261855      -0.54853461       0.10617153      -0.54330817
Ti       1.95359673       2.07524190       5.90083140      -0.01788410       0.10376107      -0.01361109       0.00402082      -0.53962948      -0.62109719
O       -0.11554269       1.78941498       5.95793632      -0.11554269      -0.18206585       0.04349384       1.84285419       0.92698216      -0.28910356
O        2.06338119      -0.06381991       5.97190477       0.09190036      -0.06381991       0.05746228       0.43342895       0.63906782       1.09948103
O        1.80483628       1.66693317       3.89931178      -0.16664455      -0.30454766      -0.04364988       1.01112680       0.28022585      -0.36915391
Sr       0.10210642       3.87388859       0.04074517       0.10210642      -0.06907307       0.04074517      -2.29693495      -1.49806583       0.06775325
Ti       2.30165385       5.89842011       2.24131600       0.33017302      -0.01602238       0.26983517     -11.39290777       1.54182210     -10.79533227
O       -0.07818739       6.35025326       1.73133162      -0.07818739       0.43581078      -0.24014921       0.42045255      -1.31919415       0.40784557
O        1.62755202       3.85189851       2.19989384      -0.34392881      -0.09106314       0.22841301       2.26141097       0.38952855      -2.28271358
O        1.81524581       5.24613268      -0.22472175      -0.15623502      -0.66830981      -0.22472175       1.15905041      -1.07296844       7.36366730
Sr       0.21121777       3.88282308       3.77054680       0.21121777      -0.06013858      -0.17241485      -3.40654283      -0.14716193       1.55008914
Ti       1.75151003       5.94605155       6.23244620      -0.21997080       0.03160907       0.31800371       1.54661109       2.41151294      -9.89269240
O        0.07519038       6.23033194       5.62932055       0.07519038       0.31588946      -0.28512193      -1.57681379      -1.49389795       2.10397170
O        1.68723726       3.86156608       5.39049217      -0.28424357      -0.08139558      -0.52395032       1.37887552       0.48986142       2.20317969
O        2.06472203       5.93501259       3.77671854       0.09324120       0.02057010      -0.16624312      -0.45818721       0.98017118      10.83305136
Sr       3.85548506      -0.00096094      -0.09355502      -0.08747660      -0.00096094      -0.09355502       0.84530091       0.36200627      -1.27010941
Ti       5.94249973       1.80985656       1.88999319       0.02805724      -0.16162427      -0.08148764       0.61629497       1.66331885      -0.82623137
O        3.76731115       2.15548827       1.95340097      -0.17565051       0.18400744      -0.01807986       4.82918555       1.14543829       0.56530637
O        5.34951603       0.21448349       1.66211377      -0.56492645       0.21448349      -0.30936706       0.68444607      -2.56503038       0.68627527
O        5.71305893       2.30846081      -0.11512235      -0.20138356       0.33697998      -0.11512235       1.07091146      -1.04086742       2.47803294
Sr       3.88121929      -0.00101925       3.89752359      -0.06174237      -0.00101925      -0.04543807       0.68493451       0.51403469       0.85865257
Ti       5.87893447       2.02845918       5.72328947      -0.03550801       0.05697835      -0.19115302       0.29601568       1.13276102       2.19482313
O        3.86402236       2.22160714       5.98523784      -0.07893929       0.25012631       0.07079535      -1.60603299      -0.18641569      -0.77144864
O        5.81577728       0.27475190       5.93696967      -0.09866521       0.27475190       0.02252718      -1.04044987      -4.04369573       0.81788790
O        5.66488155       1.89692222       3.89024234      -0.24956093      -0.07455861      -0.05271932       0.38663146       0.38664447      -2.25015372
Sr       3.97288015       3.78594791       0.18815197       0.02991849      -0.15701375       0.18815197      -0.01611922       0.77819531      -1.46169497
Ti       6.15308188       5.74692213       2.03498513       0.23863939      -0.16752036       0.06350430      -1.55865191       5.34443753       0.35188953
O        3.77750333       5.62905846       1.78807467      -0.16545832      -0.28538402      -0.18340616      10.20834293      -1.42725211      -1.24235456
O        5.99944872       4.06662787       2.01989483       0.08500623       0.12366621       0.04841400       0.56121210      -3.83390860       0.47819264
O        5.67712559       5.72253677      -0.09139734      -0.23731689      -0.19190571      -0.09139734       1.25661048       0.94935433       2.65894421
Sr       3.83971593       4.10132479       4.09337552      -0.10324573       0.15836313       0.15041386       0.83005352      -1.06450291       0.41258058
Ti       5.74622108       5.90833118       6.06472983      -0.16822141      -0.00611131       0.15028734       1.36162336      -0.66489335      -2.91703129
O        3.91994681       5.76379340       5.95593589      -0.02301485      -0.15064908       0.04149340      -1.04545830       0.46030204      -0.57425057
O        6.04942911       3.99438069       5.81381412       0.13498663       0.05141903      -0.10062837       0.11702375       1.83635007      -0.85195050
O        5.92806976       6.29002357       3.92878732       0.01362727       0.37558109      -0.01417434      -0.82735422      -1.09268287      -1.78052230
40
Lattice="7.885923316173807 1.0069592335564976e-16 8.542169513234906e-17 -4.423270641486721e-16 7.885923316173807 5.750029842555389e-15 -4.23394682124048e-16 3.380001409386728e-15 7.885923316173799" Properties=species:S:1:pos:R:3:u_disp:R:3:forces:R:3 system=srtio3_cubic model=mace_mp0 T=600.0 seed=3 supercell=2x2x2 source="SSCHA free-energy-Hessian ensemble (final auxiliary dyn)" index=104 pair=52 energy=-316.30615905983626 pbc="T T T"
Sr       0.05225840      -0.12674090       0.12899391       0.05225840      -0.12674090       0.12899391      -0.73184526       0.96197541      -0.65583445
Ti       1.87949752       1.89843539       1.98176553      -0.09198331      -0.07304544       0.01028470       2.26812595       1.49786698      -0.12749014
O        0.10011963       1.96120980       2.06227728       0.10011963      -0.01027103       0.09079645      -2.65020121       1.02945572       0.05394826
O        1.81379707       0.14025886       2.02636574      -0.15768376       0.14025886       0.05488491       0.19383601      -2.71840280      -0.31678615
O        1.93283807       1.94758325      -0.19017798      -0.03864276      -0.02389758      -0.19017798      -1.51786446      -0.25223959       2.14104309
Sr       0.08946091      -0.03268986       3.78649644       0.08946091      -0.03268986      -0.15646522      -0.02380550       0.10627024       1.40102485
Ti       2.19400290       2.11368122       5.88113383       0.22252207       0.14220039      -0.03330866      -5.41799068      -1.05320577      -1.11326200
O       -0.16002649       1.98479867       5.43410580      -0.16002649       0.01331785      -0.48033668       1.06298913      -0.00340609       0.16636978
O        1.88453571      -0.00667691       5.66486104      -0.08694512      -0.00667691      -0.24958144      -0.09994959       1.39831984       0.35717230
O        2.25926204       2.11072285       3.84260256       0.28778121       0.13924203      -0.10035910      -0.23734375       0.06410938      -0.96581797
Sr      -0.16930982       3.77097967      -0.03977504      -0.16930982      -0.17198199      -0.03977504       0.71009859      -0.03354198      -0.16904159
Ti       2.05742636       5.88877444       2.06547005       0.08594553      -0.02566805       0.09398922      -0.01818140       0.76874664       0.37128986
O       -0.01444874       5.81516756       2.01366627      -0.01444874      -0.09927492       0.04218544      -1.10236886       0.18169093       0.25779480
O        2.04957031       4.11749319       1.72628395       0.07808948       0.17453153      -0.24519688      -0.42304389      -1.76221991       0.65417006
O        1.74277096       6.06903771      -0.03261347      -0.22870987       0.15459522      -0.03261347      -0.15736766       0.00421352       2.11116923
Sr       0.15227482       4.00792769       3.96074478       0.15227482       0.06496603       0.01778313      -0.08128412      -0.13924891       0.52366340
Ti       1.94857860       6.15848416       6.11377129      -0.02290223       0.24404167       0.19932880      -1.42577317      -1.96927525      -3.71202610
O       -0.16421771       5.90085906       5.72617902      -0.16421771      -0.01358342      -0.18826346       0.22513310      -0.29516928       0.55577910
O        1.91769043       3.89871857       5.87196155      -0.05379040      -0.04424309      -0.04248094      -0.38131543       1.87628654       0.25480577
O        1.94049388       5.86037122       3.90416005      -0.03098695      -0.05407126      -0.03880160       0.29147980      -0.13000587      -0.65923822
Sr       3.97468608      -0.05492836       0.01850056       0.03172442      -0.05492836       0.01850056       0.21440020       0.36528576      -0.41862028
Ti       5.74126714       1.94593839       1.97045508      -0.17317534      -0.02554244      -0.00102575      -0.30373871      -0.42512932      -1.26525474
O        3.86540670       1.77985171       1.51116913      -0.07755496      -0.19162912      -0.46031169       1.71383720       0.69031849       1.11612001
O        5.93628550      -0.01414680       2.05414767       0.02184301      -0.01414680       0.08266684       0.57485066      -1.15828386       0.39207858
O        6.25126312       1.68933920      -0.09768722       0.33682064      -0.28214163      -0.09768722      -0.60569699       1.10088663       0.99167301
Sr       4.18033578       0.16781152       3.98517262       0.23737413       0.16781152       0.04221097      -2.46547531      -2.39440819       0.04105123
Ti       6.02013783       1.80042163       5.82079542       0.10569534      -0.17105920      -0.09364706       0.04374587       0.33527248       1.52662435
O        3.83311229       1.99269820       6.02418647      -0.10984937       0.02121737       0.10974398       6.00899880      -0.57410978       0.20880519
O        5.88012920      -0.07273775       5.94960159      -0.03431329      -0.07273775       0.03515910      -0.70098796       0.20725157      -1.00959172
O        5.57044031       1.83946376       3.92524359      -0.34400218      -0.13201707      -0.01771807       0.91964905       1.72635080      -1.28094075
Sr       3.70305318       3.98122407       0.05370449      -0.23990847       0.03826241       0.05370449       0.66802044      -0.38092813      -0.54543151
Ti       6.03822381       5.96966831       2.06774383       0.12378132       0.05522583       0.09626300      -1.84907093      -0.10165375       0.19424402
O        3.85210077       6.11923415       1.78349538      -0.09086089       0.20479166      -0.18798545       0.76695444      -0.43188895       0.30574383
O        5.67763921       3.75005934       1.91780546      -0.23680328      -0.19290231      -0.05367537       0.63558250       1.98019066      -0.25321388
O        5.95422811       6.08543510       0.00500033       0.03978563       0.17099261       0.00500033       0.06327280      -1.14573367       1.62892642
Sr       3.98174410       4.11900115       3.93403611       0.03878244       0.17603949      -0.00892555      -1.02929052      -1.05747557       0.40965847
Ti       5.86702048       5.76252984       6.08588584      -0.04742201      -0.15191264       0.17144336       0.85517871       0.84359779      -2.10903963
O        3.71470106       5.93940123       6.11919360      -0.22826060       0.02495874       0.20475111       2.64505636      -0.40982615       0.02181994
O        5.83135549       3.89507662       5.95102068      -0.08308700      -0.04788504       0.03657819      -0.25043202      -0.16271716       0.76220647
O        5.52934433       5.74060820       4.03316574      -0.38509816      -0.17383429       0.09020409       1.61181783       1.46078061      -1.84559291
40
Lattice="7.885923316173807 1.0069592335564976e-16 8.542169513234906e-17 -4.423270641486721e-16 7.885923316173807 5.750029842555389e-15 -4.23394682124048e-16 3.380001409386728e-15 7.885923316173799" Properties=species:S:1:pos:R:3:u_disp:R:3:forces:R:3 system=srtio3_cubic model=mace_mp0 T=600.0 seed=3 supercell=2x2x2 source="SSCHA free-energy-Hessian ensemble (final auxiliary dyn)" index=130 pair=65 energy=-312.9405368386837 pbc="T T T"
Sr       0.03536305       0.17247846       0.04191193       0.03536305       0.17247846       0.04191193       0.34550435      -1.94126801      -2.06968945
Ti       2.12266032       2.00301624       2.05891810       0.15117949       0.03153541       0.08743727      -4.40438665      -0.42917304      -0.60204223
O       -0.11763026       1.64705481       1.59269472      -0.11763026      -0.32442601      -0.37878611      -1.20970647       2.30535162       2.29518982
O        2.06386814       0.15138142       1.58977172       0.09238732       0.15138142      -0.38170911       0.88546247      -0.60007462       0.70362325
O        2.19348441       2.40660475      -0.05704433       0.22200358       0.43512392      -0.05704433      -2.35729229      -1.84784467      -0.42798873
Sr       0.06025135      -0.11912242       4.07775903       0.06025135      -0.11912242       0.13479737      -5.77241067       5.21789910       0.30204939
Ti       1.91901117       1.98159401       5.89848186      -0.05246966       0.01011318      -0.01596063      -0.47246205      -1.51702456       0.10101948
O       -0.08491678       1.85704128       6.05255602      -0.08491678      -0.11443955       0.13811353       0.59832481       1.02552471      -0.49556845
O        2.11423210       0.18235643       6.18934311       0.14275127       0.18235643       0.27490062       0.21969472       0.18638862      -0.71385295
O        1.56085931       1.72229529       3.83545332      -0.41062152      -0.24918554      -0.10750834       1.40289831       1.21994253       0.54935712
Sr       0.22027905       3.97407121       0.12013460       0.22027905       0.03110955       0.12013460      -0.94022292       0.16531635      -0.65637708
Ti       2.11610003       5.96620840       2.01853143       0.14461920       0.05176591       0.04705060      -8.56851578       0.68219935      -1.69456067
O       -0.21402706       6.21677267       1.59368311      -0.21402706       0.30233019      -0.37779771       0.57414860      -0.45072185       0.17211063
O        1.49879930       4.08325469       2.03533668      -0.47268153       0.14029303       0.06385585       1.31612227      -0.32446436       1.10971231
O        2.21797564       5.73592549      -0.09964439       0.24649481      -0.17851700      -0.09964439      -0.11795156       0.04347230      -0.04202944
Sr      -0.17797526       3.90066545       4.11887915      -0.17797526      -0.04229621       0.17591749       1.24826015      -0.21009658      -1.61883838
Ti       2.10981081       5.88587649       5.83817728       0.13832998      -0.02856599      -0.07626521      -0.89962809       1.54770310       1.35458142
O        0.01273730       6.29022433       6.08668132       0.01273730       0.37578184       0.17223883      -0.51340653      -1.51085220      -0.25615285
O        1.83856812       4.10838227       5.50831488      -0.13291271       0.16542061      -0.40612761      -0.10021514      -0.89581979       0.25506940
O        1.43995966       6.52030213       3.84209512      -0.53152116       0.60585964      -0.10086654       7.21569163      -6.03825969      -0.65454511
Sr       3.96820392      -0.09935798       0.14800072       0.02524226      -0.09935798       0.14800072      -0.71169351      -0.16631380      -3.00655187
Ti       5.96224195       1.72874899       2.05238175       0.04779946      -0.24273184       0.08090092       2.00175695       3.90186033      -2.53938767
O        3.82235767       2.25214180       2.29927264      -0.12060399       0.28066097       0.32779181       1.95252351       0.00272337      -0.69144222
O        5.41001188       0.10854747       1.82193165      -0.50443061       0.10854747      -0.14954918       0.54221993      -2.79127726       1.45342726
O        5.66937138       1.93560563      -0.19506293      -0.24507111      -0.03587520      -0.19506293      -0.68548653       0.40561238       1.30499115
Sr       4.05375999       0.15140320       3.86590290       0.11079833       0.15140320      -0.07705875      -0.84474810      -0.63594122       1.29319141
Ti       5.82289946       2.05298080       5.92676247      -0.09154303       0.08149997       0.01231998       0.95589269      -1.55222780       0.24195472
O        3.87875360       2.21487256       5.52590535      -0.06420806       0.24339173      -0.38853714      -0.37624221      -1.06953056       1.17684347
O        5.63103271      -0.02399140       5.83492849      -0.28340978      -0.02399140      -0.07951400       0.16860039       0.79424992      -0.51300451
O        5.96176492       2.11972898       3.77320067       0.04732243       0.14824815      -0.16976099       0.33989393      -0.87929237       1.98862056
Sr       3.83871408       3.71566727      -0.07325195      -0.10424757      -0.22729439      -0.07325195       2.83926848       2.68203281       0.09070592
Ti       5.98113779       5.69077896       1.70037763       0.06669531      -0.22366353      -0.27110320      -0.31125436       3.42056478       0.38284582
O        3.67411254       5.71617269       2.30396938      -0.26884912      -0.19826980       0.33248855       7.08510478      -0.42938489       1.06715931
O        5.98489036       3.99650057       1.86364437       0.07044787       0.05353892      -0.10783646       0.23713133      -3.30336833       0.28062103
O        5.49337850       5.78310348      -0.04860819      -0.42106399      -0.13133901      -0.04860819       0.10736646       0.29809639      -0.13334811
Sr       3.98208520       3.88460506       4.08677255       0.03912354      -0.05835660       0.14381089       0.35075970       1.32693165      -1.37233674
Ti       6.01605884       5.95380229       5.67470820       0.10161635       0.03935980      -0.23973429      -0.18139161       1.36464032       3.60364385
O        3.95630034       5.83202749       5.61605110       0.01333868      -0.08241500      -0.29839139      -0.97235495       0.27046225      -0.60687910
O        6.00228680       3.97166176       5.71502660       0.08784432       0.02870010      -0.19941589      -0.40617899      -0.25444821       0.93163155
O        6.19279183       5.91946614       3.93868229       0.27834935       0.00502366      -0.00427937      -0.54107704      -0.01358808      -2.56375329
40
Lattice="7.885923316173807 1.0069592335564976e-16 8.542169513234906e-17 -4.423270641486721e-16 7.885923316173807 5.750029842555389e-15 -4.23394682124048e-16 3.380001409386728e-15 7.885923316173799" Properties=species:S:1:pos:R:3:u_disp:R:3:forces:R:3 system=srtio3_cubic model=mace_mp0 T=600.0 seed=3 supercell=2x2x2 source="SSCHA free-energy-Hessian ensemble (final auxiliary dyn)" index=134 pair=67 energy=-308.51055694374344 pbc="T T T"
Sr       0.12007102      -0.13707260      -0.08711245       0.12007102      -0.13707260      -0.08711245      -0.10062839       0.75970299       0.07444686
Ti       1.98603120       1.78798560       1.84551703       0.01455037      -0.18349523      -0.12596380      -1.04128352       2.14866577       0.58923449
O       -0.03073100       1.61971288       1.99742011      -0.03073100      -0.35176795       0.02593928       0.69541117       0.26277653       0.00733406
O        2.37099024       0.00226118       1.98359986       0.39950941       0.00226118       0.01211903      -0.41925474      -1.69035702       0.06004641
O        1.86822828       1.68794627      -0.06411474      -0.10325255      -0.28353456      -0.06411474       0.46650038       0.66132125      -0.14404087
Sr       0.06372644       0.00541907       3.93648431       0.06372644       0.00541907      -0.00647735       0.23449181       0.37352567       0.17668934
Ti       1.56921570       2.15360810       5.83830462      -0.40226513       0.18212727      -0.07613786       5.76473944      -4.70898856      -0.28459018
O       -0.03585252       1.70470344       5.87612355      -0.03585252      -0.26677739      -0.03831893      -3.40485632      -0.62262251      -0.62723768
O        2.10998361      -0.04816159       5.84643272       0.13850278      -0.04816159      -0.06800977       0.34732187      -0.85246150      -0.17785955
O        2.28591637       1.87769201       3.88215911       0.31443554      -0.09378881      -0.06080255      -1.78552159       1.16208945       0.55440719
Sr      -0.11363132       3.99379166       0.06397026      -0.11363132       0.05083000       0.06397026      -0.14771432      -0.29304104      -0.76777458
Ti       2.22473173       5.75530504       2.24567835       0.25325090      -0.15913744       0.27419752      -1.18652173       0.04316092     -11.48618635
O        0.06547013       6.03466839       2.00156927       0.06547013       0.12022590       0.03008844      -0.07911187       1.03989395       0.05662894
O        1.48022916       3.84881096       1.64156717      -0.49125167      -0.09415070      -0.32991366       2.53466444       0.62127167       1.94583830
O        1.99912164       5.97935174      -0.16405633       0.02764081       0.06490926      -0.16405633      -0.33635171       0.18729911       7.84296694
Sr      -0.17275947       4.04920773       3.78832666      -0.17275947       0.10624607      -0.15463500       0.71859891       0.32430676       0.55192100
Ti       2.08070362       5.88199535       6.14288434       0.10922279      -0.03244714       0.22844185      -0.15039778       0.88301470      -9.11488171
O        0.05066054       6.14827544       5.68012592       0.05066054       0.23383295      -0.23431656      -0.94183372      -0.61234727       0.29823982
O        1.71318048       3.85313120       5.96510299      -0.25830035      -0.08983045       0.05066050      -0.16276313       3.83731255       0.13188716
O        2.14942929       5.75353990       3.80039166       0.17794846      -0.16090259      -0.14257000      -0.47865979      -0.35827825       9.41569355
Sr       3.92869646      -0.00728781      -0.07265078      -0.01426520      -0.00728781      -0.07265078      -0.85277829      -0.26648182       0.15046803
Ti       5.92119257       2.28742803       2.27270506       0.00675008       0.31594720       0.30122423       0.04441794      -8.56291096      -7.50414354
O        4.03818108       2.36191886       1.81146594       0.09521942       0.39043803      -0.16001489      -1.56905537      -2.13238419       0.87464880
O        5.51287772      -0.10178119       1.76215683      -0.40156477      -0.10178119      -0.20932400      -0.27754844       4.40139104       0.08203324
O        6.13719430       1.86954716      -0.15153818       0.22275181      -0.10193367      -0.15153818       4.45856613      -1.44989151      17.74779144
Sr       3.91597183       0.18185260       4.00848182      -0.02698983       0.18185260       0.06552016       0.20693604      -0.48562313       0.24065374
Ti       5.64288177       2.03275599       6.35284547      -0.27156072       0.06127516       0.43840299       2.50919334       0.94553616     -19.79063188
O        4.02628465       2.26102251       6.03933065       0.08332299       0.28954169       0.12488816      -5.74767040       0.03660411      -0.12628013
O        5.58543389      -0.03700648       5.89867068      -0.32900859      -0.03700648      -0.01577180       0.52599739      -0.28837123       0.19517293
O        5.96433922       1.81064672       3.81890715       0.04989673      -0.16083411      -0.12405451      -0.49639979      -0.91036856       7.19606400
Sr       3.96983725       3.77306697       0.07575756       0.02687559      -0.16989468       0.07575756      -0.76942361       2.15135649      -0.20782609
Ti       6.06834133       6.23853979       1.92043000       0.15389884       0.32409731      -0.05105083      -0.59950901      -5.91466292       0.10914365
O        4.00521589       5.61493489       1.82722944       0.06225423      -0.29950760      -0.14425139      -0.48165121      -0.11055829      -0.14124567
O        5.94998261       3.83381417       1.81750595       0.03554013      -0.10914748      -0.15397488       1.98252529       7.77479277      -0.75977107
O        6.09175732       5.72908022      -0.09354553       0.17731483      -0.18536227      -0.09354553      -0.46241165       1.24318328      -0.43905859
Sr       4.05504703       3.92203302       3.98694224       0.11208537      -0.02092864       0.04398058      -0.14274257      -0.20176835       0.44284380
Ti       5.93856436       6.00532406       5.86947124       0.02412187       0.09088157      -0.04497125       0.15770543      -1.50233252      -0.05037773
O        3.95106190       5.62134235       5.78153042       0.00810024      -0.29310014      -0.13291207       0.26620062       0.29841196       0.96903516
O        6.17980582       3.82346624       5.73450960       0.26536334      -0.11949542      -0.17993289      -0.38727341       0.80302253       0.65092064
O        5.75242147       5.76725144       3.73431354      -0.16202102      -0.14719105      -0.20864811       1.10809215       1.00480997       1.25779613
40
Lattice="7.885923316173807 1.0069592335564976e-16 8.542169513234906e-17 -4.423270641486721e-16 7.885923316173807 5.750029842555389e-15 -4.23394682124048e-16 3.380001409386728e-15 7.885923316173799" Properties=species:S:1:pos:R:3:u_disp:R:3:forces:R:3 system=srtio3_cubic model=mace_mp0 T=600.0 seed=3 supercell=2x2x2 source="SSCHA free-energy-Hessian ensemble (final auxiliary dyn)" index=282 pair=141 energy=-314.39026679065927 pbc="T T T"
Sr      -0.01193665       0.06355416      -0.00915446      -0.01193665       0.06355416      -0.00915446       0.05742234      -0.04920324       0.26676629
Ti       1.84728337       1.93269938       1.99319894      -0.12419746      -0.03878145       0.02171811       0.94351553      -0.56208227       0.43495484
O        0.09993520       1.64063924       2.25160796       0.09993520      -0.33084159       0.28012713      -0.12873833       1.10311102      -0.34173907
O        2.17675267      -0.22776811       1.84791436       0.20527184      -0.22776811      -0.12356647       0.17388255       1.90994136       0.02724384
O        1.84488636       2.07481144       0.09182457      -0.12659447       0.10333061       0.09182457      -0.33708959      -0.03149256       1.29184497
Sr      -0.23647868      -0.03975061       3.91436958      -0.23647868      -0.03975061      -0.02859208       2.41015343       2.03328267      -0.08747883
Ti       1.82014430       1.93909781       5.96963423      -0.15133653      -0.03238302       0.05519174       1.79618131       0.22763704      -0.80489817
O        0.02392164       1.77437116       5.86488877       0.02392164      -0.19710967      -0.04955371      -1.50776632      -0.38316119       0.05127206
O        2.06078213       0.00400637       6.14398422       0.08930130       0.00400637       0.22954173       0.06808808      -0.72665304       0.12882199
O        2.16997248       1.70695017       4.14406277       0.19849165      -0.26453066       0.20110111      -0.09114444       0.48464494      -1.29519966
Sr       0.15099459       4.00000013       0.10513839       0.15099459       0.05703847       0.10513839      -0.61304367      -0.08921565      -0.91409793
Ti       1.86201967       5.82602458       2.12131588      -0.10946116      -0.08841791       0.14983505       2.73466298       0.87042827      -2.29071237
O        0.14940982       5.86343294       1.77561138       0.14940982      -0.05100955      -0.19586945      -2.08974320       0.25734297       0.36181227
O        2.04014972       3.85581629       2.25102968       0.06866889      -0.08714537       0.27954885      -0.56099026      -0.96999742       0.00517353
O        2.38024090       5.53887527       0.09287511       0.40876007      -0.37556722       0.09287511      -2.52774032       1.81980392      -0.58149268
Sr      -0.00458324       3.91068571       3.94543372      -0.00458324      -0.03227594       0.00247206       0.35302581      -0.74721842       0.01372062
Ti       1.92433987       5.89958335       5.86077116      -0.04714096      -0.01485914      -0.05367133       1.32231586      -0.27672003       1.23001571
O        0.06228758       6.17420085       6.08604516       0.06228758       0.25975836       0.17160267      -0.40266264      -0.11660297      -0.10145413
O        1.62897723       3.95324498       5.74601170      -0.34250360       0.01028332      -0.16843078       0.77536843       0.37791668       0.50955990
O        2.06503915       6.09519075       3.95832214       0.09355832       0.18074826       0.01536049      -0.97065289      -0.35136497       0.83715440
Sr       3.95454448       0.00103323      -0.25782615       0.01158283       0.00103323      -0.25782615      -1.66325720      -0.49311333       2.04151427
Ti       5.76213371       2.02034109       2.01666020      -0.15230877       0.04886026       0.04517937       4.38575627      -0.35634350      -0.80057287
O        4.09068691       2.02445253       2.14909800       0.14772526       0.05297170       0.17761717      -3.56139796       0.01121007      -0.81188659
O        5.96003561      -0.05721559       1.97709042       0.04559313      -0.05721559       0.00560959      -0.53913815       0.33007768      -0.55356920
O        6.13012538       2.10942598       0.00485761       0.21568289       0.13794515       0.00485761       0.17329633       0.11853993       1.89379983
Sr       3.89992116       0.03795349       3.89158584      -0.04304049       0.03795349      -0.05137582      -0.41585853      -0.31777646       0.04116338
Ti       5.85083146       1.93963401       5.99426787      -0.06361103      -0.03184682       0.07982538      -0.72133808       1.07804139       0.87553422
O        3.93138479       2.14121921       6.42893963      -0.01157687       0.16973838       0.51449714       0.87773175      -0.13987759      -1.66513824
O        5.67315651      -0.04841143       6.27610139      -0.24128597      -0.04841143       0.36165891       2.16378800       0.38210844      -2.16092455
O        5.75408788       1.89504483       4.13681001      -0.16035461      -0.07643600       0.19384835       0.25391784      -0.61387013      -1.25110322
Sr       3.90162151       4.03397518       0.06471953      -0.04134015       0.09101352       0.06471953       1.03915405      -1.60314528      -0.41922239
Ti       5.80756540       5.88096094       1.67688223      -0.10687709      -0.03348154      -0.29459860       2.78014682       1.37181804       5.82263974
O        4.16619865       5.60939302       2.19850659       0.22323699      -0.30504947       0.22702576      -2.08853677       0.76374676       0.01437794
O        6.21036746       3.94295072       2.20680135       0.29592497      -0.00001094       0.23532052      -0.58088302      -0.98590471      -0.10767153
O        5.84004827       5.55049249       0.09074992      -0.07439421      -0.36394999       0.09074992       0.15120618      -0.17238156      -5.44090193
Sr       4.10385130       4.07846913       3.86841498       0.16088964       0.13550747      -0.07454667      -0.80455911      -1.41684082       1.31641724
Ti       5.99743818       5.95103525       5.57566916       0.08299570       0.03659276      -0.33877333      -2.50836985      -2.61779494      13.04601805
O        3.97517827       5.80464697       5.75282113       0.03221661      -0.10979552      -0.16162135       0.52100849      -0.00458882      -0.36242501
O        6.26252275       4.00901951       5.68881045       0.34808026       0.06605785      -0.22563204      -0.97136292       0.10157397       0.27539620
O        6.24962912       6.16608619       4.06220151       0.33518663       0.25164371       0.11923985       0.10365118      -0.21587626     -10.49471291
40
Lattice="7.885923316173807 1.0069592335564976e-16 8.542169513234906e-17 -4.423270641486721e-16 7.885923316173807 5.750029842555389e-15 -4.23394682124048e-16 3.380001409386728e-15 7.885923316173799" Properties=species:S:1:pos:R:3:u_disp:R:3:forces:R:3 system=srtio3_cubic model=mace_mp0 T=600.0 seed=3 supercell=2x2x2 source="SSCHA free-energy-Hessian ensemble (final auxiliary dyn)" index=311 pair=155 energy=-315.1811844731976 pbc="T T T"
Sr      -0.02234982      -0.12454321       0.11501011      -0.02234982      -0.12454321       0.11501011       1.23425941       0.43754231       0.01966416
Ti       1.86393973       1.80333544       1.92005967      -0.10754110      -0.16814539      -0.05142116      -0.07609615      -0.63889825       0.26136843
O        0.04397181       1.80948526       1.82013480       0.04397181      -0.16199556      -0.15134603      -0.67417967       0.92011418      -0.23186593
O        1.95662176      -0.01252859       1.93924112      -0.01485907      -0.01252859      -0.03223971      -0.03192544       0.65274666      -0.03674673
O        2.23869400       1.93595659       0.08307964       0.26721317      -0.03552424       0.08307964      -0.17668976       1.31643287      -0.53237985
Sr       0.10839189      -0.02462017       3.87550838       0.10839189      -0.02462017      -0.06745328       0.01755764       0.02065187      -0.18196385
Ti       2.13559910       1.90199913       5.80631103       0.16411827      -0.06948170      -0.10813146      -1.33510036       0.72674915       0.29173547
O       -0.09443531       2.00911605       6.22070728      -0.09443531       0.03763523       0.30626479       0.20517927      -0.16675741      -0.62914544
O        2.00328159       0.04208040       6.13491849       0.03180076       0.04208040       0.22047600      -0.82027775      -1.49786048      -0.88752798
O        1.64011003       2.00193035       3.92057542      -0.33137080       0.03044952      -0.02238624       0.68175730      -0.38089493       0.84875130
Sr      -0.04394392       3.83347051      -0.02832379      -0.04394392      -0.10949115      -0.02832379       0.35809861       0.28969464       0.16161467
Ti       1.94121102       5.63088041       1.90555859      -0.03026981      -0.28356207      -0.06592224      -0.55742388      13.39162113      -1.77276822
O       -0.05632493       5.78442617       2.05592419      -0.05632493      -0.13001631       0.08444336       0.20642821       0.36432708       0.15983442
O        2.02357300       4.10884050       2.04924800       0.05209217       0.16587884       0.07776717       0.53748699     -13.03872922       1.15159562
O        1.73593313       5.77702344      -0.04691814      -0.23554770      -0.13741905      -0.04691814       0.66269448      -0.05602366      -0.07960308
Sr      -0.22037793       4.05486805       4.00149340      -0.22037793       0.11190639       0.05853174       0.54311929      -0.83084907      -0.49308143
Ti       2.21201570       5.85731258       5.87133197       0.24053488      -0.05712991      -0.04311052      -5.66624476       0.27102574       0.53789312
O       -0.00151036       5.51326644       5.80910567      -0.00151036      -0.40117605      -0.10533681      -0.34799424       1.77181645       0.43389777
O        2.16049469       3.90962675       5.77922404       0.18901386      -0.03333491      -0.13521844      -0.15251582      -0.22251131       0.20447784
O        2.19426501       6.17017047       3.85781645       0.22278418       0.25572798      -0.08514520      -1.29461486      -1.30181280       1.87488147
Sr       3.93114012       0.11415769       0.09515380      -0.01182153       0.11415769       0.09515380      -0.35684358      -0.41091494      -0.07661463
Ti       5.65959432       2.14166769       1.92739591      -0.25484817       0.17018686      -0.04408492       4.04844770      -0.23806518       2.21053754
O        4.01769455       1.83348800       2.23550314       0.07473289      -0.13799283       0.26402231      -3.88142077      -0.24465020       0.27716088
O        5.97559384      -0.07750481       1.72305099       0.06115135      -0.07750481      -0.24842984      -0.30226311       0.97538577       0.05345260
O        5.69461558       2.22083340       0.18319051      -0.21982691       0.24935257       0.18319051      -0.15113934      -0.21404493      -3.65907642
Sr       3.85795144      -0.14704480       3.89109504      -0.08501021      -0.14704480      -0.05186662       0.88443635       1.31035846      -0.42944588
Ti       6.03563000       2.03564301       5.77564448       0.12118751       0.06416218      -0.13879801      -1.54808271       0.68878715      -0.27857111
O        3.87769473       1.65715453       5.72078015      -0.06526693      -0.31432630      -0.19366234       2.06386110       0.61356699       0.15575241
O        6.02190836      -0.14259861       6.33206296       0.10746587      -0.14259861       0.41762047      -0.30412231       3.37555873      -0.31919617
O        5.95418994       1.72910185       3.95501461       0.03974745      -0.24237898       0.01205295       1.27966898      -0.22192819       1.29137080
Sr       4.07999027       4.07764591      -0.11924592       0.13702861       0.13468425      -0.11924592      -0.70372934      -0.65616792       0.50481999
Ti       5.95098545       6.06128373       2.08098442       0.03654296       0.14684125       0.10950359      -0.67723916      -1.83899853      -0.66157535
O        3.86728622       5.95846693       1.87585959      -0.07567543       0.04402444      -0.09562124       1.46304316      -0.09853107      -0.29240738
O        5.80797694       3.97075288       2.20820033      -0.10646554       0.02779122       0.23671950      -0.04175666      -0.16594114       0.15320119
O        5.97778165       5.51821731      -0.00885803       0.06333916      -0.39622518      -0.00885803       0.39441377       0.88929220       0.17994931
Sr       3.92664746       4.26643111       3.91535505      -0.01631420       0.32346945      -0.02760661       0.50073470      -1.30519722      -0.11148754
Ti       6.12940751       6.04941660       6.10404852       0.21496502       0.13497411       0.18960604      -0.07169349      -4.61919805      -1.42752266
O        3.87238104       5.74442926       6.04525276      -0.07058062      -0.17001323       0.13081027       4.43012216       1.54593791       0.07527983
O        5.71753191       3.97347626       5.61521744      -0.19691057       0.03051460      -0.29922505       0.29268185      -2.13982200       0.65294756
O        5.92453121       6.08464925       3.94803896       0.01008873       0.17020677       0.00507730      -0.63263782       0.72618722       0.60079330
40
Lattice="7.885923316173807 1.0069592335564976e-16 8.542169513234906e-17 -4.423270641486721e-16 7.885923316173807 5.750029842555389e-15 -4.23394682124048e-16 3.380001409386728e-15 7.885923316173799" Properties=species:S:1:pos:R:3:u_disp:R:3:forces:R:3 system=srtio3_cubic model=mace_mp0 T=600.0 seed=3 supercell=2x2x2 source="SSCHA free-energy-Hessian ensemble (final auxiliary dyn)" index=362 pair=181 energy=-314.46491663499404 pbc="T T T"
Sr      -0.10934471      -0.11276462      -0.14618327      -0.10934471      -0.11276462      -0.14618327       0.07662480       0.55504247      -0.05858081
Ti       1.97092030       2.09881158       1.99714103      -0.00056053       0.12733075       0.02566020      -0.57614395      -2.46553440      -0.26659698
O        0.08159428       1.83334197       2.16114052       0.08159428      -0.13813886       0.18965969       0.55514502       1.09567178      -0.27343305
O        2.12487694       0.06568312       2.07058876       0.15339611       0.06568312       0.09910793       0.17369304      -0.82549120      -0.11492717
O        1.78264567       1.95224971       0.07493185      -0.18883516      -0.01923112       0.07493185       0.49806228      -0.47169398      -0.22804995
Sr      -0.10282323       0.11128939       3.70889119      -0.10282323       0.11128939      -0.23407046       0.10416017      -0.60194630       1.57176711
Ti       2.08700762       1.76391928       5.99030361       0.11552679      -0.20756155       0.07586112      -0.00251274       1.95118456       0.25547674
O       -0.02662656       1.82702729       5.78948749      -0.02662656      -0.14445354      -0.12495499       1.48038983      -0.00427149      -0.13884117
O        2.15992218      -0.01938360       5.87129998       0.18844135      -0.01938360      -0.04314250      -0.48285615      -0.32726674       0.96043578
O        2.28942985       2.03442958       4.10550296       0.31794902       0.06294875       0.16254130      -1.04539096       0.29486507      -1.51718942
Sr       0.12910942       3.93876111       0.30810293       0.12910942      -0.00420055       0.30810293      -0.50914868      -0.87422175      -1.68326503
Ti       2.05581986       6.09227027       2.17958299       0.08433903       0.17782779       0.20810216       0.54550910       0.33350345      -7.99978228
O       -0.12259118       5.93227179       1.81798343      -0.12259118       0.01782930      -0.15349740       4.35409055       1.46319797       0.50176732
O        1.90955703       3.88684814       1.83420673      -0.06192380      -0.05611352      -0.13727410       0.31490588       2.27204727       1.13642550
O        1.75460878       6.00095764      -0.17266202      -0.21687205       0.08651515      -0.17266202       0.50829859       1.25468772       8.32082741
Sr       0.12750303       4.00412854       4.06091669       0.12750303       0.06116688       0.11795503      -1.09655158      -0.46821212      -0.37178323
Ti       1.71922051       5.60342809       6.17081661      -0.25226031      -0.31101440       0.25637412       0.33139908       6.01569158      -8.70909126
O       -0.12249302       6.11934280       5.66707487      -0.12249302       0.20490031      -0.24736761       1.57389987      -0.55707922       0.32894482
O        1.80756920       3.96589219       6.04953489      -0.16391163       0.02293053       0.13509241      -0.43840329      -5.09532013      -0.33698639
O        2.02632990       5.95386082       3.78048220       0.05484908       0.03941833      -0.16247946      -0.84068768      -1.21735272       6.84638944
Sr       4.08545353      -0.03244643      -0.02323960       0.14249187      -0.03244643      -0.02323960      -0.78253190       0.31496642       0.04773222
Ti       5.81940803       1.76879667       1.81096076      -0.09503446      -0.20268416      -0.16052007       1.67324358       1.94383598       1.77200432
O        4.05876486       2.25341500       1.92409987       0.11580321       0.28193417      -0.04738096      -1.14582031      -0.47934431      -0.55684405
O        5.93643518       0.04898556       2.23017613       0.02199270       0.04898556       0.25869530      -0.95606933      -0.85906130      -0.91965880
O        6.11512064       1.89764067       0.02560185       0.20067815      -0.07384016       0.02560185      -0.37839665      -0.34198181      -0.86504262
Sr       3.70241890      -0.09640767       4.19245000      -0.24054276      -0.09640767       0.24948834       1.76284707       0.40499559      -1.38847242
Ti       6.09401094       2.12661739       5.71708441       0.17956846       0.15513656      -0.19735808      -1.78493445      -0.39759370       0.29579567
O        3.87204279       2.34284221       6.15294395      -0.07091887       0.37136138       0.23850146       0.76099855      -1.30480632      -0.01928340
O        5.77046082       0.02729623       5.70635410      -0.14398167       0.02729623      -0.20808838      -0.48757315       0.52006474      -0.10574863
O        5.93852497       2.20209813       3.88687622       0.02408248       0.23061730      -0.05608543      -0.24972614       0.16754278       0.47566914
Sr       4.04183930       3.98674539       0.03178003       0.09887764       0.04378374       0.03178003       0.09677975      -0.04492435      -0.26416769
Ti       6.03544878       5.71334952       1.96818847       0.12100629      -0.20109297      -0.00329236      -3.28879621       2.30452802      -0.10563151
O        3.94573132       5.76612181       1.90732733       0.00276966      -0.14832067      -0.06415350      -1.37319409       0.27567506      -0.53216803
O        6.26555221       4.00264567       1.77409075       0.35110973       0.05968401      -0.19739008      -1.46203204      -2.56508291       0.06331497
O        5.77457148       6.25817083      -0.09696312      -0.13987100       0.34372834      -0.09696312       0.43180974      -1.29726158       0.14408029
Sr       3.86629000       4.01703282       3.72958045      -0.07667166       0.07407116      -0.21338121       0.89458525      -0.62242407       1.13102677
Ti       5.72733273       5.95418937       5.82199859      -0.18710976       0.03974689      -0.09244390       1.55532422       0.35675066       0.05921084
O        3.89905819       5.78698845       5.77140246      -0.04390347      -0.12745404      -0.14304002      -1.18955744      -0.36846804       0.58192229
O        6.15451863       4.04393480       5.90841548       0.24007614       0.10097314      -0.00602701      -0.16212414      -0.66172884       0.74032799
O        5.73888911       5.69641021       3.78773243      -0.17555337      -0.21803227      -0.15522923       0.56068450       0.32681617       1.22242528
40
Lattice="7.885923316173807 1.0069592335564976e-16 8.542169513234906e-17 -4.423270641486721e-16 7.885923316173807 5.750029842555389e-15 -4.23394682124048e-16 3.380001409386728e-15 7.885923316173799" Properties=species:S:1:pos:R:3:u_disp:R:3:forces:R:3 system=srtio3_cubic model=mace_mp0 T=600.0 seed=3 supercell=2x2x2 source="SSCHA free-energy-Hessian ensemble (final auxiliary dyn)" index=375 pair=187 energy=-312.14964511227305 pbc="T T T"
Sr       0.05002497      -0.19118905      -0.07864368       0.05002497      -0.19118905      -0.07864368      -1.10994942       4.49685314       3.87666262
Ti       1.74097441       1.93474227       2.00141356      -0.23050642      -0.03673856       0.02993273       6.50050430       2.04910619       0.26914540
O        0.14160589       1.74487973       1.75310604       0.14160589      -0.22660110      -0.21837479      -5.00805574      -1.13616549      -0.17403773
O        2.35909283      -0.03268348       1.87854326       0.38761200      -0.03268348      -0.09293757      -0.89672212       0.18941892       0.38424986
O        2.30648057       2.18610752      -0.01605619       0.33499974       0.21462669      -0.01605619      -2.72724258      -2.43567081       0.39138597
Sr      -0.01027406       0.13196052       3.85468172      -0.01027406       0.13196052      -0.08827994      -0.56521963      -0.71027702      -0.07820072
Ti       2.12858654       1.77169399       5.93581268       0.15710571      -0.19978684       0.02137019      -1.59133648      15.28778609      -1.70108413
O        0.12119451       1.98177016       6.07572379       0.12119451       0.01028933       0.16128130       0.39314968      -0.92899744      -0.36311322
O        2.33452876       0.28884599       6.10434455       0.36304793       0.28884599       0.18990207       1.30870007     -14.58357002       0.60770928
O        2.13908785       1.89271213       3.91381085       0.16760702      -0.07876870      -0.02915081      -0.93121225      -0.63361218       0.33292324
Sr      -0.14503797       3.83356488      -0.10461063      -0.14503797      -0.10939678      -0.10461063       0.09348784       0.20920704       0.87273636
Ti       2.02227242       5.91876787       1.91602557       0.05079159       0.00432539      -0.05545526      -0.57568197      -0.99355967       0.37974900
O        0.05233756       6.20988535       1.64617108       0.05233756       0.29544287      -0.32530975       0.70387326      -0.96300646       0.37010505
O        1.55515891       3.91868236       2.06627449      -0.41632192      -0.02427930       0.09479366       1.31709263       0.50920181      -0.74812561
O        2.53373125       5.74773951      -0.06291711       0.56225042      -0.16670298      -0.06291711      -2.42425018       1.69990996       0.10274272
Sr       0.13835878       4.10011714       4.01942103       0.13835878       0.15715548       0.07645938      -2.09673072      -0.75799986      -1.89746290
Ti       1.81048083       5.87283454       5.82244607      -0.16100000      -0.04160794      -0.09199641       1.56807666       1.06946338       0.28031926
O        0.07871102       6.47927401       6.25023070       0.07871102       0.56483152       0.33578822       0.65539636      -4.07133164      -4.53434075
O        1.71474350       4.17790107       5.54330872      -0.25673733       0.23493941      -0.37113377       1.49530987      -1.02249820       2.17683485
O        1.61079896       6.17639311       3.82127704      -0.36068187       0.26195063      -0.12168462       0.91971972       0.15057321       1.36988246
Sr       3.79927677       0.01251837       0.11008137      -0.14368489       0.01251837       0.11008137       2.45093151       0.04916965      -0.48439358
Ti       5.77713030       2.00332810       2.07732124      -0.13731219       0.03184728       0.10584041       1.70023694       0.72593750      -1.03100692
O        4.11947633       2.39054949       2.10516208       0.17651467       0.41906866       0.13368126      -2.15084313      -0.60244745      -0.23429753
O        5.77609978       0.03769913       1.89541080      -0.13834271       0.03769913      -0.07607002      -0.28779885      -0.18978910       0.70092284
O        5.80559341       2.12844918      -0.05831264      -0.10884908       0.15696835      -0.05831264       1.03830423       0.03215270       0.96460054
Sr       3.97804010      -0.03198612       3.91946503       0.03507844      -0.03198612      -0.02349663       0.28470709      -0.00366834      -0.33944458
Ti       6.04129491       1.86094744       5.95949456       0.12685243      -0.11053339       0.04505207      -1.66490671       0.59782372       0.50328479
O        4.17417641       2.33446364       5.92733807       0.23121475       0.36298281       0.01289558      -1.97866465      -0.40043397      -0.61617584
O        5.60540318       0.05604759       6.01907174      -0.30903930       0.05604759       0.10462926       1.00148924      -0.33863612      -0.55050590
O        6.03035306       1.91852972       3.99576633       0.11591058      -0.05295111       0.05280467       0.47163595      -0.60816112      -0.19876826
Sr       3.66728449       3.79630355       0.02966376      -0.27567717      -0.14665811       0.02966376       3.71785230       1.39923535       0.36819487
Ti       5.95962563       5.90621451       1.95294200       0.04518315      -0.00822798      -0.01853883      -0.39188715      -0.73640983       0.09392250
O        4.08439268       5.49834258       2.50133558       0.14143102      -0.41609991       0.52985475      -1.15169178       2.45209930      -2.46519186
O        6.30930288       3.88021582       2.18131511       0.39486039      -0.06274584       0.20983428       0.04683490       0.68010061      -1.24722216
O        5.56354663       5.95841347       0.06547237      -0.35089585       0.04397098       0.06547237       0.84215505      -0.83370871      -0.66416310
Sr       4.05957746       3.97209035       4.06109408       0.11661580       0.02912869       0.11813242      -0.00279360      -2.14938262       0.24948065
Ti       5.77136566       5.88248109       5.84796675      -0.14307683      -0.03196140      -0.06647574       1.40860727       0.65423732       0.61346339
O        4.04621943       5.80165550       5.52808010       0.10325777      -0.11278699      -0.38636239      -2.05643064       0.74282345       0.27462603
O        6.25596297       4.12999149       5.71393992       0.34152049       0.18702983      -0.20050257      -0.18418186      -0.44897642       1.19514990
O        6.29953730       5.94132095       3.88613985       0.38509481       0.02687846      -0.05682180      -0.12246541       1.55320312       0.94944322
40
Lattice="7.885923316173807 1.0069592335564976e-16 8.542169513234906e-17 -4.423270641486721e-16 7.885923316173807 5.750029842555389e-15 -4.23394682124048e-16 3.380001409386728e-15 7.885923316173799" Properties=species:S:1:pos:R:3:u_disp:R:3:forces:R:3 system=srtio3_cubic model=mace_mp0 T=600.0 seed=3 supercell=2x2x2 source="SSCHA free-energy-Hessian ensemble (final auxiliary dyn)" index=377 pair=188 energy=-314.1242405624146 pbc="T T T"
Sr       0.18183092       0.19943050       0.01403431       0.18183092       0.19943050       0.01403431      -1.07160401      -1.99855110      -1.12466918
Ti       2.17382471       1.83072638       1.97617846       0.20234388      -0.14075445       0.00469763      -2.17651113       0.87456233       1.44454013
O       -0.07207654       1.74731840       1.66200083      -0.07207654      -0.22416243      -0.30948000       0.99623321       1.52862599       1.27235342
O        2.22199781       0.07148862       1.55455309       0.25051698       0.07148862      -0.41692774      -2.21361374      -0.00341425       1.83534245
O        2.07781543       2.32511742      -0.11115196       0.10633461       0.35363659      -0.11115196      -0.36457007      -0.60015479       2.09677409
Sr      -0.10060386      -0.16852979       3.85122209      -0.10060386      -0.16852979      -0.09173957       1.05637345       1.35856430       0.47763599
Ti       1.88800879       1.80642630       6.00168071      -0.08347204      -0.16505453       0.08723822       0.86076608       3.44336590      -2.40707926
O        0.04917178       1.95355455       5.86228080       0.04917178      -0.01792628      -0.05216168      -2.17503969       0.47727759       0.77146063
O        2.03256317       0.15089736       6.05045659       0.06108234       0.15089736       0.13601410       0.48441876      -4.08572706       0.82116017
O        1.71968361       1.63390338       3.88097006      -0.25179722      -0.33757745      -0.06199159       0.75506221       1.00978932      -2.19830698
Sr      -0.01785249       3.94348636       0.09299293      -0.01785249       0.00052470       0.09299293      -0.13925429       0.56041104      -0.64292351
Ti       1.79196605       5.78732637       2.08299158      -0.17951478      -0.12711612       0.11151075       2.24512161       3.22794632      -0.98107059
O        0.08093274       6.01057597       1.93233820       0.08093274       0.09613348      -0.03914263      -2.93472445       0.72313986      -0.48417534
O        1.83662118       4.06763300       2.00929846      -0.13485965       0.12467135       0.03781763       0.47781119      -3.84938781       0.44992864
O        2.04211583       5.86080668      -0.06554817       0.07063500      -0.05363581      -0.06554817       0.12526547      -0.14549533       2.36820301
Sr       0.02591128       3.86293472       4.00010303       0.02591128      -0.08002694       0.05714137       1.16909195      -0.24176738      -0.41396108
Ti       2.04194467       5.79767028       6.04546363       0.07046385      -0.11677221       0.13102114       0.36828982       8.43623342      -1.49349836
O       -0.02825799       6.07048237       5.86114978      -0.02825799       0.15603988      -0.05329271       1.53029169       0.51463192       0.26744499
O        1.87246306       4.25135413       5.73465065      -0.09901777       0.30839247      -0.17979184      -0.60362953      -8.37287046      -1.52531746
O        1.87308134       6.28487758       3.80856819      -0.09839949       0.37043509      -0.13439347       0.55758610      -0.40810810       1.16926649
Sr       3.92037902      -0.08977858       0.29628124      -0.02258264      -0.08977858       0.29628124       1.80333456      -0.45314826      -3.73827147
Ti       6.07757566       2.01323995       2.09816824       0.16313317       0.04175912       0.12668741      -1.33874181      -0.17252761      -1.38971599
O        3.93199673       2.12586148       2.14212702      -0.01096493       0.15438065       0.17064619       0.56789114       0.09298849      -0.60833984
O        5.76436551       0.12576462       1.65082086      -0.15007698       0.12576462      -0.32065997       0.61044675      -0.55123616       1.04872665
O        5.85737196       2.61808457      -0.05080165      -0.05707053       0.64660375      -0.05080165      -0.52344171      -1.55623312      -1.00335969
Sr       3.89198016      -0.02854513       4.02958075      -0.05098150      -0.02854513       0.08661909      -0.29952825       0.20951960       0.37716807
Ti       5.82561222       1.98115063       5.95895444      -0.08883026       0.00966980       0.04451195       0.18207775      -0.39384146       0.44384626
O        3.76257015       2.19788127       5.60577951      -0.18039150       0.22640045      -0.30866298       2.62445314       0.15468858       0.50343956
O        5.85167072       0.09585137       6.09993541      -0.06277177       0.09585137       0.18549292      -0.25184486       2.10448019       0.11477033
O        5.97146674       1.76113766       3.89931894       0.05702425      -0.21034316      -0.04364272       0.28424381       0.19532150       0.30320399
Sr       3.80509169       3.93627516      -0.01020707      -0.13786997      -0.00668650      -0.01020707       0.80212896       0.53752194      -0.33606774
Ti       5.73897303       5.92576513       1.82824633      -0.17546946       0.01132265      -0.14323450       2.92062671      -0.27374579      -1.79209504
O        4.00210652       5.84765682       2.15028014       0.05914486      -0.06678567       0.17879931      -1.36797555       0.36618521      -0.62927541
O        5.99324099       4.10456003       2.36169063       0.07879850       0.16159837       0.39020980       0.55398651      -1.27268892      -0.73588624
O        5.94995065       5.65473549      -0.06373738       0.03550816      -0.25970699      -0.06373738      -0.95444415       0.39042606       2.52907621
Sr       4.03152280       3.95816770       3.78872123       0.08856114       0.01520604      -0.15424042      -0.39865683       0.05568166       1.32364680
Ti       6.02303949       5.89982129       5.60176393       0.10859701      -0.01462119      -0.31267856      -0.95674187      -0.72808501       8.20469810
O        3.97979462       5.99134184       5.74888926       0.03683297       0.07689935      -0.16555323      -0.40027890      -0.57444023       0.05675172
O        6.19701468       4.07355425       5.39519078       0.28257220       0.13059259      -0.51925171      -1.92828782      -2.18278740       1.18353257
O        6.02390155       6.20294303       3.99827379       0.10945906       0.28850055       0.05531213      -0.87661220       1.60284904      -7.55895710
40
Lattice="7.885923316173807 1.0069592335564976e-16 8.542169513234906e-17 -4.423270641486721e-16 7.885923316173807 5.750029842555389e-15 -4.23394682124048e-16 3.380001409386728e-15 7.885923316173799" Properties=species:S:1:pos:R:3:u_disp:R:3:forces:R:3 system=srtio3_cubic model=mace_mp0 T=600.0 seed=3 supercell=2x2x2 source="SSCHA free-energy-Hessian ensemble (final auxiliary dyn)" index=380 pair=190 energy=-309.21545460983873 pbc="T T T"
Sr      -0.15873915       0.20630748      -0.02598516      -0.15873915       0.20630748      -0.02598516       2.56390079      -1.82507423      -0.24577090
Ti       1.86492559       1.69654361       1.96674561      -0.10655524      -0.27493722      -0.00473522      -0.79382591       9.30578701      -0.07089780
O        0.02027004       2.39681127       2.08356418       0.02027004       0.42533044       0.11208336       1.28612412      -1.40717529      -1.11930527
O        1.76345569       0.12751339       2.17202332      -0.20802514       0.12751339       0.20054249      -0.91993756      -7.02246633       0.31005459
O        1.96836591       1.92600608      -0.05894104      -0.00311492      -0.04547475      -0.05894104       0.18636020      -0.38833071       0.82019875
Sr       0.06675007      -0.30649752       4.12908188       0.06675007      -0.30649752       0.18612023       2.44727819      -0.24116885      -4.83820880
Ti       1.77092163       2.25606693       5.90157711      -0.20055920       0.28458610      -0.01286537       5.59752529      -0.68451992      -0.70383460
O        0.13391009       2.21634636       6.08552100       0.13391009       0.24486553       0.17107851      -4.50391966       0.70141382      -0.40899799
O        1.71061490      -0.11537454       5.63721355      -0.26086593      -0.11537454      -0.27722894       1.03303555       3.62041637       1.02324439
O        2.19923989       2.16082601       3.93062708       0.22775906       0.18934518      -0.01233458      -0.62523267      -0.63542995       0.14752630
Sr      -0.09349033       4.11084926      -0.01417896      -0.09349033       0.16788760      -0.01417896      -0.63888562      -0.87507858       0.46019673
Ti       2.03310769       5.52418825       1.90100248       0.06162687      -0.39025423      -0.07047835      -1.93447536      18.56622023       3.68767354
O        0.15219522       5.49717493       2.14140231       0.15219522      -0.41726756       0.16992148      -1.29284221       1.54137967      -2.14194160
O        2.29167330       4.08572375       1.70521523       0.32019247       0.14276210      -0.26626560       2.92887503     -16.41066186      -1.90083967
O        2.02747841       6.28810677      -0.04490637       0.05599758       0.37366428      -0.04490637      -0.52219447      -1.05456665       1.49285000
Sr       0.11460241       4.08813722       3.89493609       0.11460241       0.14517556      -0.04802557       0.01987990      -2.74155756       0.15081656
Ti       2.10361377       6.16082554       6.04197768       0.13213294       0.24638305       0.12753519       0.73954954      -4.75897546      -2.73519927
O        0.10823751       5.37102862       5.72940800       0.10823751      -0.54341387      -0.18503448      -0.15167298       2.20187738       2.36161203
O        2.63027227       3.91972655       5.93933781       0.65879144      -0.02323511       0.02489533      -2.00978011       0.01906828       1.22237973
O        2.04286673       5.69651861       3.96567118       0.07138590      -0.21792387       0.02270952       0.89160420       0.17076273      -0.98151389
Sr       3.72397094       0.20514046      -0.09701492      -0.21899072       0.20514046      -0.09701492       0.86244382      -2.62635548       2.09948123
Ti       5.79120667       1.82391353       1.99632128      -0.12323582      -0.14756730       0.02484045       2.36158397       1.12034834       0.49427575
O        3.95249787       1.68616057       1.89512207       0.00953621      -0.28532026      -0.07635876      -0.35765423       0.23140848       0.01866900
O        6.28515627      -0.03856017       2.42429403       0.37071378      -0.03856017       0.45281320      -0.91507696      -0.02119908      -0.93169187
O        6.15967021       1.56852650       0.14512477       0.24522773      -0.40295433       0.14512477      -2.95114143       2.33483786      -0.52955881
Sr       3.73250470      -0.12650023       3.75232416      -0.21045696      -0.12650023      -0.19063750       0.47049202       0.18995077       0.88924543
Ti       5.72177595       1.99682543       5.82271367      -0.19266654       0.02534460      -0.09172881       5.91177390       0.74976303      -1.05558694
O        4.15140711       1.60157930       6.21993245       0.20844546      -0.36990153       0.30548996      -2.96306282       0.78506419      -2.08580897
O        6.60577722      -0.04720817       5.56560628       0.69133473      -0.04720817      -0.34883620      -4.51657454       0.22544162       4.05460108
O        6.02659050       2.19568376       3.89805439       0.11214801       0.22420293      -0.04490727      -1.58782729      -0.13253405       1.75502003
Sr       4.03119576       3.81966162       0.05684908       0.08823410      -0.12330004       0.05684908      -0.71724018       0.06312697      -1.12145188
Ti       5.99139796       5.96817528       2.05180012       0.07695547       0.05373279       0.08031929      -1.47052478      -1.02251688      -0.60682955
O        3.99113932       6.32004918       1.96866753       0.04817766       0.40560669      -0.00281330       0.51552529      -1.05559136      -0.38525361
O        5.54389724       4.00799985       1.62867050      -0.37054525       0.06503819      -0.34281033       1.74134577      -0.09816214       1.10991339
O        6.12487588       6.36336139       0.02601780       0.21043339       0.44891890       0.02601780      -0.10194585      -1.56158406      -0.57101992
Sr       3.93185870       3.90891444       4.06149823      -0.01110296      -0.03404722       0.11853657       0.71219805       0.76273554      -1.01695236
Ti       6.06789208       5.91263210       5.87381392       0.15344959      -0.00181039      -0.04062857      -0.72152808       0.37725922       0.24922453
O        4.13038388       6.28781029       5.72671678       0.18742222       0.37336781      -0.18772571      -0.17169482      -0.06436392       0.89189711
O        5.73060796       3.90331026       6.22052446      -0.18383453      -0.03965140       0.30608197       0.18540277      -0.50297593      -0.25044704
O        6.02124819       5.31724553       3.89620332       0.10680570      -0.59719696      -0.04675834      -0.58786090       2.16342676       0.46223056
40
Lattice="7.885923316173807 1.0069592335564976e-16 8.542169513234906e-17 -4.423270641486721e-16 7.885923316173807 5.750029842555389e-15 -4.23394682124048e-16 3.380001409386728e-15 7.885923316173799" Properties=species:S:1:pos:R:3:u_disp:R:3:forces:R:3 system=srtio3_cubic model=mace_mp0 T=600.0 seed=3 supercell=2x2x2 source="SSCHA free-energy-Hessian ensemble (final auxiliary dyn)" index=387 pair=193 energy=-315.50389420136145 pbc="T T T"
Sr       0.13708144       0.16647926       0.19940138       0.13708144       0.16647926       0.19940138      -0.50700523      -1.43594659      -1.22862829
Ti       1.94776284       1.89125177       1.89497772      -0.02371799      -0.08022906      -0.07650310       0.77513484       1.89069079       0.88139313
O        0.06569990       2.03983651       1.63254664       0.06569990       0.06835568      -0.33893419      -1.04352017       0.52977732       0.10370175
O        1.76457309       0.04712608       2.14446179      -0.20690773       0.04712608       0.17298096       0.10812674      -0.55647193      -0.49758621
O        2.28638985       1.92413921      -0.04942915       0.31490902      -0.04734162      -0.04942915      -0.15072911      -0.14202556       0.93524426
Sr       0.07963972       0.17398411       4.06938527       0.07963972       0.17398411       0.12642361       0.53830556      -1.56588867       0.05379820
Ti       2.15848449       1.98231876       5.91076339       0.18700366       0.01083793      -0.00367910      -0.06821082      -0.08970005      -0.57885756
O       -0.00347630       1.94915401       6.34502769      -0.00347630      -0.02232682       0.43058520      -0.80520970      -0.93528196      -1.35916858
O        2.08462588       0.09416335       5.88870939       0.11314505       0.09416335      -0.02573310      -0.72084406      -0.86096897      -0.32845074
O        1.68248245       2.29410840       3.90667761      -0.28899838       0.32262757      -0.03628404       1.14506582      -2.05613092       0.64246532
Sr      -0.05104919       3.77275870      -0.19560266      -0.05104919      -0.17020296      -0.19560266       0.14757935       2.20745055       1.07404891
Ti       1.65309680       5.82526231       1.99326637      -0.31838402      -0.08918018       0.02178554       4.11261330      -0.37772413       0.12585285
O       -0.00835733       5.65228085       1.96974106      -0.00835733      -0.26216163      -0.00173977      -2.58370509      -0.31333717      -0.61124141
O        2.13933078       3.91829446       1.96084079       0.16784995      -0.02466720      -0.01064004      -0.05279163      -0.04912606      -0.57665448
O        1.99254435       5.92377990      -0.01078401       0.02106352       0.00933742      -0.01078401       0.11723849       0.86495889       0.08827343
Sr       0.03319925       3.80945020       3.86200700       0.03319925      -0.13351146      -0.08095466      -0.91188329       1.70171213       0.05778022
Ti       1.97763806       5.84484829       6.00347290       0.00615723      -0.06959420       0.08903041      -0.51929794       0.01257505      -0.44018384
O       -0.01333511       5.82196763       5.92684044      -0.01333511      -0.09247486       0.01239795       0.11425812       0.82933286      -0.19615435
O        1.83970634       3.96840319       6.10486875      -0.13177448       0.02544153       0.19042626       0.93185522      -0.43607951      -0.66861670
O        1.93745164       5.87704350       3.85631382      -0.03402919      -0.03739899      -0.08664783       0.05103598      -0.02671993       1.14682460
Sr       3.98705395      -0.01522079       0.08353052       0.04409229      -0.01522079       0.08353052      -0.43280827      -0.50000724      -0.38684884
Ti       5.86076609       1.99505345       1.83102441      -0.05367640       0.02357262      -0.14045641      -0.22354582       0.25714543       1.48813632
O        3.99595315       1.63675585       2.11910517       0.05299150      -0.33472498       0.14762434      -0.59351086       0.46813272       0.24431991
O        6.06068908      -0.17765223       1.78648601       0.14624660      -0.17765223      -0.18499482       1.05950598       4.76378481      -0.57362978
O        5.45655298       1.88345468       0.03621272      -0.45788951      -0.08802615       0.03621272       1.67182407       0.46267367      -1.62491398
Sr       3.89134817      -0.01579367       3.78204044      -0.05161349      -0.01579367      -0.16092122      -0.13889725      -0.53497843       1.23797652
Ti       6.02622817       2.10942680       5.80947546       0.11178569       0.13794597      -0.10496703      -0.96764934      -0.85043247      -0.55099515
O        3.95951943       1.88636525       5.54360454       0.01655777      -0.08511558      -0.37083795       0.46897074       0.82193011       0.03337402
O        5.86113656      -0.09031682       5.87187736      -0.05330593      -0.09031682      -0.04256513       0.19880299       3.85396638       0.09352813
O        6.38469945       1.78542569       3.87836664       0.47025696      -0.18605514      -0.06459502      -1.34184675       1.01106150       0.56865814
Sr       4.04215307       3.88487689       0.21297030       0.09919141      -0.05808477       0.21297030      -1.34124469       0.87840944      -1.16873648
Ti       5.66845212       6.03974432       2.09613332      -0.24599037       0.12530183       0.12465249       4.35842471      -3.14156623      -6.34214358
O        4.00224627       6.06943597       1.94833313       0.05928461       0.15499348      -0.02314770      -5.95724637       0.26026959      -0.35650683
O        5.53801826       3.85164748       1.95494596      -0.37642423      -0.09131418      -0.01653487       1.51181882      -1.53135304       0.66615470
O        5.75715964       5.65386376      -0.03570477      -0.15728284      -0.26057873      -0.03570477       0.48345296       0.79486623      -0.71784119
Sr       3.92143860       4.08542655       3.89275330      -0.02152306       0.14246489      -0.05020836      -0.28820590      -0.37728690       0.06525447
Ti       5.86080020       6.12269273       6.07626090      -0.05364229       0.20825024       0.16181841       0.83099899      -5.20015298      -0.22266873
O        4.01076397       5.79532886       5.71306377       0.06780231      -0.11911363      -0.20137872      -1.44703766       0.43909534       0.44143488
O        5.87887616       3.88290320       5.72146754      -0.03556633      -0.06005846      -0.19297495       0.51801135      -0.70105503       0.21123925
O        5.88089942       5.87965669       3.69383670      -0.03354307      -0.03478580      -0.24912496       0.95216592      -0.36559903       8.27036767
40
Lattice="7.885923316173807 1.0069592335564976e-16 8.542169513234906e-17 -4.423270641486721e-16 7.885923316173807 5.750029842555389e-15 -4.23394682124048e-16 3.380001409386728e-15 7.885923316173799" Properties=species:S:1:pos:R:3:u_disp:R:3:forces:R:3 system=srtio3_cubic model=mace_mp0 T=600.0 seed=3 supercell=2x2x2 source="SSCHA free-energy-Hessian ensemble (final auxiliary dyn)" index=440 pair=220 energy=-312.79024431185576 pbc="T T T"
Sr      -0.05078906      -0.19040575      -0.05868631      -0.05078906      -0.19040575      -0.05868631       1.27108616       0.98098836       0.61474249
Ti       2.10179733       1.73171857       1.89372655       0.13031650      -0.23976226      -0.07775428      -2.05710335       3.78347072      -1.79411948
O       -0.09281663       2.31215896       1.55545398      -0.09281663       0.34067813      -0.41602685      -0.36574560      -1.65249070       2.75026759
O        1.64535483       0.08731952       2.19189668      -0.32612600       0.08731952       0.22041585       0.06787966      -2.35074428      -0.35047608
O        2.20435161       1.88766517      -0.04952346       0.23287079      -0.08381566      -0.04952346       0.67983204      -0.87024692       1.87278836
Sr      -0.03933308       0.03432682       3.85820733      -0.03933308       0.03432682      -0.08475433       0.17892522      -0.43345915       0.75871434
Ti       1.93064047       1.90375082       5.79180380      -0.04084036      -0.06773001      -0.12263869       0.61110929      -0.11439740       2.22883081
O        0.01076291       1.94850429       6.54163716       0.01076291      -0.02297654       0.62719467      -1.64405486      -0.37037341      -1.68548269
O        2.21732255       0.04352111       5.71251088       0.24584172       0.04352111      -0.20193161      -1.06897013       0.40931821      -0.12050568
O        1.49652949       2.18203924       4.06021576      -0.47495134       0.21055841       0.11725410       0.10084199      -0.19669850      -1.78149096
Sr       0.02013051       3.98329525       0.10660933       0.02013051       0.04033359       0.10660933       0.19531799       0.46220769      -1.71041926
Ti       2.03714680       5.69441890       1.95066185       0.06566597      -0.22002358      -0.02081898      -0.25550597       0.98973110      -0.55639146
O       -0.01558608       5.76760016       1.70347664      -0.01558608      -0.14684233      -0.26800419       0.68886792      -0.41282159       1.19818011
O        2.13316664       3.96681075       1.62319080       0.16168581       0.02384909      -0.34829003      -0.03608484      -0.59675875       1.23124381
O        2.30448323       6.05922854       0.00937300       0.33300240       0.14478606       0.00937300      -0.48979523       0.48716924       0.92620858
Sr       0.01868539       4.07563602       3.66038892       0.01868539       0.13267436      -0.28257274      -0.36630785      -0.06170985       1.05202651
Ti       1.94296885       5.81632695       5.95147876      -0.02851198      -0.09811554       0.03703627       1.03538062       0.73899675       0.00732983
O        0.05807857       5.92793137       6.34591058       0.05807857       0.01348889       0.43146809      -1.05802823       0.57394348      -1.52336864
O        1.90389978       4.02877451       6.07885389      -0.06758105       0.08581285       0.16441140       0.10009848      -1.46406773       0.46586337
O        1.83922889       5.56760803       4.07369423      -0.13225193      -0.34683446       0.13073257      -0.49837425       1.09160515      -2.59947180
Sr       4.01563087       0.07933542       0.13506785       0.07266921       0.07933542       0.13506785      -0.72604390      -1.26463170      -0.88944933
Ti       6.02232157       2.20683557       2.28935939       0.10787908       0.23535474       0.31787856      -1.53504262       1.02892065     -14.88117855
O        3.81614924       1.58969018       2.37105238      -0.12681242      -0.38179065       0.39957155       1.66678510       1.36036436      -1.04949869
O        6.27850893      -0.16745421       1.67423308       0.36406644      -0.16745421      -0.29724775      -1.33761999       3.06807111       1.25121968
O        5.36173817       1.97946177      -0.00102698      -0.55270432       0.00798094      -0.00102698       0.46931337       0.24378920       1.29404951
Sr       3.92595964      -0.12276957       3.79396407      -0.01700202      -0.12276957      -0.14899759       0.03519744      -0.75980988       3.22972999
Ti       5.92202090       1.98590566       6.27554087       0.00757841       0.01442483       0.36109838       0.94058919       0.10759449      -3.78934285
O        3.89779189       2.30676174       5.58381210      -0.04516976       0.33528091      -0.33063038       0.25586900      -3.52336975       2.86819843
O        5.80725408       0.06423243       5.67589065      -0.10718841       0.06423243      -0.23855183       0.50917703       1.01380814       1.77855356
O        6.17083810       1.86855052       3.77635639       0.25639562      -0.10293031      -0.16660527       1.40430710      -1.74711887      11.69366804
Sr       3.95364219       4.08229226      -0.14879959       0.01068053       0.13933060      -0.14879959      -0.38608400      -0.21036068       0.21019474
Ti       5.87025964       6.05887470       2.01501122      -0.04418285       0.14443221       0.04353039       0.11128270      -2.78337244      -0.39408446
O        3.90252301       6.10570890       2.18839694      -0.04043865       0.19126642       0.21691611       0.29586680       0.10061052      -0.52403824
O        5.53072472       3.91040136       1.87209698      -0.38371777      -0.03256029      -0.09938385       0.55114703       0.90963295       1.36623548
O        5.63676111       5.88296112      -0.05862919      -0.27768138      -0.03148136      -0.05862919       0.37485232       0.35022684      -0.14687554
Sr       3.91740098       3.85899751       4.27303523      -0.02556068      -0.08396415       0.33007357      -0.08980290       3.06844131      -3.72071417
Ti       5.96996842       5.96315751       5.89943784       0.05552593       0.04871502      -0.01500465      -1.31591473      -0.85828318       0.18847939
O        3.96183152       5.81949455       5.63014650       0.01886986      -0.09494794      -0.28429598       0.50117041       0.34796732       1.01371253
O        5.96428768       4.04216260       5.60785772       0.04984519       0.09920094      -0.30658477       0.75125357      -1.37681368       1.25883896
O        6.12542545       6.06666802       3.95939728       0.21098296       0.15222554       0.01643562       0.43432799      -0.06932913      -1.74216823
40
Lattice="7.885923316173807 1.0069592335564976e-16 8.542169513234906e-17 -4.423270641486721e-16 7.885923316173807 5.750029842555389e-15 -4.23394682124048e-16 3.380001409386728e-15 7.885923316173799" Properties=species:S:1:pos:R:3:u_disp:R:3:forces:R:3 system=srtio3_cubic model=mace_mp0 T=600.0 seed=3 supercell=2x2x2 source="SSCHA free-energy-Hessian ensemble (final auxiliary dyn)" index=442 pair=221 energy=-302.92278986896423 pbc="T T T"
Sr       0.19556001       0.04112323       0.00795596       0.19556001       0.04112323       0.00795596      -1.51776042      -0.83829178       0.09432485
Ti       1.84119709       1.95238987       1.80733340      -0.13028374      -0.01909096      -0.16414742       4.27785045       0.27778544       2.23548537
O        0.14496690       2.09105288       1.97390105       0.14496690       0.11957205       0.00242022      -3.38195834       0.03278119       0.55185924
O        2.26567941       0.09349189       2.04776241       0.29419858       0.09349189       0.07628158      -1.74351299      -1.17600272      -0.01475569
O        1.79835514       1.63747727      -0.00885444      -0.17312569      -0.33400356      -0.00885444       1.22920881       0.98181054      -0.73938569
Sr      -0.08372482      -0.08205256       3.83438311      -0.08372482      -0.08205256      -0.10857854       0.99142328      -0.10909129       1.41978555
Ti       2.01650248       2.10768252       5.98431097       0.04502165       0.13620170       0.06986848       0.54982308      -5.44574883      -2.45419259
O        0.03582523       1.83970902       5.85016933       0.03582523      -0.13177181      -0.06427315       0.58264938      -0.23658002      -0.00197152
O        2.17564422      -0.26819789       5.91171035       0.20416339      -0.26819789      -0.00273213       2.24692303       9.06846951      -1.46685472
O        2.13117323       2.06182730       3.99772411       0.15969240       0.09034647       0.05476245      -0.31080453      -0.10073807       0.10207940
Sr       0.00212263       4.16365589      -0.07736299       0.00212263       0.22069423      -0.07736299       0.82044355      -1.04422719      -0.55616321
Ti       2.16927407       5.75162628       2.29557378       0.19779324      -0.16281621       0.32409295      -0.58213349       1.03012863      -8.62099936
O        0.09521902       5.93439246       1.99143578       0.09521902       0.01994997       0.01995495       0.39075870       0.00149868      -0.49673108
O        2.20581042       3.91928412       1.60766265       0.23432959      -0.02367753      -0.36381818      -1.73170106      -0.41014610       2.32060045
O        2.02931276       5.90641495       0.00495548       0.05783193      -0.00802753       0.00495548      -0.72552878       0.46056916      -0.18334240
Sr      -0.20071252       3.82817311       4.03158126      -0.20071252      -0.11478855       0.08861961       1.26466297       0.57165142       0.44662858
Ti       1.65013322       6.14517439       6.12609814      -0.32134761       0.23073190       0.21165566       4.09354307      -9.27460626      -0.12845290
O        0.01144240       6.09937192       5.80558704       0.01144240       0.18492943      -0.10885545      -4.54904402      -0.00832166      -0.29875671
O        1.92824873       3.73811932       6.07285695      -0.04323210      -0.20484234       0.15841447      -0.35315369       6.33343947       0.59836471
O        1.85707513       5.70614352       3.88559791      -0.11440570      -0.20829897      -0.05736375      -0.05694113      -0.34251742       6.52614092
Sr       3.98230884      -0.05262621      -0.01216861       0.03934719      -0.05262621      -0.01216861      -0.65520554       0.28889387      -0.02103151
Ti       5.84601841       1.57654676       2.12424289      -0.06842408      -0.39493406       0.15276206      -4.62660318      30.52919279      -1.66145521
O        4.10467925       1.98505093       1.95235346       0.16171759       0.01357010      -0.01912737      -1.23801089      -0.50349385      -0.68301147
O        6.21040599       0.22142896       2.12922604       0.29596350       0.22142896       0.15774521       5.67810808     -27.50251199       0.05958063
O        6.08717918       1.83133235      -0.02775276       0.17273670      -0.14014848      -0.02775276       0.25306270      -0.62696654       2.42718751
Sr       3.90294525       0.13949327       3.69467351      -0.04001640       0.13949327      -0.24828815      -0.35993356      -0.00367573       1.79301072
Ti       6.01403464       1.97369426       6.10210981       0.09959216       0.00221343       0.18766732      -0.69910237       0.69653789      -1.78373222
O        3.99528160       1.99195165       6.13222453       0.05231994       0.02047082       0.21778205      -0.67684986       0.43435996      -0.11420385
O        5.82415515       0.12898120       5.63380049      -0.09028734       0.12898120      -0.28064200      -0.29834944      -2.01796204      -0.16013684
O        6.01679619       2.31636302       3.88420891       0.10235371       0.34488219      -0.05875274      -0.94560694      -1.36920389      -0.23887250
Sr       3.76568355       4.04312844       0.09129743      -0.17727811       0.10016678       0.09129743       1.76080073      -0.34360417      -1.56833864
Ti       6.12416794       5.51370762       1.70824957       0.20972546      -0.40073486      -0.26323125      -1.70091229      41.70069166       6.26207578
O        3.98614730       5.98810841       1.88510660       0.04318564       0.07366592      -0.08637423       1.03306779      -0.40717943       0.63073162
O        6.11905170       4.18764508       1.56827098       0.20460922       0.24468342      -0.40320985      -0.44992370     -40.29551285      -3.90342705
O        5.90039043       6.07545681      -0.15497208      -0.01405206       0.16101432      -0.15497208       0.08976709       0.49800720       0.41626746
Sr       3.98184227       3.95377996       4.17623900       0.03888061       0.01081830       0.23327734       0.00848493      -1.49077980      -0.72271015
Ti       5.62707611       6.01769503       5.78572026      -0.28736637       0.10325254      -0.12872223       6.76248676       0.48104716      -0.33758496
O        4.01630568       5.77737239       5.73717225       0.07334402      -0.13707010      -0.17727023      -5.64577222      -0.43445292       0.67492388
O        6.08532815       3.95152435       6.11785790       0.17088567       0.00856269       0.20341541      -0.35104624       0.53268745      -0.67013370
O        5.83528534       5.71695154       3.83283276      -0.07915715      -0.19749095      -0.11012890       0.56679025       0.06206252       0.26719725
40
Lattice="7.885923316173807 1.0069592335564976e-16 8.542169513234906e-17 -4.423270641486721e-16 7.885923316173807 5.750029842555389e-15 -4.23394682124048e-16 3.380001409386728e-15 7.885923316173799" Properties=species:S:1:pos:R:3:u_disp:R:3:forces:R:3 system=srtio3_cubic model=mace_mp0 T=600.0 seed=3 supercell=2x2x2 source="SSCHA free-energy-Hessian ensemble (final auxiliary dyn)" index=471 pair=235 energy=-315.05777334260233 pbc="T T T"
Sr      -0.08553226      -0.08278629       0.19011926      -0.08553226      -0.08278629       0.19011926       0.12140878      -0.07843606      -1.24572897
Ti       2.10086369       2.12964180       1.90139510       0.12938286       0.15816098      -0.07008573       0.42870793      -2.48525925       1.95039271
O       -0.03750734       1.97724249       1.74665893      -0.03750734       0.00576166      -0.22482190       0.73192050       0.79551647      -0.22328023
O        1.72803548      -0.03420765       1.88292737      -0.24344535      -0.03420765      -0.08855346       0.35712737       1.95825565       0.63037930
O        2.33151134       1.91264794       0.13232235       0.36003051      -0.05883289       0.13232235      -0.18392166      -0.10457273      -1.22491788
Sr       0.06340628       0.04558975       4.12783684       0.06340628       0.04558975       0.18487518      -0.37616217      -0.91318441      -0.61445819
Ti       1.79789293       1.92376209       5.91173908      -0.17358790      -0.04771874      -0.00270341       1.80979807       0.24903197      -0.73358358
O        0.07821521       1.98103245       6.24764413       0.07821521       0.00955162       0.33320164      -1.37139404       0.27941410       0.78039642
O        2.02167543      -0.05849233       5.86859543       0.05019460      -0.05849233      -0.04584706      -0.65913373       0.65423745       0.60698871
O        1.39778810       1.95960944       4.02097175      -0.57369273      -0.01187139       0.07801010       1.69037817       0.25056614      -0.22091446
Sr      -0.12522784       4.00135756      -0.00827789      -0.12522784       0.05839590      -0.00827789       0.04223208      -0.74041731       0.21573176
Ti       1.89497022       6.13886137       1.85600374      -0.07651061       0.22441889      -0.11547709       1.93336611      -2.57972389       1.38222254
O        0.08605850       5.69201316       2.00716027       0.08605850      -0.22242932       0.03567944      -0.73500653      -0.25927423      -0.42779563
O        2.22674113       3.87441642       1.94547679       0.25526030      -0.06854524      -0.02600403      -0.62618705       1.30483831       0.32913151
O        2.12485490       5.91457096       0.04705549       0.15337407       0.00012847       0.04705549       0.22191576       0.01917453       0.38126819
Sr       0.03733477       3.90955162       3.81783611       0.03733477      -0.03341004      -0.12512554       0.08127324       0.67855725       0.43412013
Ti       2.06478649       5.83816575       5.92215143       0.09330566      -0.07627674       0.00770894      -0.37375400      -0.05246598      -0.32391786
O        0.13656278       5.61171621       6.35775507       0.13656278      -0.30272628       0.44331258      -0.24986667       1.44427710      -2.10319707
O        2.24647007       3.86929873       5.95469475       0.27498924      -0.07366293       0.04025226      -0.41167909      -0.30645447      -0.28137138
O        2.07781226       5.97215092       4.00979810       0.10633143       0.05770843       0.06683644      -1.01881322      -0.57354959       0.20654671
Sr       3.97260006      -0.07889493      -0.21452867       0.02963841      -0.07889493      -0.21452867      -0.16920039       0.12944360       0.46496195
Ti       6.02846820       1.82185941       1.73172013       0.11402572      -0.14962142      -0.23976070      -1.66389708      -0.02826443       4.28594518
O        3.98743161       1.81873606       2.60797304       0.04446995      -0.15274477       0.63649221      -0.99732932       0.99829826      -2.09154471
O        6.13641180      -0.15426614       2.22868742       0.22196931      -0.15426614       0.25720659       0.08674462       1.79300188      -0.74013359
O        5.54433150       1.82876809       0.12078776      -0.37011099      -0.14271274       0.12078776      -0.05714317      -0.21620167      -2.24619911
Sr       3.89685823       0.02762731       3.98683955      -0.04610343       0.02762731       0.04387790       0.02724615      -1.33548678      -0.07889004
Ti       5.74219999       2.13179767       5.58498207      -0.17224250       0.16031684      -0.32946042      -1.13100397      -0.24151212      15.19790994
O        4.02698525       1.70350914       5.69519278       0.08402360      -0.26797169      -0.21924971      -1.94962465       0.29689375       0.15674740
O        6.21322728      -0.03347194       5.97851184       0.29878480      -0.03347194       0.06406935      -0.38561124       0.51201728      -0.79069961
O        6.14176788       2.12771336       4.12950970       0.22732540       0.15623253       0.18654804       3.80192180      -0.05855504     -13.83677382
Sr       3.87820789       3.86867270       0.01561286      -0.06475377      -0.07428896       0.01561286       0.67648618       0.82667190      -0.69049208
Ti       5.93382890       5.80657382       1.96393908       0.01938641      -0.10786867      -0.00754175      -1.35892248       1.51759726      -0.05155891
O        3.99377566       6.03870897       2.26696910       0.05081400       0.12426648       0.29548827       0.37635541      -0.07569764      -1.12419164
O        5.75330044       3.96080979       1.78195824      -0.16114204       0.01784813      -0.18952259       0.58085648      -1.14279199       0.58273833
O        5.84211600       6.06011812      -0.01628891      -0.07232648       0.14567563      -0.01628891       0.58378256      -0.32918552       2.33654718
Sr       3.92231017       4.15301265       3.83483291      -0.02065149       0.21005099      -0.10812875       0.06891854      -0.38879350       0.50887042
Ti       5.99168079       6.00599435       5.91500017       0.07723830       0.09155186       0.00055768      -0.07642216      -0.99423073       0.68247013
O        4.01247903       5.96571921       6.09125424       0.06951738       0.05127672       0.17681176       0.01544183       0.05070575      -1.21805882
O        5.78215711       3.97030107       6.05926353      -0.13228538       0.02733941       0.14482105       0.28670003      -0.79803154      -0.01506357
O        6.13455871       5.74788669       4.07665341       0.22011623      -0.16655580       0.13369176      -0.12750900      -0.05640974      -0.85059736
