40
Lattice="7.88592331617382 4.8399075578035395e-17 -5.1010820132550365e-17 -3.527529211736836e-16 7.885923316173801 -1.128738046148659e-15 3.4344046666205783e-16 -3.203399813012986e-15 7.885923316173801" Properties=species:S:1:pos:R:3:u_disp:R:3:forces:R:3 system=srtio3_cubic model=mace_mp0 T=600.0 seed=2 supercell=2x2x2 source="SSCHA free-energy-Hessian ensemble (final auxiliary dyn)" index=72 pair=36 energy=-312.44516468923376 pbc="T T T"
Sr       0.07570676      -0.09891304      -0.03271091       0.07570676      -0.09891304      -0.03271091      -0.21072789       0.02357383       0.31020574
Ti       1.86605016       2.03335955       1.99046333      -0.10543067       0.06187873       0.01898250       1.23382817      -0.31730762       0.24977736
O       -0.02184449       2.05040056       1.50044685      -0.02184449       0.07891973      -0.47103398       0.69279097      -0.51942886       1.22658504
O        2.00445024      -0.05538566       1.98170026       0.03296941      -0.05538566       0.01021943      -0.68671334       1.43893302      -0.50669259
O        2.47067973       1.83629913      -0.09393193       0.49919890      -0.13518170      -0.09393193      -1.37810064       1.67284247       0.04583971
Sr      -0.14654188       0.15863828       3.77565188      -0.14654188       0.15863828      -0.16730978       2.79231278      -3.40012986       0.86674391
Ti       2.08478592       1.90759951       5.91304356       0.11330509      -0.06388131      -0.00139893       0.41009718      -0.22207830       0.30239052
O        0.15104582       2.01815182       5.86898568       0.15104582       0.04667099      -0.04545681      -1.22529678      -0.02611098       1.93754105
O        1.82879289      -0.15265193       6.28430582      -0.14268794      -0.15265193       0.36986334       0.85287997       1.01318907      -1.72667058
O        1.60814685       1.89631402       3.91081938      -0.36333398      -0.07516681      -0.03214228       1.22784028      -0.46731010      -1.07242698
Sr      -0.01502930       3.77581340       0.00338067      -0.01502930      -0.16714826       0.00338067       0.45001258       2.04320586      -0.52439248
Ti       2.21355986       5.94425803       1.83320115       0.24207903       0.02981554      -0.13827968      -4.46169836      -0.07965706       0.98198585
O       -0.14673390       5.88105667       1.65130301      -0.14673390      -0.03338582      -0.32017782       6.10338612       0.00490006      -0.53429628
O        2.03519180       3.94240358       2.12680975       0.06371097      -0.00055808       0.15532892      -0.88432022      -1.01031587      -0.31410175
O        1.99352132       5.63678326       0.07334945       0.02204049      -0.27765922       0.07334945       0.05236446       0.04542512      -1.48997291
Sr       0.05830501       3.75594446       4.19583936       0.05830501      -0.18701720       0.25287770      -0.22313434       1.58549461      -0.47280492
Ti       1.86032743       5.85402017       5.79136462      -0.11115339      -0.06042231      -0.12307787       0.51937822       0.80154608       0.73596326
O        0.01669299       5.75575770       5.97971493       0.01669299      -0.15868479       0.06527245      -0.23517530      -0.25409427       0.33264678
O        2.16748832       3.92152737       5.82189107       0.19600750      -0.02143429      -0.09255142      -0.07957477      -0.90553908       0.22315581
O        1.89282805       5.99304874       3.94169255      -0.07865278       0.07860625      -0.00126911      -0.08050735      -0.20951522       0.27118079
Sr       3.98967750       0.05024874       0.01379757       0.04671584       0.05024874       0.01379757       0.04479753      -1.09945038       0.21770115
Ti       5.83644469       2.06620027       2.30718053      -0.07799780       0.09471945       0.33569970      -4.05823826       1.23083959     -12.82109874
O        3.92489052       2.10802083       2.12514149      -0.01807114       0.13654001       0.15366066       0.29398879      -0.56503092       0.76432223
O        5.84646659       0.14125022       1.58775107      -0.06797590       0.14125022      -0.38372975       0.71218227      -0.11442559       1.73750324
O        5.80250034       2.15082266      -0.15967376      -0.11194215       0.17934183      -0.15967376      -1.71606710       0.96790953      13.50252128
Sr       3.79562469      -0.03415310       4.00677262      -0.14733697      -0.03415310       0.06381096       0.19885471      -0.76367099      -1.00453064
Ti       5.94440613       2.08247822       6.22964452       0.02996364       0.11099739       0.31520204       0.95917049      -1.36017825     -16.49777518
O        4.06730687       1.78213487       5.35285672       0.12434521      -0.18934596      -0.56158577      -0.91128095       0.82214828       1.73401099
O        6.01651489      -0.00932385       5.90267611       0.10207240      -0.00932385      -0.01176638       0.72627132       2.52173827       0.93962934
O        6.36905571       1.74414922       3.71670321       0.45461323      -0.22733161      -0.22625845       1.08454222       0.51770491       9.90830173
Sr       3.94340138       3.96932256       0.00733084       0.00043972       0.02636090       0.00733084      -0.16501108       0.59544800       0.09382248
Ti       6.17306006       5.89728776       2.03187048       0.25861757      -0.01715472       0.06038965      -7.30274876       1.20592336       0.54052589
O        3.86770761       5.95667468       1.95847649      -0.07525405       0.04223219      -0.01300434       4.09181993       0.09142387       0.55843096
O        5.74198820       4.08121005       2.12275689      -0.17245429       0.13824839       0.15127606       0.92951337      -1.94423652       0.25593177
O        5.68113512       5.76199125      -0.01842939      -0.23330736      -0.15245123      -0.01842939       0.95455172       0.19559363      -0.26857224
Sr       3.82835806       4.05172272       3.83868158      -0.11460360       0.10876106      -0.10428008       0.48124009      -0.00216565       0.85888452
Ti       5.87617914       6.12744457       5.95421474      -0.03826334       0.21300208       0.03977226      -0.39634697      -2.82191770       0.01830824
O        3.99375301       6.13832522       5.84543730       0.05079135       0.22388274      -0.06900519      -0.73371688      -0.59067431      -0.32297604
O        5.86279919       3.84714209       5.66725560      -0.05164330      -0.09581956      -0.24718689       0.06287666      -0.01946800       0.51326711
O        6.08124462       6.11363597       3.99137794       0.16680213       0.19919349       0.04841628      -0.12604084      -0.08513404      -1.57086543
40
Lattice="7.88592331617382 4.8399075578035395e-17 -5.1010820132550365e-17 -3.527529211736836e-16 7.885923316173801 -1.128738046148659e-15 3.4344046666205783e-16 -3.203399813012986e-15 7.885923316173801" Properties=species:S:1:pos:R:3:u_disp:R:3:forces:R:3 system=srtio3_cubic model=mace_mp0 T=600.0 seed=2 supercell=2x2x2 source="SSCHA free-energy-Hessian ensemble (final auxiliary dyn)" index=77 pair=38 energy=-317.4816503287534 pbc="T T T"
Sr       0.08106709      -0.05649363      -0.15359665       0.08106709      -0.05649363      -0.15359665      -0.80943442       0.19348915       1.23677607
Ti       1.98455795       1.89223862       1.85041794       0.01307712      -0.07924221      -0.12106289      -0.43971300      -0.30630883       2.75593182
O        0.14539302       1.82384480       1.97320122       0.14539302      -0.14763603       0.00172039      -0.86573463      -0.34117561      -0.04026999
O        2.20426012      -0.07623358       1.86353869       0.23277929      -0.07623358      -0.10794214       0.06096854       0.52646085       0.09271925
O        2.03123161       2.06738174       0.14358219       0.05975078       0.09590091       0.14358219       0.23698961       0.21968514      -2.96341239
Sr      -0.22148383      -0.01635907       3.84099896      -0.22148383      -0.01635907      -0.10196270       0.84111618      -0.22139804       0.23384265
Ti       2.07578963       2.01377037       5.71574606       0.10430880       0.04228954      -0.19869642      -0.67977131       0.10397646       2.26944328
O       -0.05867261       2.31058697       6.05446631      -0.05867261       0.33910614       0.14002382       0.85219194      -0.76049520      -1.30790992
O        1.67494741       0.08599997       6.07572157      -0.29653342       0.08599997       0.16127908       0.97215234      -0.57121518      -0.42247018
O        1.92562675       1.75751211       3.98353810      -0.04585408      -0.21396871       0.04057644       0.37331233       0.13465884      -0.60963122
Sr      -0.07040267       3.60319044       0.13385745      -0.07040267      -0.33977122       0.13385745       0.87108679       1.69176909       0.16533675
Ti       1.91296219       5.80378103       2.00164879      -0.05851864      -0.11066145       0.03016796      -0.52414526       0.64055643       1.17355033
O        0.07654853       6.07083296       2.24778208       0.07654853       0.15639047       0.27630125       0.08362962      -0.51973708      -1.10017145
O        1.86569529       3.85272569       2.19813235      -0.10578554      -0.09023596       0.22665152       0.66214482       0.41789779      -0.42262513
O        1.97621770       5.76133730       0.07298733       0.00473687      -0.15310519       0.07298733      -0.41881034      -0.22025908      -1.26221199
Sr       0.03047935       3.78159664       3.94133803       0.03047935      -0.16136502      -0.00162363       0.10606666       0.90483427      -0.39082777
Ti       1.97386952       5.97947288       5.98649704       0.00238869       0.06503039       0.07205455       0.40214564      -0.32891948      -0.70220196
O        0.09708576       5.80158752       5.65132526       0.09708576      -0.11285496      -0.26311723      -1.33632470       0.08457765       0.67904832
O        2.23118163       3.88875872       5.76188457       0.25970080      -0.05420294      -0.15255792      -0.81814827       0.86811119       0.59797327
O        2.18859895       5.87709402       3.91210200       0.21711812      -0.03734846      -0.03085966       0.10771789       0.53350912       0.61338371
Sr       3.90432596       0.31072638       0.03717664      -0.03863570       0.31072638       0.03717664       0.52611407      -1.15382090      -0.37035147
Ti       5.86266894       2.01153500       2.00908880      -0.05177355       0.04005417       0.03760797       2.05190566       0.45372346      -1.13662310
O        4.12723306       2.02735831       2.01673584       0.18427141       0.05587748       0.04525501      -3.27004408       0.31573285      -0.49679375
O        5.93533434      -0.03163417       1.95836308       0.02089185      -0.03163417      -0.01311775      -0.07286218       0.41043954      -1.21882637
O        5.99046568       2.14088679      -0.02147490       0.07602319       0.16940596      -0.02147490      -0.81657989      -0.75463221      -0.13636910
Sr       3.84691962      -0.00046366       4.05929625      -0.09604203      -0.00046366       0.11633460       0.44941359      -0.44318895      -0.68241665
Ti       6.00255646       1.96490816       5.89480625       0.08811397      -0.00657267      -0.01963623      -0.67618017      -0.21423536       0.74981336
O        3.93303325       1.97248628       6.07058117      -0.00992841       0.00100545       0.15613868       0.12706914      -0.44277207      -0.89605203
O        5.96425653       0.14508814       5.97506081       0.04981404       0.14508814       0.06061832       0.70280396      -0.64835317       0.03725902
O        5.86565645       1.80004027       3.80791298      -0.04878604      -0.17144056      -0.13504868       0.74420187       0.69557787       3.19048665
Sr       4.06139208       4.09369098      -0.04653119       0.11843042       0.15072933      -0.04653119      -0.42539045      -0.49779034       0.01612706
Ti       5.85540722       6.02071521       1.86097687      -0.05903526       0.10627272      -0.11050396       1.46763909      -0.84454562       1.00664433
O        4.11295411       5.83704979       1.92130116       0.16999245      -0.07739269      -0.05017967      -1.66457772      -0.63667772      -0.40409403
O        6.20868328       3.91459880       1.99563700       0.29424080      -0.02836286       0.02415617      -0.50681394       0.44280776       0.34682847
O        5.95619798       5.82862356      -0.15404425       0.04175550      -0.08581892      -0.15404425       0.55039193       0.40275141       1.62043691
Sr       3.90743625       3.99994382       4.08998680      -0.03552541       0.05698216       0.14702514       0.39306215       0.33872509      -1.27568874
Ti       5.98428726       5.82922463       5.86415298       0.06984477      -0.08521786      -0.05028951       0.10839784       1.25819063      -1.24439013
O        3.83657988       6.25054422       5.94267131      -0.10638178       0.33610174       0.02822882       0.78421627      -0.55332899       0.58511741
O        5.74623539       4.03366227       5.80138031      -0.16820710       0.09070061      -0.11306218      -0.24814118      -0.70716895      -0.39412261
O        5.77133922       6.10978479       3.96931524      -0.14310327       0.19534230       0.02635358       0.09793361      -0.47145178       0.10674134
40
Lattice="7.88592331617382 4.8399075578035395e-17 -5.1010820132550365e-17 -3.527529211736836e-16 7.885923316173801 -1.128738046148659e-15 3.4344046666205783e-16 -3.203399813012986e-15 7.885923316173801" Properties=species:S:1:pos:R:3:u_disp:R:3:forces:R:3 system=srtio3_cubic model=mace_mp0 T=600.0 seed=2 supercell=2x2x2 source="SSCHA free-energy-Hessian ensemble (final auxiliary dyn)" index=125 pair=62 energy=-295.89256126904115 pbc="T T T"
Sr       0.10352762      -0.11032076       0.00819410       0.10352762      -0.11032076       0.00819410      -0.95512055       0.14310903       0.00799920
Ti       2.08764090       1.96082640       1.58328897       0.11616007      -0.01065443      -0.38819186      -1.73662807      -1.05776152       4.48922752
O       -0.10368585       1.49677704       2.26578096      -0.10368585      -0.47470379       0.29430013       1.37230089       2.53036328      -1.62081816
O        2.33559861      -0.06288282       2.15353840       0.36411779      -0.06288282       0.18205757      -0.56685262       0.31011784      -1.26739690
O        1.64123455       1.74392833      -0.03186011      -0.33024628      -0.22755250      -0.03186011       0.41245810      -0.16552399      -2.00750188
Sr      -0.12311722       0.07329651       4.02156644      -0.12311722       0.07329651       0.07860478       0.63556548      -0.78356845      -0.99332428
Ti       2.06732943       2.05209492       5.60563635       0.09584860       0.08061409      -0.30880614       0.47544647      -1.09390470       8.98268931
O       -0.02490428       1.55754114       5.76473712      -0.02490428      -0.41393969      -0.14970536       0.57664787       0.83553160       0.35050880
O        2.51240099      -0.03610197       5.87432907       0.54092016      -0.03610197      -0.04011342      -1.40733956      -0.62341699      -0.35182693
O        2.13593558       2.00973337       3.99616942       0.16445475       0.03825254       0.05320776       0.31301691       0.56394208      -6.60038828
Sr      -0.34724972       3.90608554      -0.11905204      -0.34724972      -0.03687612      -0.11905204       3.78845885       0.16955607       0.05815752
Ti       1.89789253       5.69272441       2.24142491      -0.07358830      -0.22171808       0.26994408      -0.44093279       2.42832998      -6.27843060
O        0.06613525       6.03854771       2.25827919       0.06613525       0.12410522       0.28679836      -0.55511068      -0.24946672       0.48106476
O        1.77383154       3.85813313       1.72311572      -0.19764929      -0.08482853      -0.24836511      -0.34950534      -0.38911814       0.71785045
O        1.73553223       6.12328855      -0.00745163      -0.23594860       0.20884606      -0.00745163       1.16589330      -1.01936547      -0.26994846
Sr       0.16537820       4.00167530       4.14346730       0.16537820       0.05871365       0.20050564      -0.79295786       0.02015739      -0.61584161
Ti       2.08138811       5.93698510       6.13278428       0.10990728       0.02254261       0.21834179      -0.62360716       1.03380791      -0.61876624
O       -0.05874236       6.34482547       5.67528491      -0.05874236       0.43038298      -0.23915758      -0.00462499      -2.07534338       0.80968910
O        1.55560828       3.84875457       6.03242787      -0.41587254      -0.09420708       0.11798539       0.39263070       1.06405147      -0.22008441
O        2.30334410       5.72486758       3.85360762       0.33186327      -0.18957491      -0.08935404       0.42587376      -0.49913585       4.82749498
Sr       3.85258349       0.01552593       0.07045397      -0.09037817       0.01552593       0.07045397      -0.22334471       0.02788815      -1.09152460
Ti       6.16780253       2.47113999       1.84653507       0.25336004       0.49965916      -0.12494576      -7.27745093     -57.60439125      -9.64611166
O        3.92349358       2.18247098       1.63048944      -0.01946808       0.21099015      -0.34099139       1.45457974      -0.66695219       0.84396981
O        5.86589333      -0.21261358       2.06732073      -0.04854916      -0.21261358       0.09583990       3.02638937      47.46257580       3.61637168
O        6.23534030       1.83589530       0.00136061       0.32089781      -0.13558553       0.00136061      -0.71112929       0.66573474      -0.31397422
Sr       3.92002192       0.15657298       3.83298014      -0.02293974       0.15657298      -0.10998152      -0.02078103       0.04676360       1.44862146
Ti       6.03737770       1.79710879       5.95281610       0.12293521      -0.17437204       0.03837361      -1.96843598      -0.59387759      -0.53713091
O        3.90365436       2.34139359       6.13156982      -0.03930730       0.36991276       0.21712733      -0.47119682      -0.93507563      -1.22783209
O        5.36029126      -0.07570153       6.07149885      -0.55415122      -0.07570153       0.15705636       1.59340935       0.02276169      -0.37580483
O        5.74174994       1.83635674       4.01522414      -0.17269255      -0.13512409       0.07226248      -0.04404710       0.73444744      -0.46134147
Sr       3.84434495       3.89755708       0.00791300      -0.09861671      -0.04540458       0.00791300      -0.25182821       0.14801992      -1.40241435
Ti       5.74036761       6.38196331       1.94553885      -0.17407488       0.46752083      -0.02594198      -1.69971619     -51.47345776      -4.10503427
O        4.09735053       5.32676833       1.65716333       0.15438887      -0.58767415      -0.31431750      -1.37548406       2.52589052       2.58894844
O        6.29785985       3.70744187       2.13453017       0.38341736      -0.23551979       0.16304934       6.25087587      53.70668364      12.30967132
O        6.22080112       5.63148530       0.15142372       0.30635864      -0.28295718       0.15142372      -1.10388573       2.49886063      -0.83538208
Sr       4.05626627       3.99240797       3.93248727       0.11330461       0.04944631      -0.01047439       0.15586524      -0.70247251       0.20862317
Ti       5.88901900       5.76660272       5.78885694      -0.02542349      -0.14783977      -0.12558554       0.49406904       1.73560851       3.54287119
O        3.86711262       5.43271553       6.08954053      -0.07584903      -0.48172695       0.17509804       0.63447831       0.58709600      -0.48013181
O        6.17959324       3.83623996       5.94766520       0.26515076      -0.10672170       0.03322271      -0.39313189       0.74454107      -1.52726127
O        5.66536186       5.94482318       4.04934656      -0.24908063       0.03038069       0.10638490      -0.19484772      -0.07300622      -2.43548738
40
Lattice="7.88592331617382 4.8399075578035395e-17 -5.1010820132550365e-17 -3.527529211736836e-16 7.885923316173801 -1.128738046148659e-15 3.4344046666205783e-16 -3.203399813012986e-15 7.885923316173801" Properties=species:S:1:pos:R:3:u_disp:R:3:forces:R:3 system=srtio3_cubic model=mace_mp0 T=600.0 seed=2 supercell=2x2x2 source="SSCHA free-energy-Hessian ensemble (final auxiliary dyn)" index=170 pair=85 energy=-313.34529674070006 pbc="T T T"
Sr      -0.00746238      -0.07562126       0.12211483      -0.00746238      -0.07562126       0.12211483      -0.88464409       0.98380848      -0.42207173
Ti       1.79138461       2.11124079       1.88769397      -0.18009621       0.13975996      -0.08378686       2.52231154      -3.60438624       0.23448327
O        0.01512610       1.92439076       2.30296401       0.01512610      -0.04709007       0.33148319      -2.19217447       0.30895846      -0.43559635
O        1.97163537       0.05656873       2.45710958       0.00015454       0.05656873       0.48562875      -0.71456045      -2.40005800      -1.23220700
O        1.85102421       1.62641802       0.03986963      -0.12045662      -0.34506281       0.03986963      -0.63284256      -0.09967955      -0.35959150
Sr      -0.04060496      -0.11769325       3.91810804      -0.04060496      -0.11769325      -0.02485362       0.68320443       0.40134504      -0.31829080
Ti       1.80926877       1.82373998       5.79089753      -0.16221206      -0.14774085      -0.12354496       5.99497368       0.75858207       0.85516509
O        0.15470045       2.10236394       5.74524625       0.15470045       0.13088311      -0.16919624      -5.19013567       0.23164109      -0.00857938
O        1.94908849      -0.00809963       5.52250289      -0.02239234      -0.00809963      -0.39193960      -0.00722552      -0.57401329       0.64317926
O        2.15039683       2.26907929       3.87749410       0.17891600       0.29759846      -0.06546756      -0.67143066      -0.00888440       1.71607258
Sr      -0.02242125       3.99854429       0.06481631      -0.02242125       0.05558263       0.06481631       0.03976051      -0.37448741      -0.71037675
Ti       1.85863994       6.01782366       1.94361288      -0.11284089       0.10338117      -0.02786795       1.82217658       1.01725881       1.76461892
O       -0.14234097       5.87154780       2.08922391      -0.14234097      -0.04289469       0.11774308       0.75049904      -0.23989471      -0.28700806
O        1.95836093       3.82030793       1.65511351      -0.01311990      -0.12265373      -0.31636732      -0.15527729       3.88595224      -0.04952305
O        1.71411180       6.26802778       0.10710736      -0.25736903       0.35358529       0.10710736       1.21633294      -0.75405125      -0.58789900
Sr       0.04058752       3.78385319       3.96311845       0.04058752      -0.15910847       0.02015679       0.25956409       0.73583298      -0.19570840
Ti       2.34534781       5.81953167       5.80579545       0.37386698      -0.09491082      -0.10864704     -13.03543415      -0.88216430      -0.57262416
O       -0.13587934       5.85600070       5.83681783      -0.13587934      -0.05844179      -0.07762466      15.21828919      -0.69557743       0.67696466
O        1.93056440       4.03486958       6.31381888      -0.04091642       0.09190793       0.39937639       0.24392749       0.52763077      -0.44959527
O        1.79175656       5.57076592       3.97261057      -0.17972427      -0.34367657       0.02964891       0.85109274       0.08092180      -0.42762885
Sr       3.94868060      -0.04241810       0.16199041       0.00571894      -0.04241810       0.16199041      -0.23717796       0.81955912      -0.42324478
Ti       5.85648838       1.79772297       1.85490312      -0.05795410      -0.17375786      -0.11657771      -0.86210156       3.39687127      -0.71465985
O        3.88618737       1.89185869       2.00339778      -0.05677429      -0.07962214       0.03191695       1.77962187      -0.36444130      -0.63235601
O        5.95019444       0.09023914       2.16309469       0.03575195       0.09023914       0.19161386      -0.09110286      -2.55658882       0.48785477
O        6.11429013       1.85700235       0.00716761       0.19984765      -0.11447848       0.00716761       0.10198662      -0.36354696       1.00955519
Sr       4.01044209       0.20331973       3.93365494       0.06748043       0.20331973      -0.00930672      -0.70422019      -0.34050596      -0.16851385
Ti       5.86560155       2.09971345       5.82246485      -0.04884093       0.12823262      -0.09197763      -1.65628926      -0.12878275       2.79983253
O        3.85698126       2.21661965       6.15185673      -0.08598040       0.24513882       0.23741424       1.71394315      -1.06406618      -1.01207857
O        5.97730307       0.12456885       5.89930929       0.06286058       0.12456885      -0.01513319       0.23877188       0.17430061      -1.26259867
O        5.75551315       2.39970046       4.04515462      -0.15892933       0.42821963       0.10219297       0.72847833      -1.10074675      -1.07574566
Sr       4.03245911       4.07454098      -0.03805335       0.08949745       0.13157932      -0.03805335      -0.73804135      -0.81992208      -0.23067095
Ti       5.89294157       5.73148214       1.93842696      -0.02150092      -0.18296034      -0.03305387      -1.70708209       0.23523544      -0.65567046
O        3.85769759       5.98005623       2.01831970      -0.08526407       0.06561374       0.04683888      -0.12008702      -0.18940894      -0.30283891
O        5.66778101       3.85844782       1.65714276      -0.24666148      -0.08451384      -0.31433807       1.43319829       1.94502540       1.28519878
O        5.84810301       6.24512079      -0.01256586      -0.06633947       0.33067831      -0.01256586       0.45750869      -0.91565639       1.36838447
Sr       3.93700180       3.85816578       3.82143238      -0.00595986      -0.08479588      -0.12152928      -0.62892739       0.68777801      -0.24906620
Ti       6.26799013       5.97804353       5.76688241       0.35354765       0.06360104      -0.14756008     -16.98105389       0.91654152       2.17858270
O        3.87872233       5.96590178       5.91704761      -0.06423933       0.05145929       0.00260512      10.25182695       0.78609639       0.74386638
O        5.94641981       4.01567684       6.32167869       0.03197733       0.07271518       0.40723620       0.58579406      -0.20197447      -1.15533290
O        5.78612794       5.80191632       4.00060276      -0.12831455      -0.11252616       0.05764110       0.31654635      -0.21450234      -1.82428150
40
Lattice="7.88592331617382 4.8399075578035395e-17 -5.1010820132550365e-17 -3.527529211736836e-16 7.885923316173801 -1.128738046148659e-15 3.4344046666205783e-16 -3.203399813012986e-15 7.885923316173801" Properties=species:S:1:pos:R:3:u_disp:R:3:forces:R:3 system=srtio3_cubic model=mace_mp0 T=600.0 seed=2 supercell=2x2x2 source="SSCHA free-energy-Hessian ensemble (final auxiliary dyn)" index=182 pair=91 energy=-316.445625771257 pbc="T T T"
Sr       0.09363289      -0.01843683      -0.03107116       0.09363289      -0.01843683      -0.03107116      -0.17328310       0.01377967      -0.21345996
Ti       1.99004530       1.89820312       1.89544956       0.01856447      -0.07327771      -0.07603127      -0.08722407       0.19937955      -0.81686724
O        0.10822164       1.98721000       1.98310886       0.10822164       0.01572917       0.01162803      -0.94771754       0.46391539      -0.22380900
O        1.90997741       0.02057260       1.56400937      -0.06150341       0.02057260      -0.40747146       0.62913336       0.63731842       1.48120513
O        2.19086373       2.44155955       0.05485679       0.21938290       0.47007872       0.05485679      -0.69535227      -0.63281285       1.02175363
Sr       0.06886328       0.05474799       3.77461336       0.06886328       0.05474799      -0.16834829      -1.17778298       0.20047688       0.23390996
Ti       1.87945162       1.88073328       5.86255488      -0.09202921      -0.09074754      -0.05188760       0.38398524       0.90699844       1.71684811
O        0.06631489       2.11264486       6.13354905       0.06631489       0.14116403       0.21910656      -0.88660931       0.04740759      -0.42423044
O        1.98422491       0.23129491       6.38879008       0.01274408       0.23129491       0.47434760       0.50214843      -1.37273205      -0.38002516
O        1.83391359       1.65687667       4.08225987      -0.13756724      -0.31460416       0.13929821       0.42011592       0.30422421      -1.69259549
Sr      -0.06328735       3.84861740      -0.16347579      -0.06328735      -0.09434425      -0.16347579       0.09147339       0.45551963       0.97429763
Ti       2.10753030       5.77096045       1.87827798       0.13604947      -0.14348204      -0.09320285      -0.58070840       1.20767115       1.05034816
O       -0.01312384       5.70374041       1.93467941      -0.01312384      -0.21070208      -0.03680142       0.74082579       0.68684162       0.06801635
O        2.00997679       4.01384092       2.44391113       0.03849596       0.07087926       0.47243030       0.10622415      -0.78805655      -0.32429825
O        1.93526867       5.64273117       0.12853799      -0.03621216      -0.27171131       0.12853799       0.59417003      -0.42829707      -1.62255824
Sr      -0.10393591       3.99902918       3.85021829      -0.10393591       0.05606752      -0.09274337       0.04231523      -0.67260409       0.00707238
Ti       1.93539521       5.71129920       5.78615587      -0.03608562      -0.20314328      -0.12828662       0.26913573       7.81954957       2.79681455
O       -0.05377545       5.95016714       6.21981537      -0.05377545       0.03572465       0.30537288       0.61772459      -0.07894266      -0.38609740
O        1.92226695       4.09286081       5.65435720      -0.04921388       0.14989915      -0.26008529       0.17197105      -6.36207748      -0.49767666
O        1.63789570       6.28151264       4.12106251      -0.33358513       0.36707015       0.17810085       0.75096146      -0.46020363      -1.88635765
Sr       4.18263691      -0.25894219      -0.01939820       0.23967525      -0.25894219      -0.01939820      -1.66704117       0.58230288      -0.05755404
Ti       5.78745745       1.83390169       2.01055701      -0.12698504      -0.13757914       0.03907618       0.29738573       0.91389302       0.32259899
O        3.95634505       2.01522165       2.42266442       0.01338339       0.04374082       0.45118359      -0.31150122      -0.50439726      -1.31219791
O        5.99563472       0.03727923       1.51534280       0.08119223       0.03727923      -0.45613803       0.12348492       0.53792461       1.48424551
O        5.63070940       2.30648808       0.01403524      -0.28373309       0.33500725       0.01403524       1.01896541      -0.37602310       0.78062429
Sr       3.87577891       0.04009478       4.04864143      -0.06718275       0.04009478       0.10567978       0.22826393      -0.25601053      -0.23819360
Ti       5.77651657       1.98822573       5.95932592      -0.13792592       0.01674490       0.04488343       2.80773082      -0.90476672      -0.03070375
O        4.09470888       2.14346045       5.71450423       0.15174722       0.17197962      -0.19993826      -3.54648694       0.09631678       0.10427982
O        5.99029742       0.09370166       6.31298637       0.07585493       0.09370166       0.39854388      -0.28743012       0.72689895      -0.76080460
O        5.96085500       1.83606666       3.99451212       0.04641252      -0.13541417       0.05155046       1.15832218      -0.37401610      -0.69487866
Sr       3.97807280       3.92488252       0.13956669       0.03511114      -0.01807913       0.13956669      -0.08288910       0.65532784      -0.00545367
Ti       6.10259425       5.83322510       1.92453565       0.18815176      -0.08121738      -0.04694517      -2.49964392       0.42712804       0.50957273
O        3.91932106       6.00119833       2.12357387      -0.02364060       0.08675584       0.15209305      -0.46720285       0.24437697       0.11730124
O        5.76672205       4.05571621       2.22473467      -0.14772044       0.11275455       0.25325384       0.50333262      -0.94713184       0.08688692
O        5.64921817       5.69391495       0.06481929      -0.26522432      -0.22052753       0.06481929       0.87747068       0.19094768      -0.51674665
Sr       3.84522096       4.13319581       4.05761326      -0.09774070       0.19023415       0.11465160       1.32106721      -0.54087951      -0.75029997
Ti       5.99272649       5.96247307       5.89735884       0.07828400       0.04803058      -0.01708365      -0.66128182       1.57569892      -0.47852457
O        3.86196896       6.22009969       5.76360387      -0.08099270       0.30565720      -0.15083861      -0.32624782      -1.44475617       0.63598762
O        5.92262406       4.20013696       5.63593482       0.00818158       0.25717530      -0.27850767      -0.06064760      -2.25776083       0.21426208
O        5.91917312       6.37603142       3.97990732       0.00473064       0.46158894       0.03694566       0.80284236      -0.49242936      -0.29269224
40
Lattice="7.88592331617382 4.8399075578035395e-17 -5.1010820132550365e-17 -3.527529211736836e-16 7.885923316173801 -1.128738046148659e-15 3.4344046666205783e-16 -3.203399813012986e-15 7.885923316173801" Properties=species:S:1:pos:R:3:u_disp:R:3:forces:R:3 system=srtio3_cubic model=mace_mp0 T=600.0 seed=2 supercell=2x2x2 source="SSCHA free-energy-Hessian ensemble (final auxiliary dyn)" index=220 pair=110 energy=-314.64050549293086 pbc="T T T"
Sr       0.01892035      -0.18593521      -0.21134798       0.01892035      -0.18593521      -0.21134798      -0.73074643       2.39652687       0.45651415
Ti       1.88555526       2.13055487       1.91883402      -0.08592557       0.15907404      -0.05264681       0.18501043      -2.14784491      -1.31411317
O       -0.00002660       2.15149213       2.34330036      -0.00002660       0.18001130       0.37181953      -0.71293388      -0.25465585      -0.85048183
O        1.70598111       0.04217991       2.51722754      -0.26549972       0.04217991       0.54574671       2.94186801      -1.51739662      -2.21561959
O        1.57909968       1.62423857       0.00528974      -0.39238115      -0.34724226       0.00528974       0.47743109       0.33591423       0.52727799
Sr       0.02180807       0.11340574       3.85003637       0.02180807       0.11340574      -0.09292529      -1.66249527      -0.75180543       0.99768279
Ti       2.14980886       2.00729754       5.81584219       0.17832803       0.03581671      -0.09860029      -2.95907698      -1.30927651       1.77487073
O       -0.21256568       1.82930248       5.64347257      -0.21256568      -0.14217834      -0.27096991       6.66006048       0.68410916      -0.36620276
O        1.84981920      -0.09406243       5.48290403      -0.12166162      -0.09406243      -0.43153846       0.27169039      -0.10845881       1.11086022
O        2.24439549       2.39633116       4.03001972       0.27291466       0.42485033       0.08705806      -1.41910053      -1.15372016      -1.66081357
Sr      -0.04283812       4.08016990      -0.14853752      -0.04283812       0.13720824      -0.14853752       0.42257982      -0.67873968       1.06268303
Ti       2.06946519       6.03931852       2.13142833       0.09798436       0.12487603       0.15994750      -2.65180161       0.31782141       0.34086905
O       -0.04707085       5.86411866       2.16938447      -0.04707085      -0.05032383       0.19790364      -0.24609240      -0.05044497      -0.22966771
O        1.97262557       3.85639533       1.59738463       0.00114474      -0.08656633      -0.37409620       0.12793564       2.29919472       0.25850019
O        1.62180533       6.19794020       0.00592615      -0.34967550       0.28349771       0.00592615       1.86403654      -1.34675233      -0.00507153
Sr       0.11450712       3.95841564       3.93889835       0.11450712       0.01545398      -0.00406330      -0.69229230       0.19152018      -0.14295210
Ti       2.01655180       5.93930350       6.02176243       0.04507097       0.02486102       0.10731995      -1.63699034       0.42525459      -1.10507026
O       -0.11375921       5.79196661       5.65085122      -0.11375921      -0.12247588      -0.26359127      -1.07762104       0.05540682       1.08783724
O        1.98117190       3.81826238       6.31649487       0.00969108      -0.12469928       0.40205238      -0.32878595       1.75030727      -0.55866035
O        1.92585217       5.39652231       3.94567872      -0.04562866      -0.51792018       0.00271706       1.81601750       1.14810144      -0.42544125
Sr       3.83708340      -0.00145636      -0.00442458      -0.10587826      -0.00145636      -0.00442458       0.36570451       0.90142423      -0.28184759
Ti       5.89022089       1.96201527       1.87817773      -0.02422160      -0.00946556      -0.09330310      -0.00125070      -0.93462270       0.03274789
O        3.85381664       1.87402126       1.54708212      -0.08914502      -0.09745957      -0.42439871       0.78623938       0.38174706       1.18667169
O        5.91046281       0.06385230       2.31291261      -0.00397968       0.06385230       0.34143178       0.26374847       0.15026503      -1.24493977
O        6.08356408       1.72415271      -0.06242006       0.16912159      -0.24732812      -0.06242006       0.13696016       0.45336087       0.55638468
Sr       4.09502471      -0.16808315       3.88609720       0.15206305      -0.16808315      -0.05686445      -1.21273389       1.21920961       0.13774850
Ti       6.07402571       1.96009653       5.77437149       0.15958322      -0.01138430      -0.14007100      -7.61224829      -0.39117904       1.19384123
O        3.79329459       1.92372590       6.17836082      -0.14966706      -0.04775492       0.26391834       2.55475624      -0.51637910       0.23348647
O        5.66402502       0.03910350       5.58837000      -0.25041747       0.03910350      -0.32607249       1.18326847      -0.84453579       0.80270141
O        5.66463159       2.18106662       3.83971016      -0.24981090       0.20958579      -0.10325150      -0.17178542       0.48426673       0.43606484
Sr       4.09459687       3.95821114       0.12221144       0.15163522       0.01524948       0.12221144      -1.59428613      -0.42066786      -0.41919219
Ti       5.93754172       5.84265904       2.17302428       0.02309923      -0.07178345       0.20154345       2.16666994       1.35685701      -6.04223718
O        3.86870631       6.20136348       1.77112460      -0.07425535       0.28692099      -0.20035623       0.06920502      -0.86887718       0.23924597
O        5.89934567       4.04677045       1.53981581      -0.01509682       0.10380880      -0.43166502       0.06872606      -0.82685784       0.95316523
O        6.07278417       6.27554369      -0.05817595       0.15834168       0.36110120      -0.05817595      -1.01614869      -1.00188842       0.11608145
Sr       3.90726466       3.86297968       4.29193740      -0.03569700      -0.07998198       0.34897574       0.92091318       1.00557965      -0.62734818
Ti       5.88830453       5.93039668       6.09777551      -0.02613795       0.01595419       0.18333302       0.16209158       0.30081248      -1.66040161
O        3.80306165       6.09449116       6.07016852      -0.13990001       0.18004868       0.15572603       1.22988609      -0.91743106      -0.08277689
O        5.49557476       3.92350948       6.11283779      -0.41886773      -0.01945218       0.19839531       2.08284038       1.00007478      -0.25162119
O        5.63884761       5.67943434       3.76838643      -0.27559488      -0.23500815      -0.17457523      -1.03124951      -0.81621987       5.97922396
40
Lattice="7.88592331617382 4.8399075578035395e-17 -5.1010820132550365e-17 -3.527529211736836e-16 7.885923316173801 -1.128738046148659e-15 3.4344046666205783e-16 -3.203399813012986e-15 7.885923316173801" Properties=species:S:1:pos:R:3:u_disp:R:3:forces:R:3 system=srtio3_cubic model=mace_mp0 T=600.0 seed=2 supercell=2x2x2 source="SSCHA free-energy-Hessian ensemble (final auxiliary dyn)" index=238 pair=119 energy=-306.6300795819319 pbc="T T T"
Sr      -0.03133085      -0.16026901       0.06637337      -0.03133085      -0.16026901       0.06637337       0.02287516       0.82891313      -0.17225621
Ti       1.68085400       2.00638352       1.95741313      -0.29062683       0.03490269      -0.01406770       2.62470892       0.45159314      -0.58563668
O        0.00063937       2.37465193       2.13183349       0.00063937       0.40317110       0.16035266      -0.49375792      -0.41485299      -0.94927339
O        1.58651843      -0.00171669       2.08524674      -0.38496239      -0.00171669       0.11376591       0.90545566      -1.28195354      -0.58666631
O        1.99014157       1.50198567      -0.06493820       0.01866075      -0.46949516      -0.06493820      -0.74442570       0.43792647      -0.88073582
Sr       0.01276897      -0.07482475       3.94321177       0.01276897      -0.07482475       0.00025011       0.90252185       1.19196635      -6.90648179
Ti       2.07664867       2.00253310       5.85444361       0.10516784       0.03105227      -0.05999888      -0.03632018       0.88733943       0.98830330
O        0.07556506       2.45628082       5.60143032       0.07556506       0.48479999      -0.31301216       0.37136743      -2.23811423       1.57134817
O        1.44978675      -0.19829359       5.35715322      -0.52169408      -0.19829359      -0.55728927       4.65228549      -0.87257326       4.76749453
O        2.27793936       2.12785057       3.85072764       0.30645853       0.15636974      -0.09223402      -0.31011931      -0.13394221       0.14912686
Sr       0.00576315       4.15218581       0.12172172       0.00576315       0.20922416       0.12172172      -0.19457161      -4.38052213      -3.31486125
Ti       1.87231082       5.97296083       1.97838168      -0.09917001       0.05851834       0.00690085       0.09574425      -1.27704420       1.01310301
O        0.00690491       5.43636402       1.68505473       0.00690491      -0.47807847      -0.28642610       0.83936658       3.85031420       3.17722979
O        2.27431482       3.87277038       1.35438217       0.30283400      -0.07019128      -0.61709866      -3.12855147      -0.63109695       3.50932973
O        2.26314866       6.12515585      -0.11910480       0.29166783       0.21071336      -0.11910480      -1.32024966       0.27534025       0.20612600
Sr      -0.14982416       4.05074790       3.99370355      -0.14982416       0.10778625       0.05074189       2.86731652      -2.48280836      -1.77118354
Ti       1.88384019       5.93186372       6.00624376      -0.08764064       0.01742123       0.09180127      -1.20154278      -0.97912633      -2.37845663
O        0.02656296       5.14894936       5.85614601       0.02656296      -0.76549313      -0.05829648       1.56459358       3.55491408       1.91541176
O        2.49471562       3.80710071       6.29269412       0.52323479      -0.13586095       0.37825164      -1.26629072      -0.82756392      -2.44254858
O        1.89497043       5.32591446       3.77167837      -0.07651040      -0.58852803      -0.17128329       0.56716942       1.80557232      -0.76208821
Sr       3.94635540      -0.02476986       0.15470152       0.00339374      -0.02476986       0.15470152       0.16213537       0.12135850      -2.56336269
Ti       5.66939664       1.94017035       1.91146750      -0.24504584      -0.03131048      -0.06001333       3.15231215      -0.17906605      -0.96033010
O        4.01063668       1.38497738       1.82321768       0.06767502      -0.58650345      -0.14826315      -0.59528113       1.88636165       1.05095082
O        6.42618305      -0.10301891       2.11384740       0.51174056      -0.10301891       0.14236657      -2.44132069      -0.73639673      -1.02258335
O        6.13864260       1.58351860      -0.08365693       0.22420012      -0.38796222      -0.08365693      -0.22124542       0.74654864      -0.41603565
Sr       4.10991983       0.12534356       3.91456169       0.16695817       0.12534356      -0.02839997      -0.66214497      -0.19752900      -0.75485979
Ti       6.04839974       2.13757746       5.82520380       0.13395725       0.16609663      -0.08923868      -0.64239583      -1.59310387       1.03951397
O        4.14616767       1.28787323       5.80696008       0.20320601      -0.68360760      -0.10748241      -0.80050656       1.63303162       1.08140935
O        6.66785981      -0.20306792       5.42249982       0.75341732      -0.20306792      -0.49194267      -5.46980953      -0.41515278       5.85260400
O        5.89774294       2.12964756       3.76520783      -0.01669955       0.15816673      -0.17775382      -0.88945051      -0.04590104       0.50257849
Sr       3.98310535       4.00726900       0.19655306       0.04014370       0.06430734       0.19655306      -4.47960796       0.85883800      -7.39831522
Ti       5.79782504       5.83370637       2.08228988      -0.11661745      -0.08073612       0.11080905       1.41658840       1.91569736      -3.73764300
O        3.99195424       6.33115388       1.88348839       0.04899258       0.41671140      -0.08799244      -0.20292267      -1.72623627       1.39561373
O        5.47625626       3.88239573       1.29729974      -0.43818623      -0.06056593      -0.67418109       7.46994445      -0.86704959       7.21779244
O        6.08590484       5.95110177      -0.20140747       0.17146235       0.03665928      -0.20140747      -0.96873825       0.75340400       3.07390840
Sr       3.89883640       4.06226397       4.09108294      -0.04412526       0.11930231       0.14812128      -0.31199086      -0.48442148      -0.39477282
Ti       5.83712021       6.12437539       6.00810188      -0.07732227       0.20993290       0.09365939       3.37571473      -1.57595587      -3.68951100
O        4.16055077       6.26304966       5.50384339       0.21758912       0.34860718      -0.41059910      -2.68702944      -0.57698288       0.59787115
O        5.38230859       3.77244384       5.91997428      -0.53213390      -0.17051782       0.00553180       1.24003002       0.74660756       0.32338223
O        6.13968491       5.38282999       3.67802267       0.22524242      -0.53161249      -0.26493899      -3.16185682       1.97166698       2.25450432
40
Lattice="7.88592331617382 4.8399075578035395e-17 -5.1010820132550365e-17 -3.527529211736836e-16 7.885923316173801 -1.128738046148659e-15 3.4344046666205783e-16 -3.203399813012986e-15 7.885923316173801" Properties=species:S:1:pos:R:3:u_disp:R:3:forces:R:3 system=srtio3_cubic model=mace_mp0 T=600.0 seed=2 supercell=2x2x2 source="SSCHA free-energy-Hessian ensemble (final auxiliary dyn)" index=284 pair=142 energy=-305.86149130783645 pbc="T T T"
Sr      -0.16637230      -0.07467835       0.01827905      -0.16637230      -0.07467835       0.01827905       1.53099535       1.29896670       0.24954129
Ti       2.20459908       2.08888796       1.99846497       0.23311826       0.11740713       0.02698414      -4.94783497      -0.19990298      -1.49690273
O       -0.15962613       1.41097860       2.13471172      -0.15962613      -0.56050223       0.16323089      -0.51493838       1.57991652      -0.27273116
O        2.69906245       0.04994551       2.00449262       0.72758162       0.04994551       0.03301179      -4.22347401       0.66333327      -2.60025956
O        1.64507425       2.07153388       0.00193361      -0.32640658       0.10005305       0.00193361       1.32995505      -0.49056882       1.94276486
Sr       0.17602936       0.11935336       4.14925913       0.17602936       0.11935336       0.20629748       1.83965043       1.41835082      -0.14466167
Ti       1.77978552       1.86999755       5.94337105      -0.19169531      -0.10148328       0.02892856       1.24160707       0.02891438       3.59551518
O        0.04682506       1.35691086       5.85228288       0.04682506      -0.61456997      -0.06215960      -1.35805583       2.86440357       2.31490658
O        2.52375504      -0.08681145       5.96579701       0.55227421      -0.08681145       0.05135453      -2.78112712       1.17458635      -0.23218195
O        2.10332155       1.97579325       4.19877003       0.13184072       0.00431242       0.25580838       0.45187938       0.52436900      -4.27391230
Sr      -0.24491660       3.90741624       0.08103540      -0.24491660      -0.03554541       0.08103540       3.81196851      -0.45109164       0.37809863
Ti       2.13953684       6.12029226       1.97497501       0.16805601       0.20584977       0.00349418      -0.83948967      -1.96585631      -0.46965708
O       -0.25883694       6.86073673       2.62397143      -0.25883694       0.94629424       0.65249060      -1.91134754      -6.59071173      -6.11496859
O        1.37752766       4.02051181       2.11903161      -0.59395317       0.07755015       0.14755079       1.82086450      -0.68757180      -0.25412409
O        1.44260244       5.93423741       0.14596646      -0.52887839       0.01979492       0.14596646       0.73502807       0.84537933       0.01903763
Sr       0.08661845       3.83379874       3.91316938       0.08661845      -0.10916292      -0.02979228      -0.32299976       0.35468123       1.80215392
Ti       1.99939450       5.84303175       5.93757570       0.02791367      -0.07141074       0.02313321      -0.03983644       0.34902340       0.24584125
O       -0.12347864       6.16758461       5.32833386      -0.12347864       0.25314212      -0.58610862       0.11462951      -1.02044463       2.19700861
O        1.51397090       3.95453990       5.97871139      -0.45750993       0.01157824       0.06426891       1.07519244       0.43243813      -0.55482055
O        2.34495934       6.01601168       3.97877980       0.37347851       0.10156920       0.03581814      -1.02900436      -0.57250070      -0.41525324
Sr       4.10449185      -0.25198461      -0.23526004       0.16153020      -0.25198461      -0.23526004      -1.75840984       0.69277581       1.65598533
Ti       5.95194818       1.71598510       1.79307612       0.03750569      -0.25549573      -0.17840470      -0.00017372      -0.84213948       3.81766393
O        3.73833675       2.74986652       1.91984737      -0.20462490       0.77838569      -0.05163346       3.16754123      -0.76014962       0.77747343
O        5.04898005       0.08863552       1.86412375      -0.86546244       0.08863552      -0.10735708       3.75261594       1.44812051      -0.74403002
O        6.06478242       2.05542977       0.14487835       0.15033994       0.08394894       0.14487835      -0.34447268       0.14745221      -2.53294293
Sr       3.93165916       0.03858156       3.69455719      -0.01130250       0.03858156      -0.24840447       1.16391730      -0.15324098       5.35888806
Ti       5.72677880       1.94726272       5.65617049      -0.18766369      -0.02421811      -0.25827199       1.96922988      -0.32441013      10.93558161
O        4.09254303       2.43864118       6.16468495       0.14958137       0.46716035       0.25024246      -1.57877813      -0.36463989      -0.75676753
O        5.47523995       0.10111208       5.98962351      -0.43920253       0.10111208       0.07518102       2.29388956      -0.64603781      -1.82788050
O        5.59836126       2.08975721       4.09278822      -0.31608122       0.11827638       0.14982656      -0.11635540       0.82821734     -10.14826053
Sr       4.13427971       3.99528260       0.00768066       0.19131806       0.05232094       0.00768066      -0.03886604      -1.45090716      -1.80035983
Ti       6.07948942       5.64378484       1.90499603       0.16504693      -0.27065765      -0.06648480      -1.25155393       7.78518622       1.23670908
O        3.82144269       5.40566322       1.63987829      -0.12151897      -0.50877926      -0.33160254       0.35574990       2.21730560       2.05343254
O        6.42079116       4.00825278       2.11205337       0.50634867       0.06529112       0.14057254      -0.81411780      -3.00563927       0.28052766
O        6.13162131       6.21297218       0.02094707       0.21717882       0.29852969       0.02094707      -0.55401428      -2.63424244       0.99986023
Sr       3.88396600       4.08532538       4.05710135      -0.05899566       0.14236373       0.11413969      -0.68015553      -0.45637042       0.13350946
Ti       5.97736112       5.97727908       5.78950724       0.06291863       0.06283659      -0.12493524       1.09136896      -0.70109877       0.88465052
O        3.81641267       5.67027373       6.33901157      -0.12654899      -0.24416876       0.42456909       0.01766891      -0.90076064      -0.89051923
O        6.50375455       4.03645595       6.18860548       0.58931207       0.09349429       0.27416299      -3.30463147       0.16334212      -3.24629765
O        5.31540590       5.92933126       4.15336701      -0.59903659       0.01488877       0.21040536       0.64588494      -0.59847728      -2.10261866
40
Lattice="7.88592331617382 4.8399075578035395e-17 -5.1010820132550365e-17 -3.527529211736836e-16 7.885923316173801 -1.128738046148659e-15 3.4344046666205783e-16 -3.203399813012986e-15 7.885923316173801" Properties=species:S:1:pos:R:3:u_disp:R:3:forces:R:3 system=srtio3_cubic model=mace_mp0 T=600.0 seed=2 supercell=2x2x2 source="SSCHA free-energy-Hessian ensemble (final auxiliary dyn)" index=288 pair=144 energy=-309.23220959037434 pbc="T T T"
Sr      -0.17358500      -0.25781151       0.04121303      -0.17358500      -0.25781151       0.04121303       0.47455934       2.64144620       1.20111486
Ti       1.95393717       1.87473469       1.86249404      -0.01754366      -0.09674614      -0.10898679       0.38314769      -0.21959999       1.66863784
O        0.07950763       1.51688457       2.02548839       0.07950763      -0.45459626       0.05400756      -1.56970298       1.08003920      -0.96856758
O        2.42994602       0.04460388       1.68869599       0.45846519       0.04460388      -0.28278484      -0.74131175      -0.30258516       1.23692683
O        2.10912055       2.31687547       0.14972473       0.13763972       0.34539464       0.14972473      -1.01667505      -0.44012741      -2.51315229
Sr       0.00651778       0.07349579       4.10147891       0.00651778       0.07349579       0.15851725       1.16999708      -1.21405841      -1.14726470
Ti       1.91144154       2.01139895       5.88807763      -0.06003928       0.03991812      -0.02636485       1.49194347      -1.10168468      -0.42957854
O        0.12548968       1.36093857       6.08941611       0.12548968      -0.61054226       0.17497362      -1.47807469       2.39005732      -0.02303947
O        2.36304490       0.02439660       6.05655472       0.39156407       0.02439660       0.14211223      -0.92157764      -0.59924061      -1.04245474
O        1.94187468       1.77863013       3.95662153      -0.02960615      -0.19285070       0.01365987       0.37370023       0.07945546       0.83883985
Sr       0.00011328       4.04945043       0.08785532       0.00011328       0.10648877       0.08785532       0.56257690       0.06696402       0.02100413
Ti       1.87897598       5.79690793       1.90661559      -0.09250485      -0.11753455      -0.06486524       0.35853070       0.15291023       0.39590783
O        0.06729554       6.25916984       1.79644299       0.06729554       0.34472736      -0.17503784       0.51121287      -1.43652608       1.16920635
O        1.77749298       3.93277047       2.13597539      -0.19398785      -0.01019119       0.16449456      -0.57596245       1.07716088      -0.22153956
O        2.19811427       5.63295429      -0.01508342       0.22663344      -0.28148820      -0.01508342      -1.22541958       0.51234742       0.11544935
Sr       0.06077645       3.68643033       3.96358927       0.06077645      -0.25653133       0.02062761       4.40394616      -0.35110435      -4.33147176
Ti       1.92239106       5.83455460       5.88495465      -0.04908977      -0.07988789      -0.02948784       1.45130334       0.93481741      -0.23323791
O        0.08393962       6.30369188       6.20813121       0.08393962       0.38924940       0.29368872      -0.58611176      -1.89325317      -1.79138398
O        1.55238657       3.88101566       5.63321888      -0.41909426      -0.06194600      -0.28122361       1.48733127       1.05825151       2.19158599
O        1.88100500       6.12785321       3.99132018      -0.09047583       0.21341072       0.04835852       0.14588518      -0.23893132       0.06356505
Sr       3.92494062       0.26461198      -0.17371655      -0.01802104       0.26461198      -0.17371655      -3.41599444      -0.14551548       1.37102299
Ti       5.90363670       1.96537179       1.57455828      -0.01080579      -0.00610904      -0.39692255       0.13640148      -5.03878639      14.01435140
O        4.01152783       2.55956605       2.08403512       0.06856617       0.58808522       0.11255429       1.27871327      -2.88050152      -0.69368385
O        5.50625687      -0.03040952       1.44782031      -0.40818561      -0.03040952      -0.52366052       1.52391544       0.92383622       1.91724336
O        5.76765253       2.61557573       0.21223929      -0.14678995       0.64409490       0.21223929       1.37452097       3.25674938     -11.46121119
Sr       3.81496748       0.06164006       3.87699376      -0.12799418       0.06164006      -0.06596790      -0.24864458      -0.27061049       0.20449239
Ti       6.05102997       2.13448856       5.65380236       0.13658748       0.16300773      -0.26064013      -0.75444649       1.55110429       9.36949322
O        3.93030278       2.35886516       6.02175467      -0.01265887       0.38738433       0.10731219       1.25673422      -0.60343648      -1.06966655
O        5.62201427       0.09131606       6.55709104      -0.29242821       0.09131606       0.64264855       3.95496734      -1.60757195      -3.60129738
O        5.96668291       1.55163372       4.19140692       0.05224043      -0.41984711       0.24844526      -0.78734446      -2.01266822      -7.50308820
Sr       3.93378510       3.92142182      -0.02110793      -0.00917656      -0.02153984      -0.02110793      -1.50235235       1.51139432       0.05400188
Ti       5.71297077       5.93138048       2.17455787      -0.20147172       0.01693800       0.20307704       1.30766779      -0.86332666      -1.26979842
O        3.95279505       5.48082568       2.17915259       0.00983339      -0.43361681       0.20767176       0.13987863       1.39861036      -0.05145834
O        6.34556643       4.05853875       2.60006935       0.43112394       0.11557709       0.62858852      -2.53178884       0.27828092      -2.86463994
O        5.84528389       5.36562870       0.09885448      -0.06915860      -0.54881378       0.09885448       1.13102474       1.64681647      -1.31599314
Sr       4.08168848       3.87947801       3.90294577       0.13872682      -0.06348365      -0.04001589      -0.67499361       0.40750016       1.04534340
Ti       5.97535043       6.05691120       6.06996125       0.06090795       0.14246872       0.15551876      -2.38257660      -0.39307415       0.32212259
O        4.06415702       5.55783216       5.89750865       0.12119536      -0.35661033      -0.01693384       0.58096738       0.70728199      -0.54465624
O        6.62827668       3.94480143       5.43918148       0.71383419       0.00183977      -0.47526101      -4.69150888       0.13369399       4.83988103
O        5.98113997       6.44964761       3.95477775       0.06669748       0.53520512       0.01181609      -0.39443932      -0.19611525       1.03699344
40
Lattice="7.88592331617382 4.8399075578035395e-17 -5.1010820132550365e-17 -3.527529211736836e-16 7.885923316173801 -1.128738046148659e-15 3.4344046666205783e-16 -3.203399813012986e-15 7.885923316173801" Properties=species:S:1:pos:R:3:u_disp:R:3:forces:R:3 system=srtio3_cubic model=mace_mp0 T=600.0 seed=2 supercell=2x2x2 source="SSCHA free-energy-Hessian ensemble (final auxiliary dyn)" index=311 pair=155 energy=-313.9765129868302 pbc="T T T"
Sr      -0.01998112      -0.18168698      -0.05944515      -0.01998112      -0.18168698      -0.05944515      -1.47884822       0.19495086       0.11250761
Ti       1.91317572       2.07116398       1.88098594      -0.05830511       0.09968315      -0.09049489       1.67073006      -1.18451469       2.13010920
O        0.14732063       2.38786514       1.97778833       0.14732063       0.41638431       0.00630751      -1.09247635      -0.62283028       1.02052624
O        1.46700495      -0.04307083       1.49705470      -0.50447588      -0.04307083      -0.47442613       2.55197332      -0.10247282       2.29533342
O        1.77833489       2.30883340      -0.02509633      -0.19314594       0.33735257      -0.02509633       2.12068175      -0.60409136       0.21353523
Sr      -0.00495736       0.02111436       4.11066190      -0.00495736       0.02111436       0.16770024       0.57372843      -0.14497547      -1.91963738
Ti       2.10101821       1.99995731       6.04069029       0.12953738       0.02847648       0.12624780       0.39097091      -0.24386949      -2.63024617
O        0.09027138       2.48975249       5.89255317       0.09027138       0.51827166      -0.02188932      -0.66259128      -1.67273093      -0.26102808
O        1.45049097       0.04821302       6.02541731      -0.52098986       0.04821302       0.11097482       1.66918047      -0.60419269       0.17275278
O        2.30076146       1.69598470       3.91263862       0.32928063      -0.27549613      -0.03032304      -2.94639697       2.05198690      -0.92500130
Sr       0.00613462       3.73794652       0.06053607       0.00613462      -0.20501514       0.06053607      -1.17492963       2.22534697      -0.49714794
Ti       1.83412433       5.97243356       2.01394418      -0.13735650       0.05799107       0.04246335       0.04962390       0.88965861       1.01119753
O       -0.03131917       5.53874341       1.92195740      -0.03131917      -0.37569908      -0.04952343       0.63282497      -0.02509625       0.00456107
O        2.48157971       3.95370165       2.22356121       0.51009888       0.01074000       0.25208038      -1.92187689      -0.32459722      -2.25453952
O        1.82422566       5.61742017      -0.18943126      -0.14725517      -0.29702232      -0.18943126       0.43391603      -0.29091623       2.74003093
Sr       0.14405908       3.92874232       4.03029817       0.14405908      -0.01421934       0.08733651      -0.08717569      -0.90507953      -1.55671553
Ti       1.79943816       5.92019200       6.00265277      -0.17204267       0.00574951       0.08821028       0.46372232       0.54288905      -4.36214038
O        0.00036404       5.45473472       5.56178749       0.00036404      -0.45970777      -0.35265499       0.19726510       2.46852306       2.36534529
O        2.27479781       3.85310587       5.49501249       0.30331698      -0.08985578      -0.41943000      -0.15176898       0.59124693       1.76250398
O        2.11173043       6.21775546       3.85502387       0.14024960       0.30331297      -0.08793778      -1.34183600      -0.78314187      -1.28358737
Sr       4.12963031      -0.05874895      -0.07171581       0.18666865      -0.05874895      -0.07171581      -0.32627053       0.28950896       0.13208695
Ti       5.90382915       2.02762652       2.10861383      -0.01061334       0.05614569       0.13713300      -1.16198145      -1.88312723      -0.48667272
O        4.07664014       1.31811772       1.76374337       0.13367848      -0.65336311      -0.20773746       0.12092126       2.55743974       0.57709951
O        6.37489465      -0.08032602       1.87852544       0.46045216      -0.08032602      -0.09295539      -0.81250691      -0.62675276      -0.32355584
O        6.13339284       2.12267139       0.00845106       0.21895035       0.15119056       0.00845106      -0.38992945      -0.76815710      -0.01777813
Sr       3.72099802       0.10220185       3.93065882      -0.22196364       0.10220185      -0.01230284       2.53710869      -1.40113796      -0.31976662
Ti       6.09541443       2.01039467       6.04376669       0.18097195       0.03891385       0.12932420      -0.72559099       0.55392723      -0.97422438
O        4.01356930       1.47893624       6.04301505       0.07060764      -0.49254459       0.12857256      -0.72305454       1.57861610       0.21613156
O        6.48561151       0.01563852       5.87729113       0.57116903       0.01563852      -0.03715135      -2.06325178      -0.79417685       1.36068857
O        6.01926334       1.67770018       3.91298585       0.10482085      -0.29378065      -0.02997581      -0.19163515       1.20065548      -0.26168377
Sr       3.87739837       4.09820506       0.01083189      -0.06556329       0.15524340       0.01083189       0.43397598      -0.68529436      -0.05468288
Ti       5.76215654       5.98934720       2.03779043      -0.15228595       0.07490472       0.06630960       1.09543319       1.11146611       0.75346560
O        3.90225733       6.35064894       1.75293166      -0.04070433       0.43620645      -0.21854917       0.12945980      -1.55358367       0.20503405
O        5.49424828       3.85352222       2.13555735      -0.42019421      -0.08943943       0.16407652       0.98374616       0.36444124      -1.31649530
O        5.77932070       5.71389152      -0.20808337      -0.13512179      -0.20055097      -0.20808337       0.58916605       0.28164993       2.34640550
Sr       3.98649434       4.00575664       3.87324083       0.04353268       0.06279498      -0.06972083       0.14651130       0.04521365       1.84202953
Ti       5.79745165       5.98170580       5.93533962      -0.11699083       0.06726331       0.02089714       0.01869068      -0.23721395      -3.09944014
O        3.93527254       6.39332206       5.77170339      -0.00768912       0.47887957      -0.14273909       0.24319656      -1.48461932       1.23962159
O        5.61258369       3.86286337       5.74633022      -0.30185880      -0.08009829      -0.16811227       0.12447992       0.17155777       0.37566416
O        5.77310941       5.99327882       3.85240928      -0.14133308       0.07883634      -0.09055238       0.07481394      -0.17650659      -0.33228682
40
Lattice="7.88592331617382 4.8399075578035395e-17 -5.1010820132550365e-17 -3.527529211736836e-16 7.885923316173801 -1.128738046148659e-15 3.4344046666205783e-16 -3.203399813012986e-15 7.885923316173801" Properties=species:S:1:pos:R:3:u_disp:R:3:forces:R:3 system=srtio3_cubic model=mace_mp0 T=600.0 seed=2 supercell=2x2x2 source="SSCHA free-energy-Hessian ensemble (final auxiliary dyn)" index=322 pair=161 energy=-309.21412912157723 pbc="T T T"
Sr      -0.06073705      -0.23261366      -0.13382182      -0.06073705      -0.23261366      -0.13382182      -0.43561086       6.14973700       6.09259296
Ti       1.91700764       1.92737895       2.10639638      -0.05447319      -0.04410188       0.13491555       0.54169286       0.20229392      -2.13046404
O        0.10277349       1.53165058       1.67607015       0.10277349      -0.43983025      -0.29541068       0.30031960       0.66210084       1.16737844
O        2.51486890       0.01025011       2.43260483       0.54338807       0.01025011       0.46112400      -1.79875949       0.83039008      -0.60132988
O        2.37392771       1.93492963       0.07082169       0.40244689      -0.03655120       0.07082169      -0.56618858       0.01319481       0.18745432
Sr       0.07314178      -0.02082986       3.83518200       0.07314178      -0.02082986      -0.10777966      -0.35483543       0.53588388       0.06285905
Ti       1.72063479       1.91489992       5.92716552      -0.25084604      -0.05658091       0.01272303       0.89024165       1.03470290       1.57135528
O       -0.02076857       1.81872717       6.46518218      -0.02076857      -0.15275366       0.55073970       0.20996329       0.68288499      -1.22946308
O        2.11635354       0.16641244       5.76580515       0.14487271       0.16641244      -0.14863734      -0.37697420      -0.74393366       0.11596428
O        1.65236723       2.37343706       4.07468024      -0.31911360       0.40195623       0.13171858       0.34816091      -0.79653137      -0.33230695
Sr       0.08462087       3.88608199      -0.14617201       0.08462087      -0.05687967      -0.14617201      -3.61551984      -0.73531836       4.13669739
Ti       1.92299717       5.98685860       2.15327737      -0.04848366       0.07241611       0.18179654       0.78637509      -0.45356400      -0.59268030
O        0.06486430       6.21381115       1.82854308       0.06486430       0.29936866      -0.14293774       0.87941414       0.07470088       0.03245213
O        1.64999205       4.01301855       1.78951917      -0.32148878       0.07005689      -0.18196166       0.93914395      -0.00683118       0.67883436
O        2.54181713       6.51400834       0.10773340       0.57033630       0.59956585       0.10773340      -4.65260645      -4.53594062      -0.24445281
Sr      -0.08835687       4.02064572       3.71925330      -0.08835687       0.07768406      -0.22370836       1.59018157      -0.21495638       0.86938996
Ti       1.94248358       5.97649434       6.07786304      -0.02899725       0.06205186       0.16342055       1.56681020      -0.40836974      -0.78570758
O       -0.03168343       6.33408399       6.41626076      -0.03168343       0.41964150       0.50181827       0.96079424      -6.37005752      -6.74794065
O        1.70469272       4.15802028       6.57183689      -0.26678811       0.21505862       0.65739441       4.19799285       1.22490765      -3.92095610
O        1.75182977       5.91169215       4.08990772      -0.21965106      -0.00275034       0.14694606      -0.77619463      -0.47112435       0.02412183
Sr       3.95514940       0.00947234      -0.17898801       0.01218775       0.00947234      -0.17898801       2.31816313       3.16443607       0.16094017
Ti       5.80633512       1.74766135       1.74143820      -0.10810737      -0.22381948      -0.23004263       0.55672153       1.86243063       3.43697974
O        4.03244861       2.31563098       2.40468994       0.08948695       0.34415015       0.43320911       0.68105243      -1.43734230      -1.75532085
O        5.65605853      -0.04297579       2.01329830      -0.25838396      -0.04297579       0.04181747      -0.03215146       0.16301146       0.32409531
O        5.55595361       2.06258933       0.02650637      -0.35848888       0.09110850       0.02650637       0.03969656       0.44096158      -1.59327593
Sr       4.05944118       0.04462490       4.24904971       0.11647953       0.04462490       0.30608805      -0.38541136      -0.28457235      -1.87441525
Ti       5.75896714       1.94619999       5.84071982      -0.15547535      -0.02528084      -0.07372267       2.14812243      -0.31446700      -0.77091310
O        3.93955083       2.31764332       5.45903860      -0.00341083       0.34616249      -0.45540389       0.88163806      -3.44149440       3.98810685
O        5.76521026       0.14219546       5.91700174      -0.14923223       0.14219546       0.00255926       0.20236579       0.08986313      -0.13193014
O        6.51405567       2.09383179       4.05114858       0.59961318       0.12235096       0.10818692      -1.94996197      -0.68727850       1.15432046
Sr       3.88963456       4.02947621       0.10066321      -0.05332710       0.08651455       0.10066321      -0.78215784      -0.21468028       0.24979609
Ti       5.78997907       5.79480719       1.82247626      -0.12446342      -0.11963529      -0.14900457       0.11223657      -0.40379526       0.75878676
O        3.94761392       5.41237796       2.32031012       0.00465226      -0.50206453       0.34882930       1.28542595       1.19671328      -1.36630277
O        6.51113052       3.98622721       1.98813761       0.59668803       0.04326556       0.01665678      -2.93144992       0.51428586      -2.20117437
O        5.56109142       6.16335231       0.04341298      -0.35335107       0.24890983       0.04341298       0.79330594      -1.67887711       0.35010270
Sr       3.90578858       3.82380189       4.07478558      -0.03717308      -0.11915977       0.13182392      -0.70002872       3.57254703      -2.47499896
Ti       6.05939549       5.74976413       5.63766615       0.14495301      -0.16467836      -0.27677634      -2.87740335      10.32226147       0.69557271
O        3.91322979       5.86685758       5.42234740      -0.02973187      -0.04758491      -0.49209509       0.73749846      -0.16966311       2.15492432
O        6.22942024       4.25422458       6.09197203       0.31497775       0.31126293       0.17752955       0.14073344      -9.59932287       1.32835334
O        6.42852831       5.95864938       3.92007701       0.51408583       0.04420689      -0.02288465      -0.87279656       0.23081291      -0.78744569
40
Lattice="7.88592331617382 4.8399075578035395e-17 -5.1010820132550365e-17 -3.527529211736836e-16 7.885923316173801 -1.128738046148659e-15 3.4344046666205783e-16 -3.203399813012986e-15 7.885923316173801" Properties=species:S:1:pos:R:3:u_disp:R:3:forces:R:3 system=srtio3_cubic model=mace_mp0 T=600.0 seed=2 supercell=2x2x2 source="SSCHA free-energy-Hessian ensemble (final auxiliary dyn)" index=343 pair=171 energy=-308.27136446169874 pbc="T T T"
Sr      -0.14645834       0.18120127       0.10189848      -0.14645834       0.18120127       0.10189848       0.79975745       0.25967577      -0.96817374
Ti       2.09469219       1.82934197       1.99093099       0.12321136      -0.14213885       0.01945016      -0.25075783       0.55240024      -0.18569626
O       -0.13930240       2.24242624       2.15507110      -0.13930240       0.27094541       0.18359027       2.35147263      -0.96362231       0.24016426
O        1.54014742      -0.08562451       1.78968022      -0.43133341      -0.08562451      -0.18180061       0.42222103      -1.34904825       1.33110215
O        1.74746046       1.91672798       0.04161831      -0.22402037      -0.05475285       0.04161831       0.00624112      -0.01585019      -0.91290910
Sr       0.01932312      -0.09270313       3.80433611       0.01932312      -0.09270313      -0.13862555       0.14654473       0.02450044       0.31482147
Ti       1.99793492       1.98125426       5.97078615       0.02645409       0.00977343       0.05634367       0.92150244       0.74430471       0.08322610
O       -0.03502030       2.14414892       5.76599069      -0.03502030       0.17266809      -0.14845180       0.06491939      -0.12542247      -0.00885362
O        1.50658361      -0.25158379       5.86762233      -0.46489722      -0.25158379      -0.04682015      -0.28955612       3.06357995       0.28687088
O        2.35785956       1.64550339       4.04053621       0.38637873      -0.32597744       0.09757455      -2.60722841       0.76176159      -0.49959080
Sr      -0.02989961       4.18119988      -0.02168595      -0.02989961       0.23823823      -0.02168595      -2.78931985      -7.29942898       0.06864124
Ti       2.11832091       5.75184916       1.99225145       0.14684008      -0.16259333       0.02077062      -1.12031579      -0.12813552       0.52744873
O       -0.13395494       5.27346316       2.47409859      -0.13395494      -0.64097933       0.50261776      -0.24414834       4.59074926      -4.23009670
O        2.21861935       3.71761923       2.03280946       0.24713852      -0.22534243       0.06132863      -0.52749458       2.72832601       0.18397414
O        1.37934302       5.48881966      -0.03917999      -0.59213781      -0.42562283      -0.03917999       5.98544767       5.42329597      -0.41095833
Sr       0.01851741       3.97292573       4.04168793       0.01851741       0.02996407       0.09872627       0.46438698      -8.96317776      -3.52369459
Ti       1.94462833       6.01693980       5.93583632      -0.02685250       0.10249732       0.02139383       0.52421667      -4.99160586      -0.29326264
O        0.08484145       5.37035534       5.20303184       0.08484145      -0.54408714      -0.71141064       0.24601371       8.73770187       7.44610455
O        2.21315901       3.75770768       5.75862774       0.24167818      -0.18525398      -0.15581475       0.12295952      -0.00866411       0.75431148
O        2.61148560       5.84590102       3.92652407       0.64000477      -0.06854147      -0.01643759      -2.46890802       0.59510182      -0.13795108
Sr       4.03601868       0.01983527      -0.13413247       0.09305702       0.01983527      -0.13413247       0.37676406       0.39062748       4.13021285
Ti       6.05200481       2.03265920       2.04832339       0.13756232       0.06117837       0.07684256      -4.29089048       0.22803445      -1.42669837
O        3.82292756       1.78870510       1.81766291      -0.12003410      -0.18277573      -0.15381792       0.91665933      -1.49379490      -0.30385574
O        6.06761410      -0.16002216       1.86590412       0.15317161      -0.16002216      -0.10557671       0.29045460       1.21754237       1.11607801
O        5.94243959       1.88280595      -0.03262634       0.02799710      -0.08867488      -0.03262634       0.42927667       0.44574139       0.23203057
Sr       3.82462286       0.00861767       3.99004752      -0.11833880       0.00861767       0.04708586       1.63541985      -0.57857069      -0.34148842
Ti       5.99308842       2.29586811       5.77788480       0.07864594       0.32438729      -0.13655769      -0.45586118      -6.05384162       1.62321922
O        3.86551860       1.38783525       6.24387913      -0.07744306      -0.58364558       0.32943665      -0.85287147       3.03881099      -3.28373804
O        6.33659134      -0.08985184       5.92017425       0.42214885      -0.08985184       0.00573177       0.23543865       2.47709046      -0.54942414
O        5.43103704       1.79053163       3.97485598      -0.48340545      -0.18094920       0.03189432       2.10087422       0.68555625       0.17245312
Sr       3.93852121       3.92755631       0.13238045      -0.00444045      -0.01540534       0.13238045      -0.36814823      -0.76021410      -0.69532882
Ti       6.05452585       5.92993741       1.84605221       0.14008336       0.01549493      -0.12542862      -0.26813021      -2.43713180       2.06498992
O        3.77431988       6.15726364       1.53356843      -0.16864178       0.24282116      -0.43791240       0.96577667      -1.14874726       0.18251268
O        5.45806886       3.77630456       1.95045425      -0.45637363      -0.16665710      -0.02102657       0.98601057       1.06999530      -0.22592388
O        6.49222694       5.85090436       0.03254437       0.57778445      -0.06353812       0.03254437      -2.43659388       1.58291610      -1.03864912
Sr       4.04500424       3.98460091       4.00880016       0.10204258       0.04163926       0.06583850      -1.60004709      -1.71702813      -0.81130313
Ti       5.86505276       6.20451854       5.79645709      -0.04938973       0.29007605      -0.11798540      -0.72752447      -5.94070855      -0.65144983
O        4.02679353       6.14626544       6.40254453       0.08383187       0.23182295       0.48810204      -0.66940194      -0.97956257      -1.79908371
O        5.43917270       3.86288603       5.94938694      -0.47526979      -0.08007563       0.03494445       0.24745577       3.16316377       0.67044615
O        5.48885565       5.65516676       3.90883712      -0.42558684      -0.25927573      -0.03412454       1.72738416       3.17367888       0.86952258
40
Lattice="7.88592331617382 4.8399075578035395e-17 -5.1010820132550365e-17 -3.527529211736836e-16 7.885923316173801 -1.128738046148659e-15 3.4344046666205783e-16 -3.203399813012986e-15 7.885923316173801" Properties=species:S:1:pos:R:3:u_disp:R:3:forces:R:3 system=srtio3_cubic model=mace_mp0 T=600.0 seed=2 supercell=2x2x2 source="SSCHA free-energy-Hessian ensemble (final auxiliary dyn)" index=378 pair=189 energy=-308.14986413469416 pbc="T T T"
Sr      -0.15774193      -0.05925316      -0.06326897      -0.15774193      -0.05925316      -0.06326897       2.74596124       0.38723673       0.49448172
Ti       1.74512288       1.92298750       2.15865915      -0.22635795      -0.04849333       0.18717832       5.85649792      -0.74801629       0.43623701
O        0.17620795       2.01816154       1.67458032       0.17620795       0.04668071      -0.29690051      -4.69074479       0.61234571      -0.71402110
O        1.92994453      -0.11863099       1.51943959      -0.04153630      -0.11863099      -0.45204124       0.81712427       0.79331269       1.11622472
O        2.42756511       2.59848315       0.05896823       0.45608428       0.62700233       0.05896823      -3.32940381      -4.46635494      -1.04972613
Sr       0.14396629      -0.12829874       4.08769585       0.14396629      -0.12829874       0.14473420      -1.05488223      -0.00579576      -0.30730366
Ti       1.95366726       2.07376740       6.15450052      -0.01781357       0.10228657       0.24005804       0.11881775       0.72550552      -0.80882817
O        0.03474895       1.86742052       6.08843512       0.03474895      -0.10406031       0.17399263       0.36806841       0.68198054       0.95733160
O        2.05125287      -0.03875781       6.49922856       0.07977204      -0.03875781       0.58478607      -0.37154680       0.62188142      -1.39660751
O        1.72666185       1.44152007       3.98106193      -0.24481897      -0.52996076       0.03810027       1.30496902       2.26296321      -0.99398159
Sr       0.04942315       4.13473920      -0.04657329       0.04942315       0.19177755      -0.04657329      -0.10358970      -1.54794350      -0.30233205
Ti       2.13936750       5.90667524       2.00470566       0.16788667      -0.00776725       0.03322483      -2.26006495       0.49092199      -1.28607389
O        0.04000673       5.94861182       2.01349065       0.04000673       0.03416934       0.04200982      -1.65478821      -1.36794926      -0.11227259
O        2.20759020       3.93451154       2.48033700       0.23610937      -0.00845012       0.50885617      -2.86106242      -0.93817587      -2.21005569
O        1.92325588       5.37311129      -0.00975685      -0.04822495      -0.54133119      -0.00975685       0.46667974       2.41350776       1.14341636
Sr      -0.12015276       3.79324270       3.74553083      -0.12015276      -0.14971895      -0.19743083       5.33415388       0.10909940       3.18601439
Ti       1.89316062       6.10346214       5.81966502      -0.07832021       0.18901965      -0.09477746       1.63942673      -1.63440597       1.22196962
O       -0.02902960       6.01678804       5.99911200      -0.02902960       0.10234555       0.08466951      -0.57802682      -0.09171691       0.11074915
O        1.85603363       3.96329480       5.55983461      -0.11544720       0.02033314      -0.35460788       0.16803516      -1.10121320       0.65980527
O        1.72790060       6.36549681       3.92183946      -0.24358023       0.45105432      -0.02112220       3.98654443      -2.79528824       0.49251015
Sr       4.04698500      -0.17857449       0.00455219       0.10402335      -0.17857449       0.00455219      -2.60996188       0.21797526       1.32120176
Ti       5.70269042       1.93681067       1.77706285      -0.21175206      -0.03467015      -0.19441798       5.31330749      -0.28468978       0.54090697
O        4.14800627       1.73994486       2.35381316       0.20504461      -0.23153597       0.38233233      -3.74018725       0.82077930      -0.40187513
O        6.04438156      -0.07669619       1.36045285       0.12993907      -0.07669619      -0.61102798      -1.76490136       0.28400134       2.64153519
O        5.73145076       2.49729770       0.08666535      -0.18299173       0.52581687       0.08666535      -0.11178348      -1.03206568      -0.98087848
Sr       4.10894297       0.04699945       3.87007255       0.16598131       0.04699945      -0.07288911      -2.07515639       0.03143953       0.93418181
Ti       5.89957666       2.18911245       5.67179541      -0.01486582       0.21763162      -0.24264708       0.11313100      -2.45246609       0.20777281
O        3.99341658       1.89500632       5.48217406       0.05045492      -0.07647451      -0.43226842       0.12955656       0.46208852       1.16341644
O        5.78579547      -0.10154213       6.66718041      -0.12864702      -0.10154213       0.75273792       1.20116919      -0.03010119      -3.06949606
O        6.38071201       1.15363526       4.07719153       0.46626953      -0.81784557       0.13422987      -3.61598473       5.24122172       0.40178072
Sr       3.85879974       4.10884218       0.01590282      -0.08416191       0.16588052       0.01590282       1.50186746       1.57658662      -0.55960040
Ti       6.04279588       5.84205765       2.05701021       0.12835339      -0.07238484       0.08552938       0.52331604       0.82994356      -0.73017373
O        3.98202790       5.78705757       2.08486461       0.03906624      -0.12738492       0.11338378       0.96052837       0.88064591      -0.06233820
O        6.03534070       3.82917624       2.83494735       0.12089821      -0.11378542       0.86346652      -4.73186967       0.51656255      -4.97618856
O        5.86406482       5.16125675       0.05365194      -0.05037767      -0.75318574       0.05365194       1.23027877       3.20365936       0.85804049
Sr       3.80812959       3.95392835       3.89392457      -0.13483207       0.01096669      -0.04903709       1.56044793       0.06589277       2.32577959
Ti       5.92706920       6.12150627       5.95849511       0.01262671       0.20706378       0.04405262      -1.44720805      -1.12166588      -0.83538417
O        3.91833576       5.85402827       5.93101278      -0.02462590      -0.06041422       0.01657030       0.09987129       0.43809180      -0.42052583
O        5.90979777       3.93619313       5.37609995      -0.00464472      -0.00676852      -0.53834253       0.59246800       0.21146132       0.91045701
O        5.89597747       6.70916762       4.03635502      -0.01846502       0.79472514       0.09339336       0.96894188      -4.26125597       0.09385015
40
Lattice="7.88592331617382 4.8399075578035395e-17 -5.1010820132550365e-17 -3.527529211736836e-16 7.885923316173801 -1.128738046148659e-15 3.4344046666205783e-16 -3.203399813012986e-15 7.885923316173801" Properties=species:S:1:pos:R:3:u_disp:R:3:forces:R:3 system=srtio3_cubic model=mace_mp0 T=600.0 seed=2 supercell=2x2x2 source="SSCHA free-energy-Hessian ensemble (final auxiliary dyn)" index=456 pair=228 energy=-317.26230700749323 pbc="T T T"
Sr      -0.05801224      -0.06606555       0.03433331      -0.05801224      -0.06606555       0.03433331       0.39731421       0.56887918      -0.40108192
Ti       1.93924385       1.93451796       1.80842128      -0.03223698      -0.03696287      -0.16305955       1.82054337      -0.17678693       0.48769091
O       -0.02940716       2.01334369       2.02419565      -0.02940716       0.04186286       0.05271482       1.38152964      -0.10431660       0.42183801
O        1.92079266      -0.06321877       1.82788873      -0.05068817      -0.06321877      -0.14359210      -0.22824551       1.69474660       0.00143321
O        2.00532945       2.19225516       0.00518439       0.03384862       0.22077433       0.00518439      -0.77594409       0.33665010      -0.05780783
Sr      -0.05173517       0.15368538       4.08985241      -0.05173517       0.15368538       0.14689076       0.20914240      -0.71612040      -0.97611937
Ti       1.96412322       1.86602900       5.77494222      -0.00735761      -0.10545183      -0.13950026      -0.83766099       0.85075357       0.77972501
O        0.01078675       2.10279494       5.55048566       0.01078675       0.13131411      -0.36395683       1.18767150      -0.06961234       0.81061126
O        1.79783560       0.09080080       6.31919908      -0.17364523       0.09080080       0.40475659       0.53000828      -0.23583717      -1.27043302
O        2.26308124       1.81793271       3.94759254       0.29160041      -0.15354812       0.00463088      -0.32315406      -0.46887247       0.39558667
Sr      -0.01697586       3.94934943      -0.06008284      -0.01697586       0.00638778      -0.06008284       0.16798619      -0.32379387       0.13469884
Ti       1.82778978       5.90737692       2.02586344      -0.14369105      -0.00706557       0.05438262       1.99518167       0.12427130       0.47767618
O        0.03820298       5.99766447       1.71248745       0.03820298       0.08322199      -0.25899338      -0.79233499      -1.47150744       0.05675847
O        2.05552862       3.95124610       2.29695215       0.08404779       0.00828444       0.32547132      -0.52603469      -0.47266702      -0.56862545
O        2.12336698       5.82249469       0.07160965       0.15188615      -0.09194780       0.07160965      -0.75201141      -0.56645909      -1.07508232
Sr      -0.01505240       3.89476471       4.01062614      -0.01505240      -0.04819695       0.06766448       0.12052245       0.61215439      -0.54642609
Ti       1.74251803       5.88051772       5.99379264      -0.22896280      -0.03392477       0.07935015       6.88312505       0.56293010      -0.15768330
O        0.13445551       5.75426724       5.80240944       0.13445551      -0.16017525      -0.11203304      -6.33083731      -0.39787975       0.79875326
O        2.13725207       3.97511020       5.81065025       0.16577125       0.03214855      -0.10379224      -0.14222898      -0.13020751       0.01765216
O        1.79879462       6.23919116       4.00003354      -0.17268621       0.32474867       0.05707188       0.68274275      -0.32934690      -0.17366307
Sr       3.97794215      -0.03202916       0.10046680       0.03498049      -0.03202916       0.10046680      -0.40728179      -0.33618560      -0.09545832
Ti       6.00203275       2.00679362       2.03527280       0.08759026       0.03531279       0.06379197      -2.04891439      -0.91107144      -0.97283862
O        3.96371275       1.66444831       1.71842747       0.02075109      -0.30703252      -0.25305336       0.26652457       1.35177880       0.75118516
O        6.14896295      -0.06841099       1.58214793       0.23452047      -0.06841099      -0.38933289      -1.36243148       0.45667650       1.59085465
O        6.14439974       2.06487076      -0.07608355       0.22995725       0.09338993      -0.07608355      -0.18395142       0.20066419      -0.15869221
Sr       4.04683059      -0.11219260       3.92448706       0.10386893      -0.11219260      -0.01847460      -0.63676584       0.13850994      -0.77324192
Ti       5.80197927       2.04720312       6.01838860      -0.11246322       0.07572229       0.10394611       3.97523398      -0.44527980      -0.84484458
O        4.10608940       1.90832490       5.97336631       0.16312774      -0.06315593       0.05892383      -3.82555499      -0.47707270       0.30960643
O        6.19407871      -0.02369796       5.83600898       0.27963622      -0.02369796      -0.07843350      -0.83039077      -0.35558382       0.52171898
O        5.66653861       1.80050042       3.83462575      -0.24790388      -0.17098041      -0.10833591       0.72986533       0.34169894      -0.21661892
Sr       4.03717902       4.18180031      -0.05433947       0.09421736       0.23883865      -0.05433947      -1.16201652      -1.04436541       0.65635071
Ti       5.96616060       5.88663305       1.93871638       0.05171811      -0.02780944      -0.03276445      -1.23413789       0.92395112       0.59252216
O        3.97216113       5.95805066       1.97071057       0.02919948       0.04360817      -0.00077025       1.00238300       0.04876174       0.24154513
O        5.97999826       3.93207206       1.87287700       0.06555577      -0.01088959      -0.09860383      -0.16262241      -0.39520193       0.15663414
O        5.82524839       5.78864920      -0.14021707      -0.08919410      -0.12579329      -0.14021707       0.90785417      -0.05941534      -0.00347571
Sr       3.91281167       3.82111019       4.04093950      -0.03014999      -0.12185147       0.09797784      -0.12726557       0.42002321      -0.92067152
Ti       5.73731778       5.96920954       5.91104461      -0.17712471       0.05476705      -0.00339787       1.49006081       0.21675533      -0.87004492
O        3.97408876       6.11912711       5.90700275       0.03112710       0.20468462      -0.00743974      -0.44026568      -0.13857915      -0.74917504
O        5.89103627       3.95308453       5.62704047      -0.02340621       0.01012287      -0.28740201      -0.31770828       0.24192823       0.79311407
O        6.08506697       5.90246615       3.77404991       0.17062448      -0.01197634      -0.16891175      -0.29993030       0.53502946       0.83602871
40
Lattice="7.88592331617382 4.8399075578035395e-17 -5.1010820132550365e-17 -3.527529211736836e-16 7.885923316173801 -1.128738046148659e-15 3.4344046666205783e-16 -3.203399813012986e-15 7.885923316173801" Properties=species:S:1:pos:R:3:u_disp:R:3:forces:R:3 system=srtio3_cubic model=mace_mp0 T=600.0 seed=2 supercell=2x2x2 source="SSCHA free-energy-Hessian ensemble (final auxiliary dyn)" index=490 pair=245 energy=-310.16988368754767 pbc="T T T"
Sr       0.03403324      -0.09518550      -0.05741069       0.03403324      -0.09518550      -0.05741069       2.87509912      -0.26185773      -1.52904091
Ti       1.68033681       2.24952500       1.90738696      -0.29114402       0.27804417      -0.06409387      10.12471197      -0.21134073       3.29597837
O        0.07642535       2.20901793       2.10636695       0.07642535       0.23753710       0.13488612      -7.37880517       0.05695119      -0.09310707
O        1.79438276      -0.02973908       1.92365965      -0.17709807      -0.02973908      -0.04782118      -0.39668313       0.90154544      -0.23523564
O        2.19630203       2.13482421       0.23475090       0.22482120       0.16334338       0.23475090      -0.62178046      -0.03007268      -2.66180089
Sr       0.00193609       0.31357007       3.94493550       0.00193609       0.31357007       0.00197384       2.48731045      -2.81159076      -0.13490473
Ti       2.04824307       1.90859583       5.91772523       0.07676224      -0.06288500       0.00328274       0.40576716       0.90875833      -0.97300552
O       -0.01600115       2.25411573       5.95101905      -0.01600115       0.28263490       0.03657656      -0.07780719      -0.62859474       0.34817396
O        1.66092538       0.02241698       6.24770804      -0.31055545       0.02241698       0.33326555       1.61605337      -0.49143883      -1.12206381
O        1.90269476       1.80524895       4.14449038      -0.06878607      -0.16623188       0.20152872       0.00853426      -0.09671030      -1.21654114
Sr      -0.02430437       3.86411566       0.00015768      -0.02430437      -0.07884600       0.00015768       0.52073228       0.46417043      -0.60738848
Ti       1.98553994       6.10100923       2.11766272       0.01405911       0.18656674       0.14618189      -0.33836421      -2.97933488      -0.06169653
O        0.13953012       5.39770455       2.28365120       0.13953012      -0.51673794       0.31217037       0.20266746       3.52813598      -3.58301139
O        2.50316891       3.97206484       2.47455040       0.53168808       0.02910318       0.50306958      -4.63471435      -0.70268721      -4.33777114
O        1.85351643       5.61255395       0.03662855      -0.11796440      -0.30188854       0.03662855       1.57506644       0.97967517       1.08032122
Sr      -0.09440917       4.13409662       3.86719366      -0.09440917       0.19113496      -0.07576800      -0.00234990      -2.40924173       3.76336918
Ti       1.90152913       5.86264551       5.95599081      -0.06995170      -0.05179698       0.04154832      -1.17746135      -1.18093098       0.68600700
O        0.03561637       5.56239444       6.16922864       0.03561637      -0.35204805       0.25478615       0.05926794       0.70870974      -1.60377385
O        2.25989256       3.89927517       5.75947137       0.28841173      -0.04368649      -0.15497112      -0.24445347       0.88845525       1.02130550
O        2.23120859       6.19732149       4.06185737       0.25972777       0.28287900       0.11889571      -1.00783654      -0.33576989      -0.18385545
Sr       3.82557174      -0.05319881      -0.00099968      -0.11738992      -0.05319881      -0.00099968       0.29878128       0.70708829      -0.01252161
Ti       5.65734466       2.00852231       1.79479914      -0.25709783       0.03704148      -0.17668168       0.72028928      -0.35022048       2.07880477
O        3.96575818       1.51910209       2.27125097       0.02279653      -0.45237874       0.29977014       1.34611433       1.19581892      -1.93515203
O        6.38349768      -0.07625876       1.27462755       0.46905519      -0.07625876      -0.69685327      -4.19390874      -0.48676479       4.46955455
O        5.78458639       2.35823925       0.02695691      -0.12985610       0.38675842       0.02695691       0.48193003      -1.01873020       0.80672969
Sr       3.97851374       0.00782228       3.98935725       0.03555208       0.00782228       0.04639559      -0.32260554      -0.27735315       0.41421223
Ti       6.05178924       1.86622960       5.68361461       0.13734676      -0.10525123      -0.23082788      -1.27385755       0.52754942       3.23935736
O        3.95144067       1.60391878       5.83359702       0.00847901      -0.36756205      -0.08084546       0.06261380       0.35494571       0.86504606
O        6.15935531      -0.01750125       6.42834799       0.24491282      -0.01750125       0.51390551      -1.01193752       0.14734418      -1.34741401
O        6.08291041       1.40971891       3.99666596       0.16846792      -0.56176192       0.05370430      -2.04734521       1.61157269      -1.52075715
Sr       4.06115061       3.82616189      -0.08536992       0.11818895      -0.11679977      -0.08536992      -2.16271292       0.82828511      -0.50616852
Ti       5.91404353       5.98150531       1.83197467      -0.00039895       0.06706283      -0.13950616       1.23787461       0.13285669       0.64689757
O        4.13983027       6.16397344       1.95892270       0.19686861       0.24953095      -0.01255812      -1.30925557       0.18422086       0.00511476
O        5.67223221       3.77320611       2.67552057      -0.24221028      -0.16975555       0.70403975       3.63000272      -0.45754352      -4.38709618
O        5.93333758       5.15066757       0.19664523       0.01889510      -0.76377492       0.19664523       0.17404065       1.95694966      -0.16103477
Sr       4.00550582       3.85431274       3.84683308       0.06254416      -0.08864892      -0.09612858      -1.80084370      -0.09814069       4.70139244
Ti       5.75175595       5.86192083       5.85251092      -0.16268654      -0.05252165      -0.06193157       4.11532715       0.28008087      -0.81727429
O        4.08517223       6.22582580       6.02307473       0.14221057       0.31138331       0.10863224      -2.88015838      -0.29741892       0.75819845
O        5.57255170       3.83679688       5.60414971      -0.34189079      -0.10616477      -0.31029277       1.25359539       1.01023605       0.83512483
O        6.05728411       6.55067477       4.08132943       0.14284162       0.63623229       0.13836777      -0.31289878      -2.24760776       0.01502718
40
Lattice="7.88592331617382 4.8399075578035395e-17 -5.1010820132550365e-17 -3.527529211736836e-16 7.885923316173801 -1.128738046148659e-15 3.4344046666205783e-16 -3.203399813012986e-15 7.885923316173801" Properties=species:S:1:pos:R:3:u_disp:R:3:forces:R:3 system=srtio3_cubic model=mace_mp0 T=600.0 seed=2 supercell=2x2x2 source="SSCHA free-energy-Hessian ensemble (final auxiliary dyn)" index=501 pair=250 energy=-311.66224341895145 pbc="T T T"
Sr       0.01810711      -0.13073701       0.24389808       0.01810711      -0.13073701       0.24389808       0.66859003       0.35856043      -4.23784753
Ti       1.80417393       1.85096226       2.03577497      -0.16730690      -0.12051857       0.06429414       2.26985101       0.13220862      -1.86521155
O        0.16107705       2.43144380       1.81703272       0.16107705       0.45996297      -0.15444811      -1.86578830      -0.25089379       0.93935378
O        1.68717505       0.05429060       1.69497231      -0.28430578       0.05429060      -0.27650852       1.49236271      -0.56155503       1.48684014
O        2.17186748       2.13852299      -0.11006216       0.20038665       0.16704216      -0.11006216      -1.13942086      -1.01372391       0.76697323
Sr      -0.19711881       0.10878283       4.23298845      -0.19711881       0.10878283       0.29002679       1.95951748       0.24777705      -3.54452588
Ti       1.86735130       2.16874451       5.99841156      -0.10412953       0.19726368       0.08396908       4.71550828      -1.57854433      -1.54575106
O        0.22951324       2.17135201       5.72796912       0.22951324       0.19987118      -0.18647337      -3.53544791       1.01135469      -0.14535872
O        1.84171848      -0.07115878       5.88479612      -0.12976235      -0.07115878      -0.02964637      -0.53518894       3.88743305       0.13860642
O        2.16545941       1.93460168       3.78182505       0.19397858      -0.03687915      -0.16113661      -0.81149594       0.35621964       1.91507425
Sr       0.09500487       4.00757745      -0.03090055       0.09500487       0.06461579      -0.03090055      -0.84065533      -1.31189668      -0.76196586
Ti       2.07296558       5.72068083       1.63702478       0.10148475      -0.19376165      -0.33445605      -0.37228750       2.03150248       1.68601682
O       -0.00468423       5.69378761       1.44754703      -0.00468423      -0.22065487      -0.52393380       0.96169523       0.04908928       2.40543750
O        2.33539268       3.95366689       1.79466260       0.36391185       0.01070523      -0.17681823      -0.22590045      -0.17663838       1.25317297
O        2.25118700       5.77712100      -0.08211722       0.27970617      -0.13732149      -0.08211722       0.40970958       0.34152085      -0.71843264
Sr       0.12831762       4.14956808       3.91813421       0.12831762       0.20660642      -0.02482745      -1.15628663      -0.93170070       0.04484063
Ti       1.92591838       6.15325945       5.52077206      -0.04556245       0.23881696      -0.39367043       0.91841498      -4.07838720       9.90170999
O        0.11436768       5.46862918       6.04355480       0.11436768      -0.44581331       0.12911231       0.72490153       1.41502195      -1.16252934
O        2.65793672       3.90068188       5.67870763       0.68645589      -0.04227978      -0.23573486      -3.15835809      -0.30695400       1.49923529
O        1.80729742       5.97394934       3.91816617      -0.16418341       0.05950685      -0.02479549      -0.40191403      -0.57739606      -7.82489680
Sr       4.09117288      -0.14760716       0.11409093       0.14821122      -0.14760716       0.11409093      -0.66709799       0.83863970      -0.30258904
Ti       5.83830243       2.11993971       2.20931965      -0.07614006       0.14845888       0.23783882       0.28505871      -1.10689738      -3.00055523
O        4.07550277       1.59298757       2.02790928       0.13254111      -0.37849326       0.05642845      -0.11495266       0.45996787      -0.62887528
O        6.42167122       0.06273098       1.71436154       0.50722873       0.06273098      -0.25711929      -2.72424531      -0.47767464       3.11102729
O        6.12723291       2.06788504      -0.12518222       0.21279043       0.09640421      -0.12518222       0.20949854       0.38824971       5.75482806
Sr       3.65044955      -0.01104394       3.89986701      -0.29251211      -0.01104394      -0.04309465       1.07695806       1.20904995       0.53986462
Ti       5.81374981       1.92508930       6.15259356      -0.10069267      -0.04639153       0.23815107       4.49325161       0.48292432      -6.07781649
O        4.23315416       1.48153505       5.87040999       0.29019251      -0.48994578      -0.04403250      -5.11075360      -0.42273413       0.16285213
O        6.52242162       0.05275888       5.86239661       0.60797913       0.05275888      -0.05204588      -2.83308707      -0.80980250       3.41214198
O        6.06448652       2.01219408       3.90938988       0.15004403       0.04071325      -0.03357178       0.38824239      -0.13118278       1.69312834
Sr       3.73083949       3.76732501      -0.15266245      -0.21212217      -0.17563665      -0.15266245       2.73159357       1.04394088       0.63327340
Ti       5.99152109       6.02989759       2.03157376       0.07707860       0.11545510       0.06009293      -0.53874785      -0.09211925       0.74349699
O        4.06351258       6.38087348       2.26737515       0.12055093       0.46643099       0.29589432      -0.45711728      -1.74096101      -2.00176488
O        5.58042266       3.92909925       2.03849358      -0.33401983      -0.01386241       0.06701275       0.59088016       1.23118362      -0.75299493
O        5.76637600       5.96057472      -0.06111041      -0.14806649       0.04613223      -0.06111041      -0.15191800      -0.34933507       1.11865435
Sr       3.84592822       3.84832311       3.91342416      -0.09703344      -0.09463855      -0.02953749       2.14173452       0.19916600      -1.74916392
Ti       5.84327529       5.83396522       6.02890166      -0.07116720      -0.08047726       0.11445917       0.64766671       0.22224708      -1.73593070
O        4.02926453       6.27506731       5.77019258       0.08630287       0.36062482      -0.14424991      -0.03296752      -0.46059424      -0.40888810
O        5.75348084       3.96366523       5.87174889      -0.16096164       0.02070357      -0.04269360      -0.39162402      -0.18885412       0.11506851
O        6.20028995       5.86245493       3.89486004       0.28584747      -0.05198756      -0.04810162       0.37982020       0.66178803      -0.85649875
