40
Lattice="7.885923316173801 7.69924125993921e-18 5.055437999273994e-17 -2.708415252898802e-16 7.885923316173809 1.5570874207244063e-14 -4.34152842628263e-16 1.971393687331653e-14 7.885923316173814" Properties=species:S:1:pos:R:3:u_disp:R:3:forces:R:3 system=srtio3_cubic model=mace_mp0 T=600.0 seed=0 supercell=2x2x2 source="SSCHA free-energy-Hessian ensemble (final auxiliary dyn)" index=0 pair=0 energy=-315.98406852938365 pbc="T T T"
Sr       0.16017578       0.02692305      -0.07340002       0.16017578       0.02692305      -0.07340002      -0.67920644      -0.07372816       0.36257608
Ti       1.97324983       1.93760945       2.12722082       0.00176900      -0.03387138       0.15573999       0.11659811       0.43763941      -3.72597632
O        0.13773348       1.95138697       2.17983690       0.13773348      -0.02009386       0.20835607      -0.55557259      -0.10872004       0.44368126
O        2.17054494       0.05022893       1.59837486       0.19906411       0.05022893      -0.37310597      -2.78084237       0.64159226       3.11596462
O        1.80691447       2.36310990       0.00991532      -0.16456636       0.39162907       0.00991532      -0.05229548      -0.50262779      -0.83046665
Sr      -0.10888234      -0.12625827       3.84888814      -0.10888234      -0.12625827      -0.09407352       0.26144993       0.56062546       0.50028950
Ti       1.96782721       2.04194247       5.90810430      -0.00365362       0.07046164      -0.00633819       0.43655701      -1.12496337       2.24194814
O        0.04672680       1.93855121       5.61950114       0.04672680      -0.03292962      -0.29494134      -0.09071723       0.14312742       0.31158703
O        1.82739195       0.09351362       6.05602102      -0.14408888       0.09351362       0.14157853       1.05580495      -0.45957261      -0.68544466
O        2.40208891       1.97738262       3.83752807       0.43060808       0.00590179      -0.10543359      -0.35274125      -0.06630590       1.86287586
Sr      -0.21792718       3.87620235      -0.02607313      -0.21792718      -0.06675931      -0.02607313       1.44432179       1.22305240       0.19096063
Ti       2.03481969       5.75524713       1.88683023       0.06333886      -0.15919536      -0.08465060      -0.33486644       2.00587711      -0.40350598
O        0.04488609       5.99702248       2.11544356       0.04488609       0.08257999       0.14396274      -0.17136559      -0.15387696       0.84645635
O        2.06159303       4.03553226       2.13653171       0.09011220       0.09257060       0.16505088      -0.28343504      -1.86036261       0.43694177
O        1.52277990       5.82621497      -0.10467039      -0.44870093      -0.08822752      -0.10467039       1.39073310      -0.57880019      -0.28224283
Sr       0.00413805       4.04201449       3.91109901       0.00413805       0.09905283      -0.03186265      -0.31681331      -0.57177489      -0.25441992
Ti       1.82496590       5.87811863       5.81902534      -0.14651493      -0.03632386      -0.09541715       0.69149242       0.97568413       1.02806390
O        0.03111807       6.05779497       5.59117856       0.03111807       0.14335249      -0.32326392      -0.06095737      -1.25589166      -0.53575286
O        1.97568178       3.87053766       5.52664023       0.00420095      -0.07242400      -0.38780226      -0.09467960       2.54711874       0.17947162
O        2.38002428       6.28652541       3.90279544       0.40854345       0.37208292      -0.04016622      -2.59125621      -2.60517594      -0.07773028
Sr       3.73597599       0.05783925       0.23480897      -0.20698567       0.05783925       0.23480897       2.79951977      -0.35045947      -3.63002701
Ti       5.97012640       1.83771033       1.97626146       0.05568391      -0.13377050       0.00478063      -0.64649830       1.21076392      -1.25795339
O        4.08157175       1.92878338       1.65031491       0.13861010      -0.04269745      -0.32116592       0.67911482       0.58080688       1.27253438
O        6.04410704      -0.01272979       1.82105780       0.12966455      -0.01272979      -0.15042303      -0.36832529       0.89966070       0.60404235
O        6.30155388       2.09437864       0.02571021       0.38711139       0.12289782       0.02571021      -0.97127648      -1.42457509      -0.24907961
Sr       3.70771441       0.04776002       3.89857868      -0.23524724       0.04776002      -0.04438298       2.74233349       0.64060303       0.65098128
Ti       6.03283841       1.87576012       5.85746031       0.11839592      -0.09572071      -0.05698218       0.05899532      -0.42337969       1.39748001
O        3.89311033       1.97919391       6.28515158      -0.04985133       0.00771308       0.37070909       1.19766220      -0.00657934      -1.55481591
O        6.03220922      -0.06477554       5.92290789       0.11776673      -0.06477554       0.00846541      -0.09753140       1.48020387       0.09318160
O        5.96298425       1.90811586       3.98545067       0.04854177      -0.06336497       0.04248901      -1.23904777       0.07735200      -1.46286999
Sr       4.04044593       3.87330165      -0.00497247       0.09748427      -0.06966001      -0.00497247      -0.22366054      -0.29637862       0.35538483
Ti       5.90935116       5.96822924       1.98716683      -0.00509133       0.05378676       0.01568600      -0.10626822      -1.70547699      -0.69000423
O        3.90260344       5.78568192       1.49771090      -0.04035822      -0.12876057      -0.47376993       0.60085703       0.85102155       0.85243467
O        6.06189065       4.06461381       1.88002795       0.14744816       0.12165215      -0.09145288      -0.34550053      -0.66388595       1.21186847
O        6.12744561       5.97932951       0.00869249       0.21300312       0.06488702       0.00869249       0.06547304      -0.43877271      -0.84766919
Sr       4.17862503       3.91693537       4.24443852       0.23566337      -0.02602629       0.30147687      -0.78679720       0.21498805      -1.22987765
Ti       5.80487768       5.94406553       5.97797228      -0.10956480       0.02962304       0.06352980       0.42553150       0.74566176       0.54440741
O        4.01222639       5.97819594       6.13707081       0.06926473       0.06375345       0.22262832      -1.19540985      -0.91368007       0.19701886
O        6.09714666       3.88347893       5.79981176       0.18270417      -0.05948273      -0.11463073      -0.71792861       1.06597319       0.27385484
O        5.49894114       6.11258905       3.95491091      -0.41550134       0.19814656       0.01194926       1.09654867      -0.71676381      -1.25616897
40
Lattice="7.885923316173801 7.69924125993921e-18 5.055437999273994e-17 -2.708415252898802e-16 7.885923316173809 1.5570874207244063e-14 -4.34152842628263e-16 1.971393687331653e-14 7.885923316173814" Properties=species:S:1:pos:R:3:u_disp:R:3:forces:R:3 system=srtio3_cubic model=mace_mp0 T=600.0 seed=0 supercell=2x2x2 source="SSCHA free-energy-Hessian ensemble (final auxiliary dyn)" index=12 pair=6 energy=-311.5956155363889 pbc="T T T"
Sr       0.04095510       0.05007347       0.14809112       0.04095510       0.05007347       0.14809112      -0.55246538      -0.48334160      -1.12359779
Ti       1.81312716       1.79732997       1.89803555      -0.15835367      -0.17415086      -0.07344528       4.41016337       6.21487762       0.94056631
O        0.24207408       2.55158950       1.90508732       0.24207408       0.58010867      -0.06639351      -2.27778873      -0.57163743      -0.44548311
O        1.78642526       0.15863608       1.93176721      -0.18505557       0.15863608      -0.03971362      -0.95538214      -4.62933946      -0.46537459
O        2.24747126       2.26348829      -0.08586819       0.27599043       0.29200746      -0.08586819      -0.64177262      -1.50355102       2.80588710
Sr      -0.09039997      -0.02813102       3.81334514      -0.09039997      -0.02813102      -0.12961652       2.17356921      -0.16222071       1.43416694
Ti       1.91692612       2.10873172       5.92296360      -0.05455471       0.13725089       0.00852112       4.27795984      -1.01394053      -1.03650088
O        0.26215260       2.01125700       5.78944526       0.26215260       0.03977618      -0.12499723      -4.22378154       0.03605362       0.92194458
O        2.16682700       0.06928397       5.95113782       0.19534617       0.06928397       0.03669533      -1.10707221      -0.98300429       1.08187363
O        2.21151061       1.98606079       4.02305415       0.24002978       0.01457996       0.08009249      -1.19686732       0.12516393      -2.35590513
Sr      -0.00613505       3.96103008      -0.09424489      -0.00613505       0.01806843      -0.09424489       0.07242217       0.09126885       0.01119098
Ti       2.03798897       5.63351791       2.12142110       0.06650814      -0.28092458       0.14994027      -4.08133033      13.75843765       0.36442835
O       -0.01962028       5.72139917       2.33001272      -0.01962028      -0.19304331       0.35853189       0.40016969       0.04992076      -1.32825764
O        2.57902231       4.21462337       2.11309653       0.60754149       0.27166171       0.14161570       2.85007117     -12.40972807      -1.01908218
O        1.80370209       5.92004158       0.00871059      -0.16777874       0.00559909       0.00871059       0.10374967       0.18002790       1.75670301
Sr      -0.21393987       3.82234657       4.05040925      -0.21393987      -0.12061509       0.10744759       2.74031303       2.83927518       0.11230853
Ti       1.77990718       6.01580538       6.05866292      -0.19157365       0.10136289       0.14422043       4.89375636       0.38352746      -2.01935449
O        0.10049947       5.69429095       5.96485866       0.10049947      -0.22015154       0.05041618      -2.63110371       0.57571199      -0.72992267
O        2.38444791       4.00336225       6.01770973       0.41296708       0.06040059       0.10326724      -1.30838428       0.48060118      -0.76330747
O        2.22103259       6.12835896       3.91487182       0.24955176       0.21391647      -0.02808984      -0.92347091      -0.79209236       0.64666833
Sr       3.84029902      -0.08088224      -0.01083270      -0.10266263      -0.08088224      -0.01083270       0.03447859       0.33097874      -0.56274624
Ti       5.83789851       1.87887754       1.98272330      -0.07654398      -0.09260329       0.01124247       0.50373089       2.81098842       0.49637391
O        4.03804035       1.87307987       2.06966200       0.09507869      -0.09840096       0.09818117      -0.22301111      -0.17983229      -0.69577930
O        6.28423211       0.18127848       2.19199077       0.36978962       0.18127848       0.22050994      -0.65622966      -1.46334139      -1.22416660
O        5.88088166       1.81352015      -0.11910188      -0.03356083      -0.15796068      -0.11910188       0.34046305      -0.28275786       2.55711068
Sr       3.98287731       0.04592960       3.66631103       0.03991565       0.04592960      -0.27665062      -0.71306776      -0.60413352       1.85295837
Ti       5.78659507       2.12681279       5.96043820      -0.12784742       0.15533196       0.04599571       5.88509581      -0.68253743      -1.12051444
O        4.23352683       1.76312643       5.59138340       0.29056517      -0.20835440      -0.32305909      -4.52136347      -0.26040817      -0.24229444
O        6.34659838      -0.01713829       5.63606669       0.43215589      -0.01713829      -0.27837580      -0.60708503       1.99192082       0.81278033
O        6.28074831       2.32813217       3.87841866       0.36630582       0.35665135      -0.06454300      -3.34598083      -3.62860623      -1.13442045
Sr       3.97475795       3.94215290       0.10854782       0.03179629      -0.00080876       0.10854782       0.01474327       0.40914906      -1.20027118
Ti       6.00281717       5.71350258       1.86724997       0.08837469      -0.20093990      -0.10423086      -0.46070061       2.48896913       3.70280170
O        3.90193682       6.39570430       1.89175882      -0.04102484       0.48126182      -0.07972200       1.17516455      -1.18388744      -0.68285300
O        5.70322672       4.01720228       1.90424019      -0.21121576       0.07424062      -0.06724064      -0.19626977      -2.21136311      -0.75986322
O        6.06412797       6.06463423       0.16602873       0.14968548       0.15019174       0.16602873       0.44205156       0.61459703      -2.98656872
Sr       3.79457355       3.77831994       3.99097533      -0.14838811      -0.16464172       0.04801367       1.75208494       0.81658512       1.26493949
Ti       5.85881607       6.19480804       5.79320532      -0.05562642       0.28036556      -0.12123717      -0.71047706      -4.08250265       0.62956348
O        4.05270454       5.93009083       6.03727829       0.10974288       0.01564834       0.12283580       0.95171898       0.98967863       0.80576312
O        6.21389250       3.88116384       6.03026070       0.29945001      -0.06179782       0.11581821      -1.56366102       0.97953215       0.86724862
O        5.85669767       5.66732777       4.07836053      -0.05774482      -0.24711472       0.13539887      -0.12444064       0.96096030      -1.16901392
40
Lattice="7.885923316173801 7.69924125993921e-18 5.055437999273994e-17 -2.708415252898802e-16 7.885923316173809 1.5570874207244063e-14 -4.34152842628263e-16 1.971393687331653e-14 7.885923316173814" Properties=species:S:1:pos:R:3:u_disp:R:3:forces:R:3 system=srtio3_cubic model=mace_mp0 T=600.0 seed=0 supercell=2x2x2 source="SSCHA free-energy-Hessian ensemble (final auxiliary dyn)" index=23 pair=11 energy=-306.0766318721029 pbc="T T T"
Sr       0.28888937      -0.17777568       0.03602576       0.28888937      -0.17777568       0.03602576      -1.33177679      -0.12573205      -0.12006113
Ti       2.00623897       2.01755206       2.03495398       0.03475814       0.04607123       0.06347315      -2.24494803       0.80009796      -1.26184459
O       -0.04315072       2.13562282       2.30408169      -0.04315072       0.16414199       0.33260086      -0.60462437      -0.52349177      -0.34330003
O        1.79878404      -0.04230666       1.83025616      -0.17269679      -0.04230666      -0.14122467       0.04536467       0.40238128       1.41752080
O        1.42118097       2.16597415       0.02178621      -0.55029985       0.19449333       0.02178621       2.18798105      -2.37652000      -0.36024704
Sr       0.16325622       0.06184443       3.95945459       0.16325622       0.06184443       0.01649293      -0.74131347      -0.32595778      -0.79977865
Ti       2.31730746       1.68833958       5.90090751       0.34582663      -0.28314125      -0.01353497      -5.46108703      10.77197344      -0.70381047
O       -0.21374758       2.19735345       5.80050663      -0.21374758       0.22587262      -0.11393585      25.37097295       1.25900284       0.61716222
O        1.74743256       0.21428204       5.89377754      -0.22404827       0.21428204      -0.02066495      -2.03343900      -9.57771981       0.56042809
O        2.06876532       2.03763717       4.06409262       0.09728449       0.06615634       0.12113096       0.38032856       0.12756783      -0.78452725
Sr      -0.06947921       3.74061680       0.13763200      -0.06947921      -0.20234485       0.13763200       0.09666961       2.55128701       0.67307638
Ti       2.03373333       5.92559274       2.14028211       0.06225250       0.01115025       0.16880128      -0.74029113      -0.48088316      -4.63377744
O       -0.15718480       5.80318538       1.96644949      -0.15718480      -0.11125711      -0.00503134       0.15985903      -0.38540488       0.44683086
O        2.07093147       3.95860993       1.83370780       0.09945065       0.01564827      -0.13777303      -0.34101555      -0.68493186       1.21826231
O        2.02768874       5.97026913       0.06817771       0.05620791       0.05582665       0.06817771      -0.45153844      -0.17011820      -1.23099799
Sr      -0.17144796       4.02740711       3.96077585      -0.17144796       0.08444545       0.01781419      -0.11703771       0.41022438      -1.31937327
Ti       1.95125744       5.61754815       5.93789729      -0.02022339      -0.29689434       0.02345481       1.30927630      18.11615869       0.74602992
O       -0.12586969       6.05537344       5.89485882      -0.12586969       0.14093095      -0.01958366       1.75728616      -0.42865906      -0.49994244
O        1.90890640       4.14872486       6.01109386      -0.06257443       0.20576320       0.09665138      -0.64839753     -17.44628309       0.11809198
O        1.93721963       6.03307399       3.88278499      -0.03426120       0.11863150      -0.06017667      -0.81832482      -0.21205813       3.24065616
Sr       3.81842523      -0.16104654      -0.05642535      -0.12453642      -0.16104654      -0.05642535       0.74437761      -0.43970677       0.27908844
Ti       5.96176143       1.82828138       1.76670973       0.04731894      -0.14319945      -0.20477110      -0.05079107      -0.72230232      15.50538295
O        3.72942423       1.62057298       1.90610381      -0.21353743      -0.35090785      -0.06537702       2.02562599       0.64245733      -0.62322814
O        5.85899068      -0.02297356       2.04182641      -0.05545181      -0.02297356       0.07034558       0.06928894      -0.39605513      -0.66330972
O        5.96020855       2.11845704       0.28549933       0.04576606       0.14697622       0.28549933       0.46432622       1.86166035     -14.37877661
Sr       3.97395430       0.11522820       3.89496594       0.03099264       0.11522820      -0.04799572       0.90607060      -0.61639710       0.03335352
Ti       6.26348810       2.12496929       5.72672698       0.34904562       0.15348846      -0.18771551     -29.74546702      -1.91868210      -0.04501790
O        3.78902370       2.07352881       6.46132562      -0.15393795       0.10204798       0.54688314       5.96368029      -0.39485829       1.23553206
O        5.70321283       0.20473010       6.12086474      -0.21122966       0.20473010       0.20642225       1.13438857       0.14002643      -0.84083469
O        5.64904795       2.02690936       3.99894549      -0.26539454       0.05542853       0.05598383       0.65903170       0.04545756      -0.01673386
Sr       4.01206726       3.82689942       0.05634419       0.06910561      -0.11606224       0.05634419      -0.49119946       1.72776485       0.12831391
Ti       5.85712616       5.95866247       1.86432830      -0.05731633       0.04421998      -0.10715253       0.76198565      -0.86004159      -0.44088788
O        3.87043955       5.77217550       2.16392882      -0.07252211      -0.14226699       0.19244799       0.27764788       2.37517879      -1.52654554
O        5.53769274       3.87130956       2.01760665      -0.37674975      -0.07165210       0.04612582       1.35071327       0.64757698      -0.31195577
O        5.83206107       6.02033255      -0.08419073      -0.08238142       0.10589007      -0.08419073      -0.30606589      -0.23435906       2.42640678
Sr       3.96420249       4.16430006       3.74855101       0.02124083       0.22133840      -0.19441065       0.53650770      -1.61032093       1.87732553
Ti       5.90908034       6.10244882       5.79966723      -0.00536215       0.18800633      -0.11477525      -1.74930810      -0.05300240       1.05279092
O        3.84595688       5.99393367       5.90916322      -0.09700478       0.07949118      -0.00527927      -1.44018790       0.76981593      -0.34173629
O        5.53090480       4.23799642       5.83859931      -0.38353769       0.29503476      -0.07584318       2.10299247      -2.87300900       0.19447806
O        5.70931271       6.05804868       3.93068930      -0.20512978       0.14360619      -0.01227235       1.01243808       0.20786286      -0.52404418
40
Lattice="7.885923316173801 7.69924125993921e-18 5.055437999273994e-17 -2.708415252898802e-16 7.885923316173809 1.5570874207244063e-14 -4.34152842628263e-16 1.971393687331653e-14 7.885923316173814" Properties=species:S:1:pos:R:3:u_disp:R:3:forces:R:3 system=srtio3_cubic model=mace_mp0 T=600.0 seed=0 supercell=2x2x2 source="SSCHA free-energy-Hessian ensemble (final auxiliary dyn)" index=46 pair=23 energy=-315.04291276981473 pbc="T T T"
Sr       0.13414050      -0.03036066      -0.07990241       0.13414050      -0.03036066      -0.07990241       0.12250072       0.79747902       0.88639586
Ti       1.96112327       2.03957305       1.99717563      -0.01035756       0.06809222       0.02569480       0.78717001      -2.85123119      -0.67671345
O       -0.07079036       1.82408831       1.80092852      -0.07079036      -0.14739252      -0.17055231       1.51017723      -0.90985742       0.09558673
O        1.97375011      -0.06164670       1.81559238       0.00226929      -0.06164670      -0.15588844       0.31328946      -0.94804631      -0.09900446
O        2.02444138       2.07770373      -0.06875312       0.05296055       0.10622290      -0.06875312      -0.46581915       0.25633535       0.41045006
Sr       0.11061979      -0.11690249       3.88924430       0.11061979      -0.11690249      -0.05371736       0.11162725       0.87172854      -0.13657802
Ti       2.06337736       2.18670655       5.83399985       0.09189653       0.21522572      -0.08044263      -0.19194734     -10.71828955       1.64821458
O       -0.10420784       2.05299151       5.95429449      -0.10420784       0.08151068       0.03985200       0.41032598      -0.64188585      -0.24489403
O        1.88940225      -0.12813883       6.05565012      -0.08207858      -0.12813883       0.14120763      -0.40323415       0.92001690       0.48338543
O        1.85123746       1.65267368       3.88009597      -0.12024337      -0.31880715      -0.06286569       0.11925082       0.65655233       0.32085512
Sr      -0.18150414       3.79809702       0.07816613      -0.18150414      -0.14486463       0.07816613       1.84712427       0.78610002      -0.43063313
Ti       1.89437618       5.79897484       1.96178849      -0.07710465      -0.11546764      -0.00969234       1.59762501       1.31470821      -1.00412234
O        0.04718210       6.05760878       1.80820919       0.04718210       0.14316630      -0.16327164      -1.40363652      -0.39562082       0.57845612
O        1.82246421       3.80246658       2.21003257      -0.14901662      -0.14049507       0.23855174      -0.52868674       2.60725693       0.36166144
O        2.10960118       5.57304691       0.02374903       0.13812035      -0.34139557       0.02374903      -1.60294079       0.47831133       0.38157350
Sr      -0.03940387       3.91542859       4.25444947      -0.03940387      -0.02753307       0.31148782      -0.77340354      -0.19255208      -1.40208882
Ti       1.85673426       6.01940706       5.89250007      -0.11474657       0.10496457      -0.02194242       2.18998902      -0.46837610       1.04350344
O       -0.02751387       5.77278431       5.77931946      -0.02751387      -0.14165818      -0.13512303      -0.39910517       0.81431973       0.72421745
O        1.89657514       3.73996738       5.65561015      -0.07490568      -0.20299428      -0.25883234      -0.39524669       9.96596179      -0.94645681
O        1.99249732       6.08929490       4.06409110       0.02101649       0.17485241       0.12112945      -0.17954689      -0.87978109      -2.12834196
Sr       3.94666471       0.22540677       0.07499990       0.00370305       0.22540677       0.07499990      -1.21098162      -0.03285094      -0.47975799
Ti       6.01964050       2.16031801       2.11127341       0.10519801       0.18883718       0.13979258      -1.79158291      -5.43867638      -2.93789151
O        3.93142666       2.03412711       1.91073928      -0.01153500       0.06264628      -0.06074155      -0.61607365       0.47381093       0.06262744
O        5.65358592      -0.06505561       1.65431895      -0.26085657      -0.06505561      -0.31716188       1.13623565      -0.88918795       0.62997001
O        5.91684235       2.36723308      -0.03583596       0.00239986       0.39575226      -0.03583596      -1.32408605      -1.31327383      -0.12232606
Sr       4.07276825      -0.25598959       3.78097260       0.12980659      -0.25598959      -0.16198906      -1.33694791       1.63333361       0.56396624
Ti       5.94443567       2.00941863       6.10674013       0.02999319       0.03793780       0.19229764      -0.93751028       1.41623774      -1.88185514
O        3.84779970       2.00321534       5.82907936      -0.09516196       0.03173452      -0.08536313       1.43968552       0.52575584       0.08193105
O        5.63110556       0.19500897       6.03041726      -0.28333692       0.19500897       0.11597477       1.17932973      -2.51635178       0.10214424
O        5.78798400       2.00613169       3.78950791      -0.12645849       0.03465086      -0.15345375       0.34762622      -0.76097592       3.89609879
Sr       3.89844730       4.07508532      -0.12154736      -0.04451435       0.13212366      -0.12154736       0.39001729      -0.79886893       0.39625114
Ti       5.95322032       6.03814725       2.02004756       0.03877784       0.12370477       0.04856673      -0.60379243       0.17488719      -0.14010283
O        3.87012177       5.69734914       2.07997336      -0.07283989      -0.21709335       0.10849253       1.25627084      -0.23433203      -0.32601183
O        6.25087846       3.79547965       1.95394193       0.33643598      -0.14748201      -0.01753890      -0.37986946       7.30497367       0.77188217
O        6.04522528       5.78691846      -0.18630164       0.13078280      -0.12752403      -0.18630164       0.13207749      -0.43321264       5.39709587
Sr       3.96175005       3.86170234       3.88651417       0.01878839      -0.08125932      -0.05644749       0.30163614       0.17966029       0.35926060
Ti       5.89293009       6.03629918       6.07685051      -0.02151240       0.12185670       0.16240802      -1.95930498      -0.74670354      -5.40222686
O        3.90591180       5.80785092       6.01086892      -0.03704986      -0.10659156       0.09642644       0.61352948       0.45553098      -0.63762051
O        5.83451204       4.00913159       5.66197140      -0.07993045       0.06616993      -0.25247109      -0.05181875       0.09602637       0.34773149
O        5.93219343       6.17918160       3.86441070       0.01775095       0.26473912      -0.07855096       0.75004687      -0.55891240      -0.54663303
40
Lattice="7.885923316173801 7.69924125993921e-18 5.055437999273994e-17 -2.708415252898802e-16 7.885923316173809 1.5570874207244063e-14 -4.34152842628263e-16 1.971393687331653e-14 7.885923316173814" Properties=species:S:1:pos:R:3:u_disp:R:3:forces:R:3 system=srtio3_cubic model=mace_mp0 T=600.0 seed=0 supercell=2x2x2 source="SSCHA free-energy-Hessian ensemble (final auxiliary dyn)" index=121 pair=60 energy=-310.08859495653945 pbc="T T T"
Sr       0.10548147      -0.20037939       0.01745164       0.10548147      -0.20037939       0.01745164      -0.30467291       1.45164080      -0.14160914
Ti       2.12861628       2.11708766       1.96121560       0.15713545       0.14560683      -0.01026523      -3.24289361      -0.59914194       0.06980487
O        0.06538961       1.42923106       1.74900589       0.06538961      -0.54224977      -0.22247494      -1.10646071       2.10671615       0.39889919
O        2.45285702      -0.14486330       1.90962250       0.48137619      -0.14486330      -0.06185833      -0.52942735       0.53263186       0.20331860
O        2.16890509       2.16381468       0.16011085       0.19742426       0.19233385       0.16011085       0.05619155      -0.10834806      -1.49416806
Sr       0.21024136       0.15169902       3.72301756       0.21024136       0.15169902      -0.21994410      -3.24283163      -3.25122205      -0.06100774
Ti       1.96422553       2.07664806       5.79293025      -0.00725530       0.10516723      -0.12151224      -0.28974297      -1.46666737       0.67048426
O       -0.07268954       1.95815589       6.35702365      -0.07268954      -0.01332493       0.44258116       0.73492488      -0.24161420      -1.43307304
O        2.00722316      -0.04464512       6.21023752       0.03574233      -0.04464512       0.29579503      -0.45715647      -0.52034603      -0.33399432
O        1.68554244       1.53607015       3.98428667      -0.28593839      -0.43541068       0.04132501       3.50846620       3.65559315       1.55646300
Sr       0.04890337       3.76954484      -0.06591937       0.04890337      -0.17341682      -0.06591937       0.36057821       0.64752695       0.92820021
Ti       2.24258971       5.98023727       2.08453201       0.27110888       0.06579478       0.11305118      -4.44175839      -1.69923042      -1.53020389
O        0.02664746       6.00713654       1.81004821       0.02664746       0.09269405      -0.16143261      -1.96945325       0.08893730      -0.12764828
O        1.64010704       3.80814821       2.42856970      -0.33137379      -0.13481344       0.45708887       0.81639441       0.11117589      -0.62459559
O        2.18070120       5.30342503       0.06327521       0.20922037      -0.61101746       0.06327521      -1.65341719       2.58160274       0.36038239
Sr      -0.22257692       3.86668654       3.84426157      -0.22257692      -0.07627512      -0.09870009       4.00199810       0.59124750       4.05302033
Ti       1.53022941       5.91800472       5.91223676      -0.44125142       0.00356223      -0.00220573       6.56141565       0.31607209      -0.19353863
O       -0.10226891       5.95094304       6.11499631      -0.10226891       0.03650055       0.20055382      -4.37979152      -0.29415365       0.87571874
O        1.90297437       3.91064846       5.69196575      -0.06850646      -0.03231320      -0.22247674      -0.78450537      -0.51654996      -0.11006257
O        1.56328485       6.05786755       4.04924324      -0.40819598       0.14342506       0.10628158       1.43822378      -0.52824743      -1.06509994
Sr       3.92034006       0.09107559      -0.03501628      -0.02262160       0.09107559      -0.03501628      -2.79251976       0.33966279      -1.05687665
Ti       5.89555958       2.17159852       2.11306020      -0.01888290       0.20011769       0.14157937       0.31095626      -4.93152493      -0.56945030
O        3.89740731       2.11104579       2.23795801      -0.04555435       0.13956496       0.26647719       2.99405860       0.48755817       0.73044122
O        5.50443552       0.00603444       1.36230646      -0.41000697       0.00603444      -0.60917437       2.90130604      -2.34852804       3.34433934
O        5.65062703       2.40448357       0.02261490      -0.26381546       0.43300274       0.02261490       1.49882313      -1.19761136       1.60533859
Sr       4.11521178       0.04708988       3.93152778       0.17225012       0.04708988      -0.01143387      -0.92826773       0.87818185      -0.04623380
Ti       5.84457309       1.89022699       6.16060435      -0.06986940      -0.08125384       0.24616187       1.42086690      -0.18611222      -1.46876818
O        3.98299728       2.11978389       5.76035430       0.04003563       0.14830306      -0.15408818      -1.42923194      -0.67973116      -0.18793845
O        5.75431946       0.04657581       6.50066147      -0.16012303       0.04657581       0.58621898       0.36002932      -0.96075579      -1.61028730
O        6.11808482       1.38358895       3.97444349       0.20364234      -0.58789188       0.03148184      -0.79644881       2.35744314      -0.99409963
Sr       4.14699635       4.02057362      -0.03809147       0.20403469       0.07761196      -0.03809147      -6.11304398      -3.16453042      -0.06895238
Ti       6.04837367       6.06501897       1.85524184       0.13393118       0.15057648      -0.11623899      -0.27626738       0.98040373       0.26014272
O        3.84845166       5.38678682       2.17210798      -0.09451000      -0.52765567       0.20062715       3.41735595       0.56590619      -0.21121643
O        6.16641862       3.85979020       2.46545274       0.25197613      -0.08317146       0.49397191      -3.13998144       1.74161883      -3.29243758
O        5.58922063       5.35645799       0.00705179      -0.32522186      -0.55798450       0.00705179       4.84027854       4.97329409       0.78644946
Sr       3.87534343       4.11002969       4.05079365      -0.06761823       0.16706803       0.10783199      -0.28660289      -2.34726577      -0.24901536
Ti       5.49476782       5.87849878       5.85351589      -0.41967466      -0.03594370      -0.06092660       5.82731475       0.19844323       0.17899057
O        3.84164531       5.71871855       5.62485471      -0.10131634      -0.19572394      -0.28958778      -2.49140009       1.39656190       0.87130270
O        5.92240139       3.98692160       5.55229589       0.00795890       0.04395994      -0.36214659      -0.45502475       0.59776441       0.47284644
O        5.90111959       6.42410370       3.96632644      -0.01332289       0.50966121       0.02336478       0.06171788      -1.55840198      -0.49586536
40
Lattice="7.885923316173801 7.69924125993921e-18 5.055437999273994e-17 -2.708415252898802e-16 7.885923316173809 1.5570874207244063e-14 -4.34152842628263e-16 1.971393687331653e-14 7.885923316173814" Properties=species:S:1:pos:R:3:u_disp:R:3:forces:R:3 system=srtio3_cubic model=mace_mp0 T=600.0 seed=0 supercell=2x2x2 source="SSCHA free-energy-Hessian ensemble (final auxiliary dyn)" index=194 pair=97 energy=-314.3334507536637 pbc="T T T"
Sr      -0.01780726      -0.24092317       0.05171776      -0.01780726      -0.24092317       0.05171776       0.25442580       1.37508117       0.03313924
Ti       2.20276188       1.91466969       1.83290157       0.23128105      -0.05681114      -0.13857926      -2.50518680       0.33483767       5.24165065
O       -0.06670070       1.71751602       2.12083902      -0.06670070      -0.25396481       0.14935819       1.57458970       0.41576827      -1.29272702
O        2.12469038      -0.03500690       2.26923144       0.15320955      -0.03500690       0.29775061       0.10856157       0.20804142      -0.23771841
O        2.08521652       1.86935341       0.17370279       0.11373569      -0.10212742       0.17370279       0.07481002      -0.39877400      -4.95842448
Sr       0.03446993       0.11544256       4.02604732       0.03446993       0.11544256       0.08308566       0.05861421      -0.92417811      -0.28724572
Ti       1.84764425       1.71871840       5.78993325      -0.12383658      -0.25276243      -0.12450923       0.86134274       1.21958132       1.87101813
O       -0.00074828       1.70670049       6.48010809      -0.00074828      -0.26478034       0.56566561       0.65625387       0.48141635      -1.97473801
O        2.41113424       0.02681757       5.66099283       0.43965341       0.02681757      -0.25344965      -1.85939112       0.36501532       1.05832955
O        1.79785695       2.15820515       4.05968620      -0.17362388       0.18672432       0.11672454      -0.07468641      -0.47390574      -0.00200305
Sr       0.17472985       3.96817337       0.14280514       0.17472985       0.02521171       0.14280514      -1.06375513      -0.02724635      -0.68819055
Ti       2.06061266       5.93650472       1.98115766       0.08913183       0.02206223       0.00967683       0.18776896      -0.10102622       0.20939429
O        0.00462397       6.09176284       1.99716787       0.00462397       0.17732035       0.02568704      -0.23849933      -0.13755667      -0.20621043
O        1.72628416       3.92316006       1.96027692      -0.24519667      -0.01980160      -0.01120391       0.43957220      -0.15410700      -0.48138135
O        1.99863660       6.10708427       0.12957927       0.02715577       0.19264178       0.12957927      -0.27994436      -0.48613976      -0.97800443
Sr       0.03436733       3.73369899       3.95261064       0.03436733      -0.20926267       0.00964898      -0.30244896       0.94262291      -0.29029783
Ti       1.90565352       5.60132940       5.77809866      -0.06582731      -0.31311309      -0.13634383      -0.02229143       7.75672878      -0.43215575
O        0.00841414       6.28245358       6.06773481       0.00841414       0.36801110       0.15329232       0.21780262      -1.14848426      -0.66988327
O        1.79010793       4.01455383       6.17436220      -0.18137290       0.07159217       0.25991971      -0.97353055      -5.41712553       0.80471419
O        1.94092594       5.61780736       3.94983893      -0.03055489      -0.29663513       0.00687727      -0.42737866       0.06264734       0.42213652
Sr       3.90981863      -0.04325396      -0.03822907      -0.03314303      -0.04325396      -0.03822907      -0.34802154       0.01301271      -0.16505714
Ti       6.14733901       2.29144021       1.80246807       0.23289653       0.31995938      -0.16901276      -2.64418913     -10.12818513      -0.80631366
O        3.90431545       2.15437834       2.12195164      -0.03864621       0.18289751       0.15047081       1.87688035       0.00719660       0.59934859
O        5.68423359      -0.05573946       1.55052331      -0.23020890      -0.05573946      -0.42095752       0.34478673       1.44259827       0.54865155
O        5.54101186       2.11701519       0.05245970      -0.37343063       0.14553436       0.05245970       0.81363770       0.82229982      -1.00746152
Sr       3.97078734       0.03438733       4.00588409       0.02782568       0.03438733       0.06292243       1.11710944       0.08337178      -0.99811156
Ti       5.77955883       2.01785263       5.93110610      -0.13488366       0.04637180       0.01666362      -0.03998708       0.43871095      -0.53117146
O        3.90206253       2.37078241       5.82005024      -0.04089913       0.39930158      -0.09439224      -0.10169360      -0.72254635      -0.02325873
O        5.59358361       0.04632035       6.10588245      -0.32085887       0.04632035       0.19143996       0.36078247      -0.64370021       0.29455200
O        6.04470086       1.54742062       3.98721455       0.13025838      -0.42406021       0.04425289      -0.59194137       1.39575312       0.89125673
Sr       3.70140417       4.11455540      -0.15898160      -0.24155749       0.17159374      -0.15898160       1.47193015      -0.84047560       0.94420334
Ti       6.05889503       6.21572050       1.91569610       0.14445254       0.30127801      -0.05578473      -1.79352183      -3.47981389       0.64001392
O        3.91339062       5.66805119       1.96245686      -0.02957104      -0.24639130      -0.00902397       0.51917718       0.49036572       0.56281979
O        6.08226613       3.78323722       2.30216746       0.16782365      -0.15972444       0.33068663      -0.00575175       8.82297932       2.05561955
O        5.73499375       5.56534480      -0.00820422      -0.17944873      -0.34909768      -0.00820422       1.26033754       0.86590339       0.54657299
Sr       3.90866718       4.04129526       3.82380728      -0.03429448       0.09833361      -0.11915437       0.62866700      -0.68090489       0.20865238
Ti       5.85120259       6.00691063       5.89314565      -0.06323990       0.09246814      -0.02129683       0.63971892      -0.71308315       0.27665758
O        3.83648690       5.82389937       5.90964223      -0.10647476      -0.09054311      -0.00480026       0.76828901      -0.71753602      -0.34109214
O        6.13966698       3.96358327       5.66508992       0.22522449       0.02062161      -0.24935256      -0.17122242      -0.34382738       0.23031129
O        6.03812924       6.18292421       4.01381542       0.12368675       0.26848172       0.07085376      -0.79161669      -0.00531598      -1.06759577
40
Lattice="7.885923316173801 7.69924125993921e-18 5.055437999273994e-17 -2.708415252898802e-16 7.885923316173809 1.5570874207244063e-14 -4.34152842628263e-16 1.971393687331653e-14 7.885923316173814" Properties=species:S:1:pos:R:3:u_disp:R:3:forces:R:3 system=srtio3_cubic model=mace_mp0 T=600.0 seed=0 supercell=2x2x2 source="SSCHA free-energy-Hessian ensemble (final auxiliary dyn)" index=196 pair=98 energy=-303.2304988744104 pbc="T T T"
Sr      -0.11514515      -0.02447722       0.00382876      -0.11514515      -0.02447722       0.00382876       3.18167235       0.57379421       0.53865823
Ti       2.08476522       2.14929981       1.89090755       0.11328439       0.17781898      -0.08057328      -0.20790773      -3.05873307       1.39985610
O       -0.13621586       2.15611497       1.74910822      -0.13621586       0.18463414      -0.22237261       4.95815004       0.81144696      -0.41260771
O        1.73082203      -0.07765278       1.87917449      -0.24065879      -0.07765278      -0.09230634      -0.39616117       7.44047534       0.70725165
O        2.21564193       1.94323935       0.06948560       0.24416110      -0.02824148       0.06948560      -0.13407500       0.00885231      -0.54084358
Sr       0.03503069      -0.01118998       3.82563198       0.03503069      -0.01118998      -0.11732968       5.62569581       5.72025603      -0.63034687
Ti       2.16253056       1.96032020       5.95870162       0.19104973      -0.01116063       0.04425914      -1.03680837      -0.33770818      -0.92755791
O       -0.02918867       1.99023128       6.39286640      -0.02918867       0.01875045       0.47842391       0.82533044       1.75435012      -0.89315473
O        2.10016475       0.04941382       6.01316133       0.12868392       0.04941382       0.09871884      -0.25997801      -1.60792918      -0.09839303
O        1.58095002       1.80570643       4.04868637      -0.39053081      -0.16577440       0.10572471       1.30744581       1.54158617       0.16627546
Sr      -0.31690065       4.04648591       0.07939994      -0.31690065       0.10352425       0.07939994       0.79415251      -1.28514659      -0.90384872
Ti       1.96841218       6.22572460       1.59764044      -0.00306865       0.31128211      -0.37384039      -3.81693910      -7.37989619      11.19234629
O       -0.13962070       5.94634631       1.30440363      -0.13962070       0.03190382      -0.66707720      -0.68673887      -1.16846880       2.49455252
O        1.96644855       3.83666507       2.16540803      -0.00503228      -0.10629659       0.19392720      -0.18837272       2.73383933      -0.19621137
O        2.61509452       6.01068340       0.21966996       0.64361369       0.09624091       0.21966996       3.58010255      -1.25807254     -10.67246750
Sr       0.06644991       3.87276561       4.10739800       0.06644991      -0.07019605       0.16443634       0.12013336      -0.52132860      -1.03373903
Ti       1.76774307       5.86756296       5.64361316      -0.20373776      -0.04687953      -0.27082932       2.13952125       0.68612771       7.51848015
O        0.14623220       5.89115932       6.59801186       0.14623220      -0.02328317       0.68356937      -0.11995171      -0.60403937      -2.13697255
O        2.23123463       3.98435776       5.95535350       0.25975380       0.04139611       0.04091102      -0.94217155       0.31162847      -0.52641497
O        1.35740417       5.89762366       4.08375115      -0.61407666      -0.01681883       0.14078949      -0.17998690      -0.25342080      -5.04214890
Sr       3.94467160       0.01769964      -0.07407448       0.00170994       0.01769964      -0.07407448       0.49414813       0.94996199       0.03350504
Ti       6.16649320       1.76490412       1.97189319       0.25205071      -0.20657671       0.00041236      -7.00042408       1.91056850       1.42350144
O        3.85917702       1.78261225       2.31132481      -0.08378464      -0.18886858       0.33984398       0.07146641       0.99346728      -1.15279193
O        6.04976021       0.07716715       1.56968843       0.13531772       0.07716715      -0.40179240      -1.26251361      -1.74595941       0.26755915
O        5.48881936       2.57162223      -0.00274123      -0.42562313       0.60014140      -0.00274123       7.05699732      -6.36415061      -0.63158253
Sr       3.99210846       0.13957040       3.87469325       0.04914680       0.13957040      -0.06826841      -0.23261704      -0.18491954       0.86664245
Ti       6.14531739       1.85088438       5.86944187       0.23087491      -0.12059645      -0.04500062      -1.60910440       1.33827776       0.54380776
O        3.95191029       1.86374047       5.65054064       0.00894863      -0.10774036      -0.26390185       1.09580700       0.25640989       0.59238605
O        6.28149683       0.10866054       6.35890391       0.36705434       0.10866054       0.44446142      -4.16680875      -2.09801707      -1.95139711
O        6.18128091       1.57362453       4.02117887       0.26683842      -0.39785630       0.07821721      -0.41640103       0.79644850      -1.11960150
Sr       4.10919446       3.80488484       0.19736506       0.16623280      -0.13807682       0.19736506     -11.74161553      -1.64035936       0.99675801
Ti       5.80366468       5.68255184       1.99380388      -0.11077781      -0.23189065       0.02232305       0.26734777       2.79534650       0.17867257
O        3.79479805       6.12366969       2.59748640      -0.14816360       0.20922720       0.62600557       1.49631848      -0.81970507      -1.83960004
O        5.57888959       4.00796165       2.48173827      -0.33555290       0.06499999       0.51025744       2.42104545      -0.47029387      -1.75874365
O        5.21238541       5.31128911       0.02833065      -0.70205708      -0.60315338       0.02833065       6.78760169       8.06957899      -1.05322383
Sr       3.91315466       3.90889722       3.95510623      -0.02980700      -0.03406444       0.01214457      -1.57246552      -0.48161513       0.78481994
Ti       5.72528062       5.90362583       5.87677533      -0.18916186      -0.01081666      -0.03766716       3.26569278      -1.35412590      -0.85932033
O        4.10931073       5.96745817       5.34251154       0.16634907       0.05301569      -0.57193095      -1.70837483       1.04454893       0.75373540
O        5.92548272       4.05383673       5.16507798       0.01104023       0.11087507      -0.74936451       0.33912656       0.76088716       2.98850289
O        6.73239352       6.49328593       3.99120224       0.81795103       0.57884344       0.04824058      -8.14833978      -7.86396286       0.93365671
40
Lattice="7.885923316173801 7.69924125993921e-18 5.055437999273994e-17 -2.708415252898802e-16 7.885923316173809 1.5570874207244063e-14 -4.34152842628263e-16 1.971393687331653e-14 7.885923316173814" Properties=species:S:1:pos:R:3:u_disp:R:3:forces:R:3 system=srtio3_cubic model=mace_mp0 T=600.0 seed=0 supercell=2x2x2 source="SSCHA free-energy-Hessian ensemble (final auxiliary dyn)" index=223 pair=111 energy=-315.6249790422223 pbc="T T T"
Sr      -0.10583592      -0.10671049      -0.10587983      -0.10583592      -0.10671049      -0.10587983       2.33550596       0.24582879      -0.02920341
Ti       2.05864634       2.17909533       1.88706410       0.08716551       0.20761451      -0.08441673       0.08307250      -6.32105570       0.98889399
O        0.16198443       1.72536863       2.11322481       0.16198443      -0.24611220       0.14174398      -1.82204702       0.96983753      -0.21714187
O        1.93153243      -0.13688208       2.04726824      -0.03994839      -0.13688208       0.07578741       0.01186388       2.96820519      -0.50150314
O        1.99051294       2.03441606       0.00736265       0.01903211       0.06293523       0.00736265      -0.66734506      -0.10194854      -1.49639101
Sr      -0.00994055       0.01396612       3.87135711      -0.00994055       0.01396612      -0.07160455       0.26635287       0.06438125       0.33216397
Ti       1.85682034       1.93313279       5.77883301      -0.11466049      -0.03834804      -0.13560948       0.77949251       0.24791711      -0.24558017
O        0.09368846       1.75758688       5.57742604       0.09368846      -0.21389395      -0.33701644      -0.04614776       0.82368974       0.58703568
O        1.94171986      -0.04304889       6.01750029      -0.02976097      -0.04304889       0.10305781       0.74838760      -0.36064139      -0.28216923
O        2.43211479       1.94956080       3.86228548       0.46063396      -0.02192003      -0.08067618      -0.76073358      -0.49967970       2.01319607
Sr      -0.09287070       3.86518546      -0.04752999      -0.09287070      -0.07777620      -0.04752999       0.63294310       0.06226016       0.36600544
Ti       2.07133809       6.09258302       2.01668754       0.09985726       0.17814053       0.04520671       0.05116637      -5.12511047      -0.71401846
O       -0.06229683       5.65028409       2.27936775      -0.06229683      -0.26415840       0.30788692       0.26908636       2.14625942      -1.89517892
O        1.89746745       3.78822448       2.06935900      -0.07401338      -0.15473718       0.09787817       0.03505049       5.62719590       0.03685542
O        1.50617662       5.66186561      -0.05093311      -0.46530420      -0.25257687      -0.05093311       1.06416213       0.88107514       0.13849827
Sr       0.08973509       4.26783276       3.91559582       0.08973509       0.32487110      -0.02736584      -0.20813406      -3.25604498       1.43599951
Ti       1.84997382       5.91077405       5.91517230      -0.12150701      -0.00366844       0.00072982       0.22408017      -0.21261464       0.72936654
O        0.02429354       5.93207483       5.55121328       0.02429354       0.01763234      -0.36322921      -0.39680478       0.15438214       0.68046619
O        2.02135938       3.91069964       5.83331191       0.04987855      -0.03226202      -0.08113058      -0.23642009      -0.62789599       0.11190603
O        2.11042902       5.80603701       3.88677928       0.13894819      -0.10840548      -0.05618238       0.64719475       0.64481523       0.38873284
Sr       3.82381106       0.04653136       0.15684688      -0.11915059       0.04653136       0.15684688       0.55609670      -0.48663164      -1.26858884
Ti       6.04726911       2.03800798       2.05216171       0.13282662       0.06652715       0.08068088      -0.47525851      -1.33715686       0.28256760
O        4.00081074       1.63970155       1.75500414       0.05784908      -0.33177927      -0.21647669       0.89823223       1.66825580       0.67971787
O        5.94545749      -0.07093144       2.31498808       0.03101500      -0.07093144       0.34350725       0.17026755      -1.13705145      -0.37637297
O        6.22794756       1.43321507      -0.07354260       0.31350507      -0.53826575      -0.07354260      -1.16412486       2.18718822       0.72927076
Sr       4.06533036       0.10990319       3.91270581       0.12236870       0.10990319      -0.03025584      -0.38666336      -0.02853826       0.10949957
Ti       5.79854495       2.05357005       6.06690052      -0.11589753       0.08208922       0.15245804       2.85831291      -2.55798595      -0.90345804
O        4.10545223       1.78837332       6.21614736       0.16249057      -0.18310751       0.30170487      -2.80075092       0.50741509      -0.52211774
O        5.90360115      -0.12647930       5.63612144      -0.01084134      -0.12647930      -0.27832105       0.05868121      -0.01352638      -0.19695098
O        5.78436876       2.29987013       3.97303159      -0.13007373       0.32838930       0.03006993       0.57394950      -1.35554737      -0.96740072
Sr       3.72225158       3.89061669       0.01254187      -0.22071008      -0.05234497       0.01254187       0.42261871       0.18548790      -0.29771577
Ti       6.05159051       5.96300436       1.94352891       0.13714803       0.04856187      -0.02795192      -1.46822246      -0.16525259      -0.02182197
O        3.87601682       5.73769632       1.50977822      -0.06694483      -0.17674617      -0.46170261       0.05397935       1.05273395       1.17996077
O        5.90196458       3.77320444       1.64369561      -0.01247790      -0.16975722      -0.32778522       0.06793532       0.69808343      -0.16444420
O        6.26351655       6.10341059       0.04287851       0.34907406       0.18896810       0.04287851      -1.06583781      -0.99343610      -0.29182741
Sr       4.12495150       3.93255946       4.11835591       0.18198984      -0.01040220       0.17539425      -2.60266865      -0.80119238      -0.40348661
Ti       5.78869323       5.98294188       5.89451140      -0.12574926       0.06849939      -0.01993108       0.76412950      -0.21319889      -0.04592106
O        3.99452618       5.79041865       6.17642055       0.05156452      -0.12402384       0.26197806      -0.50543861       0.14501475      -0.11066465
O        6.08762109       3.79365341       6.16670654       0.17317861      -0.14930825       0.25226405      -0.58473298       2.24288909       0.27540977
O        5.62691303       5.47921409       3.93007660      -0.28752946      -0.43522840      -0.01288506       1.61876881       2.07159345      -0.11358913
40
Lattice="7.885923316173801 7.69924125993921e-18 5.055437999273994e-17 -2.708415252898802e-16 7.885923316173809 1.5570874207244063e-14 -4.34152842628263e-16 1.971393687331653e-14 7.885923316173814" Properties=species:S:1:pos:R:3:u_disp:R:3:forces:R:3 system=srtio3_cubic model=mace_mp0 T=600.0 seed=0 supercell=2x2x2 source="SSCHA free-energy-Hessian ensemble (final auxiliary dyn)" index=261 pair=130 energy=-306.923269371403 pbc="T T T"
Sr      -0.10856080      -0.08477155       0.18945554      -0.10856080      -0.08477155       0.18945554       1.35199967       0.74291458      -1.28662419
Ti       1.99879647       2.02660185       1.91807860       0.02731564       0.05512102      -0.05340223      -0.08007255      -1.96048543       0.42274851
O        0.06786072       1.78031569       2.05663435       0.06786072      -0.19116514       0.08515352       0.23003324       0.66964651      -0.87600897
O        2.27310552       0.01477937       1.82831913       0.30162469       0.01477937      -0.14316170      -1.36792374      -0.62376594       0.09032186
O        2.01047634       2.06070565      -0.05987211       0.03899551       0.08922482      -0.05987211      -0.63941576      -0.52530718      -0.71701523
Sr      -0.09243412      -0.00320360       3.96465730      -0.09243412      -0.00320360       0.02169564       0.17815835       5.31476580      -5.23944991
Ti       1.81005884       1.94642288       5.86821426      -0.16142199      -0.02505795      -0.04622823       3.21454224      -1.14244504       0.15434254
O        0.10379139       1.58468621       5.60072420       0.10379139      -0.38679462      -0.31371829      -1.27969260       0.52154340       1.42172128
O        2.44558593       0.00906319       5.87372762       0.47410510       0.00906319      -0.04071487      -1.29842472       0.59029826      -0.13391143
O        2.19537812       2.04419282       3.89834908       0.22389729       0.07271199      -0.04461258      -0.82557224       0.42053191      -0.59200363
Sr       0.04151482       3.87888988       0.23250223       0.04151482      -0.06407178       0.23250223       0.20100914      -0.93170450      -1.53913189
Ti       1.63390296       5.89033425       2.00193899      -0.33757787      -0.02410824       0.03045817      16.39388667       0.72901301      -3.17293843
O        0.16495681       5.94060002       2.34494292       0.16495681       0.02615753       0.37346209     -13.43595783       0.76629903       2.55348429
O        1.89377573       3.95336224       1.74551823      -0.07770510       0.01040058      -0.22596260       0.27643909       0.72697218       1.21537208
O        1.50280038       5.95225203      -0.16691414      -0.46868045       0.03780954      -0.16691414       0.41341994       0.28989457       0.75063196
Sr       0.01670782       3.97118341       4.01430917       0.01670782       0.02822175       0.07134751       0.62722250      -0.70465299      -1.01748007
Ti       2.02039709       5.81278718       5.93230188       0.04891626      -0.10165530       0.01785939       1.26866908       2.73393577       0.32899908
O       -0.08363580       6.46140953       5.19815460      -0.08363580       0.54696704      -0.71628789       0.57620862      -7.37818606       6.22280212
O        1.74872855       4.04273737       5.99651502      -0.22275228       0.09977571       0.08207253      -0.58984904      -1.46431268      -1.29218329
O        2.50192390       5.97142763       3.79075566       0.53044307       0.05698514      -0.15220600      -1.80215908      -1.45275929       0.22474345
Sr       3.90099649       0.22070449      -0.10445654      -0.04196516       0.22070449      -0.10445654      -1.22582126      -0.60666087       0.16543017
Ti       5.86421214       2.25956248       2.13786782      -0.05023035       0.28808165       0.16638699      -0.39524778      -8.16112431      -4.26925854
O        4.00362929       2.00215283       1.76519799       0.06066763       0.03067200      -0.20628284       0.57331127       0.83545654       0.29869482
O        5.86534342      -0.15240552       1.63946336      -0.04909907      -0.15240552      -0.33201747       1.15380453      10.83028220      -0.92888302
O        6.19795939       1.81193576      -0.16540944       0.28351690      -0.15954507      -0.16540944       0.46796814       0.77479933       5.94644395
Sr       3.98406249      -0.12648932       3.86957814       0.04110083      -0.12648932      -0.07338351      -0.85378864       1.46363720       0.91846161
Ti       5.82173259       1.73407537       6.13167106      -0.09270990      -0.23740546       0.21722858      -1.44598799       1.51433948      -8.18200993
O        3.99162196       2.37608558       5.68876933       0.04866030       0.40460475      -0.22567315       1.70541368      -1.25640136       2.46743629
O        5.55213897      -0.07930722       5.89326439      -0.36230352      -0.07930722      -0.02117810       0.93275898       0.20968158       0.21063154
O        5.92712065       1.88122090       3.74603908       0.01267817      -0.09025993      -0.19692258      -0.24013220      -0.63735669       4.85305867
Sr       4.09333612       4.19115671       0.14507872       0.15037446       0.24819505       0.14507872      -0.74181784      -6.96662617      -4.52989094
Ti       5.56378868       6.23359746       1.88067845      -0.35065381       0.31915497      -0.09080238       2.44999347     -13.40852950       2.91280220
O        4.02275189       5.68993681       1.33116798       0.07979023      -0.22450567      -0.64031285      -1.82731346       5.82088548       3.81357800
O        6.12399239       3.83506534       1.91442507       0.20954990      -0.10789632      -0.05705576       0.63165119       7.69899850      -0.53725519
O        6.58712649       5.70070547      -0.14547943       0.67268400      -0.21373701      -0.14547943      -2.16451403       1.04099361      -0.00100016
Sr       3.90090833       3.85968357       3.96002575      -0.04205333      -0.08327809       0.01706409       0.00492035       0.52857053      -0.19597213
Ti       6.07014999       5.63571139       5.82228067       0.15570751      -0.27873109      -0.09216182      -0.51677320       1.06343753       0.77085312
O        4.01980816       5.67136448       6.27897641       0.07684650      -0.24307800       0.36453392       0.24050215      -0.10142010      -1.40573672
O        6.54754550       3.74313761       5.77369590       0.63310302      -0.19982405      -0.14074659      -1.79596014       1.85958806       0.93665304
O        5.66463877       5.83655226       3.85098329      -0.24980372      -0.07789023      -0.09197836      -0.36548822       0.17525301      -0.76245691
40
Lattice="7.885923316173801 7.69924125993921e-18 5.055437999273994e-17 -2.708415252898802e-16 7.885923316173809 1.5570874207244063e-14 -4.34152842628263e-16 1.971393687331653e-14 7.885923316173814" Properties=species:S:1:pos:R:3:u_disp:R:3:forces:R:3 system=srtio3_cubic model=mace_mp0 T=600.0 seed=0 supercell=2x2x2 source="SSCHA free-energy-Hessian ensemble (final auxiliary dyn)" index=265 pair=132 energy=-297.4163323415553 pbc="T T T"
Sr       0.13662979       0.25805790      -0.07949083       0.13662979       0.25805790      -0.07949083      -0.27337773      -1.35260267      -0.08150445
Ti       1.81613925       2.12749702       2.14015741      -0.15534158       0.15601619       0.16867658      -0.03117299      -2.11041304       0.30632614
O        0.10311492       1.94587714       1.45728110       0.10311492      -0.02560369      -0.51419973       0.01898240       1.36822167       1.51049739
O        2.09375647       0.06124638       1.36638007       0.12227564       0.06124638      -0.60510076      -0.31400988      -0.96838606       2.25938775
O        2.34342681       2.69673283      -0.14638197       0.37194599       0.72525200      -0.14638197      -7.22618595      -6.28375992       0.17446380
Sr      -0.10060968      -0.15956868       3.94218241      -0.10060968      -0.15956868      -0.00077925      13.96123386       6.78560155       1.07843626
Ti       2.01255072       2.19151509       6.04399189       0.04106989       0.22003426       0.12954940      -0.97088713      -1.03392613      -1.52425095
O        0.04711127       2.24790629       6.24259681       0.04711127       0.27642546       0.32815432      -0.89949891      -0.15222468      -0.50457066
O        2.05741600       0.09600761       6.35923531       0.08593517       0.09600761       0.44479282      -0.13949634      -0.59400647      -0.96092274
O        1.66053061       1.61829198       3.87703107      -0.31095022      -0.35318885      -0.06593059       1.07886661       1.31038840      -0.66239397
Sr       0.12104091       3.96732195       0.15628128       0.12104091       0.02436029       0.15628128      -0.81903160       0.03997278      -0.40191494
Ti       1.87114935       5.96023239       2.04566136      -0.10033148       0.04578990       0.07418053       0.30958620       1.38259341       1.41879542
O        0.11604473       5.96042175       1.45897699       0.11604473       0.04597927      -0.51250384      -0.64718087       0.38886862       1.24601009
O        1.89398858       3.98838367       2.49172793      -0.07749225       0.04542201       0.52024710      -0.55374343       0.25614315      -1.89326220
O        2.35001782       5.12229696      -0.14605961       0.37853699      -0.79214553      -0.14605961      -3.18574273       5.59535987      -0.30740750
Sr      -0.04458903       3.80696140       4.14947829      -0.04458903      -0.13600026       0.20651663       1.26589429      -0.60706636      -1.12693268
Ti       2.12503445       5.93189675       6.06915790       0.15355362       0.01745426       0.15471541       0.27045611      -0.01343864      -1.34513740
O       -0.00581754       5.85609574       6.43494248      -0.00581754      -0.05834675       0.52049999      -0.82126284       0.00030127      -1.91103958
O        1.96122827       4.05739661       5.21553533      -0.01025256       0.11443496      -0.69890716       0.54118609       0.18680461       3.04148375
O        1.64592992       6.56305887       3.92412438      -0.32555091       0.64861638      -0.01883728       3.61517634      -3.87824506      -1.74606525
Sr       3.87811483      -0.05314555       0.01717915      -0.06484683      -0.05314555       0.01717915       0.78106391      -0.16570937      -0.89142630
Ti       5.77392360       1.99073498       1.88287038      -0.14051889       0.01925415      -0.08861045       2.61669040      -0.79953134      -0.47796695
O        4.02898613       1.96068876       2.22199179       0.08602447      -0.01079207       0.25051096      -1.21414224       0.22945259       0.06775414
O        5.92542497       0.15636466       1.13073368       0.01098248       0.15636466      -0.84074715      -0.41546593      -0.15271801       3.08622309
O        5.38197418       2.76753539       0.01826891      -0.53246831       0.79605456       0.01826891      10.69689512      -8.52687708      -0.00529089
Sr       3.97015801      -0.03776165       3.87695610       0.02719635      -0.03776165      -0.06600556      -0.71066088       0.19142645       0.08511700
Ti       5.84661295       1.89378905       5.85633690      -0.06782954      -0.07769178      -0.05810559       0.84019567      -0.50827471       0.07407203
O        3.89788810       2.02086158       5.64420407      -0.04507356       0.04938075      -0.27023841       1.68396639      -0.47573470      -0.03271898
O        5.95276971       0.11539918       6.52756188       0.03832723       0.11539918       0.61311939      -0.34945610       0.86535244      -2.72856537
O        6.52423027       1.33986125       3.84279730       0.60978779      -0.63161958      -0.10016436      -5.93736679       6.39187564       0.33105463
Sr       3.89568524       3.74652168      -0.02320595      -0.04727642      -0.19643997      -0.02320595      -2.19664327       6.28589686       1.10014570
Ti       5.86145812       5.84822146       1.87768583      -0.05298437      -0.06622102      -0.09379500      -0.47519887      -1.41575374      -0.18097545
O        3.99490667       5.76422180       2.36268309       0.05194501      -0.15022069       0.39120226       0.87824874       1.35976418      -1.29293139
O        6.16625960       4.02243555       2.54369068       0.25181711       0.07947390       0.57220985      -0.73827110       0.69219313      -3.18869250
O        5.40910159       5.14037857      -0.06396991      -0.50534090      -0.77406391      -0.06396991       4.82000542       5.80389683      -0.14724543
Sr       3.86060362       3.83869445       3.94355105      -0.08235804      -0.10426721       0.00058939      -0.79677300       0.66677587      -1.30369544
Ti       6.05587011       5.82038240       5.87647082       0.14142762      -0.09406009      -0.03797166      -1.79814397      -0.54375075       0.53355895
O        4.01311852       6.09598898       5.42717256       0.07015686       0.18154649      -0.48726993      -0.29751287      -0.56676123       1.78274753
O        5.78302011       3.99826561       4.89290708      -0.13142237       0.05530395      -1.02153541       1.40287561       1.29033166       5.28716403
O        6.35638747       6.82031432       3.87587905       0.44194498       0.90587183      -0.06708261     -13.97009774     -10.94204101      -0.66832665
40
Lattice="7.885923316173801 7.69924125993921e-18 5.055437999273994e-17 -2.708415252898802e-16 7.885923316173809 1.5570874207244063e-14 -4.34152842628263e-16 1.971393687331653e-14 7.885923316173814" Properties=species:S:1:pos:R:3:u_disp:R:3:forces:R:3 system=srtio3_cubic model=mace_mp0 T=600.0 seed=0 supercell=2x2x2 source="SSCHA free-energy-Hessian ensemble (final auxiliary dyn)" index=285 pair=142 energy=-307.74564966311846 pbc="T T T"
Sr       0.22711750      -0.06077675      -0.06779272       0.22711750      -0.06077675      -0.06779272      -0.43686400       0.67748261       0.40532105
Ti       1.83018912       2.06692136       2.06019684      -0.14129171       0.09544053       0.08871601       3.22615698       1.18046055      -1.23110062
O        0.11485902       1.79385295       1.82436101       0.11485902      -0.17762788      -0.14711982      -2.22395938      -0.97049888       0.19878097
O        2.23455286      -0.12649153       1.92434040       0.26307203      -0.12649153      -0.04714043      -0.01923189       2.59508461      -0.64993176
O        2.15336748       2.03990324      -0.04445707       0.18188665       0.06842242      -0.04445707      -1.28946984      -0.72614347      -0.90589543
Sr      -0.13090969      -0.07189687       3.98521151      -0.13090969      -0.07189687       0.04224985      -0.83933691      13.38721790     -14.04834959
Ti       1.96799128       2.03350280       5.88891861      -0.00348955       0.06202198      -0.02552388       1.01108290       0.91007774       1.01454434
O        0.20756557       1.62750555       5.73054914       0.20756557      -0.34397528      -0.18389335      -0.93269244       0.45515662       0.84270190
O        2.50763253       0.10853076       5.91687058       0.53615170       0.10853076       0.00242809      -2.39563979      -1.10708712       2.34454859
O        2.33764466       1.96765438       3.90006119       0.36616383      -0.00382645      -0.04290047      -1.49496506       0.07910837      -0.02826068
Sr       0.01398978       3.79481496       0.08282858       0.01398978      -0.14814670       0.08282858       0.60593298      -0.60580866      -0.83355829
Ti       1.96763626       6.03551058       2.19143445      -0.00384457       0.12106809       0.21995362       0.34269780      -3.21860128      -1.02886065
O       -0.07021041       6.23678276       2.37868363      -0.07021041       0.32234027       0.40720280       0.47983039      -1.22071361      -2.08559276
O        1.77797229       3.92518228       1.88469209      -0.19350854      -0.01777938      -0.08678873      -0.85939553      -0.79438751       1.28488221
O        1.45034026       5.64008662      -0.11938198      -0.52114057      -0.27435586      -0.11938198       0.59291837       2.63516416       0.10118557
Sr      -0.16344733       4.15249311       3.80911701      -0.16344733       0.20953146      -0.13384465       0.89015470      -0.16465427      -0.36586944
Ti       2.03966304       5.87399578       6.09092285       0.06818221      -0.04044670       0.17648037       1.42746752      -1.66263072      -1.91251775
O       -0.07734449       6.73707604       5.22443281      -0.07734449       0.82263355      -0.69000968       0.61021052     -13.86021640      15.92892020
O        1.61687435       4.12209349       5.75894700      -0.35460647       0.17913183      -0.15549549       0.28486152      -1.12798272      -0.37003105
O        2.39266582       5.85188651       3.89317532       0.42118499      -0.06255598      -0.04978634      -0.74581462       0.60874856       1.10093078
Sr       3.88494196      -0.00051181       0.02730357      -0.05801970      -0.00051181       0.02730357       0.51124819       0.44594086       0.62142904
Ti       5.89690556       1.87750788       1.93673881      -0.01753693      -0.09397295      -0.03474202      -1.09874158       0.35558432      -0.67938093
O        3.98007303       2.42587913       1.70607872       0.03711137       0.45439830      -0.26540211       1.44472588      -4.43127907       4.22990647
O        5.50933707      -0.04118904       2.01628065      -0.40510541      -0.04118904       0.04479982       0.74198008       2.01650228      -0.87145586
O        6.02938409       2.17388207      -0.03931328       0.11494160       0.20240124      -0.03931328       0.39047181      -1.73417725      -0.48689608
Sr       3.78123657       0.14590922       4.21906920      -0.16172509       0.14590922       0.27610754       2.28019231      -1.38199318      -3.32652920
Ti       5.95135885       1.87884981       5.85878399       0.03691636      -0.09263102      -0.05565850       0.09563681       7.23293385       0.90399385
O        4.13046175       2.52132828       5.93302532       0.18750009       0.54984745       0.01858284       0.18608487      -1.37000738      -1.00114814
O        5.59714476       0.27995320       5.84633237      -0.31729772       0.27995320      -0.06811012      -0.54401196      -5.86330574       0.18294157
O        5.99701401       2.31533821       3.77018279       0.08257152       0.34385738      -0.17277887      -0.11019146      -1.36072493       0.62563912
Sr       3.99617566       3.78109878       0.21143442       0.05321400      -0.16186288       0.21143442      -0.14872038       0.77463989      -5.22197252
Ti       5.87108009       5.88518164       1.79613506      -0.04336240      -0.02926085      -0.17534577      -0.86434690      -0.57203259       4.18931977
O        3.78802646       5.43200682       1.51495180      -0.15493520      -0.48243567      -0.45652903       1.02053271       3.77118169       1.97255482
O        6.36393230       4.00805696       1.76496345       0.44948981       0.06509531      -0.20651737      -1.62228807       1.01746449       0.66413243
O        6.12263589       6.10323142      -0.06187983       0.20819341       0.18878893      -0.06187983       0.69295899       0.57075825      -0.91174589
Sr       3.93685098       3.74961989       3.77593708      -0.00611067      -0.19334177      -0.16702457       0.30652856       2.04909649       0.45195680
Ti       5.97271673       5.80125950       6.02368260       0.05827424      -0.11318299       0.10924011      -1.40833990      -1.66653864      -3.02184740
O        4.02033720       5.47449848       6.15277137       0.07737555      -0.43994400       0.23832889       0.13661216       1.84636866       0.10029466
O        6.64211352       4.06515344       5.81949581       0.72767104       0.12219178      -0.09494668      -1.56642834       2.16121192       1.18149379
O        5.40804919       5.98863251       3.77158157      -0.50639330       0.07419002      -0.17138009       1.32215198      -0.93140041       0.63546611
40
Lattice="7.885923316173801 7.69924125993921e-18 5.055437999273994e-17 -2.708415252898802e-16 7.885923316173809 1.5570874207244063e-14 -4.34152842628263e-16 1.971393687331653e-14 7.885923316173814" Properties=species:S:1:pos:R:3:u_disp:R:3:forces:R:3 system=srtio3_cubic model=mace_mp0 T=600.0 seed=0 supercell=2x2x2 source="SSCHA free-energy-Hessian ensemble (final auxiliary dyn)" index=351 pair=175 energy=-314.20794778082825 pbc="T T T"
Sr      -0.00524984      -0.09136759      -0.10109595      -0.00524984      -0.09136759      -0.10109595       0.00142249       0.07743959       0.46444150
Ti       2.07932969       1.99636084       2.02056330       0.10784886       0.02488001       0.04908247      -1.65702101       0.03499486       0.96823856
O        0.12388671       1.84756560       2.42284596       0.12388671      -0.12391523       0.45136513      -0.22380292       1.43482857      -0.40892678
O        1.97275303      -0.01678565       1.92299008       0.00127220      -0.01678565      -0.04849075       0.58283616      -0.05248715       0.09147662
O        1.65752399       2.13562927       0.07032565      -0.31395684       0.16414844       0.07032565       0.58728393      -0.45499036      -1.19133768
Sr      -0.20734767      -0.18029668       3.84398847      -0.20734767      -0.18029668      -0.09897319       0.77722992       0.29047232       0.01607233
Ti       1.72145867       1.76589318       5.97932566      -0.25002215      -0.20558764       0.06488317      13.29361348       1.53128581       2.14311458
O        0.24070287       1.63514432       5.60749170       0.24070287      -0.33633650      -0.30695079     -11.72014505      -0.85661645      -2.47974904
O        2.41620033       0.04279956       6.13141951       0.44471950       0.04279956       0.21697702      -1.89687889       1.39653321      -1.48460271
O        2.56700964       1.98654855       3.94680074       0.59552881       0.01506772       0.00383908      -2.16788912       0.84746710       0.91303402
Sr       0.17080407       3.99763554       0.17684425       0.17080407       0.05467388       0.17684425      -1.32947080       0.37908193       0.43433390
Ti       1.98433667       5.93076618       1.98619956       0.01285584       0.01632370       0.01471873      -1.22700557       0.10736505       0.63278988
O        0.12689393       5.66909400       2.37798159       0.12689393      -0.24534849       0.40650076       0.26525490       1.25299293      -0.98371884
O        2.14867938       3.93977048       2.20603117       0.17719855      -0.00319117       0.23455034      -0.42909373       0.76945083      -0.71675426
O        1.70860024       5.94921280       0.03670225      -0.26288059       0.03477031       0.03670225       0.50584074      -0.64673358       0.69563157
Sr       0.06734496       3.93944082       3.95669839       0.06734496      -0.00352084       0.01373674       0.05747696      -0.38314348      -0.80356095
Ti       1.96094194       5.66115513       5.91776114      -0.01053889      -0.25328736       0.00331866       0.26153971       8.96808792       0.32161369
O        0.13398441       6.16367170       5.66414362       0.13398441       0.24922922      -0.25029887      -1.28388247      -0.02221981       0.61620928
O        1.83143292       4.05909370       5.77254949      -0.14004791       0.11613204      -0.14189300      -0.81026488      -8.19130345      -0.05363269
O        2.28347219       6.08111597       4.07452645       0.31199136       0.16667348       0.13156479       0.15348255      -0.45188206      -1.35341542
Sr       3.82787896      -0.02412788      -0.13425084      -0.11508270      -0.02412788      -0.13425084       1.19721412      -0.40050209       1.50725050
Ti       5.89405824       1.98828385       1.97420140      -0.02038425       0.01680302       0.00272057       1.01328765       1.07653860      -0.16029829
O        3.93636082       2.15957600       1.64696585      -0.00660083       0.18809517      -0.32451498       1.79056476      -1.85295981       0.11040149
O        6.23381018       0.05004329       1.94628266       0.31936769       0.05004329      -0.02519817      -1.55510246      -0.39731902      -0.71377340
O        6.25737442       2.22972189       0.04331903       0.34293194       0.25824106       0.04331903      -0.18457280      -0.92713840      -0.64371156
Sr       3.83396808       0.19967701       3.88626469      -0.10899358       0.19967701      -0.05669697       0.50157315      -2.19121769       0.44224387
Ti       5.77329510       1.95910454       5.92900829      -0.14114739      -0.01237629       0.01456580       1.51216216      -1.01661707      -0.24029136
O        4.14013786       2.45310902       6.22739991       0.19717621       0.48162819       0.31295742      -1.20380416      -1.90607667      -1.95314820
O        5.68647188       0.05783316       6.00931915      -0.22797060       0.05783316       0.09487666       0.38220410       0.96114773       0.47867576
O        5.58631352       1.81866891       3.97991814      -0.32812896      -0.15281191       0.03695648       0.98211520       1.26406870      -0.08648467
Sr       4.02748451       3.84722425      -0.09518902       0.08452286      -0.09573740      -0.09518902      -0.19617972       2.05367236       3.34365166
Ti       5.77207134       6.01764893       1.91263405      -0.14237115       0.10320644      -0.05884678       2.26191663      -1.13043274      -0.11872732
O        4.02061011       5.96716161       1.70010737       0.07764845       0.05271912      -0.27137345      -1.11230128       0.13688645       0.08337313
O        6.02723963       3.97837763       2.01387474       0.11279714       0.03541597       0.04239391      -0.45540754      -0.09486975       0.68370522
O        6.23779943       5.99021643       0.04302465       0.32335694       0.07577394       0.04302465      -0.55505658      -0.38747704      -0.14985182
Sr       3.90350021       4.06866740       4.04610306      -0.03946145       0.12570575       0.10314141       0.23889931      -0.43287652      -0.73811209
Ti       5.85188065       5.83391959       5.85306021      -0.06256183      -0.08052290      -0.06138228       0.08340216       1.82871823       0.61882580
O        3.92068005       5.61656391       6.22691087      -0.02228160      -0.29787858       0.31246839       1.80477025       0.26297200      -0.32168810
O        6.39555272       4.12822857       5.75760376       0.48111023       0.18526691      -0.15683873      -0.89783539      -2.15200751       0.36452500
O        5.56104791       6.16749665       3.99790789      -0.35339458       0.25305417       0.05494623       0.65162404      -0.72513352      -0.32782319
40
Lattice="7.885923316173801 7.69924125993921e-18 5.055437999273994e-17 -2.708415252898802e-16 7.885923316173809 1.5570874207244063e-14 -4.34152842628263e-16 1.971393687331653e-14 7.885923316173814" Properties=species:S:1:pos:R:3:u_disp:R:3:forces:R:3 system=srtio3_cubic model=mace_mp0 T=600.0 seed=0 supercell=2x2x2 source="SSCHA free-energy-Hessian ensemble (final auxiliary dyn)" index=379 pair=189 energy=-316.6599259468018 pbc="T T T"
Sr      -0.04982337       0.03908294      -0.03700683      -0.04982337       0.03908294      -0.03700683      -0.22547041      -0.38621690       0.14480618
Ti       1.79593000       1.88530649       1.86804529      -0.17555083      -0.08617434      -0.10343554       1.74883189      -0.02731959       2.29434675
O       -0.07297716       1.94837116       1.97133168      -0.07297716      -0.02310967      -0.00014915      -0.38970660       0.36064258       0.36096101
O        1.89978656       0.03709294       2.60573023      -0.07169427       0.03709294       0.63424941       0.35703437       0.09303879      -2.39675622
O        1.90340341       1.60339574       0.17654769      -0.06807741      -0.36808509       0.17654769       0.14238897      -0.07004262      -2.01023459
Sr       0.07098318      -0.03996839       3.83095389       0.07098318      -0.03996839      -0.11200777      -1.66919589      -0.11905496       1.06426420
Ti       1.90105628       1.89162345       5.86294334      -0.07042455      -0.07985738      -0.05149915       1.70459508       1.05482505       0.41927209
O        0.05249126       2.00301997       5.93921616       0.05249126       0.03153914       0.02477367      -1.45408912       0.32983515       1.36596388
O        1.91430059       0.07693296       5.54816637      -0.05718024       0.07693296      -0.36627612       0.11157309      -1.36331964       0.63245405
O        1.66506333       2.41194760       4.16486894      -0.30641750       0.44046677       0.22190728       2.65566799      -1.02681917      -1.38810918
Sr       0.05812714       4.00757004      -0.08170494       0.05812714       0.06460838      -0.08170494      -0.73800916      -0.25928987       0.34627703
Ti       1.96981469       5.85927804       1.80398547      -0.00166614      -0.05516444      -0.16749536      -0.66805848       0.84113804       0.29842775
O       -0.00662283       5.80823376       1.74565961      -0.00662283      -0.10620873      -0.22582122       0.35204395       0.35343312       0.27635251
O        2.08616242       4.00833566       1.68378259       0.11468159       0.06537400      -0.28769824      -0.99153654      -0.77990920       0.47047307
O        2.23218066       6.36188033       0.02003541       0.26069983       0.44743784       0.02003541      -0.69035573      -0.51574457       0.62141696
Sr       0.11828218       3.91143079       3.85275447       0.11828218      -0.03153087      -0.09020718      -2.07002751       0.40641711      -0.34020149
Ti       2.01465027       5.91238773       5.81976564       0.04316944      -0.00205476      -0.09467685       0.02565068      -0.61503596       1.03737370
O       -0.01197563       6.07374487       6.21283206      -0.01197563       0.15930238       0.29838957       0.36939859      -0.67060867      -0.63542705
O        2.01920840       4.03609940       6.50140190       0.04772757       0.09313774       0.58695941       0.02621549       0.60248556      -1.54936132
O        1.78836343       5.49213797       4.03419244      -0.18311740      -0.42230451       0.09123078       0.71522298       1.08373106       0.48644965
Sr       4.18624151      -0.09812247       0.01271652       0.24327985      -0.09812247       0.01271652      -2.19094505       2.21330033      -0.50426231
Ti       5.78811487       2.04409532       2.08536599      -0.12632761       0.07261449       0.11388516      -0.49671475      -1.13948710      -0.43373715
O        3.82972907       1.96883562       2.19160841      -0.11323259      -0.00264521       0.22012758       0.75548763      -0.02606669      -0.26264927
O        5.88249291      -0.10113380       2.44489672      -0.03194958      -0.10113380       0.47341590      -0.11002303       0.45928370      -0.81041834
O        5.83406575       1.62921239       0.06124317      -0.08037674      -0.34226844       0.06124317       0.51075870       0.87813086       1.43018285
Sr       3.81596017      -0.00761766       3.92727237      -0.12700149      -0.00761766      -0.01568929       1.13535453       0.42337789       0.26947584
Ti       5.95056931       1.90143750       5.96272792       0.03612683      -0.07004333       0.04828543      -1.24245870       1.43000710       0.48046349
O        3.96933630       1.94434566       5.96031620       0.02637464      -0.02713517       0.04587371      -1.24914133       0.13358737      -0.05065133
O        5.99257201       0.12780649       5.80155672       0.07812953       0.12780649      -0.11288577       0.15644315      -2.44309445      -0.48500159
O        5.81113085       2.28920661       4.10476818      -0.10331164       0.31772578       0.16180652       0.74859403       0.03831164      -1.71730958
Sr       3.91488616       4.05675798       0.08176404      -0.02807550       0.11379633       0.08176404       0.28125699      -0.76964307      -0.76216051
Ti       5.80332870       5.88145706       1.89065752      -0.11111379      -0.03298543      -0.08082331       1.17341955       1.19856088       1.47479218
O        3.84639537       5.94875912       2.22110380      -0.09656629       0.03431663       0.24962297       1.04497402      -0.26298761      -0.21988482
O        5.80237318       3.89777012       1.77932370      -0.11206931      -0.04519154      -0.19215713       0.03319533       0.28061330       0.19604861
O        5.76081825       6.32616873       0.14396551      -0.15362424       0.41172624       0.14396551       1.22201972      -1.88913522      -0.48087984
Sr       3.94847512       3.93162926       3.96067049       0.00551346      -0.01133240       0.01770883      -0.31311501      -0.18435283       0.27780837
Ti       6.00242751       5.87768208       5.77135455       0.08798503      -0.03676040      -0.14308794      -0.45118419      -0.79652069       0.47990450
O        4.04574040       6.07623931       5.79656989       0.10277875       0.16179682      -0.11787259      -0.86029013      -0.26065431      -0.25761016
O        5.79841060       4.02520721       6.47372637      -0.11603189       0.08224555       0.55928388       1.07036566       1.08760382      -1.46212666
O        6.17235492       5.57617984       3.93813427       0.25791243      -0.33826265      -0.00482739      -0.53017077       0.33697975       1.33926675
40
Lattice="7.885923316173801 7.69924125993921e-18 5.055437999273994e-17 -2.708415252898802e-16 7.885923316173809 1.5570874207244063e-14 -4.34152842628263e-16 1.971393687331653e-14 7.885923316173814" Properties=species:S:1:pos:R:3:u_disp:R:3:forces:R:3 system=srtio3_cubic model=mace_mp0 T=600.0 seed=0 supercell=2x2x2 source="SSCHA free-energy-Hessian ensemble (final auxiliary dyn)" index=445 pair=222 energy=-315.24891587384843 pbc="T T T"
Sr      -0.11277275       0.04255233       0.04986890      -0.11277275       0.04255233       0.04986890       0.72845100       0.07719813      -0.00935443
Ti       1.88758381       1.91911222       1.90782318      -0.08389702      -0.05236861      -0.06365764       0.52730304       0.72894638       0.12642319
O        0.00526917       2.15426189       1.80185852       0.00526917       0.18278106      -0.16962231      -0.59908773      -0.42401470      -0.48647395
O        1.74584151      -0.05901727       1.91536683      -0.22563932      -0.05901727      -0.05611400      -0.32751354       1.50034909       0.55529106
O        2.21858585       2.02273136      -0.08587737       0.24710502       0.05125053      -0.08587737      -0.18714096      -1.31635139       0.12007976
Sr       0.05019542       0.08959801       4.07860216       0.05019542       0.08959801       0.13564050      -0.95547378      -0.37763732      -1.25711044
Ti       1.85098930       1.69705203       5.84299181      -0.12049153      -0.27442879      -0.07145067       0.96278374       8.19072208       1.58503269
O        0.07999029       1.82917697       6.17415743       0.07999029      -0.14230386       0.25971494      -1.09053471      -0.60861722      -0.13583260
O        2.13988203       0.12892598       5.49714158       0.16840120       0.12892598      -0.41730091       0.63404022      -6.80106756       0.22546129
O        1.64762838       1.98345670       3.81861893      -0.32385245       0.01197587      -0.12434273       0.59713354       0.17363563       0.89547320
Sr       0.11935591       4.08706193       0.17179735       0.11935591       0.14410027       0.17179735      -0.20884585      -0.27780156      -0.68611662
Ti       1.95083624       5.94911798       2.02398909      -0.02064459       0.03467549       0.05250826       0.49285766      -0.46480675      -1.84288550
O       -0.03862337       5.64940481       2.21177617      -0.03862337      -0.26503768       0.24029534      -0.20237684       0.66674829      -0.66295900
O        2.19493311       3.89472300       1.91305329       0.22345228      -0.04823866      -0.05842754      -0.23785021       0.00080313      -0.37744883
O        1.86966756       6.16234660      -0.06084553      -0.10181327       0.24790411      -0.06084553      -0.50620205      -0.73153582      -0.83613147
Sr       0.09766803       3.98227612       4.08939177       0.09766803       0.03931446       0.14643011      -0.19790386      -0.65435683      -0.73783127
Ti       1.89778204       5.78046904       5.91233760      -0.07369879      -0.13397344      -0.00210489       1.97400579      -0.07560041       1.13861093
O        0.08674895       5.84441192       5.86719960       0.08674895      -0.07003057      -0.04724289      -1.83778845       1.14322880      -0.85604489
O        1.89990277       3.99790894       5.85234527      -0.07157806       0.05494728      -0.06209722      -0.35116798      -0.86775319       0.03044170
O        2.10260169       5.79854512       3.78822996       0.13112086      -0.11589737      -0.15473170       0.40069802       0.56772896       2.72264002
Sr       4.07447041       0.03099979      -0.11841314       0.13150875       0.03099979      -0.11841314      -1.54352025      -0.79552851       0.26821482
Ti       5.83747197       2.13363167       1.87257731      -0.07697051       0.16215085      -0.09890352       0.02415139      -0.59023782       0.66809089
O        4.04022741       1.71110794       2.23867999       0.09726575      -0.26037289       0.26719917      -0.73904582       0.81595207      -0.36605801
O        5.89331898      -0.04288076       2.16712667      -0.02112350      -0.04288076       0.19564584       1.67639518       1.74476252       0.10662613
O        5.76682550       1.62376417      -0.01670778      -0.14761698      -0.34771666      -0.01670778       0.32634902       0.84964130       0.82510591
Sr       3.96073016      -0.01822449       3.96311891       0.01776851      -0.01822449       0.02015725       0.60994721       0.06103357      -1.07819746
Ti       5.88209045       2.01273424       5.93842397      -0.03235204       0.04125341       0.02398149      -0.18937240       1.08414128      -0.59099880
O        3.99922695       2.16134066       5.58835660       0.05626530       0.18985983      -0.32608588       0.04627900      -1.23209397       1.24849700
O        5.78612403      -0.15193451       5.82010568      -0.12831846      -0.15193451      -0.09433681       0.13406321       0.61550593      -0.19797530
O        6.21271075       2.00898352       4.11825728       0.29826827       0.03750269       0.17529562       0.14155530       0.42917384      -1.30265451
Sr       3.83445450       3.88539185      -0.06666807      -0.10850716      -0.05756981      -0.06666807       0.17594112       0.07278896       0.21002929
Ti       5.91355887       6.15116451       1.66065836      -0.00088362       0.23672202      -0.31082247      -1.41750655      -3.17207259       6.54780484
O        3.91586422       6.22566462       1.73835519      -0.02709744       0.31122214      -0.23312564       0.49124152      -0.82601327       0.25508317
O        5.67290238       3.93555596       1.72779051      -0.24154011      -0.00740570      -0.24369032       0.06819474      -0.51198596       0.47076271
O        6.19444682       6.00390199       0.06092288       0.28000433       0.08945950       0.06092288       0.62297330       0.50090123      -5.06328897
Sr       3.92109121       3.86027508       4.04843804      -0.02187045      -0.08268658       0.10547638      -0.59860186       0.30860020      -1.15393577
Ti       5.87764736       5.85372592       5.63861524      -0.03679513      -0.06071656      -0.27582724      -0.01250817       0.27573183      10.85386891
O        3.89963714       5.54069570       6.15341005      -0.04332452      -0.37374679       0.23896756       1.28642722       1.78465482      -1.43650628
O        6.10338858       3.91067583       6.27776925       0.18894610      -0.03228583       0.36332676      -0.11052091      -0.75308043      -0.73443243
O        5.80636358       5.63510032       4.09171711      -0.10807891      -0.27934217       0.14875545      -0.60782933      -1.11169275      -9.04130098
40
Lattice="7.885923316173801 7.69924125993921e-18 5.055437999273994e-17 -2.708415252898802e-16 7.885923316173809 1.5570874207244063e-14 -4.34152842628263e-16 1.971393687331653e-14 7.885923316173814" Properties=species:S:1:pos:R:3:u_disp:R:3:forces:R:3 system=srtio3_cubic model=mace_mp0 T=600.0 seed=0 supercell=2x2x2 source="SSCHA free-energy-Hessian ensemble (final auxiliary dyn)" index=455 pair=227 energy=-310.50701881976613 pbc="T T T"
Sr      -0.02624724       0.14616263       0.13350756      -0.02624724       0.14616263       0.13350756       0.51382482      -0.93055197       0.18468422
Ti       2.00777352       2.29394272       1.83487377       0.03629269       0.32246189      -0.13660706      -1.60746398     -15.94506543       3.47753952
O        0.13327819       1.87446986       2.28309285       0.13327819      -0.09701097       0.31161202       0.20697932       1.53945043       0.02681267
O        2.26011643      -0.05657384       1.89764160       0.28863560      -0.05657384      -0.07383923       0.34939687       3.32498388       0.36833608
O        1.74789703       1.91783350       0.17987231      -0.22358380      -0.05364733       0.17987231       0.40418460       0.46089053      -3.78998641
Sr       0.00897149       0.11433544       3.92593195       0.00897149       0.11433544      -0.01702971       0.47106579      -0.50187285      -0.32628112
Ti       1.77541683       1.68950073       5.85606784      -0.19606400      -0.28198010      -0.05837465       2.74573145      14.42028251       0.89389792
O        0.09617016       2.13091613       5.72227134       0.09617016       0.15943530      -0.19217115      -2.76053390       0.03242922       0.16606995
O        1.77062967       0.17969329       6.04469237      -0.20085116       0.17969329       0.13024988       0.20858331     -14.84748098       1.25257105
O        2.27615803       1.99754718       4.18073219       0.30467720       0.02606636       0.23777053      -0.17976297      -1.07285805      -3.04224770
Sr       0.14076526       3.90008077      -0.02667678       0.14076526      -0.04288089      -0.02667678      -1.38793062       0.06324602      -0.33458505
Ti       1.78285658       6.20727215       1.89016044      -0.18862425       0.29282967      -0.08132039       3.79449445      -4.26365873       0.82618803
O        0.15760988       5.82065298       2.09389883       0.15760988      -0.09378950       0.12241800      -3.90202414       0.04567450       0.53464808
O        2.18694547       3.79756970       1.89556647       0.21546464      -0.14539196      -0.07591436       0.89607463      13.98979416       0.24254050
O        1.87634162       5.80142053       0.06875224      -0.09513920      -0.11302195       0.06875224       0.40145252       0.14178973      -1.52363187
Sr      -0.10401721       3.89362179       3.99833378      -0.10401721      -0.04933987       0.05537212       0.17188266       0.03836513      -0.15091805
Ti       1.84467243       5.74584034       5.87341224      -0.12680839      -0.16860214      -0.04103025       3.28739703       1.09160611       0.01228895
O        0.17335884       5.86515447       5.63229234       0.17335884      -0.04928802      -0.28215015      -3.91309474       0.05148652       0.33217780
O        2.07131007       4.00497412       5.96827690       0.09982925       0.06201246       0.05383441       0.54731553      -0.92376684       0.35066928
O        2.11444960       5.85313844       3.88541398       0.14296877      -0.06130404      -0.05754768       0.48974068       0.36558793       0.62191401
Sr       4.22842497       0.18930862       0.04359570       0.28546331       0.18930862       0.04359570      -1.02643750      -1.10355585       1.09263524
Ti       5.94008911       2.00097701       2.18618880       0.02564662       0.02949618       0.21470798       1.42906647      -0.45674793      -1.97124667
O        4.09993817       2.00818411       2.12320019       0.15697651       0.03670328       0.15171936      -1.53929453      -0.49750218      -2.03761723
O        6.17402118       0.00745105       2.24770323       0.25957869       0.00745105       0.27622240      -1.62832923      -0.25050579      -0.48045888
O        6.31055564       1.79728076       0.09766830       0.39611315      -0.17420007       0.09766830      -1.81371584       0.01523270      -1.30107454
Sr       3.81418568      -0.21050845       4.00736810      -0.12877598      -0.21050845       0.06440644       0.42434960       0.79266128      -0.64628620
Ti       5.77120702       1.83008088       6.07233457      -0.14323547      -0.14139995       0.15789208       2.92222560       2.22242082      -0.38166227
O        3.98886742       1.77862782       6.26602308       0.04590577      -0.19285301       0.35158059      -0.37402142       0.53431754      -0.30010786
O        6.28477561       0.09086869       5.60565656       0.37033312       0.09086869      -0.30878593      -1.53009382      -1.01285819       0.87822593
O        5.74785917       2.25582460       3.93260278      -0.16658331       0.28434377      -0.01035888       0.70864396       0.07231977       2.23559692
Sr       3.91140682       4.10405767      -0.07922113      -0.03155483       0.16109601      -0.07922113       0.43056749      -0.25230419      -0.41226567
Ti       5.72572097       5.88798645       1.72842574      -0.18872151      -0.02645603      -0.24305509       8.43717478       0.24531132       1.79735347
O        4.14516304       5.71871566       2.00784029       0.20220139      -0.19572682       0.03635947      -7.30770279       0.14699420       0.06599494
O        6.07042138       3.99780087       1.61650715       0.15597889       0.05483921      -0.35497368      -0.06670603      -0.78068642       0.75619781
O        6.10582657       6.22508827       0.02774139       0.19138408       0.31064579       0.02774139      -0.41488105       0.21866592      -1.96293087
Sr       3.74088260       3.67447202       3.79810237      -0.20207905      -0.26848963      -0.14485928       1.15769036       2.04821704       1.46273484
Ti       5.84409843       5.85389693       5.67284946      -0.07034406      -0.06054555      -0.24159303       1.32033009      -0.08727644       4.40718267
O        4.07613353       6.19402406       6.05820850       0.13317187       0.27958157       0.14376601      -0.79269920      -0.21946082       0.04638986
O        6.07406157       3.83414393       6.13264417       0.15961908      -0.10881772       0.21820168      -1.15851305       1.57668776      -0.22100680
O        5.78076127       5.64940492       4.01624546      -0.13368122      -0.26503757       0.07328380       0.08503281      -0.29226236      -3.15034254
40
Lattice="7.885923316173801 7.69924125993921e-18 5.055437999273994e-17 -2.708415252898802e-16 7.885923316173809 1.5570874207244063e-14 -4.34152842628263e-16 1.971393687331653e-14 7.885923316173814" Properties=species:S:1:pos:R:3:u_disp:R:3:forces:R:3 system=srtio3_cubic model=mace_mp0 T=600.0 seed=0 supercell=2x2x2 source="SSCHA free-energy-Hessian ensemble (final auxiliary dyn)" index=462 pair=231 energy=-313.7586468741841 pbc="T T T"
Sr      -0.01920990      -0.02625141      -0.06510860      -0.01920990      -0.02625141      -0.06510860      -0.12636795       0.76130116       0.35063151
Ti       2.14365729       1.68912659       1.90876826       0.17217646      -0.28235424      -0.06271256      -3.91087154       5.81435419       0.63684226
O       -0.08530403       1.86735765       1.88853137      -0.08530403      -0.10412318      -0.08294946       0.51041477       0.46150117       0.83059748
O        1.88312199       0.08814147       2.02521415      -0.08835884       0.08814147       0.05373332       0.15454962      -5.98921379       0.25570058
O        1.75442242       1.93468692       0.12397871      -0.21705841      -0.03679391       0.12397871       0.54859620       0.49470094      -1.99660908
Sr       0.17847862       0.06643084       3.94242417       0.17847862       0.06643084      -0.00053748      -0.43154753       0.05035938      -0.28462788
Ti       1.95068537       2.20468768       5.88248522      -0.02079546       0.23320685      -0.03195726      -0.20886656      -7.29296715       0.82015548
O       -0.20108099       1.82524406       5.80542539      -0.20108099      -0.14623677      -0.10901710       2.94873530      -0.56313154       0.87131182
O        2.25261185      -0.00667772       5.79463300       0.28113102      -0.00667772      -0.11980949      -1.59211724      -1.46242817       1.44446426
O        1.83327875       1.95063374       4.06183182      -0.13820208      -0.02084709       0.11887016       0.40698485       0.50276139      -1.60047252
Sr       0.01369730       3.91343905       0.27248780       0.01369730      -0.02952261       0.27248780      -0.24864675      -0.27018892      -1.35425382
Ti       2.07129471       5.60020361       2.19108967       0.09981388      -0.31423887       0.21960884       1.28289625       9.42801824      -2.41239288
O        0.03094568       5.98834174       2.15804599       0.03094568       0.07389925       0.18656516       1.03726240      -0.36363193       0.62610861
O        1.68980425       4.03026173       2.17099128      -0.28167658       0.08730007       0.19951045       0.00938503      -6.56516897      -0.32941586
O        1.71235658       6.01234839      -0.16268443      -0.25912425       0.09790590      -0.16268443      -0.06573982      -0.52180345       3.11408145
Sr      -0.13186759       4.00741244       3.84910722      -0.13186759       0.06445078      -0.09385444      -0.74107550      -0.74639797       0.71124236
Ti       1.90135705       6.01226171       6.03330020      -0.07012377       0.09781923       0.11885771       0.59530331       0.09191062      -3.09602653
O        0.07391299       5.75705704       5.52045494       0.07391299      -0.15738545      -0.39398755       0.57081120       1.30285392       0.07847421
O        2.13720260       3.81831277       5.91559777       0.16572177      -0.12464889       0.00115529      -0.51174869       6.71767671       0.27407182
O        2.39282844       6.09748796       3.89052253       0.42134761       0.18304547      -0.05243913      -0.98061368      -1.78829211       0.18413190
Sr       3.91123474      -0.01829820      -0.04644263      -0.03172692      -0.01829820      -0.04644263       0.15252279       0.49859182      -0.17925560
Ti       5.99747348       1.98645631       1.81557413       0.08303099       0.01497548      -0.15590670      -0.17995620      -0.77198888       1.63223387
O        3.82706809       2.06647939       1.91074781      -0.11589356       0.09499856      -0.06073301       3.17723003       0.29979034       0.32564704
O        5.91608616      -0.06462341       1.97295426       0.00164367      -0.06462341       0.00147343       0.00908207       0.62250000       0.06955438
O        5.86860328       1.88948041       0.07472642      -0.04583921      -0.08200042       0.07472642      -0.25603086       0.03428462      -1.82435390
Sr       3.84545436      -0.02948534       4.12291248      -0.09750730      -0.02948534       0.17995082       1.31318260       1.01905101      -1.09953201
Ti       5.91013390       2.08557194       5.63472993      -0.00430858       0.11409111      -0.27971256      -1.06454232       0.45823919       3.77578447
O        3.91149658       1.97320121       6.03545681      -0.03146508       0.00172038       0.12101432      -0.12048422       0.29166511      -0.33987414
O        5.74373324      -0.15879207       5.99192481      -0.17070924      -0.15879207       0.07748232       0.14736229       4.45487782      -0.07119290
O        5.87300359       1.92195081       3.92972554      -0.04143890      -0.04953002      -0.01323612      -0.63330683      -0.36435236      -3.05463678
Sr       4.10258412       3.88762595       0.04166379       0.15962247      -0.05533571       0.04166379       0.34330923       0.14245656      -0.67372131
Ti       6.04000727       5.98905054       1.87495683       0.12556478       0.07460805      -0.09652400      -2.06222297       0.15805012       0.10928431
O        4.03244414       6.04985146       1.43496856       0.08948248       0.13540898      -0.53651227      -1.65126636      -1.92733743       1.06391796
O        5.96316327       3.92243130       1.88128295       0.04872078      -0.02053036      -0.09019788      -0.01258299       0.18257587       0.45172429
O        6.38632452       5.84606636      -0.02708517       0.47188204      -0.06837613      -0.02708517      -0.81927672       0.17144456      -0.31621208
Sr       3.79553802       4.05424064       3.99270458      -0.14742364       0.11127898       0.04974292       1.35404939      -0.96271948       0.42933605
Ti       5.80507124       6.06763777       5.82569229      -0.10937125       0.15319528      -0.08875019       1.17186095      -6.02275528      -0.58082099
O        4.03634224       5.62973967       6.04396641       0.09338058      -0.28470282       0.12952393      -1.64341732       0.63452735       1.18188977
O        6.06360184       3.87980664       5.79862724       0.14915935      -0.06315502      -0.11581525      -0.54403452       0.27037310       0.32969498
O        5.35342278       5.81125765       3.89706864      -0.56101970      -0.10318483      -0.04589302       2.07117829       0.74851223      -0.35348262
