40
Lattice="7.88592331617382 -3.9133953383759446e-17 -1.7030621984787947e-18 1.771164357031209e-16 7.885923316173797 -2.036392580533196e-15 -1.4799097158469003e-16 -3.749052635145956e-15 7.885923316173799" Properties=species:S:1:pos:R:3:u_disp:R:3:forces:R:3 system=srtio3_cubic model=mace_mp0 T=600.0 seed=1 supercell=2x2x2 source="SSCHA free-energy-Hessian ensemble (final auxiliary dyn)" index=22 pair=11 energy=-305.40783454560994 pbc="T T T"
Sr       0.04084943       0.08394997       0.12254083       0.04084943       0.08394997       0.12254083      -0.70935756      -0.20476071      -0.73780044
Ti       1.89918897       1.79384287       1.91172567      -0.07229185      -0.17763796      -0.05975516       2.40079140       0.69584504       1.56065742
O        0.08014436       1.81729388       1.99320690       0.08014436      -0.15418695       0.02172607      -1.16385643      -0.25180119      -0.32336115
O        2.35627326       0.09835602       1.48160297       0.38479243       0.09835602      -0.48987786      -2.66688722       0.26500219       2.21895257
O        2.18485563       2.22093464      -0.12239089       0.21337480       0.24945381      -0.12239089      -1.22596313      -0.02922979       1.00785467
Sr      -0.09528384      -0.11890909       3.99673625      -0.09528384      -0.11890909       0.05377459       0.60358214       1.05359817      -1.64680080
Ti       2.06362851       2.03037573       5.95885193       0.09214768       0.05889490       0.04440944      -1.12276414      -0.03584163      -1.74296946
O       -0.03159635       1.40463970       5.82307106      -0.03159635      -0.56684113      -0.09137143       0.65941962       1.53367224       0.62518935
O        2.48201576      -0.03112077       6.04362265       0.51053493      -0.03112077       0.12918017      -0.88954126       0.13802273       0.29659337
O        2.11501933       1.73030493       3.85657487       0.14353850      -0.24117590      -0.08638679      -0.55403756       0.07554595      -0.55228586
Sr       0.02615727       4.04425529      -0.08424617       0.02615727       0.10129363      -0.08424617       0.53214509      -0.48554100       0.28819617
Ti       1.96887851       5.64259187       2.07077851      -0.00260232      -0.27185061       0.09929768       0.57575521       6.26782989      -2.13270484
O        0.17694299       6.35930017       1.88449220       0.17694299       0.44485769      -0.08698863       0.18895770      -1.48689155      -0.03991372
O        1.78111414       3.97994756       2.13295940      -0.19036669       0.03698590       0.16147857      -0.44271842      -3.55942951       0.00841658
O        2.10252980       5.64653322      -0.17059951       0.13104897      -0.26790927      -0.17059951      -0.63783679      -0.22529679       2.42895920
Sr       0.06641419       3.86822422       3.90285986       0.06641419      -0.07473744      -0.04010180       0.16320632       0.15296232      -2.25554673
Ti       1.91829893       6.08133082       6.07091762      -0.05318190       0.16688833       0.15647513       0.35842971      -0.80421144      -3.14073968
O        0.09731782       6.29218361       5.69241115       0.09731782       0.37774113      -0.22203134      -0.21990607      -1.03536273       1.61946254
O        1.45750552       3.90420711       5.61243409      -0.51397530      -0.03875454      -0.30200840       2.00870549      -0.35745254       1.22364894
O        2.19153418       6.34934848       3.73158497       0.22005335       0.43490600      -0.21137669      -3.43807177      -3.98496254       0.78899320
Sr       3.98468121       0.25627663       0.13880787       0.04171955       0.25627663       0.13880787       0.58539701      -0.04399745      -3.56767729
Ti       5.82380521       1.74922777       2.11043640      -0.09063727      -0.22225306       0.13895557      -1.00143139       1.18239398      -4.02890964
O        4.02380462       2.45976800       1.86959924       0.08084297       0.48828717      -0.10188159       0.37106096      -1.17148108       0.72557328
O        5.49167039       0.05232726       1.61093423      -0.42277209       0.05232726      -0.36054660       3.02423418      -0.41506041       2.53420426
O        5.94063220       1.99012360      -0.06484541       0.02618971       0.01864277      -0.06484541       0.66590315       1.60899653      -0.46573970
Sr       3.66774770      -0.19610183       3.99877917      -0.27521396      -0.19610183       0.05581751       4.23217595       3.56397108      -0.76756773
Ti       5.96390108       2.42578924       5.97260437       0.04945859       0.45430842       0.05816189     -11.06320860     -28.39729446       6.74293329
O        3.94807142       2.40108538       5.76220700       0.00510976       0.42960455      -0.15223548       0.38925983      -0.83548948       1.26773152
O        5.53866999      -0.22566348       5.97102513      -0.37577249      -0.22566348       0.05658264      -3.20018082      14.25645205       1.87463539
O        5.81418689       1.55979177       3.80836701      -0.10025560      -0.41168906      -0.13459465       0.44354302       0.70284268       3.63340122
Sr       4.00129142       4.00919609       0.10130649       0.05832976       0.06623443       0.10130649       0.05167118      -0.33475717      -1.07450988
Ti       5.88402167       5.62486433       1.85210235      -0.03042081      -0.28957815      -0.11937847      -0.69971111       8.61185988      -0.60254067
O        4.05173685       5.71976888       1.71286935       0.10877519      -0.19467360      -0.25861147      -2.01815312      -0.45495487       0.85100775
O        6.38810402       4.11555685       1.92499349       0.47366154       0.17259519      -0.04648734       1.65317714      -8.40744613       0.55698821
O        6.12577108       5.53949915      -0.16050813       0.21132859      -0.37494334      -0.16050813      -0.36751287       1.19738770      -1.12925625
Sr       3.79045529       3.93515051       4.14748992      -0.15250637      -0.00781115       0.20452826      -0.77558023      -1.23493842      -4.51824299
Ti       5.84300310       6.22508937       5.74403467      -0.07143939       0.31064688      -0.17040782       3.54659461     -16.59119579      -1.04380717
O        4.14513345       5.26769648       5.66527559       0.20217180      -0.64674601      -0.24916689      -0.22044430       3.46587935       3.04370682
O        6.54447284       3.63709334       5.59614199       0.63003036      -0.30586831      -0.31830049       9.83784070      24.74498217      -5.47328829
O        5.97443009       5.87874620       3.73670889       0.05998760      -0.03569629      -0.20625277       0.12531238       0.83015268       1.94655650
40
Lattice="7.88592331617382 -3.9133953383759446e-17 -1.7030621984787947e-18 1.771164357031209e-16 7.885923316173797 -2.036392580533196e-15 -1.4799097158469003e-16 -3.749052635145956e-15 7.885923316173799" Properties=species:S:1:pos:R:3:u_disp:R:3:forces:R:3 system=srtio3_cubic model=mace_mp0 T=600.0 seed=1 supercell=2x2x2 source="SSCHA free-energy-Hessian ensemble (final auxiliary dyn)" index=49 pair=24 energy=-314.9479393100446 pbc="T T T"
Sr       0.02229779       0.07591421      -0.14514958       0.02229779       0.07591421      -0.14514958       0.12041656      -1.20918780       0.64963385
Ti       2.13633667       1.96844903       2.22602499       0.16485584      -0.00303180       0.25454417      -1.92236976       1.01340257      -4.29352612
O       -0.10378290       2.18904455       2.17765760      -0.10378290       0.21756372       0.20617677       1.34807997      -0.76379240       0.11120170
O        1.81249969      -0.20702861       1.89174845      -0.15898114      -0.20702861      -0.07973238       0.44779298       3.08589211       0.23174821
O        1.59415398       1.83037837      -0.05029872      -0.37732685      -0.14110246      -0.05029872       1.48265631       0.53732981      -0.87908687
Sr       0.06696584      -0.05461084       4.04848388       0.06696584      -0.05461084       0.10552222      -0.25072729       0.33867662      -0.89278913
Ti       2.06553838       1.89895786       5.92994303       0.09405755      -0.07252297       0.01550054      -1.98124592       1.98713984       1.76195894
O       -0.10527943       2.21520927       5.87920148      -0.10527943       0.24372844      -0.03524100      -0.06228867      -0.44920886      -1.01451397
O        1.83135780      -0.26555741       5.94044427      -0.14012303      -0.26555741       0.02600178      -0.45376600       3.63481713       0.84164306
O        2.12152702       1.57134926       3.93735832       0.15004619      -0.40013157      -0.00560334      -0.39349180       0.36418131       2.14498422
Sr      -0.10372696       3.84354842      -0.04371671      -0.10372696      -0.09941324      -0.04371671       0.82412670       0.43025004       0.69603513
Ti       1.76234484       5.84927024       1.93363465      -0.20913599      -0.06517225      -0.03784618       5.43802970      -0.12817732      -0.89396584
O        0.13907135       5.68788258       1.84679003       0.13907135      -0.22655991      -0.12469080      -5.95316895      -0.51238646       0.20446508
O        1.99147504       3.85931706       2.21780660       0.01999421      -0.08364460       0.24632577       0.48693409      -1.45568461       0.96928843
O        2.14161498       5.61108203       0.09596932       0.17013415      -0.30336045       0.09596932       0.06311204       0.28249037      -1.38857416
Sr      -0.10948072       3.90763741       4.03117317      -0.10948072      -0.03532424       0.08821151       0.08946499       0.16086631      -0.77903598
Ti       1.90390892       5.88386963       5.76908803      -0.06757191      -0.03057286      -0.14535445       0.22722868      -2.72932608       3.56440945
O        0.04256949       5.60075438       6.11138908       0.04256949      -0.31368811       0.19694660       0.69260606      -0.21670245      -1.67118266
O        2.46484540       3.82643086       5.76071809       0.49336457      -0.11653080      -0.15372439      -1.10301299      -0.92677405       0.01621737
O        2.08354666       6.05968123       4.04142910       0.11206583       0.14523874       0.09846744      -0.77011879      -0.90211500      -2.70344506
Sr       3.85649075       0.28444374       0.02943014      -0.08647091       0.28444374       0.02943014      -0.21187124      -2.64600951       1.31212543
Ti       6.07190978       1.73816483       1.76382825       0.15746729      -0.23331600      -0.20765258      -1.00603224       3.17395618       3.84016101
O        3.85984431       1.99727191       1.64212686      -0.08311735       0.02579109      -0.32935396       0.29646261      -0.36065666       1.20651113
O        6.16630352       0.03198618       1.70777648       0.25186103       0.03198618      -0.26370435      -0.50558101      -2.69345647       0.26945404
O        5.88454646       2.08997511       0.06250215      -0.02989603       0.11849428       0.06250215       0.15599825       0.01401339      -3.64062322
Sr       3.94302335      -0.02153587       4.08297035       0.00006169      -0.02153587       0.14000869       0.57807843      -0.38861143      -1.04200844
Ti       5.87937433       2.03941048       5.79317433      -0.03506816       0.06792966      -0.12126815       0.70433458      -0.46802479      -0.34216119
O        3.78584659       1.52561629       6.07981350      -0.15711507      -0.44586454       0.16537101       2.48064842       0.77717203      -0.94454596
O        6.29753338      -0.08334749       5.88434804       0.38309090      -0.08334749      -0.03009445      -0.76444465       1.45818371       0.23779750
O        5.62206600       1.91089983       3.94534747      -0.29237648      -0.06058100       0.00238581       0.08986846       0.10241731       0.79687316
Sr       4.09673115       4.13980673      -0.06417689       0.15376949       0.19684507      -0.06417689      -1.09391858      -0.57507316       0.68218724
Ti       5.72759095       5.73695487       2.12350790      -0.18685153      -0.17748762       0.15202707       3.02989186       1.86792828      -2.66175995
O        4.00526549       5.91187375       2.00990518       0.06230383      -0.00256874       0.03842435      -1.31608263       0.42867931       0.45324955
O        5.87249244       3.97586577       2.01666086      -0.04195005       0.03290411       0.04518004      -0.25921367      -0.90029581       0.32057706
O        6.01007399       5.87168495      -0.08172456       0.09563151      -0.04275754      -0.08172456      -1.08032551      -0.05731894       1.06073663
Sr       3.95697406       4.09400801       3.89025915       0.01401240       0.15104635      -0.05270251      -0.02631915      -0.39425744      -0.05225804
Ti       5.87465900       5.97278562       6.01456141      -0.03978349       0.05834313       0.10011892       1.33610098       0.37101929      -0.20380153
O        4.09646333       6.17907668       5.67419776       0.15350167       0.26463419      -0.24024473      -0.59821257      -0.80856025       1.05118450
O        5.64653160       3.92553950       5.93234293      -0.26791089      -0.01742216       0.01790045       0.22728175      -0.43920085      -1.00336401
O        6.19691261       6.18416902       3.79109307       0.28247012       0.26972653      -0.15186858      -0.36692199      -1.00359525       1.98419944
40
Lattice="7.88592331617382 -3.9133953383759446e-17 -1.7030621984787947e-18 1.771164357031209e-16 7.885923316173797 -2.036392580533196e-15 -1.4799097158469003e-16 -3.749052635145956e-15 7.885923316173799" Properties=species:S:1:pos:R:3:u_disp:R:3:forces:R:3 system=srtio3_cubic model=mace_mp0 T=600.0 seed=1 supercell=2x2x2 source="SSCHA free-energy-Hessian ensemble (final auxiliary dyn)" index=82 pair=41 energy=-306.01611646178685 pbc="T T T"
Sr       0.06901700      -0.06922574      -0.01246076       0.06901700      -0.06922574      -0.01246076       0.38297058      -0.23429963       0.07008459
Ti       2.03049751       2.02114759       2.22116387       0.05901668       0.04966676       0.24968304      -1.12031984       0.58901649      -3.14415953
O        0.18856721       2.58431720       1.91885648       0.18856721       0.61283637      -0.05262435       0.26656718      -1.06393492       0.76134048
O        1.47462135       0.00880862       1.91747991      -0.49685948       0.00880862      -0.05400092       1.68465946       0.55559793       0.97379039
O        2.06383152       2.15475956      -0.08052167       0.09235069       0.18327873      -0.08052167       0.21584338      -0.31115223       3.85670473
Sr      -0.00523244       0.04729803       4.13295042      -0.00523244       0.04729803       0.18998876       0.00469639      -0.46041133      -1.89371606
Ti       1.79861816       1.88991367       6.17046291      -0.17286267      -0.08156716       0.25602042       0.88581735       1.78619411      -4.62224935
O        0.17333462       2.76920983       5.83814282       0.17333462       0.79772900      -0.07629967       0.17398998      -3.14802969       0.67908193
O        1.37484610       0.11603428       6.01105843      -0.59663473       0.11603428       0.09661594       1.70793497      -0.28059205      -0.70568875
O        2.08141694       2.18492668       3.93452012       0.10993611       0.21344585      -0.00844153      -0.07235680      -1.26511047       1.95135152
Sr      -0.05659532       4.01209840      -0.13818838      -0.05659532       0.06913674      -0.13818838       0.79791898      -0.75024430       1.36321709
Ti       1.73760123       5.87684733       1.78983902      -0.23387960      -0.03759515      -0.18164180       7.48848803       1.77347040       0.71799969
O        0.19664945       5.42924601       1.85017908       0.19664945      -0.48519648      -0.12130175      -6.38077653      -1.11671813       0.84544750
O        2.63027211       4.04216113       2.23010072       0.65879128       0.09919947       0.25861989      -2.95918241       0.18313851      -3.49964138
O        2.13453696       5.97860556      -0.00493976       0.16305613       0.06416308      -0.00493976      -0.77072502      -0.10853343       0.33363512
Sr      -0.12774557       3.90826900       4.02036517      -0.12774557      -0.03469266       0.07740351       0.15179197       0.55120071      -1.72748311
Ti       2.16311184       5.82802194       5.65924910       0.19163101      -0.08642055      -0.25519339       0.98493746       0.24411698       8.10432081
O       -0.08350708       5.61644040       5.92117481      -0.08350708      -0.29800209       0.00673232       2.71390055       0.50494571      -0.90858070
O        2.50325530       4.07339866       6.06609117       0.53177448       0.13043700       0.15164869      -0.90210750       0.17563980      -2.30406939
O        2.03745442       6.14366954       4.05832792       0.06597359       0.22922705       0.11536626      -0.75320360       0.28306028      -6.28529077
Sr       3.75875456      -0.00531619       0.09463205      -0.18420710      -0.00531619       0.09463205       0.05779504      -0.17424979      -0.77153233
Ti       5.95826953       2.21388724       2.00892968       0.04382704       0.24240641       0.03744885       1.31832833      -5.05837854      -2.20981295
O        4.10401408       1.55243775       1.79906496       0.16105242      -0.41904308      -0.17241587      -0.98180651       0.96613994       1.40397571
O        6.48359205      -0.02712212       1.53480767       0.56914956      -0.02712212      -0.43667316      -3.41478566      -1.69183369       2.83847950
O        6.13921263       2.28194426      -0.00813622       0.22477014       0.31046344      -0.00813622      -0.74509524      -0.76467431      -0.32634321
Sr       4.05809072      -0.14185321       3.82933398       0.11512907      -0.14185321      -0.11362767      -0.73490092       1.91984530       1.08346073
Ti       5.76417079       1.52768726       5.99698800      -0.15027170      -0.44379357       0.08254551      -8.50780282      30.24921751      -0.97166117
O        4.02909484       1.58798092       5.93959925       0.08613318      -0.38349991       0.02515676      -3.77693127      -0.53441342      -0.09419157
O        6.36960854       0.28030286       6.04780528       0.45516605       0.28030286       0.13336280      11.73135192     -27.52256170       1.50324347
O        6.12425177       1.69306839       3.87219814       0.20980928      -0.27841244      -0.07076352      -0.53617778       0.72488836       0.50841065
Sr       3.98034881       3.98532503      -0.11092134       0.03738715       0.04236337      -0.11092134       0.20027134      -0.65422631       1.47400668
Ti       5.69609582       6.15503511       2.02662436      -0.21834666       0.24059262       0.05514353       4.51966778       0.12955380      -1.41285676
O        3.99399928       6.31625314       2.00665022       0.05103762       0.40181066       0.03516939      -1.70668148      -0.20180209      -0.58158592
O        5.50826737       3.82573105       2.17250587      -0.40617512      -0.11723060       0.20102505       0.28127472       4.56015284       0.20497966
O        5.93445091       5.58865682      -0.02966160       0.02000842      -0.32578566      -0.02966160      -0.50412333       0.67627848       0.99382868
Sr       3.91869773       3.90248028       3.84339458      -0.02426392      -0.04048138      -0.09956708       0.94619725      -0.26436373       3.05355449
Ti       6.03358812       5.53234643       6.00206826       0.11914564      -0.38209606       0.08762577      -1.56440963       8.69511346       0.32091354
O        4.00245161       6.52929121       5.87687098       0.05948995       0.61484872      -0.03757151      -0.55125985      -1.43045546      -0.01113588
O        5.49421897       4.05369383       5.70563232      -0.42022352       0.11073217      -0.20881017      -1.08781908      -6.36452330      -1.25917867
O        5.94975319       6.29491736       3.90666118       0.03531071       0.38047487      -0.03630047       0.55606264      -1.16706208      -0.31264948
40
Lattice="7.88592331617382 -3.9133953383759446e-17 -1.7030621984787947e-18 1.771164357031209e-16 7.885923316173797 -2.036392580533196e-15 -1.4799097158469003e-16 -3.749052635145956e-15 7.885923316173799" Properties=species:S:1:pos:R:3:u_disp:R:3:forces:R:3 system=srtio3_cubic model=mace_mp0 T=600.0 seed=1 supercell=2x2x2 source="SSCHA free-energy-Hessian ensemble (final auxiliary dyn)" index=92 pair=46 energy=-314.184293967569 pbc="T T T"
Sr       0.06245645      -0.06475940       0.05821173       0.06245645      -0.06475940       0.05821173      -0.17825630       0.90250987      -0.11440854
Ti       1.80489198       1.87088885       1.90343886      -0.16658885      -0.10059197      -0.06804197      -0.78467633       0.27671693      -0.28233460
O       -0.06550629       2.10736421       1.37790273      -0.06550629       0.13588339      -0.59357810       1.21705748      -1.39610756       1.90509259
O        1.83288486      -0.09646663       1.94882023      -0.13859597      -0.09646663      -0.02266060       0.71909508       0.29100259      -0.68112683
O        2.33245547       1.99487087      -0.00856617       0.36097464       0.02339004      -0.00856617      -0.72025452      -0.62130855      -0.88819140
Sr      -0.03453304      -0.25154186       4.04454045      -0.03453304      -0.25154186       0.10157880       0.98688774       1.40643496      -0.86324208
Ti       1.87014075       1.90781271       5.81911466      -0.10134008      -0.06366811      -0.09532782       3.88444442       0.02688910       0.30427347
O        0.20763179       2.09406066       5.81593984       0.20763179       0.12257983      -0.09850265      -4.39429665       0.80875891       1.46454277
O        1.88013571       0.06791197       5.93839096      -0.09134512       0.06791197       0.02394847       0.78446039      -1.09430642       0.21257604
O        1.59947131       1.86669175       3.76409185      -0.37200952      -0.10478908      -0.17886981       1.05102911       0.38729156       0.19447497
Sr       0.03113776       3.96067238       0.13281098       0.03113776       0.01771072       0.13281098       0.25559174       0.15126489      -0.95892482
Ti       2.22537318       5.83130199       1.97382831       0.25389235      -0.08314050       0.00234748      -1.68624631       0.55086634       0.35024626
O        0.09648005       5.80408101       1.63871399       0.09648005      -0.11036147      -0.33276684      -0.26428282       0.44084878       0.35256531
O        2.03263365       3.88241616       1.84302589       0.06115282      -0.06054549      -0.12845494       0.18987228       0.47418320       1.26286273
O        2.43810000       5.73558626       0.00821163       0.46661917      -0.17885623       0.00821163      -0.65187566       1.72071098      -0.39700016
Sr       0.07103817       3.93315566       4.01941924       0.07103817      -0.00980600       0.07645758       0.28333688      -0.09915940      -0.57956632
Ti       1.82364786       5.80554049       5.90941088      -0.14783297      -0.10890200      -0.00503160      11.15560452       0.23577435      -1.86431153
O        0.30981224       5.95803973       6.19411806       0.30981224       0.04359724       0.27967557     -10.64260176       0.14300862       1.75925147
O        2.32841626       4.00371530       5.76765771       0.35693543       0.06075364      -0.14678477      -0.98300323      -0.90766674       0.65409347
O        1.80276284       5.83490873       3.94117142      -0.16871799      -0.07953375      -0.00179024       0.11875761       0.10324814      -0.18052059
Sr       3.83520682      -0.03743452      -0.03302965      -0.10775484      -0.03743452      -0.03302965      -0.00955348       0.77838520       0.03655707
Ti       5.74149300       2.04674900       2.05170172      -0.17294948       0.07526817       0.08022089       2.40036223      -0.08934851      -0.13596343
O        3.97262344       1.91845770       2.20776815       0.02966178      -0.05302313       0.23628732      -1.30377626       0.31255857      -0.41411404
O        5.98142880       0.06175215       2.35145468       0.06698632       0.06175215       0.37997385       0.38268122       0.39062789      -0.62969083
O        5.68975017       1.64232012      -0.03568509      -0.22469232      -0.32916071      -0.03568509      -0.22922536       0.54138126      -0.91631943
Sr       4.06305563       0.07269087       3.85750222       0.12009397       0.07269087      -0.08545944      -0.59151755       0.35858984      -0.21175830
Ti       5.80661780       2.08359289       6.00253737      -0.10782469       0.11211206       0.08809488      -0.31138825      -0.53740754      -0.31424993
O        4.03950157       1.87178754       5.45439934       0.09653991      -0.09969329      -0.46004315       0.36307354       0.85733916       1.11291634
O        6.08192613       0.10956802       5.57774064       0.16748364       0.10956802      -0.33670185       0.08371230      -0.32151023       0.92790164
O        6.09917640       2.53874250       3.89650836       0.18473391       0.56726168      -0.04645330      -0.58325278      -0.77577023      -0.52677036
Sr       3.76549561       3.91158466       0.12558430      -0.17746604      -0.03137700       0.12558430       1.40889963      -1.36204283      -0.82414000
Ti       6.14414844       5.94592557       1.84175207       0.22970595       0.03148308      -0.12972876      -0.42144002      -0.48192232       1.78273346
O        4.01336019       5.95069810       2.40412073       0.07039853       0.03625562       0.43263990       0.03669224       0.03965771      -1.25732859
O        5.80579590       4.03371074       1.47445072      -0.10864659       0.09074908      -0.49703011       0.11732372       0.25015120       1.10286863
O        5.92352711       6.51067278       0.07725326       0.00908462       0.59623029       0.07725326      -1.00772914      -0.83058125      -1.72942190
Sr       3.77645028       4.05920535       3.89937132      -0.16651137       0.11624369      -0.04359034       0.97480517      -1.05905464      -0.00188676
Ti       5.72073331       6.02616900       5.92049959      -0.19370918       0.11172651       0.00605711       6.19033469      -0.45952154       0.68264513
O        4.18116372       6.23494901       5.42446957       0.23820206       0.32050652      -0.48997292      -4.59035620      -0.98212540       0.22293528
O        6.08253608       4.04753144       6.44599266       0.16809359       0.10456978       0.53155017      -1.33580984       0.27058319      -1.58297084
O        6.51354902       5.79388956       3.89320768       0.59910653      -0.12055292      -0.04975398      -1.91447952      -0.70095007       1.02570465
40
Lattice="7.88592331617382 -3.9133953383759446e-17 -1.7030621984787947e-18 1.771164357031209e-16 7.885923316173797 -2.036392580533196e-15 -1.4799097158469003e-16 -3.749052635145956e-15 7.885923316173799" Properties=species:S:1:pos:R:3:u_disp:R:3:forces:R:3 system=srtio3_cubic model=mace_mp0 T=600.0 seed=1 supercell=2x2x2 source="SSCHA free-energy-Hessian ensemble (final auxiliary dyn)" index=100 pair=50 energy=-307.0491790197294 pbc="T T T"
Sr      -0.15547795      -0.33417772      -0.28164881      -0.15547795      -0.33417772      -0.28164881       3.37130990       1.65199195       2.97915336
Ti       2.25881573       1.94466904       1.97610747       0.28733490      -0.02681179       0.00462664      -7.94222083      -1.75918262       0.65722743
O        0.04299102       1.94917710       1.95420103       0.04299102      -0.02230373      -0.01727980      -2.39105453      -0.54126089       0.08846753
O        1.99671651       0.11099526       1.47821534       0.02523568       0.11099526      -0.49326549       0.24798670      -0.80767867       1.09232523
O        1.84868522       2.23410350      -0.22590794      -0.12279561       0.26262267      -0.22590794       0.76589061       0.78920985       0.74466535
Sr       0.04667766       0.03298206       3.99901637       0.04667766       0.03298206       0.05605471       1.83651467       0.82331204      -0.65107122
Ti       2.14299358       1.94355239       5.86557699       0.17151276      -0.02792844      -0.04886550      -1.70225085      -0.17976987       0.14378629
O       -0.02009871       2.14651742       5.82247031      -0.02009871       0.17503659      -0.09197218      -1.25517623       0.28307169      -0.33275769
O        1.72034808       0.09261147       6.08718740      -0.25113275       0.09261147       0.17274492       0.82150450      -0.57610508      -0.16055967
O        2.06333664       1.63178959       3.76409687       0.09185581      -0.33969123      -0.17886479       0.64525995       0.35856306       1.35654467
Sr      -0.13500307       4.09619012       0.14733513      -0.13500307       0.15322846       0.14733513       2.28950283      -1.69376222      -0.07857292
Ti       2.02272492       5.93771806       2.10083800       0.05124409       0.02327557       0.12935718      -1.17199059       0.27328395       0.63613416
O       -0.05421374       6.26235084       1.99812563      -0.05421374       0.34790836       0.02664480      -0.77126105      -0.96167695      -0.33156851
O        1.66764970       4.02707261       2.27533002      -0.30383113       0.08411096       0.30384919       1.46815821       0.93152526      -0.97754555
O        2.23282155       5.47092656       0.10568683       0.26134072      -0.44351593       0.10568683      -2.21524352       2.47216552      -0.83317394
Sr       0.04685247       4.03059305       3.95158379       0.04685247       0.08763139       0.00862213       0.94195570      -0.63360934       0.59740234
Ti       2.12466058       5.77728541       6.01812404       0.15317975      -0.13715708       0.10368155      -3.34760647      -0.13071683      -1.32989613
O        0.00015071       5.79884568       6.06125382       0.00015071      -0.11559681       0.14681134      -0.93061968      -0.18688685      -1.01457653
O        2.06295672       4.03331893       5.34109257       0.09147590       0.09035728      -0.57334991       0.61485708      -0.20495554       1.69837955
O        2.05897340       6.34321872       4.01165100       0.08749257       0.42877623       0.06868934      -0.96962971      -0.86616128      -0.90336416
Sr       3.70278434      -0.00070865      -0.04308749      -0.24017732      -0.00070865      -0.04308749       0.91605770       0.19241649      -0.65867438
Ti       6.07805259       1.75118513       1.93093406       0.16361010      -0.22029570      -0.04054677       0.99954252       2.63535099       0.35665931
O        3.83832890       2.38684881       1.74627535      -0.10463276       0.41536798      -0.22520548       5.44897011      -0.19666451       1.13244101
O        5.60124554       0.09225097       1.57774637      -0.31319695       0.09225097      -0.39373446       0.54924709      -1.50417118      -0.03375154
O        5.87083953       2.62048463       0.11164663      -0.04360295       0.64900380       0.11164663       0.62756394      -1.37180791      -1.16030644
Sr       4.11436003      -0.19111095       4.14350329       0.17139837      -0.19111095       0.20054163      -4.90954826       3.58174281      -1.17589572
Ti       6.05560257       2.17585970       5.93524906       0.14116008       0.20437887       0.02080658      -0.98674920      -0.76743025       0.27257740
O        3.96605530       1.92768900       5.95957378       0.02309364      -0.04379183       0.04513130       0.52391098       0.03396423      -0.08047009
O        5.90306786      -0.04925473       6.62395110      -0.01137462      -0.04925473       0.70950862      -1.84129216       0.27360661      -3.32263851
O        5.84849392       1.32806246       3.98623164      -0.06594856      -0.64341837       0.04326999       0.67090521       2.22592321      -0.12012305
Sr       3.71783250       3.88542820       0.11428736      -0.22512916      -0.05753345       0.11428736       1.79688093      -0.71431890      -1.94507596
Ti       5.86418012       5.77650861       1.68407539      -0.05026236      -0.13793387      -0.28740543       0.58148853       3.39049730      12.33347769
O        3.93660450       6.03490600       2.24346812      -0.00635716       0.12046351       0.27198729       0.85331827      -0.92588169      -0.84477556
O        6.05359926       4.08843554       2.70263548       0.13915677       0.14547388       0.73115465      -0.80047077       1.03051517      -2.99916601
O        5.81204082       5.38745941       0.18698983      -0.10240167      -0.52698308       0.18698983      -0.93397690      -1.82151236      -9.55682494
Sr       4.09937162       3.99947180       3.93120962       0.15640996       0.05651014      -0.01175204      -3.34844962      -0.99568161      -2.12457261
Ti       5.96780871       6.07756244       5.52564334       0.05336623       0.16311995      -0.38879915       1.50860974      -9.02588438      24.34650773
O        3.81868883       6.18080959       5.99190736      -0.12427282       0.26636710       0.07746487       3.43491848      -0.50817591      -0.12721456
O        5.66059645       4.03289299       5.33559739      -0.25384604       0.08993133      -0.57884510       2.81680132       0.04746899       3.09036232
O        5.85545053       6.59103998       4.19463741      -0.05899195       0.67659749       0.25167576       1.78638540       5.37868572     -20.76353568
40
Lattice="7.88592331617382 -3.9133953383759446e-17 -1.7030621984787947e-18 1.771164357031209e-16 7.885923316173797 -2.036392580533196e-15 -1.4799097158469003e-16 -3.749052635145956e-15 7.885923316173799" Properties=species:S:1:pos:R:3:u_disp:R:3:forces:R:3 system=srtio3_cubic model=mace_mp0 T=600.0 seed=1 supercell=2x2x2 source="SSCHA free-energy-Hessian ensemble (final auxiliary dyn)" index=170 pair=85 energy=-313.86615391134774 pbc="T T T"
Sr       0.21289612       0.05528501       0.29166466       0.21289612       0.05528501       0.29166466      -2.07819692       0.38847129      -1.49441072
Ti       2.02751390       1.96822404       2.04474288       0.05603307      -0.00325678       0.07326205      -0.53033903       0.38197627      -2.00793231
O       -0.12647798       2.11449188       1.96500359      -0.12647798       0.14301105      -0.00647724       0.09805430       0.12168232       0.80030101
O        1.59138051      -0.01293280       2.15732645      -0.38010032      -0.01293280       0.18584563       1.12473482       1.06153534       0.22391151
O        1.53447913       1.92401224      -0.01412791      -0.43700170      -0.04746859      -0.01412791       1.73311731      -0.03212317      -0.08427919
Sr      -0.14986526      -0.05520976       3.97417030      -0.14986526      -0.05520976       0.03120864       1.61557777      -0.64685191      -0.28421091
Ti       2.24574919       1.95464472       5.84908962       0.27426836      -0.01683611      -0.06535286      -4.10030099       0.08219586       1.72356887
O       -0.07597027       1.78676653       5.60072085      -0.07597027      -0.18471430      -0.31372164       7.63067458       0.53110626      -1.57734318
O        1.86086717       0.06863964       5.80853425      -0.11061366       0.06863964      -0.10590824       1.29298779      -0.27638419      -0.15715083
O        2.00150467       2.17480211       3.98494093       0.03002384       0.20332129       0.04197927       0.46012985      -0.03991697      -1.41410144
Sr       0.03267651       3.96108438       0.05287235       0.03267651       0.01812272       0.05287235       0.77318027       0.32200108      -0.01204800
Ti       2.07973082       5.98391701       1.73854232       0.10824999       0.06947452      -0.23293851      -5.26691026      -1.23160405       2.34179294
O       -0.13896110       5.71543109       2.19320002      -0.13896110      -0.19901139       0.22171919       1.14809662      -0.06183434      -0.17786601
O        1.85617056       4.00170549       1.80186643      -0.11531027       0.05874383      -0.16961440       1.06333080      -1.09248896       0.45760643
O        1.57653041       6.13868674       0.02594174      -0.39495042       0.22424425       0.02594174       1.28079369      -0.71459364      -1.17415546
Sr      -0.05670516       3.64262292       3.84446223      -0.05670516      -0.30033874      -0.09849943       0.50819889       1.90817344       0.53186730
Ti       1.81513594       5.85954904       5.69809316      -0.15634489      -0.05489344      -0.21634933      -1.15284427       0.11606163       1.43215325
O       -0.09277050       5.93051316       5.79942395      -0.09277050       0.01607067      -0.11501854      -0.07592081       0.13700819      -0.44780667
O        1.80848500       3.92786159       6.15698081      -0.16299582      -0.01510007       0.24253832       0.27433347       0.00624531      -0.90188784
O        2.04364223       5.76037173       3.93105168       0.07216140      -0.15407076      -0.01190997      -0.36964421       0.13743071      -0.12629631
Sr       3.98026508       0.06074645      -0.03019523       0.03730342       0.06074645      -0.03019523       0.07325555      -0.58792162      -0.49862409
Ti       5.91842362       2.19314607       1.87425709       0.00398113       0.22166524      -0.09722373      -1.00487663      -1.81134349       0.38210941
O        3.79715624       1.74823402       1.54489755      -0.14580542      -0.22324680      -0.42658328      -0.42330470       0.58922528       1.23323403
O        5.88594865      -0.06232935       2.03050497      -0.02849383      -0.06232935       0.05902414       0.34629650       1.51657201       0.68674492
O        6.03810083       1.73188818      -0.07090713       0.12365834      -0.23959265      -0.07090713       0.25483136      -0.13841772      -0.50718707
Sr       4.12629749       0.01695461       4.02273371       0.18333583       0.01695461       0.07977205      -1.40728933       0.05707715      -1.06846063
Ti       6.28881023       1.88714744       5.96543917       0.37436774      -0.08433339       0.05099669     -10.49089833       0.10099370       1.46455987
O        3.94622182       2.11171874       5.99864365       0.00326016       0.14023791       0.08420116       2.00994681      -0.35882529       0.21439247
O        5.92017264       0.02118862       5.33916514       0.00573015       0.02118862      -0.57527735      -0.60973841       0.35464861       2.48390347
O        5.56498887       2.25159027       3.69950749      -0.34945362       0.28010944      -0.24345417       0.91803232      -0.46041919       1.32359243
Sr       4.01210762       3.90774264      -0.02221540       0.06914596      -0.03521902      -0.02221540      -1.66183550       0.07223288      -0.88409687
Ti       6.06589123       6.07020969       2.14823845       0.15144874       0.15576720       0.17675762      -3.36644468      -2.36433194      -1.39041062
O        3.71367727       6.06953730       1.89808214      -0.22928439       0.15509481      -0.07339869       5.16965527       0.50107577      -0.24437804
O        5.42277355       3.90456805       1.69321118      -0.49166894      -0.03839361      -0.27826965       1.80749919       1.37645311       0.59762907
O        5.69259236       6.12196502      -0.06847502      -0.22185013       0.20752253      -0.06847502       0.88452386       0.12651692       1.19108849
Sr       3.94413893       4.11539389       3.94029271       0.00117727       0.17243223      -0.00266895      -1.45929015      -1.46482140      -0.43637573
Ti       5.69483981       5.75434259       6.06140037      -0.21960267      -0.16009990       0.14695789       2.13723399       1.59238743      -1.00298704
O        3.78623319       5.82010903       6.05123768      -0.15672847      -0.09433346       0.13679519       0.63814347       0.07591145      -0.33512444
O        6.12215224       3.99619955       6.27667419       0.20770975       0.05323789       0.36223170      -0.81074485      -1.77223752      -1.08796235
O        5.55086267       5.60096027       3.89257221      -0.36357981      -0.31348222      -0.05038945       1.56595059       1.49713338       0.22664029
40
Lattice="7.88592331617382 -3.9133953383759446e-17 -1.7030621984787947e-18 1.771164357031209e-16 7.885923316173797 -2.036392580533196e-15 -1.4799097158469003e-16 -3.749052635145956e-15 7.885923316173799" Properties=species:S:1:pos:R:3:u_disp:R:3:forces:R:3 system=srtio3_cubic model=mace_mp0 T=600.0 seed=1 supercell=2x2x2 source="SSCHA free-energy-Hessian ensemble (final auxiliary dyn)" index=215 pair=107 energy=-310.18378225038083 pbc="T T T"
Sr      -0.09947280       0.02396254      -0.01027265      -0.09947280       0.02396254      -0.01027265       0.21380440       0.07256795      -1.50008406
Ti       1.87092903       2.05804083       1.83964659      -0.10055180       0.08656000      -0.13183424       0.93910470      -1.92231505      -0.09188499
O        0.11931363       1.56750607       1.49598377       0.11931363      -0.40397476      -0.47549706      -0.54501834       2.15469556       2.14077461
O        2.36447715      -0.02962464       1.78689876       0.39299632      -0.02962464      -0.18458207      -0.41186879      -0.93316158       0.64957255
O        2.25936523       2.10804780      -0.05376635       0.28788441       0.13656697      -0.05376635      -0.27817517       1.08779811       1.96818964
Sr      -0.01558312       0.00478556       3.84626898      -0.01558312       0.00478556      -0.09669268      -0.15435986      -0.50246812       0.01312996
Ti       1.97300780       2.02487650       5.87707360       0.00152697       0.05339567      -0.03736889       0.14851849      -0.61394595      -0.11458477
O        0.16238110       1.72882569       6.26609843       0.16238110      -0.24265514       0.35165594      -1.93903277       1.60743290      -0.66461384
O        2.30855767       0.05577175       6.26686702       0.33707684       0.05577175       0.35242454      -0.70987940      -1.18675501      -1.79580037
O        1.52267537       1.65752470       4.01492674      -0.44880546      -0.31395613       0.07196508       2.06911694       0.99477506      -0.46775413
Sr      -0.05520707       3.95176326       0.02194105      -0.05520707       0.00880160       0.02194105       0.15259497       0.13592866       0.23893368
Ti       1.95654583       5.97083985       2.06456707      -0.01493499       0.05639736       0.09308624      -0.50002048       2.08133480       0.47282253
O       -0.05701651       6.29808899       1.47028529      -0.05701651       0.38364650      -0.50119554       0.67482449      -2.83845530       2.21444096
O        1.46102014       3.86103727       2.41733438      -0.51046069      -0.08192439       0.44585355       3.81301760       0.61168469      -5.06894024
O        2.13223228       5.85726877      -0.09375679       0.16075145      -0.05717371      -0.09375679       0.92222338      -1.67855500       5.46553186
Sr       0.15893489       3.87952030       3.95329027       0.15893489      -0.06344136       0.01032862      -3.67236918      -0.09122620       3.22801082
Ti       2.02059384       5.95038654       6.15984149       0.04911301       0.03594405       0.24539901       0.42266311       0.73504241      -6.80384413
O       -0.02590157       6.07485132       6.21862742      -0.02590157       0.16040884       0.30418494       1.12975146      -0.35218838      -0.42341151
O        1.77985532       3.94613602       5.66066456      -0.19162551       0.00317436      -0.25377793       0.44818131       0.73603533       1.19512114
O        1.59962460       6.26813632       3.87481008      -0.37185623       0.35369384      -0.06815158       1.24175657      -1.50046979      -1.07348794
Sr       4.14141495      -0.00080907      -0.14949544       0.19845329      -0.00080907      -0.14949544      -1.87224400       0.34745475       0.74583616
Ti       5.82239873       1.92425893       2.01097098      -0.09204376      -0.04722189       0.03949016      -0.58220385      -0.24025355       1.18895615
O        3.93967226       2.34736764       2.29382561      -0.00328940       0.37588681       0.32234478       0.62127143      -1.63974294      -1.35577320
O        5.52587898      -0.13732296       1.61237863      -0.38856351      -0.13732296      -0.35910220       1.35899732       0.23919981       2.44636018
O        5.59957780       1.97617834      -0.09708956      -0.31486469       0.00469752      -0.09708956       1.35162680       0.76523872       1.13681393
Sr       3.78934381      -0.10083732       4.08406263      -0.15361784      -0.10083732       0.14110098      -0.07630218       1.02866576      -0.62262444
Ti       5.97738719       2.30002859       5.97900378       0.06294470       0.32854776       0.06456130      -1.03255013      -4.11759954      -1.60810211
O        4.05399367       2.31832315       5.72309909       0.11103201       0.34684233      -0.19134340      -0.13773947      -1.15699959      -0.21874755
O        5.70375542      -0.10560692       6.01515444      -0.21068707      -0.10560692       0.10071195       0.40004208       2.96090316      -0.83546838
O        6.32161533       1.61498180       3.86032599       0.40717285      -0.35649903      -0.08263567      -1.87322082       1.65291105      -0.59026084
Sr       4.09209241       3.88034517       0.04192172       0.14913075      -0.06261648       0.04192172      -2.80779634      -2.25139172       0.44645526
Ti       5.87912207       5.81743053       2.20301149      -0.03532041      -0.09701196       0.23153066      -1.08718146       0.42145504      -7.68084560
O        3.95365845       5.34969858       2.27317072       0.01069679      -0.56474391       0.30168989      -0.75634520       3.17157437      -2.99064433
O        6.24822380       3.80464664       2.02459476       0.33378131      -0.13831501       0.05311393      -0.06215052      -0.11435977      -0.73147165
O        5.36424192       5.46351116      -0.21668576      -0.55020056      -0.45093133      -0.21668576       3.43404717       3.83333235      -0.27637612
Sr       3.77768956       4.03126256       3.88664240      -0.16527210       0.08830091      -0.05631926      -0.22761328      -2.86132807       2.87472153
Ti       6.04539419       6.12949858       6.07462981       0.13095171       0.21505609       0.16018733      -2.14298656      -5.38778727      -1.29320375
O        3.96812141       5.75713028       5.24547682       0.02515975      -0.15731221      -0.66896567      -0.41156049       1.71885968       2.91239926
O        6.10412261       3.94634005       5.60998940       0.18968013       0.00337839      -0.30445309       0.81872387       1.95417061       0.44684301
O        6.34963803       5.79835750       3.73416911       0.43519554      -0.11608499      -0.20879255       1.12035218       1.07794208       6.42301071
40
Lattice="7.88592331617382 -3.9133953383759446e-17 -1.7030621984787947e-18 1.771164357031209e-16 7.885923316173797 -2.036392580533196e-15 -1.4799097158469003e-16 -3.749052635145956e-15 7.885923316173799" Properties=species:S:1:pos:R:3:u_disp:R:3:forces:R:3 system=srtio3_cubic model=mace_mp0 T=600.0 seed=1 supercell=2x2x2 source="SSCHA free-energy-Hessian ensemble (final auxiliary dyn)" index=220 pair=110 energy=-310.81484365425564 pbc="T T T"
Sr      -0.01701500      -0.08856617       0.00951339      -0.01701500      -0.08856617       0.00951339      -0.32586261      -0.09391368      -0.06816117
Ti       2.10085947       2.28041483       2.06904737       0.12937864       0.30893400       0.09756654      -0.57536709      -6.58925664       1.65759881
O       -0.13351867       2.44177990       1.83440862      -0.13351867       0.47029907      -0.13707221       3.55928274      -1.22491455       0.38224400
O        1.49853592      -0.16895143       2.16975949      -0.47294491      -0.16895143       0.19827866       0.65482431       2.12651722      -2.33006719
O        2.16547940       1.57204719      -0.11414158       0.19399857      -0.39943364      -0.11414158      -0.93984551       0.79241068       1.82845633
Sr       0.13090504       0.00834651       3.86118487       0.13090504       0.00834651      -0.08177679      -2.24322912       0.61662987       1.14096177
Ti       2.05974380       1.80853205       5.99725711       0.08826297      -0.16294877       0.08281462       0.00501675       1.29610504      -3.74410703
O       -0.16525298       2.28225109       6.20040618      -0.16525298       0.31077026       0.28596370       3.31856465      -0.89213134      -0.14234755
O        1.65670812       0.06443703       5.37672173      -0.31477271       0.06443703      -0.53772076       2.20135981       0.26945158       3.37240280
O        1.50778996       2.14049617       3.83685429      -0.46369087       0.16901534      -0.10610737       0.75279942       0.79027052      -0.78074528
Sr       0.01237318       3.84083179       0.09159105       0.01237318      -0.10212987       0.09159105       0.13598509       0.63755447      -3.00649428
Ti       1.87016648       6.04444300       2.23978573      -0.10131434       0.13000051       0.26830490       0.00869058      -2.94506478      -5.49981628
O       -0.13903509       5.31305268       1.61112111      -0.13903509      -0.60138980      -0.36035972       0.61381401       3.72494679       2.96853030
O        2.29978746       3.87722250       1.59891175       0.32830663      -0.06573916      -0.37256907      -0.17136862       3.67283120       0.37170235
O        2.28844609       6.01906532      -0.15962734       0.31696526       0.10462283      -0.15962734      -0.23975970       1.09316273       6.16097000
Sr      -0.03685856       3.91124268       4.03688935      -0.03685856      -0.03171898       0.09392769       0.44335763       0.81536831       0.28196528
Ti       1.97933684       5.78821530       6.12828419       0.00785601      -0.12622718       0.21384170      -1.75858655      -0.19973101      -6.03708765
O       -0.01934463       5.92180816       6.26989810      -0.01934463       0.00736567       0.35545561      -1.17737527      -0.02350823      -0.69601371
O        1.82500365       3.94813557       5.99595284      -0.14647718       0.00517391       0.08151035       0.75871594      -0.78620045       0.34416641
O        1.72901015       5.71890073       3.85878301      -0.24247068      -0.19554176      -0.08417864      -0.37537025      -0.90902525       3.60653939
Sr       3.86588396      -0.03081447      -0.03205991      -0.07707770      -0.03081447      -0.03205991       1.12869767       0.40120967       0.25253655
Ti       6.06540196       2.30845313       1.91280997       0.15095947       0.33697230      -0.05867086      -5.04169494      -2.63233468      -0.34528732
O        3.77491523       1.48946313       2.35548054      -0.16804643      -0.48201770       0.38399971      -0.27756327       1.89720105      -1.37249951
O        6.23490369      -0.05602782       2.28346709       0.32046120      -0.05602782       0.31198626       0.02937962       3.41119059      -0.97752876
O        5.58642091       2.03176412      -0.01039328      -0.32802157       0.06028329      -0.01039328       0.61540745      -0.94946105       0.84593256
Sr       4.08937956      -0.26441641       3.81728566       0.14641790      -0.26441641      -0.12567600      -0.63302546       2.82438363       3.55268876
Ti       6.10385586       1.83413630       5.76725851       0.18941337      -0.13734453      -0.14718398      -4.02556128       5.49494382       2.14856141
O        3.82685466       2.10375694       5.40827602      -0.11610700       0.13227612      -0.50616647      -0.82064940      -1.37225102       1.89593390
O        6.07311665       0.20574944       5.63280083       0.15867416       0.20574944      -0.28164166      -0.32699225      -6.51237502       0.13228926
O        6.09643563       2.30527110       4.01268692       0.18199315       0.33379027       0.06972526      -0.19890265       0.26983158      -2.57705116
Sr       3.94841289       4.10740413      -0.00702903       0.00545123       0.16444247      -0.00702903       0.84091248      -0.27334109      -1.28459231
Ti       5.78687212       6.21747170       2.03191071      -0.12757037       0.30302921       0.06042988       1.44804125      -5.39102471      -2.62731110
O        3.87282068       6.18967976       2.21305531      -0.07014098       0.27523728       0.24157448      -0.50741414      -1.30466993      -1.78230631
O        5.39531642       3.93086066       1.81241131      -0.51912606      -0.01210099      -0.15906952       0.34681050       1.09022799       1.01095385
O        5.60141436       6.23618107       0.02495123      -0.31302813       0.32173858       0.02495123       0.55397791       0.10285508       0.30719681
Sr       3.99591620       3.85835684       3.89373402       0.05295454      -0.08460482      -0.04922764      -0.11869176       0.41029297       0.55079494
Ti       5.98964113       5.78686151       5.86092199       0.07519864      -0.12758098      -0.05352050       0.02151905       3.25709278       1.43478303
O        3.74771404       6.07961673       5.73539940      -0.19524762       0.16517425      -0.17904309       2.26994020       0.00589672      -0.65993870
O        5.64565341       4.17273041       6.13833233      -0.26878908       0.22976876       0.22388984       0.31976559      -2.58046581      -0.53711960
O        6.06760865       5.82169037       3.93843400       0.15316616      -0.09275212      -0.00452766      -0.26960280      -0.32070504       0.22126638
40
Lattice="7.88592331617382 -3.9133953383759446e-17 -1.7030621984787947e-18 1.771164357031209e-16 7.885923316173797 -2.036392580533196e-15 -1.4799097158469003e-16 -3.749052635145956e-15 7.885923316173799" Properties=species:S:1:pos:R:3:u_disp:R:3:forces:R:3 system=srtio3_cubic model=mace_mp0 T=600.0 seed=1 supercell=2x2x2 source="SSCHA free-energy-Hessian ensemble (final auxiliary dyn)" index=224 pair=112 energy=-309.0296094059099 pbc="T T T"
Sr      -0.12616106       0.09139612       0.00622893      -0.12616106       0.09139612       0.00622893       1.57750828      -0.19490904       0.27942894
Ti       2.30027032       2.18593164       1.80601889       0.32878949       0.21445081      -0.16546194     -20.87996072       4.59965423       1.18059386
O       -0.14660408       2.05786371       2.06292811      -0.14660408       0.08638288       0.09144728      13.84197422       0.20077918       0.57648514
O        1.53858886      -0.02801115       1.96698818      -0.43289197      -0.02801115      -0.00449265       1.14480413      -0.30564841      -0.69954719
O        1.82877294       2.18914022       0.08208324      -0.14270788       0.21765940       0.08208324      -0.00326782      -0.61322301      -1.86835847
Sr      -0.20420490       0.03651710       3.70926394      -0.20420490       0.03651710      -0.23369772       0.70395258      -0.33303017       1.64539717
Ti       1.79907525       1.77201988       5.75326750      -0.17240558      -0.19946095      -0.16117498       4.52016524       1.30352114       0.58632780
O        0.14135184       2.16566185       5.73035864       0.14135184       0.19418102      -0.18408385      -5.04464863       0.31658848       0.64296431
O        1.81986202       0.01388556       6.19386013      -0.15161881       0.01388556       0.27941765      -0.38498161      -2.05438686       0.29395000
O        1.94846705       1.72158744       3.94013976      -0.02301377      -0.24989339      -0.00282190       0.00511061      -0.02262832      -0.43913729
Sr       0.07057382       3.77181993      -0.15819475       0.07057382      -0.17114173      -0.15819475       0.63038183       0.47518306      -0.14348784
Ti       1.98192794       6.05667805       1.84792832       0.01044711       0.14223556      -0.12355251      -1.23296398      -1.62758848      -0.29051262
O       -0.08832832       5.77292925       2.25472841      -0.08832832      -0.14151324       0.28324758      -0.00434555      -0.26230674       0.20753741
O        2.10824850       3.96246727       2.39255746       0.13676767       0.01950561       0.42107663       0.07314382       1.63964232      -0.68494273
O        1.64006610       5.58526434       0.12821327      -0.33141473      -0.32917815       0.12821327       0.69489183       1.20990228       0.45260701
Sr       0.06825535       3.92355195       4.00922272       0.06825535      -0.01940970       0.06626107       0.09337359       0.07206082      -0.26155801
Ti       1.96066475       5.82845438       5.76843016      -0.01081608      -0.08598810      -0.14601233       0.11736016      -0.79815198       3.96626292
O       -0.04834835       5.59003272       5.79570091      -0.04834835      -0.32440977      -0.11874157       0.00994441       0.39495465      -0.04843098
O        2.06779179       3.92311488       5.88922792       0.09631096      -0.01984677      -0.02521457       0.37800023       1.06611279      -0.75638272
O        2.31088074       6.17653279       4.12557947       0.33939991       0.26209030       0.18261781      -1.44108918      -1.37197860      -2.85845585
Sr       3.94178785      -0.09131116       0.07631856      -0.00117381      -0.09131116       0.07631856      -0.24974110       4.16980731      -3.72659814
Ti       6.23429377       2.15750696       2.02033143       0.31985128       0.18602613       0.04885060     -16.26574883      -2.05797572      -0.23651763
O        3.68041356       1.78057120       1.95927443      -0.26254810      -0.19090963      -0.01220640      20.46441809      -5.77728110       1.16857350
O        6.10253101      -0.07381566       1.85257004       0.18808852      -0.07381566      -0.11891079      -0.25154710       1.06242451      -1.02860075
O        5.98105237       2.09495163      -0.07926661       0.06660989       0.12347080      -0.07926661       0.61689861       0.02424928       1.52189624
Sr       3.76410867      -0.07807795       3.83527419      -0.17885299      -0.07807795      -0.10768747       1.65325469       2.25067174       0.36842830
Ti       5.77490648       1.73950921       5.94159444      -0.13953601      -0.23197162       0.02715195      -1.50387671       2.06906793      -1.89612967
O        3.97652343       1.77343011       6.05294515       0.03356177      -0.19805072       0.13850266      -0.04354287      -0.90951900      -0.16703702
O        6.33781273      -0.03449483       6.01422358       0.42337024      -0.03449483       0.09978109      -0.83114330      -1.32953073       0.64668785
O        5.68234471       1.58898833       3.89113136      -0.23209778      -0.38249250      -0.05183030       1.35402895       0.75197579      -0.03534679
Sr       4.15028067       4.14088178       0.00171597       0.20731901       0.19792013       0.00171597      -1.56264126      -1.36585125      -0.33422085
Ti       5.95688502       6.03586788       2.15231952       0.04244254       0.12142539       0.18083869      -0.03163422      -1.16361209       1.26595662
O        3.90883815       6.38937606       1.51281680      -0.03412351       0.47493357      -0.45866403      -0.37533968      -4.27269694       4.11902644
O        5.61215012       3.81690062       2.26591124      -0.30229237      -0.12606104       0.29443041       0.66830835       2.49377921      -0.93707097
O        6.14931379       5.57338467       0.04166385       0.23487130      -0.34105782       0.04166385       0.25482250      -0.11959443       4.11132752
Sr       4.10037669       4.08117250       4.09306037       0.15741504       0.13821085       0.15009871      -3.12599578      -0.26344915      -2.13338192
Ti       5.99226582       5.83370420       6.28122144       0.07782333      -0.08073828       0.36677896      -1.14934483       0.75019849      -7.56214718
O        3.94958301       6.05419478       6.24807104       0.00662135       0.13975229       0.33362856       0.38123490      -0.11615125       0.24405645
O        5.45008422       3.84180153       5.57672170      -0.46435826      -0.10116013      -0.33772078       4.71252737       0.60467427       4.28397633
O        5.57916145       6.15594193       3.96837730      -0.33528104       0.24149944       0.02541564       0.48570878      -0.49573423      -1.45361919
40
Lattice="7.88592331617382 -3.9133953383759446e-17 -1.7030621984787947e-18 1.771164357031209e-16 7.885923316173797 -2.036392580533196e-15 -1.4799097158469003e-16 -3.749052635145956e-15 7.885923316173799" Properties=species:S:1:pos:R:3:u_disp:R:3:forces:R:3 system=srtio3_cubic model=mace_mp0 T=600.0 seed=1 supercell=2x2x2 source="SSCHA free-energy-Hessian ensemble (final auxiliary dyn)" index=236 pair=118 energy=-315.53094177702445 pbc="T T T"
Sr      -0.08891475       0.17581992       0.10946126      -0.08891475       0.17581992       0.10946126       1.15004351      -1.12184536      -0.19426104
Ti       1.79955457       2.01829016       1.97438030      -0.17192626       0.04680933       0.00289948       2.96050919      -0.82192262       0.90306945
O        0.06410608       2.01800250       1.91085217       0.06410608       0.04652167      -0.06062866      -3.28940869       0.95407519      -0.23244472
O        1.71194613       0.12046504       2.20970190      -0.25953470       0.12046504       0.23822107       0.80723273      -1.32852893      -0.14191919
O        1.94030900       1.94525028       0.04466364      -0.03117183      -0.02623055       0.04466364      -0.20005990       0.18311357      -0.88470525
Sr       0.05134642      -0.24416590       4.03045848       0.05134642      -0.24416590       0.08749682      -0.16331006       0.87264966      -0.71138334
Ti       2.24171153       2.09279678       5.95634535       0.27023070       0.12131595       0.04190286     -13.59854551      -1.29879847      -0.53227374
O       -0.01736255       2.17028051       5.98258452      -0.01736255       0.19879968       0.06814204       1.27808284      -0.59244714      -0.14962078
O        1.80251116       0.02486376       6.01791672      -0.16896967       0.02486376       0.10347424       0.39639568       0.00481883      -0.90440536
O        1.84354628       2.42879055       3.99137643      -0.12793455       0.45730972       0.04841477       1.30839418      -1.59743055       0.15702595
Sr       0.06274845       3.83911148      -0.05615664       0.06274845      -0.10385018      -0.05615664      -0.34662521       0.53499937       0.32788085
Ti       2.16013685       5.85765391       1.94364508       0.18865602      -0.05678858      -0.02783575      -1.28163871       0.07344644       0.90132884
O       -0.08983911       5.72312954       2.06881848      -0.08983911      -0.19131295       0.09733765       2.30497871       0.11854300      -0.59216015
O        2.28420493       3.90954000       1.84238796       0.31272410      -0.03342166      -0.12909287      -0.63738570       2.04728074      -0.05614032
O        2.06982648       6.21056403       0.09505906       0.09834565       0.29612154       0.09505906      -0.28533544      -1.38265973       0.09623182
Sr      -0.02239699       3.91955166       3.93906044      -0.02239699      -0.02341000      -0.00390122       0.04757561      -0.13432276      -0.18032737
Ti       1.81075710       5.95874115       5.83402251      -0.16072373       0.04429866      -0.08041998       0.92911129       1.04369167       0.56353984
O        0.00834123       5.76140260       5.89695547       0.00834123      -0.15303989      -0.01748702      -0.45177618      -0.06347919       0.78048237
O        2.02894226       3.97587702       6.06325357       0.05746143       0.03291536       0.14881109       0.05438381       1.38067514       0.45614213
O        1.84188139       5.93739861       4.02613725      -0.12959944       0.02295613       0.08317560       0.26757941      -0.53866478      -0.64765551
Sr       3.77874056      -0.02443317       0.04833343      -0.16422110      -0.02443317       0.04833343       0.54895280       0.54413046      -0.31066060
Ti       5.78038652       1.87381211       1.80853776      -0.13405597      -0.09766872      -0.16294306      -0.97433992       1.26096850       1.17077048
O        3.92580911       1.68304895       1.80206730      -0.01715255      -0.28843188      -0.16941353       0.49501443       0.37834469       1.01538726
O        5.94947389      -0.00040089       2.24348536       0.03503140      -0.00040089       0.27200453       0.96413137      -0.89163455      -0.13270003
O        5.89019925       1.64747374       0.01140875      -0.02424324      -0.32400708       0.01140875       0.44521922      -0.20501865      -1.49431042
Sr       4.08535449       0.11274869       3.80377881       0.14239283       0.11274869      -0.13918285      -0.57210384      -0.43238921       0.42338662
Ti       6.18964202       1.94859285       5.84334533       0.27519953      -0.02288798      -0.07109715      -2.79445105       0.34494343       0.00458941
O        3.77794156       2.05227982       6.01280313      -0.16502009       0.08079900       0.09836064      12.09318409      -1.01507505      -0.12605802
O        5.98995946      -0.13433068       5.77602988       0.07551697      -0.13433068      -0.13841261       0.53941397       1.67984633      -0.30075992
O        5.84743477       2.19007060       3.91535929      -0.06700772       0.21858977      -0.02760237       0.22084867      -0.55270446       1.37100356
Sr       3.81312317       4.20114023      -0.22046807      -0.12983849       0.25817857      -0.22046807       1.04142366      -0.66496489       1.68063202
Ti       6.05840972       5.82519552       1.86806636       0.14396724      -0.08924697      -0.10341447      -2.13987215      -0.65067200       2.00775231
O        3.87266792       6.09889543       2.30574936      -0.07029374       0.18445295       0.33426853       0.82323034      -0.12698285      -0.83735735
O        5.78274646       3.87722132       1.66691667      -0.13169603      -0.06574034      -0.30456416       0.02664543       0.10580356       0.22680091
O        5.79897080       6.06525271       0.12457736      -0.11547168       0.15081022       0.12457736      -0.01293474       0.44791417      -2.02958975
Sr       4.00868021       3.81993091       4.14884963       0.06571855      -0.12303075       0.20588797      -0.01312482       1.10729743      -1.60011672
Ti       5.86316281       5.88495270       5.84507753      -0.05127967      -0.02948979      -0.06936496       0.58915645      -0.61622414      -0.39227376
O        4.07731468       6.00907244       5.78750697       0.13435303       0.09462995      -0.12693552      -2.05258641      -0.55417832       0.40540461
O        5.84770985       3.80318179       6.31802149      -0.06673264      -0.13977987       0.40357901      -0.09619107       0.52737869      -0.81868332
O        5.98877549       5.43963548       3.98024609       0.07433301      -0.47480700       0.03728443      -0.38181798       0.98002276       0.77837823
40
Lattice="7.88592331617382 -3.9133953383759446e-17 -1.7030621984787947e-18 1.771164357031209e-16 7.885923316173797 -2.036392580533196e-15 -1.4799097158469003e-16 -3.749052635145956e-15 7.885923316173799" Properties=species:S:1:pos:R:3:u_disp:R:3:forces:R:3 system=srtio3_cubic model=mace_mp0 T=600.0 seed=1 supercell=2x2x2 source="SSCHA free-energy-Hessian ensemble (final auxiliary dyn)" index=293 pair=146 energy=-300.1469759732085 pbc="T T T"
Sr      -0.11516775      -0.19057708      -0.01907093      -0.11516775      -0.19057708      -0.01907093       0.52227874       1.03950544       1.08259466
Ti       2.02818698       2.01433510       1.92574995       0.05670615       0.04285427      -0.04573088      -0.50379810       0.34755598       1.24373531
O        0.03561697       1.80006233       2.14188252       0.03561697      -0.17141850       0.17040169      -0.25687590       0.49005173      -0.03404541
O        2.06414532      -0.06415585       1.88708865       0.09266449      -0.06415585      -0.08439218       0.63602251       0.61308859      -0.33144294
O        1.92844161       1.89018279       0.07390405      -0.04303922      -0.08129804       0.07390405      -0.46160377       0.77603571      -1.19163801
Sr      -0.08578841       0.24135667       4.09678156      -0.08578841       0.24135667       0.15381990      -1.00049706      -1.70889269      -3.63300111
Ti       1.60809587       1.85154127       5.93936836      -0.36338496      -0.11993955       0.02492588      26.80455734      -0.54869708       7.10277453
O        0.27107297       1.86582000       5.47458238       0.27107297      -0.10566083      -0.43986010     -23.26169566       1.82230006      -4.85789297
O        2.43906827      -0.02813091       6.17241210       0.46758744      -0.02813091       0.25796961      -2.57118336      -0.19461184      -1.27113389
O        2.16973188       1.73576201       3.93952194       0.19825105      -0.23571882      -0.00343972      -0.18799873       0.32153537       1.06494520
Sr      -0.04126172       3.94555224      -0.13701519      -0.04126172       0.00259058      -0.13701519       2.20754384      -2.30818548       0.70759265
Ti       2.00312378       6.09852178       1.88390582       0.03164295       0.18407929      -0.08757501      -1.05103542      -2.72862725       1.45489596
O        0.11548447       6.10367966       2.67050520       0.11548447       0.18923717       0.69902437       0.17172747       0.06919771      -2.78503942
O        1.95212828       3.82775563       2.25371292      -0.01935255      -0.11520603       0.28223209       0.18352114       1.00759203      -1.26527804
O        1.34870485       5.60462574      -0.06738966      -0.62277598      -0.30981674      -0.06738966       3.30862359       3.05716664       0.93069771
Sr       0.12338728       3.91981907       3.86875758       0.12338728      -0.02314259      -0.07420407       0.82257323       0.37247568      -0.94392864
Ti       1.77091093       5.73192764       5.85542615      -0.20056990      -0.18251485      -0.05901634       3.29441726       4.67494836       0.60986764
O        0.30357285       6.18417482       5.11094064       0.30357285       0.26973233      -0.80350185      -1.81594994      -1.34864118       1.88423680
O        1.98457551       3.98415164       5.87963693       0.01309468       0.04118999      -0.03480556       0.16617975      -3.67811461      -0.44508543
O        2.82606459       5.90773622       3.94130103       0.85458376      -0.00670627      -0.00166063      -3.35625571      -2.63863055      -0.33444743
Sr       4.00142699       0.15672766      -0.03759244       0.05846533       0.15672766      -0.03759244      -0.36899803      -0.43044596       1.06081806
Ti       5.96027829       2.15260458       2.03141422       0.04583581       0.18112375       0.05993339       0.24950392      -1.24329558      -0.47246773
O        4.02584260       2.22044565       1.93889892       0.08288095       0.24896482      -0.03258191      -0.17256069       0.00717018      -1.19821144
O        5.73369965       0.14885772       1.63571945      -0.18074284       0.14885772      -0.33576138       1.38939760      -1.57949520       0.87728420
O        6.29239048       2.52041912      -0.06427524       0.37794800       0.54893830      -0.06427524      -3.68397156      -2.65996229       0.46115814
Sr       3.90320249      -0.21676846       4.03958584      -0.03975917      -0.21676846       0.09662418      -1.31580842       5.26324243       0.12687248
Ti       5.58898968       1.86631417       5.93028236      -0.32545281      -0.10516666       0.01583988      40.23807487      -3.57002050      -3.98895102
O        4.27377413       2.07994477       6.04991717       0.33081247       0.10846394       0.13547468     -38.94893665       6.61761444       4.00318759
O        5.94928919       0.11722974       6.33081914       0.03484670       0.11722974       0.41637665       0.39224459      -1.82556543      -1.04308247
O        5.63967200       1.70100877       3.91650756      -0.27477049      -0.27047206      -0.02645410       1.20535795       0.41438012       0.43542003
Sr       3.96619442       4.08331569      -0.01417766       0.02323276       0.14035403      -0.01417766      -0.61658751      -2.35681987       0.77997735
Ti       5.89489776       6.03107312       2.12758022      -0.01954472       0.11663063       0.15609939       0.45359617       0.16821633      -0.43599589
O        4.12856663       5.88664349       1.26248089       0.18560497      -0.02779900      -0.70899994      -0.36782787       0.53756952       2.68604793
O        6.17866889       4.01043624       2.46149172       0.26422640       0.06747458       0.49001089      -1.33787930       0.76079246      -1.45382604
O        6.68291779       5.68384875      -0.05503656       0.76847530      -0.23059374      -0.05503656      -3.34286055       1.87105582      -0.28585163
Sr       3.84604178       3.77409855       3.91654986      -0.09691987      -0.16886311      -0.02641180       0.38584669      -0.09065669      -0.32010334
Ti       5.81299465       5.74119830       5.92887598      -0.10144784      -0.17324418       0.01443350       3.67988852       1.65446446      -0.38861396
O        4.26751453       5.86759750       6.58449188       0.32455288      -0.04684499       0.67004939      -2.50568987      -0.14041553      -1.22048498
O        6.36738146       4.05209152       5.41158869       0.45293897       0.10912987      -0.50285380      -2.06812891      -0.63615075       1.98688261
O        5.45432957       6.24652871       3.99023842      -0.46011292       0.33208623       0.04727676       3.08478784      -2.19873058      -0.59846704
40
Lattice="7.88592331617382 -3.9133953383759446e-17 -1.7030621984787947e-18 1.771164357031209e-16 7.885923316173797 -2.036392580533196e-15 -1.4799097158469003e-16 -3.749052635145956e-15 7.885923316173799" Properties=species:S:1:pos:R:3:u_disp:R:3:forces:R:3 system=srtio3_cubic model=mace_mp0 T=600.0 seed=1 supercell=2x2x2 source="SSCHA free-energy-Hessian ensemble (final auxiliary dyn)" index=295 pair=147 energy=-311.4563221730918 pbc="T T T"
Sr       0.02260039       0.12856881       0.14803164       0.02260039       0.12856881       0.14803164      -0.93624040       0.60599139      -0.68352159
Ti       1.97973979       1.81202215       2.12790460       0.00825896      -0.15945867       0.15642377       0.07080758       5.56179297      -0.96684039
O       -0.06086075       2.23556948       2.43859916      -0.06086075       0.26408865       0.46711834       1.85254782      -2.04475662      -1.81316506
O        1.91553246       0.16278969       2.18045353      -0.05594837       0.16278969       0.20897270       0.16707685      -3.86169417       0.89497548
O        1.60608652       1.95781349       0.09754346      -0.36539431      -0.01366734       0.09754346       1.03154412      -0.13977616       0.48620229
Sr      -0.11510092      -0.15915627       3.86741541      -0.11510092      -0.15915627      -0.07554625      -0.29764576       2.51619246       1.55342813
Ti       2.05463059       1.97550061       6.01308439       0.08314976       0.00401978       0.09864191       0.43886161      -0.12714210      -0.01482695
O        0.02504798       2.13223867       5.72703743       0.02504798       0.16075784      -0.18740505       0.21302427      -0.01851808       0.47354019
O        1.80201658       0.02317341       5.63977878      -0.16946425       0.02317341      -0.27466371      -0.55981376      -0.39719216       0.55948632
O        2.35116424       2.33386008       4.01383656       0.37968341       0.36237926       0.07087490      -0.74450064      -1.07494312      -0.10115458
Sr      -0.00216658       3.99646140      -0.11929321      -0.00216658       0.05349974      -0.11929321       0.23517609      -0.89478343      -0.06621931
Ti       1.93511451       5.73265170       1.83982358      -0.03636632      -0.18179079      -0.13165725      -0.37032406       5.71733323       1.51482018
O        0.15965733       6.02819424       2.59638201       0.15965733       0.11375176       0.62490118       0.42189159      -2.81372451      -1.89206340
O        2.20344103       4.09452715       1.98949143       0.23196020       0.15156549       0.01801061      -0.18279421      -3.79803059      -0.55667354
O        1.58909285       6.41093129       0.16832414      -0.38238798       0.49648880       0.16832414       1.24149313      -2.64514463      -1.12142245
Sr       0.07944501       3.77924532       3.97311994       0.07944501      -0.16371633       0.03015829      -0.00181756       1.03993301       0.47460076
Ti       1.71032986       5.97842808       5.77779028      -0.26115097       0.06398559      -0.13665221       4.08986794       0.82807457       1.51137955
O        0.04235310       5.51172814       5.74086186       0.04235310      -0.40271435      -0.17358063      -2.46021643       0.40012206      -0.69357061
O        2.12069021       3.91626783       6.34844370       0.14920939      -0.02669383       0.43400121      -0.91451230       0.66691999      -1.73478253
O        2.64321839       5.84116821       4.21041012       0.67173756      -0.07327427       0.26744846      -1.53624451       0.00327980      -1.02727890
Sr       3.88372982      -0.03719051      -0.13510578      -0.05923184      -0.03719051      -0.13510578      -0.34781056       2.20561437       4.36279265
Ti       5.94883522       1.86922870       1.94835029       0.03439273      -0.10225213      -0.02313054      -0.07919490       0.97455986       0.37718481
O        4.11941482       1.85122208       1.69746905       0.17645316      -0.12025875      -0.27401178      -1.93113991       0.61313191       0.92101058
O        6.16275603       0.11751868       2.01763437       0.24831355       0.11751868       0.04615354      -0.33875945      -1.44186873       0.39210430
O        6.22906138       2.01355440       0.00652860       0.31461889       0.04207357       0.00652860       0.03388551       0.49518805       1.02751913
Sr       3.93712206       0.02179219       3.78866282      -0.00583960       0.02179219      -0.15429884       0.18006234       0.61527250       0.63717580
Ti       6.02033632       1.96637430       5.98988602       0.10589383      -0.00510652       0.07544353      -0.83552446      -0.68321379      -1.26815030
O        3.93225071       1.51573972       6.29543376      -0.01071095      -0.45574111       0.38099127      -0.97058532       2.91662201      -2.28643789
O        6.15304017      -0.05539033       5.80598734       0.23859769      -0.05539033      -0.10845515      -0.23998946      -0.79987759       0.65290506
O        5.64728826       1.97713752       4.13456279      -0.26715423       0.00565669       0.19160113       0.10591246      -0.35952009      -1.55359838
Sr       3.74806767       4.11984929      -0.07938888      -0.19489399       0.17688763      -0.07938888       1.74566448      -1.52489867       0.86764753
Ti       5.93180572       5.67571365       1.75238430       0.01736323      -0.23872884      -0.21909653      -0.36646967       5.27534368       0.69033487
O        4.05402533       6.02199097       1.45699298       0.11106368       0.10754849      -0.51448785       0.18687390      -0.60857476       1.97103606
O        6.01500106       4.06267436       2.27903680       0.10055858       0.11971270       0.30755597      -0.25164095      -2.98333127      -0.36987928
O        6.62957616       6.04553516       0.16346707       0.71513368       0.13109267       0.16346707      -1.10415519      -1.57489933      -0.69467158
Sr       4.10750306       4.00650121       4.02788621       0.16454140       0.06353955       0.08492455      -0.73498433      -1.55184466      -1.03162675
Ti       5.65540014       5.94821168       5.70331742      -0.25904235       0.03376919      -0.21112507       1.62298443       0.66372439       7.47504624
O        4.02683753       6.16345733       6.68154314       0.08387588       0.24901484       0.76710066       0.77443324      -4.00986556      -4.70420255
O        5.48844316       3.82170839       5.91655133      -0.42599932      -0.12125327       0.00210884       1.03790754       1.83283504       0.99685233
O        5.53006705       5.96648747       4.06895985      -0.38437543       0.05204498       0.12599819      -0.24565109       0.42166874      -5.25995623
40
Lattice="7.88592331617382 -3.9133953383759446e-17 -1.7030621984787947e-18 1.771164357031209e-16 7.885923316173797 -2.036392580533196e-15 -1.4799097158469003e-16 -3.749052635145956e-15 7.885923316173799" Properties=species:S:1:pos:R:3:u_disp:R:3:forces:R:3 system=srtio3_cubic model=mace_mp0 T=600.0 seed=1 supercell=2x2x2 source="SSCHA free-energy-Hessian ensemble (final auxiliary dyn)" index=301 pair=150 energy=-311.0540215598912 pbc="T T T"
Sr       0.23841662       0.02977551      -0.03883476       0.23841662       0.02977551      -0.03883476      -0.59973944      -0.57096918      -1.12196255
Ti       2.06903535       1.61109997       1.95474760       0.09755452      -0.36038085      -0.01673323      -1.63797426      14.64669860       1.95307169
O       -0.13135081       1.82590483       1.43629672      -0.13135081      -0.14557600      -0.53518411       5.01960689       0.05375862       0.57447112
O        2.30112647       0.09738418       1.88086734       0.32964564       0.09738418      -0.09061349       1.46776753     -10.41589830      -0.56974314
O        2.21035212       2.14238478      -0.13589242       0.23887129       0.17090395      -0.13589242      -0.46586363      -0.27568676       3.39994675
Sr       0.00716783      -0.05461510       4.07106649       0.00716783      -0.05461510       0.12810483      -0.34729941      -0.27268944       0.25709061
Ti       2.14658689       2.05662289       6.03813690       0.17510606       0.08514206       0.12369442      -1.82757875      -0.39183812      -4.43613924
O       -0.09821561       1.65367920       5.98860282      -0.09821561      -0.31780163       0.07416033       0.18852788       0.99010265       0.37980678
O        2.38492877      -0.01789984       6.04609673       0.41344795      -0.01789984       0.13165424      -0.92840802       1.14498503       0.62059579
O        1.56178838       1.95111912       3.86773907      -0.40969245      -0.02036171      -0.07522259       1.18234711      -0.79828588      -1.50533648
Sr      -0.01985360       3.96419073       0.05890954      -0.01985360       0.02122908       0.05890954       0.02052252      -0.07462340      -1.88917321
Ti       1.77202237       5.58247367       2.03174020      -0.19945846      -0.33196882       0.06025937       2.63029523      16.82457920       0.37913139
O        0.02610141       6.42433112       1.71003621       0.02610141       0.50988863      -0.26144462      -0.04816725      -1.58664759       1.21161637
O        1.55590007       4.08940531       2.05988125      -0.41558076       0.14644365       0.08840042      -1.97571075     -13.69443917       0.01149658
O        2.07937493       5.73662146       0.04678239       0.10789410      -0.17782103       0.04678239       0.29861884       0.25248572       0.51692420
Sr       0.04763650       3.93251650       3.88956518       0.04763650      -0.01044515      -0.05339648      -1.03130107      -0.21376766       1.86840438
Ti       1.93161577       5.91300149       6.08494512      -0.03986506      -0.00144099       0.17050264      -0.71608596       0.41283080      -2.25542760
O       -0.10243122       6.30202870       6.16787613      -0.10243122       0.38758622       0.25343364       0.91410387      -0.59603800      -0.51113114
O        1.78354673       4.06487074       5.83841855      -0.18793410       0.12190908      -0.07602393      -0.47338837      -1.06073023       0.27769948
O        1.76336057       6.07924758       4.00329160      -0.20812026       0.16480510       0.06032995      -0.34041807      -0.61071026      -0.34876855
Sr       4.01433998       0.07808316       0.14438364       0.07137832       0.07808316       0.14438364       0.75533289      -0.61845936      -0.94957968
Ti       6.15678736       1.72111888       1.98628924       0.24234487      -0.25036195       0.01480841      -6.34753400       1.05127329       1.22404567
O        3.81495299       2.62109197       1.90474946      -0.12800867       0.64961114      -0.06673137      -0.76830322      -2.56515153      -0.14275340
O        5.39938969       0.06407064       2.13272787      -0.51505280       0.06407064       0.16124704       1.67205138       0.55709280      -0.19331702
O        5.67720356       1.97851182       0.00243250      -0.23723893       0.00703099       0.00243250      -0.38810025       0.13016992      -0.53345880
Sr       3.84943382       0.02102710       4.11519152      -0.09352784       0.02102710       0.17222987      -0.39846109      -0.67015128      -1.06222831
Ti       5.88648452       1.99854986       5.92122291      -0.02795797       0.02706903       0.00678043       1.76539369       0.58780780      -0.12066654
O        3.84516035       2.43064228       5.46844064      -0.09780130       0.45916145      -0.44600185       0.69236734      -1.42455187       1.94876690
O        5.52081928       0.26855414       5.67874517      -0.39362320       0.26855414      -0.23569732       0.23336537      -2.02268257       0.73728046
O        6.05044766       2.25332165       3.84679953       0.13600518       0.28184082      -0.09616213       0.37262052      -0.37136115      -0.90368672
Sr       4.05024985       4.01229435      -0.05363687       0.10728819       0.06933269      -0.05363687      -0.23974017      -0.58899381      -0.53364486
Ti       5.68883297       5.68828759       1.79048260      -0.22560952      -0.22615489      -0.18099823      -1.07107235       8.19873561       2.54472986
O        3.81693847       5.85105748       2.34467758      -0.12602318      -0.06338500       0.37319675       0.57396327      -1.24619340      -1.72144517
O        6.34326595       4.20241700       1.81660349       0.42882346       0.25945534      -0.15487734       1.14442739      -6.23861226       0.50983998
O        5.66036838       6.01249385       0.02085323      -0.25407411       0.09805136       0.02085323      -0.43333824       0.21843600      -0.95600965
Sr       3.86123333       3.88862149       3.75750294      -0.08172833      -0.05434017      -0.18545872       0.33388085       1.01784023       0.83735954
Ti       5.77528835       5.86614510       5.74867987      -0.13915414      -0.04829739      -0.16576261       2.11362382      -0.31540900       0.57370146
O        3.95156907       5.72626151       5.79749278       0.00860741      -0.18818097      -0.11694971      -0.69339564       0.13136445       0.01587550
O        6.19361000       4.02665573       5.98786968       0.27916751       0.08369407       0.07342719      -0.48011417       0.10932549       0.34879515
O        6.08539539       5.83735201       3.96667066       0.17095290      -0.07709048       0.02370900      -0.16682230       0.29640399      -0.43617759
40
Lattice="7.88592331617382 -3.9133953383759446e-17 -1.7030621984787947e-18 1.771164357031209e-16 7.885923316173797 -2.036392580533196e-15 -1.4799097158469003e-16 -3.749052635145956e-15 7.885923316173799" Properties=species:S:1:pos:R:3:u_disp:R:3:forces:R:3 system=srtio3_cubic model=mace_mp0 T=600.0 seed=1 supercell=2x2x2 source="SSCHA free-energy-Hessian ensemble (final auxiliary dyn)" index=388 pair=194 energy=-309.4688395938205 pbc="T T T"
Sr      -0.08765220       0.11556450       0.07206344      -0.08765220       0.11556450       0.07206344       0.37544328      -0.58987435      -0.75170470
Ti       1.93539265       2.10327252       2.17231742      -0.03608818       0.13179169       0.20083659      -0.55450996      -2.01256248      -2.38759233
O       -0.02155614       1.77324827       1.67480166      -0.02155614      -0.19823256      -0.29667917      -1.02736287       0.84219606       0.08172035
O        2.20650089      -0.10643214       1.26143347       0.23502006      -0.10643214      -0.71004736      -4.63310136      -0.52761088       4.48297395
O        2.04258222       2.27541773      -0.22938230       0.07110139       0.30393690      -0.22938230      -0.16720093       0.94679569       7.48665685
Sr       0.10741348      -0.24953031       3.80493754       0.10741348      -0.24953031      -0.13802412      -1.83984214       2.80866550       0.56779530
Ti       2.11639047       2.10239512       6.07401404       0.14490964       0.13091429       0.15957156       0.42816905      -1.68721723      -9.67540688
O       -0.07642996       1.92780657       5.91796379      -0.07642996      -0.04367426       0.00352130       1.26747951      -0.13728935       0.79081047
O        2.09737513      -0.07401753       6.18370706       0.12589430      -0.07401753       0.26926457      -0.08275418       3.31774455      -0.09945019
O        1.54215102       1.52961536       3.71899568      -0.42932981      -0.44186546      -0.22396598       0.99409141       0.27452470       2.25351465
Sr      -0.01450889       3.79574129      -0.03360344      -0.01450889      -0.14722037      -0.03360344      -0.42507578       0.83236464       0.24121633
Ti       2.02606207       5.98547152       2.11106788       0.05458124       0.07102904       0.13958705      -0.31388958       0.10714058      -2.39559483
O       -0.11612862       5.88168646       1.93668048      -0.11612862      -0.03275603      -0.03480035       4.74213575       0.39016918      -0.66989381
O        1.80515146       3.90675282       2.14943656      -0.16632937      -0.03620884       0.17795573       0.04618515       1.50991397      -0.21659256
O        1.86155024       5.46107790      -0.12481223      -0.10993059      -0.45336458      -0.12481223      -0.15912993       0.32416310       0.40299171
Sr       0.19437471       4.02925548       3.96796433       0.19437471       0.08629382       0.02500267      -2.55823790      -0.14900122      -0.98067802
Ti       1.64615883       6.15822602       6.07672499      -0.32532199       0.24378353       0.16228250       3.09639516      -3.31440730      -0.91767974
O       -0.02098245       6.08706150       5.66997052      -0.02098245       0.17261901      -0.24447197      -2.25394911      -0.05319479       1.25325931
O        1.87754827       3.79026794       5.19120059      -0.09393256      -0.15269372      -0.72324189       2.11303492       0.17031389       3.80710473
O        1.76889688       6.21347485       3.91248459      -0.20258395       0.29903237      -0.03047707       2.21704426      -1.08803357      -0.44605817
Sr       3.95470924      -0.12854318       0.23213980       0.01174758      -0.12854318       0.23213980       0.15216782       0.16745907      -4.94040315
Ti       5.82312058       2.18822984       1.90644862      -0.09132191       0.21674901      -0.06503221       0.92531759      -0.06447767       0.97595307
O        3.79674082       2.08973558       2.26151285      -0.14622084       0.11825475       0.29003202       1.96354919      -0.16893849      -0.96459308
O        5.66967855      -0.13182435       1.38811177      -0.24476394      -0.13182435      -0.58336906       3.56580185       0.33140060       3.78012682
O        5.73751126       2.62454984       0.06957233      -0.17693123       0.65306901       0.06957233       0.24932525      -2.19139195       0.36446448
Sr       4.16857294      -0.13466675       3.87266338       0.22561128      -0.13466675      -0.07029827      -1.88771647       1.49620944       0.47337132
Ti       6.03165517       1.87829685       5.77070928       0.11721268      -0.09318398      -0.14373321      -2.27677462      -0.97819420      -0.50797700
O        3.98663861       2.17096185       5.60567188       0.04367695       0.19948102      -0.30877061      -0.42319516      -0.46066576       1.03845999
O        5.79623684      -0.04177321       6.62216818      -0.11820564      -0.04177321       0.70772570       0.71481328       1.29990562      -2.75733591
O        5.92702158       1.38498176       3.90531975       0.01257909      -0.58649907      -0.03764191       0.85205806       0.75658852       0.69126284
Sr       3.89125797       4.01229253      -0.00532564      -0.05170369       0.06933087      -0.00532564      -1.01471595      -0.02244643       0.28645006
Ti       6.12141953       6.08416306       2.06878995       0.20697705       0.16972057       0.09730912      -5.70157787      -1.93911111      -1.37206662
O        3.78988653       5.69871239       2.18132466      -0.15307513      -0.21573010       0.20984383       1.28280474       0.77723146      -0.88705174
O        6.06601101       3.83723309       2.63501586       0.15156852      -0.10572857       0.66353503      -0.90354926      -0.23501603      -1.68841801
O        5.77149252       5.21057117       0.05064593      -0.14294997      -0.70387131       0.05064593       0.94131809       2.37859287      -0.65069214
Sr       3.88018047       4.13367824       3.89742406      -0.06278119       0.19071658      -0.04553760       0.44426381      -1.49371709       0.67905370
Ti       5.65361290       5.74372917       5.89254320      -0.26082959      -0.17071332      -0.02189929       6.47686332       1.10843655       2.45305465
O        4.00970872       5.93614266       5.74367004       0.06674707       0.02170017      -0.17077245      -4.57391417      -0.44375295      -0.37222744
O        6.13081702       4.02875592       5.42749637       0.21637454       0.08579426      -0.48694612      -1.10669851      -1.23545696       0.75381357
O        6.01272410       6.37530836       3.92433496       0.09828161       0.46086587      -0.01862670      -0.94506574      -1.04745620      -0.18263783
40
Lattice="7.88592331617382 -3.9133953383759446e-17 -1.7030621984787947e-18 1.771164357031209e-16 7.885923316173797 -2.036392580533196e-15 -1.4799097158469003e-16 -3.749052635145956e-15 7.885923316173799" Properties=species:S:1:pos:R:3:u_disp:R:3:forces:R:3 system=srtio3_cubic model=mace_mp0 T=600.0 seed=1 supercell=2x2x2 source="SSCHA free-energy-Hessian ensemble (final auxiliary dyn)" index=429 pair=214 energy=-306.3197545707858 pbc="T T T"
Sr      -0.17252467      -0.01754304      -0.05356917      -0.17252467      -0.01754304      -0.05356917       0.07530170      -0.04231409       1.26213087
Ti       2.12338597       2.10200965       2.08264723       0.15190514       0.13052882       0.11116640      -1.81179881      -2.74458935      -0.05184448
O        0.03997895       2.16775990       1.38194691       0.03997895       0.19627907      -0.58953391      -0.05963879      -0.77091153       2.14408268
O        1.68438874      -0.20441535       1.67703507      -0.28709209      -0.20441535      -0.29444576       0.97286592       0.64765174       0.25057505
O        2.75765451       2.32050422      -0.04801155       0.78617368       0.34902339      -0.04801155      -4.30975691      -7.52609459      -0.82629392
Sr       0.12454740      -0.04816692       3.79572156       0.12454740      -0.04816692      -0.14724009      -1.11264156       0.08290138      -0.17745452
Ti       2.05234814       1.78606927       6.00239702       0.08086731      -0.18541156       0.08795453      -1.79867225       3.08643043      -0.34191679
O        0.24750445       2.06705819       6.54024560       0.24750445       0.09557736       0.62580311       0.28845976      -2.02119987      -2.74510155
O        1.95327337      -0.01937235       6.19940428      -0.01820746      -0.01937235       0.28496180       0.30708894      -0.26275133      -0.40136387
O        1.55451224       1.74276425       3.91597092      -0.41696859      -0.22871657      -0.02699074       1.55510351       1.32168119       0.52081320
Sr       0.16945482       3.84909493      -0.08400385       0.16945482      -0.09386673      -0.08400385      -0.02645170       1.57763098       0.53069489
Ti       1.93158050       5.90913578       2.21022232      -0.03990032      -0.00530670       0.23874150       0.30402973      -0.63153513      -9.51401570
O       -0.03899641       5.46308609       1.54180905      -0.03899641      -0.45135639      -0.42967177       0.45119258       1.27914135       2.14275932
O        2.29455628       3.79649782       1.92371048       0.32307545      -0.14646384      -0.04777035      -0.55665380       3.19673152       1.51486797
O        2.27716438       5.56751437      -0.17282232       0.30568355      -0.34692812      -0.17282232       0.08429135       1.31829488       4.97161648
Sr      -0.21554057       4.04568513       4.06603598      -0.21554057       0.10272348       0.12307432       1.50473405       0.64345550      -1.04683517
Ti       1.74893384       5.86183455       6.17083475      -0.22254699      -0.05260794       0.25639226      13.34150131       0.77454995      -5.56357336
O        0.22188553       5.76466723       6.25191714       0.22188553      -0.14977526       0.33747465     -13.55786786      -0.13898824      -0.23865450
O        2.32859305       3.96170534       5.80597330       0.35711222       0.01874368      -0.10846918      -1.51249890      -0.74390829      -0.41368883
O        1.69811001       6.01718180       3.79172373      -0.27337082       0.10273931      -0.15123792      -0.61288956      -0.27607248       7.57857382
Sr       3.82591582       0.09830609      -0.05357372      -0.11704583       0.09830609      -0.05357372       0.04527621      -1.37964054       0.86893977
Ti       5.93141462       2.14840615       1.71802909       0.01697213       0.17692532      -0.25345174       3.63232533      -0.48484977      10.04050559
O        3.88114282       1.76103313       2.55692993      -0.06181884      -0.21044770       0.58544910       0.72979487       1.10224098      -2.38791054
O        6.32395454       0.01226413       2.17873774       0.40951205       0.01226413       0.20725691      -1.63930268      -0.26001205      -1.33356159
O        5.63969872       1.67657842       0.25833089      -0.27474377      -0.29490241       0.25833089      -2.29717853      -1.80061365     -10.06580187
Sr       4.02394048       0.13543934       3.97423403       0.08097882       0.13543934       0.03127237      -0.26569920      -5.05616343      -2.07803874
Ti       6.00175932       1.70043770       5.56337541       0.08731683      -0.27104313      -0.35106707      -0.32798962       6.44582055       3.67989818
O        4.15829780       1.72723769       5.26830723       0.21533614      -0.24424314      -0.64613526      -0.68356003       3.16568659       3.55399965
O        6.25487804       0.09949303       5.65060155       0.34043556       0.09949303      -0.26384094       0.84621338      -6.41033319       1.04812437
O        6.67244005       2.06742291       4.05977292       0.75799756       0.09594208       0.11681126      -0.47719438      -0.08291066      -2.68492612
Sr       3.76933681       3.95379254      -0.00516850      -0.17362485       0.01083088      -0.00516850       5.45183166       4.94122840       0.08299130
Ti       5.77527702       6.01311005       1.89719528      -0.13916547       0.09866756      -0.07428555       2.46098007       0.23842524       0.44187175
O        3.97003403       6.01581137       2.18336072       0.02707237       0.10136888       0.21187989      -1.62324084       0.42677601      -0.12157230
O        5.53258034       3.87254169       2.03826151      -0.38186215      -0.07041996       0.06678068       0.40753201       1.69801098      -0.25833144
O        5.63238566       6.15524464      -0.06563497      -0.28205683       0.24080216      -0.06563497       0.34537241       0.39492848      -0.12718186
Sr       3.90362618       3.98737216       4.23671357      -0.03933547       0.04441050       0.29375191       0.59762943      -0.10452351      -2.10443387
Ti       5.76326188       5.77839933       5.86583433      -0.15118060      -0.13604316      -0.04860816       2.73560815       4.88045425       0.53560230
O        4.14080394       6.14124683       5.56661024       0.19784228       0.22680434      -0.34783225      -3.32509741      -0.16371021      -0.04815506
O        5.99401155       4.11280739       6.07496700       0.07956906       0.16984573       0.16052451      -0.26588066      -4.61755294      -0.51565701
O        6.16478959       6.03218668       3.80674903       0.25034711       0.11774419      -0.13621263       0.12688114      -1.70336553       1.87826592
40
Lattice="7.88592331617382 -3.9133953383759446e-17 -1.7030621984787947e-18 1.771164357031209e-16 7.885923316173797 -2.036392580533196e-15 -1.4799097158469003e-16 -3.749052635145956e-15 7.885923316173799" Properties=species:S:1:pos:R:3:u_disp:R:3:forces:R:3 system=srtio3_cubic model=mace_mp0 T=600.0 seed=1 supercell=2x2x2 source="SSCHA free-energy-Hessian ensemble (final auxiliary dyn)" index=486 pair=243 energy=-315.74496367321 pbc="T T T"
Sr       0.14016958      -0.06892701       0.01396423       0.14016958      -0.06892701       0.01396423      -0.03727601       0.43272236       0.07235789
Ti       2.11527032       1.81328316       1.96754509       0.14378949      -0.15819766      -0.00393574       0.42326815       7.69117333      -0.54587738
O        0.03630144       2.36258965       1.93182143       0.03630144       0.39110883      -0.03965940       0.15038332      -0.50741498       0.40992640
O        1.96521603       0.21802171       2.04041635      -0.00626480       0.21802171       0.06893552      -1.45039581      -6.94783559       0.65307344
O        2.02619912       1.83948618       0.02974079       0.05471829      -0.13199464       0.02974079      -0.13323130       0.44910189      -0.92719215
Sr      -0.10309737       0.23935332       4.02021977      -0.10309737       0.23935332       0.07725811       2.01430335      -0.63470670      -1.81019062
Ti       1.92822344       2.02635131       5.91523442      -0.04325739       0.05487048       0.00079193       1.13028683      -0.32176299       0.23756822
O        0.02784340       2.20482751       5.92667433       0.02784340       0.23334668       0.01223184       0.77886522       0.41534968      -0.61588371
O        1.63072537       0.06090751       5.85057395      -0.34075546       0.06090751      -0.06386854       0.31868997      -0.28132186      -0.39732505
O        2.21039327       2.15607219       3.93973546       0.23891244       0.18459136      -0.00322620      -1.04013680      -0.11741394       0.52592507
Sr      -0.22709174       3.82698282      -0.08641823      -0.22709174      -0.11597884      -0.08641823       0.99281994       0.55912931       0.49515801
Ti       1.95577361       5.73081442       1.93239239      -0.01570722      -0.18362807      -0.03908844       0.53923260       3.70916510      -0.57669314
O       -0.02708692       5.80035819       1.81816476      -0.02708692      -0.11408430      -0.15331607       1.68831403      -0.18326211       0.12517473
O        2.34896581       4.13531561       1.79079521       0.37748498       0.19235395      -0.18068562       0.28287930      -3.14764681       0.13781101
O        2.15608276       6.17924946       0.01087386       0.18460193       0.26480698       0.01087386      -1.07333155      -0.63317673      -0.25753650
Sr      -0.28425581       3.90291341       4.12007675      -0.28425581      -0.04004825       0.17711509       1.27370052       0.90318401      -0.57165701
Ti       1.93434514       5.95941233       5.84056191      -0.03713568       0.04496984      -0.07388057       0.15221342       0.02659333       1.28277795
O        0.02369218       5.70930045       5.95265355       0.02369218      -0.20514204       0.03821106       1.00843216       0.34833613      -0.30849359
O        2.30883661       3.96302414       6.11637262       0.33735578       0.02006248       0.20193014      -0.80028998       0.62838785      -0.91866948
O        2.09038466       6.01378497       3.95144160       0.11890383       0.09934248       0.00847994      -0.94040891      -1.19791994      -0.45738482
Sr       3.94053159      -0.18216284       0.13913836      -0.00243006      -0.18216284       0.13913836       0.21732981       1.96746182      -1.03493514
Ti       6.02935674       1.90789003       2.05515396       0.11491425      -0.06359080       0.08367313      -0.70585180       0.28364653      -1.37757581
O        4.06546536       1.97801458       1.90621997       0.12250371       0.00653375      -0.06526086       0.02053972      -0.60895203       0.12369498
O        6.15401623       0.07587765       1.90324188       0.23957374       0.07587765      -0.06823894       0.52325820       0.45449576       0.32049121
O        6.10553938       1.98174633      -0.12491687       0.19109689       0.01026550      -0.12491687      -0.68675016      -0.21914465       0.51815758
Sr       3.68900632      -0.16173650       3.97982549      -0.25395534      -0.16173650       0.03686383       1.32549039       1.69340874      -0.70049601
Ti       5.90318606       1.90936863       5.93690382      -0.01125643      -0.06211220       0.02246133      -1.50963619       0.25413300       0.14397416
O        3.99609553       1.62928449       5.88745675       0.05313387      -0.34219634      -0.02698573       0.82421329       0.97679660       0.27641822
O        6.30863853       0.13788324       5.57006793       0.39419605       0.13788324      -0.34437456      -1.32076933      -1.20485172       2.12001226
O        6.10639999       2.12176561       3.90478413       0.19195750       0.15028478      -0.03817753      -0.85028191      -0.07361838       0.14765505
Sr       4.06151050       3.89688165      -0.18746142       0.11854884      -0.04608001      -0.18746142      -0.24972615      -0.18026782       1.08346019
Ti       5.99902766       5.86812177       2.09939646       0.08458517      -0.04632072       0.12791564      -2.09748969       0.81429042      -2.60715478
O        4.03425277       6.38524289       1.91616242       0.09129111       0.47080041      -0.05531841      -0.55163068      -1.76633858       1.05451791
O        5.58025086       4.06096886       1.88037812      -0.33419163       0.11800720      -0.09110271       1.08340005      -0.30843590      -0.49812979
O        5.95218346       6.14162994      -0.20097840       0.03774097       0.22718745      -0.20097840      -0.00081433       0.04040323       5.62875348
Sr       4.05013740       3.93816107       3.88279652       0.10717574      -0.00480058      -0.06016514      -0.40451139      -0.14132493       0.11123833
Ti       5.94805636       6.11793980       6.05329568       0.03361387       0.20349731       0.13885320      -0.83794354      -1.06087940      -6.15243131
O        4.04054739       6.44604019       5.82175452       0.09758574       0.53159770      -0.09268796      -0.21007172      -1.57347190       1.01320250
O        5.81073492       4.10606201       5.87662493      -0.10370757       0.16310035      -0.03781756      -0.50417707      -0.80339160       0.11305027
O        5.86643644       5.86479483       3.78684912      -0.04800605      -0.04964766      -0.15611254       0.65710404       0.26535946       3.16322740
