24
Lattice="7.930367142787806e-16 5.150135937436669 5.150135937436672 5.150135937436679 -1.761807823301137e-15 5.150135937436673 5.150135937436676 5.150135937436671 -1.816978066006728e-15" Properties=species:S:1:pos:R:3:u_disp:R:3:forces:R:3 system=zro2_cubic model=mace_mp0 T=100.0 seed=1 supercell=2x2x2 source="SSCHA free-energy-Hessian ensemble (final auxiliary dyn)" index=22 pair=11 energy=-225.688661549652 pbc="T T T"
Zr       0.05252032      -0.05922609       0.02425913       0.05252032      -0.05922609       0.02425913       0.20932364       0.35201827      -0.35586957
O        1.24261709       1.34979678       1.25377667      -0.04491689       0.06226280      -0.03375732       0.16215271      -0.41966472       0.02797516
O        3.85409479       3.90815365       3.86280802      -0.00850716       0.04555170       0.00020607       0.45773331      -0.09153044      -0.55992895
Zr       2.53425965       2.60977839      -0.00021028      -0.04080832       0.03471042      -0.00021028      -0.21783779      -0.21071684      -0.06056367
O        3.86843708       3.89370983       1.30438920       0.00583513       0.03110787       0.01685521      -0.04391706      -0.53429905      -0.37463966
O        6.41548052       6.37055558       3.81298445      -0.02218941      -0.06711434      -0.04961750      -0.22176876       0.54916637       0.00149597
Zr       2.62849801      -0.01780821       2.59045576       0.05343004      -0.01780821       0.01538779      -0.24008264      -0.03975140      -0.20296556
O        3.86589601       1.32344122       3.88268096       0.00329406       0.03590724       0.02007900       0.12636102      -0.28537120      -0.54278242
O        6.33107978       3.92216401       6.51861541      -0.10659015       0.05956206       0.08094549       0.77976418      -0.11401249      -0.15662934
Zr       5.15164356       2.58905272       2.63227341       0.00150762       0.01398475       0.05720544       0.16367580      -0.12784301       0.17046277
O        6.50082686       3.88961217       3.93295398       0.06315694       0.02701022       0.07035203      -0.75203486      -0.38935360      -0.06659354
O        8.99357937       6.41227929       6.30320935      -0.01915852      -0.02539063      -0.13446057       0.04479260      -0.14230511       1.59754150
Zr       0.00816777       2.57351849       2.52695684       0.00816777      -0.00154948      -0.04811112      -0.14150620       0.27336197      -0.01508349
O        1.35471718       3.92621387       3.91096791       0.06718319       0.06361192       0.04836595      -0.66073625      -0.88367573      -0.32158898
O        3.85453900       6.43242357       6.48551168      -0.00806295      -0.00524635       0.04784176      -0.14992938      -0.00896305      -0.11433578
Zr       2.62927336       5.19030729       2.53464239       0.05420539       0.04017135      -0.04042557      -0.63006091      -0.09556539       0.46331453
O        3.77193609       6.49384593       3.88758199      -0.09066587       0.05617601       0.02498004       0.60985912      -0.11714141      -0.32414765
O        6.51539584       8.97438691       6.46811772       0.07772592      -0.03835098       0.03044780      -0.83932811       0.57139998       0.37110792
Zr       2.55165253       2.49757930       5.12102520      -0.02341544      -0.07748867      -0.02911074      -0.10902758       0.64145602      -0.03988700
O        3.85106503       3.77609366       6.33426633      -0.01153692      -0.08650830      -0.10340359       0.14286692       0.45619143       0.65354807
O        6.42765885       6.42067588       9.02892625      -0.01001107      -0.01699404       0.01618836      -0.22853995       0.50959242      -0.29215613
Zr       5.08291419       5.19293542       5.17629380      -0.06722174       0.04279949       0.02615787       0.06490797      -0.44180438      -0.02762132
O        6.36612506       6.43611231       6.44348390      -0.07154487      -0.00155761       0.00581398       0.55671154       0.27970492      -0.15373297
O        8.96985704       9.01187235       8.94252226      -0.04288085      -0.00086554      -0.07021563       0.91662068       0.26910642       0.32308011
24
Lattice="7.930367142787806e-16 5.150135937436669 5.150135937436672 5.150135937436679 -1.761807823301137e-15 5.150135937436673 5.150135937436676 5.150135937436671 -1.816978066006728e-15" Properties=species:S:1:pos:R:3:u_disp:R:3:forces:R:3 system=zro2_cubic model=mace_mp0 T=100.0 seed=1 supercell=2x2x2 source="SSCHA free-energy-Hessian ensemble (final auxiliary dyn)" index=49 pair=24 energy=-225.56540975407887 pbc="T T T"
Zr       0.00313533       0.06076421       0.00360965       0.00313533       0.06076421       0.00360965      -0.20199964      -0.25776710      -0.19961593
O        1.31922434       1.26387792       1.29429015       0.03169036      -0.02365607       0.00675616      -0.22916581       0.00930888       0.26948411
O        3.90590179       3.78599979       3.89535328       0.04329984      -0.07660216       0.03275132       0.03176975      -0.59805418       0.35302802
Zr       2.53710951       2.57652730      -0.02198370      -0.03795846       0.00145933      -0.02198370       0.62801198      -0.19614368      -0.39027532
O        3.79268120       3.95701270       1.32242887      -0.06992075       0.09441075       0.03489488       1.00768828      -0.36086785      -0.24762998
O        6.41069326       6.40537208       3.85107368      -0.02697667      -0.03229784      -0.01152827      -0.06911437       1.28173570       0.60645764
Zr       2.56311139      -0.01929878       2.57647381      -0.01195658      -0.01929878       0.00140584       0.31037464       0.11505967      -0.01171679
O        3.81608472       1.13782406       3.84418416      -0.04651723      -0.14970993      -0.01841780       0.23377588       1.50718851       0.33556857
O        6.48284484       3.81128765       6.33269912       0.04517492      -0.05131430      -0.10497080      -1.17266606      -0.24096015       0.44379569
Zr       5.12124444       2.56820770       2.56674244      -0.02889150      -0.00686027      -0.00832553       0.09697679      -0.33639054      -0.00621687
O        6.51673527       3.87790621       3.80416348       0.07906535       0.01530426      -0.05843848      -0.61880717      -0.19958058       0.26051046
O        9.05002619       6.58464534       6.44096086       0.03728830       0.14697542       0.00329094      -0.29839518      -0.07607965      -0.77883442
Zr       0.01046755       2.53865414       2.56146771       0.01046755      -0.03641383      -0.01360025      -0.21400359       0.28735025       0.36974932
O        1.34065727       4.03163231       3.75600004       0.05312329       0.16903035      -0.10660191      -0.54671160      -2.05625165       1.31578302
O        3.84207692       6.52637522       6.38065012      -0.02052503       0.08870530      -0.05701980       0.57650509       0.11559066       0.30767035
Zr       2.58251544       5.07461617       2.57895302       0.00744748      -0.07551977       0.00388505       0.34792337       1.34620513      -0.21619994
O        3.84809461       6.37181354       3.84381011      -0.01450735      -0.06585638      -0.01879184       0.23284110       0.11767477      -0.28614848
O        6.40641126       8.98444511       6.48909023      -0.03125867      -0.02829278       0.05142030      -0.24340064      -0.77070321      -1.31418929
Zr       2.58025304       2.63167569       5.17379982       0.00518507       0.05660772       0.02366388       0.19119588      -0.19295259       0.07803740
O        3.81882655       3.94547103       6.46530885      -0.04377541       0.08286907       0.02763893       0.34449098      -0.20114406      -0.53376385
O        6.43301503       6.42467748       9.08484689      -0.00465489      -0.01299244       0.07210900      -0.52920573       1.28062369      -0.20198406
Zr       5.19001141       5.15663821       5.17342292       0.03987547       0.00650227       0.02328698      -0.32091355       0.16059749      -0.11425551
O        6.38837084       6.31894042       6.52621600      -0.04929908      -0.11872950       0.08854608       0.42170452       0.63694306      -0.39992523
O        9.10291962       9.04764469       9.00300803       0.09018173       0.03490679      -0.00972986       0.02112508      -1.37138257       0.36067109
24
Lattice="7.930367142787806e-16 5.150135937436669 5.150135937436672 5.150135937436679 -1.761807823301137e-15 5.150135937436673 5.150135937436676 5.150135937436671 -1.816978066006728e-15" Properties=species:S:1:pos:R:3:u_disp:R:3:forces:R:3 system=zro2_cubic model=mace_mp0 T=100.0 seed=1 supercell=2x2x2 source="SSCHA free-energy-Hessian ensemble (final auxiliary dyn)" index=82 pair=41 energy=-225.52493126343722 pbc="T T T"
Zr       0.02431541       0.01402363       0.00764371       0.02431541       0.01402363       0.00764371      -0.51161680       0.43002924       0.03870394
O        1.31798524       1.33826592       1.31275741       0.03045125       0.05073194       0.02522342      -0.68488925      -1.35049901      -0.22182118
O        3.89108715       3.81415576       3.84439420       0.02848520      -0.04844620      -0.01820776      -0.47847120      -0.61725898       0.41653410
Zr       2.56682681       2.60461988      -0.01052462      -0.00824116       0.02955191      -0.01052462       0.03996690      -0.06204980       0.23849133
O        3.86607228       3.87693650       1.29239287       0.00347032       0.01433455       0.00485888       0.55992345       0.45090813      -0.41677859
O        6.47631628       6.49068231       3.91489867       0.03864635       0.05301239       0.05229672      -0.07378920       0.24966722      -0.33208624
Zr       2.61802890      -0.01249792       2.58806354       0.04296093      -0.01249792       0.01299557       0.35603721       0.56795544       0.11794470
O        3.95227019       1.14139233       3.88316660       0.08966823      -0.14614165       0.02056465      -0.76991155       0.34415753      -0.31895120
O        6.49800889       3.85026491       6.44951081       0.06033897      -0.01233704       0.01184089      -0.60416058      -0.36043123      -0.50954191
Zr       5.18309118       2.60143654       2.52038966       0.03295524       0.02636857      -0.05467831      -0.83971728      -0.72779196       0.41918135
O        6.37144276       3.95280484       3.88256283      -0.06622716       0.09020289       0.01996088       1.01328581      -0.15832961      -0.56548975
O        8.95026257       6.48166429       6.46734565      -0.06247532       0.04399437       0.02967573       0.58472426       0.06686532      -0.55863699
Zr      -0.00486582       2.54604415       2.60814269      -0.00486582      -0.02902382       0.03307472       0.09347604      -0.30838772      -0.53636396
O        1.33084708       3.97198734       3.77459598       0.04331310       0.10938539      -0.08800597      -0.82458469      -0.79257599       1.95027457
O        3.75125749       6.47169599       6.38255699      -0.11134447       0.03402607      -0.05511293       0.79673786      -0.33404258       0.70842209
Zr       2.49836224       5.14371029       2.60141438      -0.07670573      -0.00642565       0.02634641       0.96362328       0.62144318      -1.00424892
O        3.77680186       6.36590972       3.85511592      -0.08580009      -0.07176020      -0.00748603       1.08723451       0.15218936       0.21861004
O        6.47027676       8.90146101       6.49775789       0.03260684      -0.11127688       0.06008797       0.55197225       0.90866721      -0.83836877
Zr       2.55827000       2.61373226       5.17133904      -0.01679797       0.03866430       0.02120310       0.67159011      -0.83398193      -0.07129611
O        3.94514763       3.82861557       6.46396541       0.08254568      -0.03398638       0.02629549      -0.57647301       0.84765841      -0.24634440
O        6.42351120       6.54097837       8.96757717      -0.01415872       0.10330845      -0.04516072       0.11494115      -0.02214880       0.66828113
Zr       5.13155714       5.10272200       5.10977828      -0.01857879      -0.04741393      -0.04035766      -0.09537435       0.45320237       0.55799442
O        6.40515925       6.36499035       6.43653766      -0.03251067      -0.07267957      -0.00113227      -0.43493970       0.30478965      -0.16609451
O        9.11803456       8.93483677       9.00154028       0.10529667      -0.07790112      -0.01119762      -0.93958521       0.16996455       0.45158485
24
Lattice="7.930367142787806e-16 5.150135937436669 5.150135937436672 5.150135937436679 -1.761807823301137e-15 5.150135937436673 5.150135937436676 5.150135937436671 -1.816978066006728e-15" Properties=species:S:1:pos:R:3:u_disp:R:3:forces:R:3 system=zro2_cubic model=mace_mp0 T=100.0 seed=1 supercell=2x2x2 source="SSCHA free-energy-Hessian ensemble (final auxiliary dyn)" index=92 pair=46 energy=-225.51732882202558 pbc="T T T"
Zr       0.06254614       0.10953160      -0.02494048       0.06254614       0.10953160      -0.02494048      -0.99763537      -0.81701182      -0.15103372
O        1.16784973       1.29449854       1.22578458      -0.11968426       0.00696455      -0.06174940       1.26748919      -0.06863655       0.86792428
O        3.89299818       3.85114719       3.81214333       0.03039623      -0.01145477      -0.05045863      -0.04763864       0.08384197       0.63046089
Zr       2.60536726       2.65404330      -0.06886454       0.03029929       0.07897533      -0.06886454       0.21008308      -0.12771995       0.49189411
O        3.87210801       3.88667247       1.30611957       0.00950606       0.02407051       0.01858559       0.00142387      -0.26417935      -0.58142892
O        6.42265668       6.47371216       3.96567551      -0.01501324       0.03604224       0.10307356       0.09835715      -0.56967321      -0.95166398
Zr       2.55625438       0.01393664       2.59044241      -0.01881359       0.01393664       0.01537444       0.47604391      -0.25462672       0.11851890
O        3.78144089       1.35345391       3.84281386      -0.08116106       0.06591993      -0.01978810       0.73294246      -0.59039105       0.27974239
O        6.40154206       3.78949910       6.51842786      -0.03612786      -0.07310285       0.08075794       1.09458817       0.55072643      -0.44677253
Zr       5.11036419       2.56967586       2.53901848      -0.03977175      -0.00539211      -0.03604949      -0.21260881       0.12228272       0.11716829
O        6.43373217       3.89247097       3.93135029      -0.00393776       0.02986902       0.06874833      -0.04573640       0.21913732      -0.26993394
O        8.97662433       6.39696044       6.42143988      -0.03611356      -0.04070948      -0.01623004       0.07000964       0.03944033       0.36467841
Zr       0.04663074       2.49867405       2.56785764       0.04663074      -0.07639392      -0.00721032      -0.68210231       0.54500584       0.24965775
O        1.25295437       3.92316580       3.90436084      -0.03457961       0.06056384       0.04175889       0.43154678      -0.39063737      -0.06329404
O        3.77984501       6.47252032       6.51029921      -0.08275695       0.03485040       0.07262929       0.36992901      -0.53340170      -0.44408323
Zr       2.56912801       5.12304572       2.59768202      -0.00593995      -0.02709022       0.02261406       0.18501942      -0.20675374      -0.08671715
O        3.89779790       6.38812524       3.92597713       0.03519595      -0.04954468       0.06337518      -0.54314214       0.12345140      -0.13300524
O        6.48147722       9.06043755       6.45301667       0.04380730       0.04769966       0.01534675      -0.15558149      -0.32919046       0.31053365
Zr       2.52919598       2.54126765       5.19718044      -0.04587199      -0.03380032       0.04704450       0.62601029       0.39274132       0.12375906
O        3.96141394       3.72724271       6.47480579       0.09881199      -0.13535924       0.03713587      -0.97894496       1.34378047      -0.76280245
O        6.42615229       6.47980601       9.00540438      -0.01151763       0.04213608      -0.00733351       0.13753076       0.29938519      -0.12910374
Zr       5.14326999       5.09697938       5.14336370      -0.00686594      -0.05315656      -0.00677224      -0.23413580      -0.22583864       0.44656277
O        6.52355625       6.39086468       6.47704257       0.08588633      -0.04680524       0.03937265      -1.29458005       0.27544154      -0.23391396
O        9.00337091       8.98390609       8.96280585      -0.00936698      -0.02883180      -0.04993204      -0.50886776       0.38282603       0.25285242
24
Lattice="7.930367142787806e-16 5.150135937436669 5.150135937436672 5.150135937436679 -1.761807823301137e-15 5.150135937436673 5.150135937436676 5.150135937436671 -1.816978066006728e-15" Properties=species:S:1:pos:R:3:u_disp:R:3:forces:R:3 system=zro2_cubic model=mace_mp0 T=100.0 seed=1 supercell=2x2x2 source="SSCHA free-energy-Hessian ensemble (final auxiliary dyn)" index=100 pair=50 energy=-225.64098136184563 pbc="T T T"
Zr      -0.05405345      -0.01898579      -0.04052335      -0.05405345      -0.01898579      -0.04052335       0.51468976       0.39570703       0.64739808
O        1.29010799       1.28904468       1.24710664       0.00257401       0.00151070      -0.04042734       0.24735246      -0.62289535       0.25880265
O        3.84791673       3.84071024       3.75143475      -0.01468522      -0.02189171      -0.11116721      -0.24191919       0.06583416       0.18380725
Zr       2.60252963       2.52638884       0.02116030       0.02746166      -0.04867913       0.02116030      -0.16033179      -0.12241242      -0.12218590
O        3.82398634       3.99819760       1.16618207      -0.03861561       0.13559565      -0.12135192      -0.09484834      -0.83216224       0.26536555
O        6.42542371       6.37877119       3.86014406      -0.01224621      -0.05889873      -0.00245789       0.10649206       0.67369521      -0.38817156
Zr       2.59979492       0.05258537       2.67694624       0.02472695       0.05258537       0.10187827      -0.60450196      -0.25757819      -0.91479820
O        3.86866153       1.27614423       3.84222227       0.00605958      -0.01138975      -0.02037968      -0.07585840      -0.54404279       0.77477230
O        6.45669929       3.85658498       6.34590802       0.01902937      -0.00601697      -0.09176190      -0.50673212       0.09485211       1.12790619
Zr       5.16961666       2.55282031       2.58115536       0.01948072      -0.02224766       0.00608739       0.19991083       0.16092919      -0.07247204
O        6.41107744       3.89546732       3.88259745      -0.02659249       0.03286536       0.01999550       0.50219345      -0.20433190      -0.33864920
O        9.06349028       6.42339114       6.50222842       0.05075239      -0.01427879       0.06455849      -0.58359259       0.53493048      -0.60517990
Zr       0.01223814       2.61386474       2.60402076       0.01223814       0.03879677       0.02895279      -0.11888262      -1.08487298      -0.74237702
O        1.24524869       3.82780673       3.84144772      -0.04228530      -0.03479522      -0.02115423       0.58219008       0.44952960       0.31183201
O        3.87506425       6.50247129       6.46889707       0.01246230       0.06480137       0.03122715      -0.22712314      -0.17517477      -0.00296804
Zr       2.56623046       5.14479065       2.53576731      -0.00883751      -0.00534529      -0.03930065       0.35741327       0.43160265      -0.10913718
O        3.84605902       6.42984229       3.84842450      -0.01654294      -0.00782763      -0.01417745       0.32033738      -0.25756127       0.31828465
O        6.38352509       8.87258441       6.47203347      -0.05414483      -0.14015348       0.03436355       0.22892027       1.41791261      -0.44054619
Zr       2.55552587       2.63835528       5.20247756      -0.01954210       0.06328731       0.05234162      -0.12811154      -0.50771203      -0.02642007
O        3.79011979       3.87071234       6.34802870      -0.07248217       0.00811039      -0.08964122       0.56488780       0.41698173       0.45362490
O        6.48368495       6.47026095       8.99326338       0.04601503       0.03259103      -0.01947451      -0.53574948      -0.20962845      -0.40703678
Zr       5.17534243       5.10142029       5.10490788       0.02520650      -0.04871565      -0.04522806      -0.33472329       0.40228999      -0.05364446
O        6.40096474       6.47545963       6.38357076      -0.03670518       0.03778971      -0.05409917       0.51563066      -1.09108386       0.08529981
O        9.03801442       8.93373930       8.96192787       0.02527653      -0.07899860      -0.05081003      -0.52764356       0.86519149      -0.20350683
24
Lattice="7.930367142787806e-16 5.150135937436669 5.150135937436672 5.150135937436679 -1.761807823301137e-15 5.150135937436673 5.150135937436676 5.150135937436671 -1.816978066006728e-15" Properties=species:S:1:pos:R:3:u_disp:R:3:forces:R:3 system=zro2_cubic model=mace_mp0 T=100.0 seed=1 supercell=2x2x2 source="SSCHA free-energy-Hessian ensemble (final auxiliary dyn)" index=170 pair=85 energy=-225.6940196410556 pbc="T T T"
Zr      -0.03370536       0.01134134       0.00267110      -0.03370536       0.01134134       0.00267110       0.49380251       0.14273621      -0.47211984
O        1.23948525       1.29542943       1.32506118      -0.04804873       0.00789545       0.03752720       0.47255082      -0.04632517       0.42574008
O        3.90785418       3.90424816       3.94518894       0.04525223       0.04164621       0.08258699      -0.50391900      -0.18461782      -0.49799228
Zr       2.62227752       2.56974941       0.03349626       0.04720956      -0.00531856       0.03349626      -0.25374265      -0.06383670      -0.60999073
O        3.96490116       3.90810242       1.36160237       0.10229921       0.04550047       0.07406838      -1.21116341      -0.06663450      -0.14218125
O        6.36269357       6.45810225       3.96410959      -0.07497636       0.02043233       0.10150764       0.85546613      -0.09229913      -0.82233237
Zr       2.54217179      -0.01351594       2.57699133      -0.03289618      -0.01351594       0.00192336       0.37174783      -0.41920473       0.05889897
O        3.86104558       1.28823666       3.79393164      -0.00155638       0.00070267      -0.06867031      -0.75080644       0.00656745       0.55230510
O        6.47448113       3.92364764       6.38941043       0.03681120       0.06104569      -0.04825949       0.43363637      -0.25754018       0.78457905
Zr       5.14138741       2.57681368       2.55302711      -0.00874853       0.00174571      -0.02204086       0.33408883      -0.23312702       0.75870994
O        6.48168874       3.77535583       3.90685718       0.04401881      -0.08724612       0.04425523      -0.18783570       1.43701402      -0.70889035
O        9.02256385       6.42635950       6.43457708       0.00982596      -0.01131042      -0.00309284      -0.43766958       0.29447543      -0.20702566
Zr       0.00008940       2.56141803       2.52714958       0.00008940      -0.01364994      -0.04791839      -0.39937267       0.40842467       0.40961678
O        1.30857726       3.94778516       3.88546578       0.02104328       0.08518320       0.02286382       0.17620850      -0.57812696      -0.39535836
O        3.83135564       6.42202180       6.42559382      -0.03124631      -0.01564813      -0.01207610      -0.00244262      -0.10795448       0.05988153
Zr       2.60635179       5.15992765       2.55784731       0.03128382       0.00979171      -0.01722066      -0.26029506       0.35588075       0.63933113
O        3.85512374       6.47742443       3.87749283      -0.00747821       0.03975450       0.01489087      -0.05389736      -0.02704470      -0.65107541
O        6.40341767       8.95921893       6.46608670      -0.03425225      -0.05351896       0.02841678       1.02404679       0.99447929      -0.43743829
Zr       2.52640072       2.55146382       5.12583996      -0.04866725      -0.02360415      -0.02429598       0.26625841       0.52193405       0.32128367
O        3.92529816       3.85224085       6.46558091       0.06269621      -0.01036110       0.02791099      -0.70376565      -0.01998025       0.52603366
O        6.41342980       6.54154887       9.05457729      -0.02424013       0.10387895       0.04183940       0.33536312      -1.01039534       0.24442761
Zr       5.18040187       5.12243954       5.14506850       0.03026593      -0.02769640      -0.00506743      -0.41088811      -0.03270243       0.22193685
O        6.42377270       6.51576497       6.48459413      -0.01389722       0.07809505       0.04692420       0.46181053      -0.86173974      -0.00636895
O        9.01297585       9.05396663       9.06937059       0.00023796       0.04122874       0.05663270      -0.04918158      -0.15998270      -0.05197088
24
Lattice="7.930367142787806e-16 5.150135937436669 5.150135937436672 5.150135937436679 -1.761807823301137e-15 5.150135937436673 5.150135937436676 5.150135937436671 -1.816978066006728e-15" Properties=species:S:1:pos:R:3:u_disp:R:3:forces:R:3 system=zro2_cubic model=mace_mp0 T=100.0 seed=1 supercell=2x2x2 source="SSCHA free-energy-Hessian ensemble (final auxiliary dyn)" index=215 pair=107 energy=-225.4119941487165 pbc="T T T"
Zr       0.01467069       0.01073169       0.01463894       0.01467069       0.01073169       0.01463894      -0.51510232       0.25997059       0.40771873
O        1.24770116       1.20343994       1.41415442      -0.03983283      -0.08409404       0.12662043       0.79709032      -0.03279262      -1.10948164
O        3.86880225       3.78311648       3.87404065       0.00620030      -0.07948548       0.01143869       0.89014654       0.31191474      -0.20835346
Zr       2.61395404       2.62650686      -0.07216981       0.03888607       0.05143889      -0.07216981      -0.02617546      -0.18235817       0.40913128
O        3.76245884       3.85308248       1.29046502      -0.10014312      -0.00951947       0.00293104       0.34770832       0.69692507      -0.33323544
O        6.41917950       6.46531936       3.94186145      -0.01849042       0.02764944       0.07925949      -0.61115838       0.28798644      -0.07835724
Zr       2.56953334       0.02120868       2.48404973      -0.00553463       0.02120868      -0.09101824       0.28064383       0.23930399       0.44948486
O        3.75276516       1.20542339       3.88203421      -0.10983679      -0.08211059       0.01943225       0.53572185      -0.42017395      -0.47547288
O        6.37157796       3.81462726       6.38867521      -0.06609196      -0.04797469      -0.04899471       0.18986449      -0.03511872      -0.10624538
Zr       5.17135608       2.57904311       2.60572741       0.02122014       0.00397514       0.03065944      -0.55643533       0.07925004      -0.04017993
O        6.57058272       3.91280082       3.80416790       0.13291280       0.05019886      -0.05843406      -0.42990775      -0.27516438       0.51614969
O        9.10580512       6.51646811       6.33533901       0.09306723       0.07879819      -0.10233091      -0.64686746      -0.35316553       0.36060372
Zr      -0.03256974       2.54851257       2.63146457      -0.03256974      -0.02655540       0.05639660       1.07189565      -1.01642728      -1.38374198
O        1.43332647       3.95474983       3.80583903       0.14579249       0.09214788      -0.05676293      -1.20508128      -0.77023787       0.81614505
O        3.91223402       6.52638839       6.42692094       0.04963207       0.08871847      -0.01074898      -0.52190277      -0.66293998      -0.44406180
Zr       2.52880151       5.13471980       2.60803069      -0.04626646      -0.01541613       0.03296272       0.75105660       0.30336650      -0.96244923
O        3.81589091       6.39403319       3.77964630      -0.04671104      -0.04363673      -0.08295565      -0.53795879      -0.53213160       0.48384315
O        6.43771544       8.98214813       6.46878194       0.00004551      -0.03058976       0.03111201      -0.69760871      -0.23089568      -0.82182500
Zr       2.56557443       2.59739229       5.13135179      -0.00949354       0.02232432      -0.01878415       0.34529519      -0.59821118      -0.00154131
O        3.84398683       3.84643326       6.39269064      -0.01861512      -0.01616869      -0.04497928      -0.29534413       1.02901801       0.37534340
O        6.32406273       6.42777861       9.06416484      -0.11360719      -0.00989131       0.05142695       0.42876347       0.72682275       0.13992680
Zr       5.18094289       5.12022184       5.22505160       0.03080695      -0.02991410       0.07491566      -0.16304362       0.15026999      -0.50427206
O        6.33974701       6.44187645       6.46591466      -0.09792292       0.00420653       0.02824474       1.37839716      -0.56627793       0.50173765
O        9.12951609       8.85899852       8.91010091       0.11677820      -0.15373937      -0.10263698      -0.80999742       1.59106679       2.00913301
24
Lattice="7.930367142787806e-16 5.150135937436669 5.150135937436672 5.150135937436679 -1.761807823301137e-15 5.150135937436673 5.150135937436676 5.150135937436671 -1.816978066006728e-15" Properties=species:S:1:pos:R:3:u_disp:R:3:forces:R:3 system=zro2_cubic model=mace_mp0 T=100.0 seed=1 supercell=2x2x2 source="SSCHA free-energy-Hessian ensemble (final auxiliary dyn)" index=220 pair=110 energy=-225.63769967258116 pbc="T T T"
Zr       0.02468059       0.01923126       0.04208011       0.02468059       0.01923126       0.04208011      -0.18376941      -0.32941852      -0.18075346
O        1.27834146       1.28786352       1.25259727      -0.00919252       0.00032953      -0.03493671       0.04469317      -0.15306663       0.51626969
O        3.85069506       3.88363923       3.86293592      -0.01190689       0.02103727       0.00033397      -0.00126743      -0.90251558      -0.24891787
Zr       2.60132975       2.61079270      -0.05563963       0.02626178       0.03572473      -0.05563963      -0.10278707       0.30136816       0.01005791
O        3.95518131       3.92630584       1.32538515       0.09257936       0.06370389       0.03785117      -0.48053138      -0.07888252      -0.29068930
O        6.47202568       6.40719364       3.89612400       0.03435576      -0.03047628       0.03352205      -0.08031823       0.92525654      -1.07527642
Zr       2.56080528       0.02447257       2.58368433      -0.01426269       0.02447257       0.00861636       0.06761653      -0.51562867       0.00479750
O        3.91806211       1.26792669       3.83247484       0.05546015      -0.01960730      -0.03012711      -0.41095392      -0.19729043      -0.39923185
O        6.48837538       3.87718000       6.41017257       0.05070546       0.01457804      -0.02749735      -0.03840698      -0.82937375       0.41234777
Zr       5.14151543       2.53445023       2.64727694      -0.00862051      -0.04061774       0.07220897       0.31067908       0.59450033      -0.72655125
O        6.46416372       3.93848066       3.89371500       0.02649380       0.07587871       0.03111305      -0.09355084      -0.32218249      -0.81097338
O        8.96210487       6.48915693       6.37610375      -0.05063302       0.05148701      -0.06156617       0.61159576       0.19157463       0.23403428
Zr       0.03390338       2.55142586       2.58262703       0.03390338      -0.02364210       0.00755906      -0.18996693       0.32086651      -0.12340835
O        1.29365898       3.92405400       3.86532734       0.00612499       0.06145205       0.00272538      -0.30973035      -0.15495694      -0.25940765
O        3.88336782       6.45268927       6.27860149       0.02076587       0.01501935      -0.15906843      -0.69614729       0.87267325       1.45818252
Zr       2.66048641       5.15967158       2.54581241       0.08541844       0.00953564      -0.02925556      -0.54728252       0.01747719      -0.31143022
O        3.90374571       6.36537917       3.79385689       0.04114375      -0.07229075      -0.06874506       0.27727482       0.97855082      -0.29304697
O        6.40892266       8.94004946       6.43421653      -0.02874726      -0.07268843      -0.00345339       0.65124289       0.57374125       0.14814903
Zr       2.46320611       2.55115159       5.12795116      -0.11186186      -0.02391638      -0.02218478       0.41585471       0.21192947       0.44174479
O        3.86790200       3.92176569       6.36139235       0.00530005       0.05916374      -0.07627757      -0.46567005      -0.84153045       1.59715070
O        6.49723955       6.55871492       8.93192376       0.05956963       0.12104499      -0.08081413       0.25178776      -0.50057416       0.81735580
Zr       5.06088682       5.10211194       5.20187759      -0.08924912      -0.04802400       0.05174166       1.23178018       0.22588605      -0.63217702
O        6.43723713       6.40807484       6.41368616      -0.00043279      -0.02959508      -0.02398376      -0.23411761       0.06027151       0.28601550
O        9.02751223       9.02303418       9.04530315       0.01477433       0.01029629       0.03256526      -0.02802488      -0.44867557      -0.57424175
24
Lattice="7.930367142787806e-16 5.150135937436669 5.150135937436672 5.150135937436679 -1.761807823301137e-15 5.150135937436673 5.150135937436676 5.150135937436671 -1.816978066006728e-15" Properties=species:S:1:pos:R:3:u_disp:R:3:forces:R:3 system=zro2_cubic model=mace_mp0 T=100.0 seed=1 supercell=2x2x2 source="SSCHA free-energy-Hessian ensemble (final auxiliary dyn)" index=224 pair=112 energy=-225.84370168924244 pbc="T T T"
Zr      -0.03351648       0.01073727      -0.03874647      -0.03351648       0.01073727      -0.03874647       0.10692693       0.15733818       0.04660702
O        1.30346028       1.25510551       1.29945247       0.01592630      -0.03242848       0.01191849      -0.18879790       0.60050319      -0.21326739
O        3.89487973       3.88811271       3.86561819       0.03227778       0.02551076       0.00301624      -0.31344790      -0.18726366       0.29114629
Zr       2.58155524       2.57658823      -0.01794426       0.00648727       0.00152026      -0.01794426      -0.09809361      -0.39241066       0.10773980
O        3.80628899       3.74249203       1.32801006      -0.05631296      -0.12010992       0.04047608       0.30750343       0.74546710      -0.05483028
O        6.43359289       6.46976385       3.78460516      -0.00407703       0.03209392      -0.07799679       0.21352271      -0.61281372       1.07247957
Zr       2.55990617      -0.03056350       2.54645637      -0.01516180      -0.03056350      -0.02861160       0.35053390       0.22827545       0.02707709
O        3.89193316       1.29089465       3.79314045       0.02933121       0.00336066      -0.06946151      -0.42780203       0.08213129       0.24149886
O        6.43297604       3.85275701       6.40612646      -0.00469388      -0.00984494      -0.03154346      -0.17366794       0.14844727       0.38008584
Zr       5.10812054       2.58974061       2.61927879      -0.04201539       0.01467265       0.04421082       0.18147456      -0.35193020      -0.14507301
O        6.41110027       3.80082116       3.91194183      -0.02656966      -0.06178079       0.04933988       0.29523090       0.29893647      -0.55294196
O        8.97462577       6.46465605       6.34845806      -0.03811212       0.02698613      -0.08921186       0.72297801      -0.79443314       0.49390392
Zr       0.08782066       2.56210733       2.57099153       0.08782066      -0.01296064      -0.00407644      -0.46784776       0.18363389      -0.29814440
O        1.24565490       3.87732294       3.88973167      -0.04187908       0.01472099       0.02712972       0.40449520      -0.39892822      -0.43204090
O        3.87934626       6.38305080       6.39210641       0.01674430      -0.05461912      -0.04556351       0.11654948      -0.10559538      -0.02158209
Zr       2.59833983       5.15181748       2.58137574       0.02327186       0.00168154       0.00630777      -0.21840319      -0.05482234      -0.03640363
O        3.87711599       6.35473144       3.82026472       0.01451404      -0.08293848      -0.04233724      -0.04843753       0.88797196      -0.15791969
O        6.42402638       9.08985059       6.45594859      -0.01364354       0.07711270       0.01827866      -0.26503251      -0.58636472      -0.13496076
Zr       2.55096725       2.61183099       5.22457930      -0.02410072       0.03676302       0.07444337       0.13005125       0.06452731      -0.37090282
O        3.83282035       3.82838839       6.45079286      -0.02978160      -0.03421357       0.01312294       0.19943787       0.22873708      -0.02395269
O        6.42374907       6.35615745       9.02526317      -0.01392085      -0.08151247       0.01252528       0.22365204       0.42231653       0.08568034
Zr       5.15582479       5.17127343       5.13264331       0.00568885       0.02113749      -0.01749263      -0.14392628      -0.16874918       0.17245984
O        6.52148925       6.49315971       6.48559118       0.08381933       0.05548979       0.04792126      -0.79611218      -0.16049030      -0.41623688
O        9.00079669       9.00979886       9.04197400      -0.01194120      -0.00293903       0.02923611      -0.11078744      -0.23448421      -0.06042207
24
Lattice="7.930367142787806e-16 5.150135937436669 5.150135937436672 5.150135937436679 -1.761807823301137e-15 5.150135937436673 5.150135937436676 5.150135937436671 -1.816978066006728e-15" Properties=species:S:1:pos:R:3:u_disp:R:3:forces:R:3 system=zro2_cubic model=mace_mp0 T=100.0 seed=1 supercell=2x2x2 source="SSCHA free-energy-Hessian ensemble (final auxiliary dyn)" index=236 pair=118 energy=-225.58702227648337 pbc="T T T"
Zr       0.00340086       0.01207393      -0.03272721       0.00340086       0.01207393      -0.03272721       0.42610037       0.32254021       0.54402336
O        1.31727627       1.30832472       1.28191644       0.02974229       0.02079073      -0.00561754      -0.21939856      -0.05862208      -0.63774054
O        3.92320354       3.86918887       3.73283324       0.06060159       0.00658692      -0.12976871      -0.48781631       0.36113425       0.97346612
Zr       2.60089297       2.54995631      -0.01071985       0.02582500      -0.02511166      -0.01071985      -0.38511165      -0.33049997       0.24211317
O        3.91129838       3.83046269       1.23574932       0.04869643      -0.03213927      -0.05178466      -0.65338555       0.29343047      -0.34960279
O        6.40289097       6.46103247       3.74543266      -0.03477895       0.02336255      -0.11716930       0.11001814      -1.02247329       0.92915493
Zr       2.59010387      -0.01542644       2.65532439       0.01503591      -0.01542644       0.08025642      -0.66077150       0.46953050      -0.66520408
O        3.79885613       1.37386867       3.93268587      -0.06374582       0.08633469       0.07008392       0.45152861      -0.90591736      -0.66083220
O        6.43482317       3.84649577       6.44151725      -0.00284675      -0.01610618       0.00384733      -0.14951488       0.15091360       0.15136347
Zr       5.07710707       2.57380252       2.58733051      -0.07302886      -0.00126545       0.01226254       0.51225010      -0.20488912      -0.39993307
O        6.38996301       3.79796278       3.90003405      -0.04770691      -0.06463917       0.03743209       0.85128620       0.56626541      -0.20924736
O        9.03376490       6.45251566       6.43340681       0.02102701       0.01484574      -0.00426311       0.11623498      -0.59180627       0.33599207
Zr      -0.00021440       2.52451941       2.58984051      -0.00021440      -0.05054856       0.01477254       0.27940080      -0.27895916      -0.47214453
O        1.39495629       3.81170143       3.86626088       0.10742230      -0.05090052       0.00365893      -0.90566255       0.80209724      -0.36893726
O        3.80907249       6.45929554       6.41077516      -0.05352946       0.02162562      -0.02689476       0.45872127      -0.79855355       0.73006710
Zr       2.61634413       5.15131995       2.52759787       0.04127617       0.00118402      -0.04747009      -0.03203317       0.04601668      -0.03339626
O        3.90687352       6.34539354       3.88169117       0.04427157      -0.09227638       0.01908922      -0.46676177       0.84202620       0.00232374
O        6.39640349       9.07333561       6.40769027      -0.04126643       0.06059772      -0.02997965      -0.14572814       0.01919412       0.69574462
Zr       2.53718176       2.70221359       5.16714254      -0.03788620       0.12714563       0.01700660      -0.12962988      -1.18682007      -0.07832953
O        3.73322370       3.80936113       6.41970738      -0.12937826      -0.05324083      -0.01796254       1.29109279       1.12907516       0.08814526
O        6.47064982       6.39417203       8.92161099       0.03297990      -0.04349789      -0.09112690      -0.30703410      -0.05708127       0.52418989
Zr       5.17749894       5.12205646       5.18124261       0.02736300      -0.02807948       0.03110668      -0.06193283       0.25552021      -0.27248817
O        6.40758303       6.43710026       6.41230956      -0.03008689      -0.00056967      -0.02536036       0.22812529       0.06369474      -0.71738733
O        9.06123562       9.01808645       9.01085473       0.04849773       0.00534856      -0.00188316      -0.11997764       0.11418336      -0.35134062
24
Lattice="7.930367142787806e-16 5.150135937436669 5.150135937436672 5.150135937436679 -1.761807823301137e-15 5.150135937436673 5.150135937436676 5.150135937436671 -1.816978066006728e-15" Properties=species:S:1:pos:R:3:u_disp:R:3:forces:R:3 system=zro2_cubic model=mace_mp0 T=100.0 seed=1 supercell=2x2x2 source="SSCHA free-energy-Hessian ensemble (final auxiliary dyn)" index=293 pair=146 energy=-225.81871791154234 pbc="T T T"
Zr      -0.04903620      -0.00810018      -0.02932376      -0.04903620      -0.00810018      -0.02932376       0.45087085       0.00576409       0.91991689
O        1.35258098       1.26211876       1.31508739       0.06504699      -0.02541522       0.02755340      -0.63205116      -0.40820378      -0.17146015
O        3.90706211       3.86919102       3.91019552       0.04446016       0.00658906       0.04759357      -0.27929245      -0.56322850      -0.33358923
Zr       2.59147634       2.63948807      -0.02943686       0.01640837       0.06442010      -0.02943686       0.07139325      -0.59237486       0.37736561
O        3.77771991       3.95132706       1.28500605      -0.08488205       0.08872511      -0.00252794       0.30979875      -0.43567186       0.17716887
O        6.43458762       6.41043557       3.84587619      -0.00308230      -0.02723435      -0.01672576      -0.02336691       0.51162216       0.40119223
Zr       2.63767849       0.00473187       2.55561892       0.06261052       0.00473187      -0.01944905      -0.61620627      -0.00852311      -0.36341451
O        3.90914235       1.26168582       3.83403451       0.04654040      -0.02584817      -0.02856744      -0.58657794       0.05749431       0.10988228
O        6.41224405       3.73409856       6.42949820      -0.02542587      -0.12850340      -0.00817172      -0.45953342       0.94654673       0.64320739
Zr       5.18281519       2.59033856       2.64453689       0.03267925       0.01527059       0.06946892       0.06746661       0.19811828      -0.42297632
O        6.42395010       3.90252240       3.94429178      -0.01371982       0.03992045       0.08168983       0.58393770      -0.23683880      -0.64823046
O        8.96881568       6.44429966       6.42002988      -0.04392221       0.00662974      -0.01764004       0.65202853       0.30987071      -0.02139257
Zr       0.06165321       2.52988906       2.54230781       0.06165321      -0.04517891      -0.03276015      -0.39816950      -0.37092245      -0.11113527
O        1.37824517       3.85799050       3.95595367       0.09071118      -0.00461145       0.09335172      -0.57419714       0.30480180      -0.74655248
O        3.82747361       6.44181584       6.38539485      -0.03512834       0.00414592      -0.05227508       0.42561294       0.42939185       0.47593280
Zr       2.52067247       5.14347953       2.60186902      -0.05439550      -0.00665640       0.02680105       0.43348577       0.20211620      -0.18356148
O        3.81760132       6.42374158       3.83710186      -0.04500063      -0.01392834      -0.02550009       0.36577092      -0.19687610      -0.15438383
O        6.37027557       8.96332118       6.50844879      -0.06739436      -0.04941671       0.07077887       0.18068230       0.03560592      -0.25834154
Zr       2.56137318       2.55564274       5.13074863      -0.01369479      -0.01942522      -0.01938731       0.06685509       0.03990372       0.69890032
O        3.79642034       3.87964704       6.48584236      -0.06618161       0.01704508       0.04817244       0.38002438      -0.22567505      -0.38179564
O        6.45010847       6.46500784       9.04906824       0.01243855       0.02733792       0.03633035      -0.45053909       0.03553911      -0.26501393
Zr       5.10922664       5.17328213       5.13419552      -0.04090929       0.02314620      -0.01594042      -0.12295309       0.07258922       0.20744238
O        6.38720040       6.39258595       6.45973905      -0.05046952      -0.04508397       0.02206913       0.31428221      -0.21644377       0.05857045
O        9.10142011       8.98154804       9.02185668       0.08868222      -0.03118986       0.00911879      -0.15932233       0.10539419      -0.00773182
24
Lattice="7.930367142787806e-16 5.150135937436669 5.150135937436672 5.150135937436679 -1.761807823301137e-15 5.150135937436673 5.150135937436676 5.150135937436671 -1.816978066006728e-15" Properties=species:S:1:pos:R:3:u_disp:R:3:forces:R:3 system=zro2_cubic model=mace_mp0 T=100.0 seed=1 supercell=2x2x2 source="SSCHA free-energy-Hessian ensemble (final auxiliary dyn)" index=295 pair=147 energy=-225.32632521572955 pbc="T T T"
Zr       0.05013334      -0.03305409       0.04590049       0.05013334      -0.03305409       0.04590049      -0.31763283      -0.51767292      -0.83369194
O        1.23601104       1.24882831       1.23582339      -0.05152295      -0.03870567      -0.05171059       0.67247026       0.82879143       0.72388689
O        3.77520457       3.94007953       3.84373376      -0.08739739       0.07747758      -0.01886819       0.26901466      -1.41141548      -0.03898017
Zr       2.55314096       2.58412666       0.01975549      -0.02192701       0.00905869       0.01975549       0.91821709      -0.18702598      -0.17726221
O        3.99125925       3.82731714       1.32224784       0.12865730      -0.03528481       0.03471386      -0.86186793       0.37422529      -0.33050119
O        6.41940549       6.47635655       3.91152413      -0.01826443       0.03868663       0.04892218       1.08759717       0.07508885      -0.94360520
Zr       2.55065814       0.01036934       2.61501525      -0.02440983       0.01036934       0.03994728       0.11951388       0.35700469       0.13934507
O        3.91243973       1.19039436       3.98199551       0.04983778      -0.09713962       0.11939356      -0.39963193       1.05307613      -0.89961753
O        6.52199646       3.91614904       6.44478302       0.08432654       0.05354709       0.00711310      -0.09984432      -0.87640488      -0.30924083
Zr       5.14084154       2.53350742       2.59948519      -0.00929439      -0.04156055       0.02441722      -0.08248864      -0.14161415      -0.39543146
O        6.45001986       3.95894017       3.91825223       0.01234993       0.09633822       0.05565027      -0.10080862      -1.04330587      -0.53961823
O        9.02119038       6.45172897       6.48202457       0.00845249       0.01405905       0.04435465      -0.85228044       0.24159276      -0.24716794
Zr       0.01779089       2.59717480       2.51094669       0.01779089       0.02210683      -0.06412128       0.23131975      -0.13341529       1.24715816
O        1.29361503       3.83855810       3.83891913       0.00608105      -0.02404385      -0.02368283       0.04584534       0.31211005       0.05243148
O        3.82889798       6.46411060       6.52380858      -0.03370397       0.02644068       0.08613866      -0.88656346       0.09842216      -0.01625077
Zr       2.56485039       5.18275399       2.51321360      -0.01021757       0.03261806      -0.06185437       0.08125613       0.06015934       0.65402223
O        3.94522811       6.41699704       3.83748929       0.08262616      -0.02067288      -0.02511266      -0.44503156       0.15812089       0.43704085
O        6.43058952       9.07485513       6.38240355      -0.00708040       0.06211724      -0.05526638       1.53190704      -1.12574098       1.33451174
Zr       2.61518257       2.60300454       5.17565423       0.04011460       0.02793657       0.02551830      -0.94672065      -0.12952307      -0.61070638
O        3.90581425       3.93292218       6.34172952       0.04321230       0.07032023      -0.09594041      -0.50750437      -0.97486671       1.20646032
O        6.53781855       6.43103971       9.01824588       0.10014863      -0.00663021       0.00550799      -0.13922208       0.50871665      -0.07712191
Zr       5.06836469       5.10149244       5.09740828      -0.08177124      -0.04864350      -0.05272765       0.69152955       1.60732764      -0.16498431
O        6.27405481       6.44545562       6.45093898      -0.16361512       0.00778570       0.01326905       1.15342306       0.36983901       0.11101724
O        9.08431645       8.90914318       9.00033636       0.07157856      -0.10359471      -0.01240153      -1.16249710       0.49651044      -0.32169390
24
Lattice="7.930367142787806e-16 5.150135937436669 5.150135937436672 5.150135937436679 -1.761807823301137e-15 5.150135937436673 5.150135937436676 5.150135937436671 -1.816978066006728e-15" Properties=species:S:1:pos:R:3:u_disp:R:3:forces:R:3 system=zro2_cubic model=mace_mp0 T=100.0 seed=1 supercell=2x2x2 source="SSCHA free-energy-Hessian ensemble (final auxiliary dyn)" index=301 pair=150 energy=-225.831469633043 pbc="T T T"
Zr      -0.02979010       0.01474981       0.05933154      -0.02979010       0.01474981       0.05933154       0.21815006      -0.26831873      -0.35270598
O        1.34456902       1.38283409       1.20289934       0.05703504       0.09530011      -0.08463464      -0.66034260      -0.64022785       0.46967157
O        3.91669731       3.89706026       3.82179233       0.05409536       0.03445831      -0.04080963      -0.74898417      -0.00567749      -0.04764536
Zr       2.54939475       2.55370292      -0.02574122      -0.02567321      -0.02136505      -0.02574122       0.20070897       0.37720235      -0.12845104
O        3.82727434       3.79837032       1.33631555      -0.03532762      -0.06423163       0.04878157      -0.31339148       0.35586577      -0.85783663
O        6.45586061       6.44094129       3.84130523       0.01819069       0.00327137      -0.02129672      -0.25593855      -0.19411956      -0.93076598
Zr       2.63348294      -0.01927764       2.52124726       0.05841497      -0.01927764      -0.05382070      -0.42342698       0.05271332       0.38058743
O        3.86316202       1.30008899       3.91288653       0.00056006       0.01255501       0.05028458      -0.46616696       0.11016380       0.11407187
O        6.39319600       3.90388520       6.47981280      -0.04447393       0.04128324       0.04214287       0.10407970       0.03319757       0.23283096
Zr       5.12544759       2.54296685       2.63740256      -0.02468835      -0.03210112       0.06233460       0.14309989       0.25332767      -0.34847496
O        6.41151716       3.84770802       3.88448838      -0.02615276      -0.01489393       0.02188643       0.55435036      -0.29670179       0.25224513
O        9.00907187       6.45163444       6.49107056      -0.00366602       0.01396452       0.05340063       0.20343190      -0.38891366       0.04583333
Zr      -0.00138256       2.56439890       2.60043328      -0.00138256      -0.01066907       0.02536532       0.31368580       0.17477931       0.26780796
O        1.24865149       3.87180428       3.95810651      -0.03888249       0.00920233       0.09550456       0.43851251      -0.30608652      -0.56045897
O        3.88489903       6.41426596       6.50416615       0.02229707      -0.02340396       0.06649623      -0.05388923      -0.25168533      -0.25230613
Zr       2.60893364       5.15397008       2.52451652       0.03386567       0.00383414      -0.05055145      -0.38764236      -0.13220865       0.33714229
O        3.87798356       6.48722407       3.87508651       0.01538161       0.04955415       0.01248456      -0.63141047      -0.42092465       0.37971966
O        6.42029915       9.10330038       6.45249183      -0.01737077       0.09056249       0.01482190      -0.10654664      -0.30693089       0.54390625
Zr       2.56611560       2.61996032       5.11417710      -0.00895237       0.04489235      -0.03595884      -0.46058886      -0.19093223      -0.16727412
O        3.79527924       3.83681807       6.34590192      -0.06732272      -0.02578388      -0.09176800       0.56608555       0.24228293       0.68297582
O        6.31397611       6.36002800       8.94840294      -0.12369381      -0.07764192      -0.06433495       1.18385206       0.24330225      -0.00370640
Zr       5.18532952       5.15232316       5.17196865       0.03519358       0.00218722       0.02183272      -0.09204534       0.05624680      -0.33858098
O        6.43018571       6.42782402       6.32470214      -0.00748421      -0.00984590      -0.11296779       0.57748094       0.70646637       0.69690161
O        8.99865419       8.97959188       9.00682694      -0.01408370      -0.03314601      -0.00591095       0.09693590       0.79717923      -0.41548733
24
Lattice="7.930367142787806e-16 5.150135937436669 5.150135937436672 5.150135937436679 -1.761807823301137e-15 5.150135937436673 5.150135937436676 5.150135937436671 -1.816978066006728e-15" Properties=species:S:1:pos:R:3:u_disp:R:3:forces:R:3 system=zro2_cubic model=mace_mp0 T=100.0 seed=1 supercell=2x2x2 source="SSCHA free-energy-Hessian ensemble (final auxiliary dyn)" index=388 pair=194 energy=-225.58144784114074 pbc="T T T"
Zr      -0.04481657       0.03828218      -0.00108339      -0.04481657       0.03828218      -0.00108339       0.19765869      -0.31744782      -0.17402552
O        1.32323110       1.29147090       1.23897977       0.03569712       0.00393691      -0.04855421      -0.90550015      -0.58189695       0.54273919
O        3.87764468       3.85171071       3.81790133       0.01504273      -0.01089124      -0.04470063      -0.02687052      -0.26951713      -0.02947385
Zr       2.55978750       2.52019155       0.01700783      -0.01528047      -0.05487641       0.01700783       0.01881741       0.71930737      -0.50596160
O        3.92092623       3.91485291       1.23522876       0.05832428       0.05225096      -0.05230522      -0.45559363      -0.40496106       0.38060929
O        6.44420437       6.46830149       3.89666192       0.00653445       0.03063157       0.03405997      -0.04367663      -0.40382918      -0.99902671
Zr       2.57754468      -0.01330274       2.49022297       0.00247671      -0.01330274      -0.08484500      -0.37163449      -0.55082301       0.88351242
O        3.85385385       1.23002024       3.91775917      -0.00874810      -0.05751375       0.05515722      -0.08134288      -0.18911543      -0.53163966
O        6.46737397       3.94270933       6.51574640       0.02970405       0.08010738       0.07807648       0.21401348      -1.07098390      -0.15289827
Zr       5.11625028       2.59414020       2.59688468      -0.03388566       0.01907223       0.02181672       0.30014080       0.17512354       0.13786941
O        6.38160036       3.89933283       3.88869327      -0.05606956       0.03673087       0.02609131       0.42898452       0.00113142       0.12959484
O        8.95787394       6.45844508       6.45404561      -0.05486395       0.02077516       0.01637569       1.19103292      -0.19434909       0.38208727
Zr      -0.04874913       2.61545333       2.58282319      -0.04874913       0.04038536       0.00775522       0.39440548      -0.16877886       0.37810276
O        1.33985609       3.82017994       3.93771544       0.05232210      -0.04242201       0.07511348      -0.81590816       1.21302728      -0.44317915
O        3.76745316       6.38618538       6.46959878      -0.09514879      -0.05148455       0.03192886       1.14335424       0.69578782      -0.05491142
Zr       2.63859736       5.15922761       2.58058897       0.06352939       0.00909167       0.00552100      -0.30656252      -0.09935765       0.00150059
O        3.86861073       6.42146612       3.88195333       0.00600877      -0.01620380       0.01935137      -0.14223516      -0.05194041       0.26716657
O        6.45351114       8.88651675       6.47854527       0.01584122      -0.12622114       0.04087534       0.39082586       1.02308336       0.35194789
Zr       2.54366953       2.55270274       5.12589362      -0.03139843      -0.02236523      -0.02424232       0.25633841      -0.02097700       0.12690525
O        3.97976754       3.81951622       6.40589404       0.11716558      -0.04308573      -0.03177588      -0.85735831       0.60291314       0.09164638
O        6.37010393       6.53957966       9.00369564      -0.06756600       0.10190974      -0.00904225       0.63284134      -0.72559647      -0.16711548
Zr       5.23350832       5.16128525       5.17728419       0.08337238       0.01114931       0.02714825       0.10068076      -0.10861665      -0.26302027
O        6.53490708       6.39235511       6.40103797       0.09723716      -0.04531481      -0.03663196      -1.29495487       0.07010603       0.31227489
O        9.00238795       8.92309409       9.03502939      -0.01034994      -0.08964380       0.02229150       0.03254342       0.65771065      -0.66470484
24
Lattice="7.930367142787806e-16 5.150135937436669 5.150135937436672 5.150135937436679 -1.761807823301137e-15 5.150135937436673 5.150135937436676 5.150135937436671 -1.816978066006728e-15" Properties=species:S:1:pos:R:3:u_disp:R:3:forces:R:3 system=zro2_cubic model=mace_mp0 T=100.0 seed=1 supercell=2x2x2 source="SSCHA free-energy-Hessian ensemble (final auxiliary dyn)" index=429 pair=214 energy=-225.56851464300303 pbc="T T T"
Zr       0.01681171      -0.05525402      -0.00516270       0.01681171      -0.05525402      -0.00516270      -0.26000689       0.28379711       0.22545286
O        1.33404393       1.26134103       1.22570667       0.04650995      -0.02619295      -0.06182731      -0.42076394      -0.57545884       0.45453106
O        3.86210733       3.76850849       3.72901396      -0.00049462      -0.09409346      -0.13358800       0.29431852       0.98009691       1.19616964
Zr       2.47450509       2.61398130       0.02733199      -0.10056288       0.03891333       0.02733199       0.73617048      -0.24804645      -0.10193113
O        3.87166616       3.84630815       1.30961376       0.00906421      -0.01629381       0.02207978      -0.18535706       0.34311404      -1.09762982
O        6.50228729       6.43131814       3.92597480       0.06461737      -0.00635178       0.06337285      -0.89516187      -0.06320835      -0.74405986
Zr       2.63199485       0.01209510       2.64160575       0.05692688       0.01209510       0.06653778      -0.38076810       0.20059198      -0.03021332
O        3.82714862       1.33135516       3.92397806      -0.03545334       0.04382118       0.06137611       0.82710193      -1.28909742      -0.56564665
O        6.38913349       3.79596574       6.38526100      -0.04853643      -0.06663621      -0.05240892      -0.01495628       0.50464152       0.61642223
Zr       5.22320244       2.51813395       2.55496814       0.07306650      -0.05693402      -0.02009983      -0.43541596       0.40534130       0.12942299
O        6.51009793       3.82822937       3.90620910       0.07242801      -0.03437258       0.04360715      -0.90187867       0.31750971      -0.77704734
O        9.02948574       6.50788544       6.42729257       0.01674785       0.07021552      -0.01037735       0.21394625      -0.62044795       0.14229238
Zr      -0.02217379       2.57591297       2.56046476      -0.02217379       0.00084500      -0.01460321       0.04680625      -0.27278935      -0.13659080
O        1.35133935       3.86591010       3.81386432       0.06380537       0.00330815      -0.04873764      -0.94388963       0.23518027       0.17371497
O        3.92446030       6.40177103       6.46756833       0.06185834      -0.03589889       0.02989841      -0.25564786       0.30926659       0.18049875
Zr       2.58138867       5.16756998       2.56183571       0.00632070       0.01743404      -0.01323226       0.51447536      -0.15548873      -0.19937608
O        3.88962418       6.46943048       3.83921724       0.02702223       0.03176056      -0.02338472      -0.27706775      -0.81255504       0.32824935
O        6.45673600       8.93566687       6.40030064       0.01906608      -0.07707102      -0.03736928      -0.56738885       0.52922635       0.38280192
Zr       2.57834980       2.62961705       5.10988927       0.00328183       0.05454908      -0.04024667       0.38995533      -0.48854077      -0.01651042
O        3.83847644       3.88457696       6.44437234      -0.02412551       0.02197501       0.00670242       0.32885443       0.18046334      -0.34516350
O        6.40684709       6.38424985       8.94967713      -0.03082283      -0.05342007      -0.06306076       0.14016736       0.11333587       0.55268010
Zr       5.08489815       5.20208647       5.19455385      -0.06523779       0.05195054       0.04441792       0.47979649      -0.38238158      -0.53740949
O        6.44002392       6.35512143       6.43714578       0.00235400      -0.08254849      -0.00052414       0.18405987       0.00647872      -0.21546278
O        8.94868679       8.97190412       8.96072063      -0.06405111      -0.04083378      -0.05201726       1.38265059       0.49897077       0.38480495
24
Lattice="7.930367142787806e-16 5.150135937436669 5.150135937436672 5.150135937436679 -1.761807823301137e-15 5.150135937436673 5.150135937436676 5.150135937436671 -1.816978066006728e-15" Properties=species:S:1:pos:R:3:u_disp:R:3:forces:R:3 system=zro2_cubic model=mace_mp0 T=100.0 seed=1 supercell=2x2x2 source="SSCHA free-energy-Hessian ensemble (final auxiliary dyn)" index=486 pair=243 energy=-225.6980661875388 pbc="T T T"
Zr       0.04716107       0.06902895       0.02580638       0.04716107       0.06902895       0.02580638      -0.73856409      -0.65546820      -0.17925585
O        1.24316935       1.34719273       1.24562005      -0.04436463       0.05965875      -0.04191394       0.09191476      -0.27049431       0.31169222
O        3.80721395       3.87926820       3.84081614      -0.05538801       0.01666625      -0.02178581      -0.20377611       0.24899266       0.19895935
Zr       2.63399869       2.63579014       0.01978875       0.05893072       0.06072217       0.01978875       0.55232276      -0.54013813      -0.44535920
O        3.89796972       3.78970555       1.30714454       0.03536777      -0.07289641       0.01961055       0.18647553       0.36787086      -0.11600956
O        6.42803740       6.42069487       3.84792378      -0.00963253      -0.01697505      -0.01467817       0.34980131      -0.43905652      -0.01621498
Zr       2.52085083       0.03187943       2.62451825      -0.05421714       0.03187943       0.04945028       0.63855769      -0.65191984      -0.38221534
O        3.90462314       1.22266234       3.78789364       0.04202119      -0.06487165      -0.07470832      -0.27905474       0.49663870       0.58628237
O        6.51292840       3.89098569       6.31586687       0.07525847       0.02838373      -0.12180305      -0.46351861       0.77228602       0.92352090
Zr       5.19021487       2.50361668       2.57164416       0.04007893      -0.07145129      -0.00342380      -0.88863838       0.62878940      -0.36446226
O        6.36628021       3.78317359       3.80116707      -0.07138972      -0.07942836      -0.06143489       0.16475558       0.65473978       0.23830595
O        8.95942938       6.40546063       6.40924480      -0.05330851      -0.03220929      -0.02842512       0.19617881      -0.54792908      -0.05493739
Zr       0.02788939       2.62523778       2.53295240       0.02788939       0.05016981      -0.04211556      -1.14105141      -0.25839709       0.05842365
O        1.14978716       3.81372988       3.83694603      -0.13774682      -0.04887207      -0.02565593       0.71462018       0.48695425      -0.31420188
O        3.84563794       6.35864956       6.43922759      -0.01696401      -0.07902036       0.00155766      -0.01706832      -0.08023305      -0.46721752
Zr       2.51611439       5.12252661       2.60125557      -0.05895358      -0.02760933       0.02618760       0.94227257      -0.01186674       0.01044368
O        3.88915775       6.53245470       3.82859762       0.02655580       0.09478477      -0.03400433      -0.05445150      -0.79296358      -0.06703775
O        6.51405523       9.00641578       6.38124079       0.07638531      -0.00632211      -0.05642914      -0.35127914       0.62183800       0.11773142
Zr       2.53538638       2.51661541       5.20789829      -0.03968159      -0.05845256       0.05776235       0.87190159       0.71380936      -0.55073752
O        3.88775691       3.79684784       6.39283015       0.02515496      -0.06575412      -0.04483977       0.59050560       0.17229737       0.43069347
O        6.39338835       6.41589578       8.93176467      -0.04428157      -0.02177414      -0.08097322       0.86656936      -0.78062216       0.80609109
Zr       5.16204787       5.13906654       5.11528864       0.01191193      -0.01106940      -0.03484730      -0.94833337      -0.15889940      -0.23524643
O        6.48403924       6.48543455       6.42441999       0.04636932       0.04776463      -0.01324994      -0.98371083      -0.73854997       0.02564190
O        8.92985691       9.00718174       9.04921867      -0.08288098      -0.00555615       0.03648078      -0.09642924       0.76232166      -0.51489032
