
     Program PWSCF v.7.5 starts on  3Oct2026 at 21:58:42 

     This program is part of the open-source Quantum ESPRESSO suite
     for quantum simulation of materials; please cite
         "P. Giannozzi et al., J. Phys.:Condens. Matter 21 395502 (2009);
         "P. Giannozzi et al., J. Phys.:Condens. Matter 29 465901 (2017);
         "P. Giannozzi et al., J. Chem. Phys. 152 154105 (2020);
          URL http://www.quantum-espresso.org", 
     in publications or presentations arising from this work. More details at
     http://www.quantum-espresso.org/quote

     Parallel version (MPI & OpenMP), running on       8 processor cores
     Number of MPI processes:                 8
     Threads/MPI process:                     1

     MPI processes distributed on     1 nodes
     98313 MiB available memory on the printing compute node when the environment starts

     Reading input from pw.in

     Current dimensions of program PWSCF are:
     Max number of different atomic species (ntypx) = 10
     Max number of k-points (npk) =  40000
     Max angular momentum in pseudopotentials (lmaxx) =  4
     file O.pbe-n-kjpaw_psl.0.1.UPF: wavefunction(s)  2P renormalized

     K-points division:     npool     =       8
     Subspace diagonalization in iterative solution of the eigenvalue problem:
     a serial algorithm will be used


     G-vector sticks info
     --------------------
     sticks:   dense  smooth     PW     G-vecs:    dense   smooth      PW
     Sum        1489     749    241                62045    21919    4129

     Using Slab Decomposition



     bravais-lattice index     =            0
     lattice parameter (alat)  =       6.8795  a.u.
     unit-cell volume          =     460.6775 (a.u.)^3
     number of atoms/cell      =            6
     number of atomic types    =            2
     number of electrons       =        48.00
     number of Kohn-Sham states=           29
     kinetic-energy cutoff     =      50.0000  Ry
     charge density cutoff     =     400.0000  Ry
     scf convergence threshold =      6.0E-10
     mixing beta               =       0.4000
     number of iterations used =            8  plain     mixing
     Exchange-correlation= SLA  PW   PBX  PBC
                           (   1   4   3   4   0   0   0)

     celldm(1)=   6.879527  celldm(2)=   0.000000  celldm(3)=   0.000000
     celldm(4)=   0.000000  celldm(5)=   0.000000  celldm(6)=   0.000000

     crystal axes: (cart. coord. in units of alat)
               a(1) = (   0.707287  -0.000002   0.706926 )  
               a(2) = (  -0.707288  -0.000001   0.706927 )  
               a(3) = (   0.000001  -1.414882  -1.413851 )  

     reciprocal axes: (cart. coord. in units 2 pi/alat)
               b(1) = (  0.706926 -0.706770  0.707286 )  
               b(2) = ( -0.706926 -0.706771  0.707285 )  
               b(3) = ( -0.000000 -0.706772 -0.000001 )  


     PseudoPot. # 1 for Zr read from file:
     /root/sssp/Zr_pbe_v1.uspp.F.UPF
     MD5 check sum: 5db81b1e868ab7776c4564c113de050b
     Pseudo is Ultrasoft + core correction, Zval = 12.0
     Generated by new atomic code, or converted to UPF format
     Using radial grid of  887 points,  6 beta functions with: 
                l(1) =   0
                l(2) =   0
                l(3) =   1
                l(4) =   1
                l(5) =   2
                l(6) =   2
     Q(r) pseudized with  6 coefficients,  rinner =    1.200   1.200   1.200
                                                       1.200   1.200

     PseudoPot. # 2 for O  read from file:
     /root/sssp/O.pbe-n-kjpaw_psl.0.1.UPF
     MD5 check sum: 0234752ac141de4415c5fc33072bef88
     Pseudo is Projector augmented-wave + core cor, Zval =  6.0
     Generated using "atomic" code by A. Dal Corso  v.5.0.99 svn rev. 10869
     Shape of augmentation charge: BESSEL
     Using radial grid of 1095 points,  4 beta functions with: 
                l(1) =   0
                l(2) =   0
                l(3) =   1
                l(4) =   1
     Q(r) pseudized with 0 coefficients 


     atomic species   valence    mass     pseudopotential
     Zr               12.00    91.22400     Zr( 1.00)
     O                 6.00    15.99900     O ( 1.00)

     No symmetry found



   Cartesian axes

     site n.     atom                  positions (alat units)
         1        Zr     tau(   1) = (   0.0001025  -0.7076118   0.7069539  )
         2        Zr     tau(   2) = (  -0.0001040  -1.4146438  -0.0000921  )
         3        O      tau(   3) = (  -0.3527148  -0.3165021   0.3509649  )
         4        O      tau(   4) = (  -0.3546713  -1.0985941  -0.3508837  )
         5        O      tau(   5) = (   0.3536332  -0.3917678   0.3546348  )
         6        O      tau(   6) = (   0.3537549  -1.0229750  -0.3546393  )

     number of k points=   203  Marzari-Vanderbilt smearing, width (Ry)=  0.0050

     Number of k-points >= 100: set verbosity='high' to print them.

     Dense  grid:    62045 G-vectors     FFT dimensions: (  45,  45,  90)

     Smooth grid:    21919 G-vectors     FFT dimensions: (  32,  32,  64)

     Estimated max dynamical RAM per process >     102.50 MB

     Estimated total dynamical RAM >     713.98 MB

     Check: negative core charge=   -0.000003

     Initial potential from superposition of free atoms

     starting charge      47.9957, renormalised to      48.0000

     negative rho (up, down):  1.186E-01 0.000E+00
     Starting wfcs are   42 randomized atomic wfcs
     Checking if some PAW data can be deallocated... 

     total cpu time spent up to now is        8.9 secs

     per-process dynamical memory:    79.5 Mb

     Self-consistent Calculation

     iteration #  1     ecut=    50.00 Ry     beta= 0.40
     Davidson diagonalization with overlap
     ethr =  1.00E-02,  avg # of iterations =  2.0

     negative rho (up, down):  1.223E-01 0.000E+00

     total cpu time spent up to now is       19.4 secs

     total energy              =    -365.23678217 Ry
     estimated scf accuracy    <       2.25975327 Ry

     iteration #  2     ecut=    50.00 Ry     beta= 0.40
     Davidson diagonalization with overlap
     ethr =  4.71E-03,  avg # of iterations =  3.0

     negative rho (up, down):  1.248E-01 0.000E+00

     total cpu time spent up to now is       28.9 secs

     total energy              =    -365.86137597 Ry
     estimated scf accuracy    <       0.15827819 Ry

     iteration #  3     ecut=    50.00 Ry     beta= 0.40
     Davidson diagonalization with overlap
     ethr =  3.30E-04,  avg # of iterations =  2.5

     negative rho (up, down):  1.288E-01 0.000E+00

     total cpu time spent up to now is       38.5 secs

     total energy              =    -365.87661322 Ry
     estimated scf accuracy    <       0.02938173 Ry

     iteration #  4     ecut=    50.00 Ry     beta= 0.40
     Davidson diagonalization with overlap
     ethr =  6.12E-05,  avg # of iterations =  4.3

     negative rho (up, down):  1.288E-01 0.000E+00

     total cpu time spent up to now is       47.8 secs

     total energy              =    -365.87741402 Ry
     estimated scf accuracy    <       0.03332898 Ry

     iteration #  5     ecut=    50.00 Ry     beta= 0.40
     Davidson diagonalization with overlap
     ethr =  6.12E-05,  avg # of iterations =  3.1

     negative rho (up, down):  1.287E-01 0.000E+00

     total cpu time spent up to now is       57.1 secs

     total energy              =    -365.88553730 Ry
     estimated scf accuracy    <       0.00049846 Ry

     iteration #  6     ecut=    50.00 Ry     beta= 0.40
     Davidson diagonalization with overlap
     c_bands:  1 eigenvalues not converged
     ethr =  1.04E-06,  avg # of iterations = 10.3

     negative rho (up, down):  1.284E-01 0.000E+00

     total cpu time spent up to now is       75.7 secs

     total energy              =    -365.88493828 Ry
     estimated scf accuracy    <       0.00197901 Ry

     iteration #  7     ecut=    50.00 Ry     beta= 0.40
     Davidson diagonalization with overlap
     ethr =  1.04E-06,  avg # of iterations =  3.8

     negative rho (up, down):  1.284E-01 0.000E+00

     total cpu time spent up to now is       87.9 secs

     total energy              =    -365.88542335 Ry
     estimated scf accuracy    <       0.00004531 Ry

     iteration #  8     ecut=    50.00 Ry     beta= 0.40
     Davidson diagonalization with overlap
     ethr =  9.44E-08,  avg # of iterations =  2.1

     negative rho (up, down):  1.284E-01 0.000E+00

     total cpu time spent up to now is       97.1 secs

     total energy              =    -365.88542011 Ry
     estimated scf accuracy    <       0.00001365 Ry

     iteration #  9     ecut=    50.00 Ry     beta= 0.40
     Davidson diagonalization with overlap
     ethr =  2.84E-08,  avg # of iterations =  3.9

     negative rho (up, down):  1.284E-01 0.000E+00

     total cpu time spent up to now is      108.9 secs

     total energy              =    -365.88542571 Ry
     estimated scf accuracy    <       0.00000889 Ry

     iteration # 10     ecut=    50.00 Ry     beta= 0.40
     Davidson diagonalization with overlap
     ethr =  1.85E-08,  avg # of iterations =  2.0

     negative rho (up, down):  1.284E-01 0.000E+00

     total cpu time spent up to now is      117.9 secs

     total energy              =    -365.88542588 Ry
     estimated scf accuracy    <       0.00000150 Ry

     iteration # 11     ecut=    50.00 Ry     beta= 0.40
     Davidson diagonalization with overlap
     ethr =  3.13E-09,  avg # of iterations =  3.8

     negative rho (up, down):  1.284E-01 0.000E+00

     total cpu time spent up to now is      129.0 secs

     total energy              =    -365.88542625 Ry
     estimated scf accuracy    <          7.6E-09 Ry

     iteration # 12     ecut=    50.00 Ry     beta= 0.40
     Davidson diagonalization with overlap
     ethr =  1.59E-11,  avg # of iterations =  4.6

     negative rho (up, down):  1.284E-01 0.000E+00

     total cpu time spent up to now is      141.9 secs

     total energy              =    -365.88542627 Ry
     estimated scf accuracy    <          1.4E-09 Ry

     iteration # 13     ecut=    50.00 Ry     beta= 0.40
     Davidson diagonalization with overlap
     ethr =  3.02E-12,  avg # of iterations =  2.7

     negative rho (up, down):  1.284E-01 0.000E+00

     total cpu time spent up to now is      152.3 secs

     End of self-consistent calculation

     Number of k-points >= 100: set verbosity='high' to print the bands.

     the Fermi energy is    12.5858 ev

!    total energy              =    -365.88542627 Ry
     estimated scf accuracy    <          1.5E-10 Ry
     smearing contrib. (-TS)   =       0.00000000 Ry
     internal energy E=F+TS    =    -365.88542627 Ry

     The total energy is F=E-TS. E is the sum of the following terms:
     one-electron contribution =     -50.61648582 Ry
     hartree contribution      =      55.27354782 Ry
     xc contribution           =     -65.60717373 Ry
     ewald contribution        =    -266.88644976 Ry
     one-center paw contrib.   =     -38.04886477 Ry

     convergence has been achieved in  13 iterations

     negative rho (up, down):  1.284E-01 0.000E+00

     Forces acting on atoms (cartesian axes, Ry/au):

     atom    1 type  1   force =     0.00041006    0.00114695   -0.00029445
     atom    2 type  1   force =     0.00028023   -0.00118336   -0.00011579
     atom    3 type  2   force =    -0.00228881    0.01266510    0.00479785
     atom    4 type  2   force =     0.00054687   -0.01201707   -0.00430656
     atom    5 type  2   force =     0.00140138   -0.00992469   -0.00374426
     atom    6 type  2   force =    -0.00034973    0.00931307    0.00366322

     Total force =     0.023869     Total SCF correction =     0.000019
     Message from routine punch:
     Nothing written, as per user request (disk_io='none')

     init_run     :      8.40s CPU      8.57s WALL (       1 calls)
     electrons    :    142.88s CPU    143.40s WALL (       1 calls)
     forces       :      2.01s CPU      2.02s WALL (       1 calls)

     Called by init_run:
     wfcinit      :      2.50s CPU      2.55s WALL (       1 calls)
     potinit      :      1.54s CPU      1.60s WALL (       1 calls)
     hinit0       :      1.28s CPU      1.30s WALL (       1 calls)

     Called by electrons:
     c_bands      :    118.03s CPU    118.42s WALL (      13 calls)
     sum_band     :     17.62s CPU     17.72s WALL (      13 calls)
     v_of_rho     :      1.94s CPU      2.00s WALL (      14 calls)
     newd         :      2.13s CPU      2.17s WALL (      14 calls)
     PAW_pot      :      3.44s CPU      3.44s WALL (      14 calls)
     mix_rho      :      0.16s CPU      0.16s WALL (      13 calls)

     Called by c_bands:
     init_us_2    :      2.40s CPU      2.41s WALL (     728 calls)
     cegterg      :     58.32s CPU     58.67s WALL (     338 calls)

     Called by *egterg:
     cdiaghg      :      2.06s CPU      2.07s WALL (    1659 calls)
     h_psi        :     45.08s CPU     45.41s WALL (    1685 calls)
     s_psi        :      2.43s CPU      2.44s WALL (    1685 calls)
     g_psi        :      0.40s CPU      0.40s WALL (    1321 calls)

     Called by h_psi:
     h_psi:calbec :      3.83s CPU      3.84s WALL (    1685 calls)
     vloc_psi     :     38.02s CPU     38.32s WALL (    1685 calls)
                                        0.00s GPU  (    1685 calls)
     add_vuspsi   :      2.80s CPU      2.82s WALL (    1685 calls)

     General routines
     calbec       :      5.23s CPU      5.24s WALL (    2127 calls)
     fft          :      1.08s CPU      1.08s WALL (     191 calls)
     ffts         :      0.34s CPU      0.34s WALL (      27 calls)
     fftw         :     37.27s CPU     37.54s WALL (   64410 calls)
     interpolate  :      0.42s CPU      0.42s WALL (      14 calls)

     Parallel routines

     PWSCF        :   2m33.77s CPU   2m34.52s WALL


   This run was terminated on:  22: 1:17   3Oct2026            

=------------------------------------------------------------------------------=
   JOB DONE.
=------------------------------------------------------------------------------=
