
     Program PWSCF v.7.5 starts on  5Oct2026 at  4: 1:45 

     This program is part of the open-source Quantum ESPRESSO suite
     for quantum simulation of materials; please cite
         "P. Giannozzi et al., J. Phys.:Condens. Matter 21 395502 (2009);
         "P. Giannozzi et al., J. Phys.:Condens. Matter 29 465901 (2017);
         "P. Giannozzi et al., J. Chem. Phys. 152 154105 (2020);
          URL http://www.quantum-espresso.org", 
     in publications or presentations arising from this work. More details at
     http://www.quantum-espresso.org/quote

     Parallel version (MPI & OpenMP), running on       8 processor cores
     Number of MPI processes:                 8
     Threads/MPI process:                     1

     MPI processes distributed on     1 nodes
     100920 MiB available memory on the printing compute node when the environment starts

     Reading input from pw.in

     Current dimensions of program PWSCF are:
     Max number of different atomic species (ntypx) = 10
     Max number of k-points (npk) =  40000
     Max angular momentum in pseudopotentials (lmaxx) =  4
     Message from routine setup:
     using ibrav=0 with symmetry is DISCOURAGED, use correct ibrav instead

     K-points division:     npool     =       2
     R & G space division:  proc/nbgrp/npool/nimage =       4
     Subspace diagonalization in iterative solution of the eigenvalue problem:
     a serial algorithm will be used


     Parallelization info
     --------------------
     sticks:   dense  smooth     PW     G-vecs:    dense   smooth      PW
     Min        2046    1023    280               122595    43365    6172
     Max        2047    1024    281               122598    43367    6174
     Sum        8185    4093   1123               490385   173463   24693

     Using Slab Decomposition



     bravais-lattice index     =            0
     lattice parameter (alat)  =      15.7535  a.u.
     unit-cell volume          =    2764.4861 (a.u.)^3
     number of atoms/cell      =           10
     number of atomic types    =            3
     number of electrons       =        88.00
     number of Kohn-Sham states=           53
     kinetic-energy cutoff     =      60.0000  Ry
     charge density cutoff     =     480.0000  Ry
     scf convergence threshold =      1.0E-09
     mixing beta               =       0.4000
     number of iterations used =            8  plain     mixing
     Exchange-correlation=  SLA  PW   PBX  PBC
                           (   1   4   3   4   0   0   0)

     celldm(1)=  15.753479  celldm(2)=   0.000000  celldm(3)=   0.000000
     celldm(4)=   0.000000  celldm(5)=   0.000000  celldm(6)=   0.000000

     crystal axes: (cart. coord. in units of alat)
               a(1) = (   0.707107   0.000000   0.707107 )  
               a(2) = (  -0.000000  -0.707107   0.707107 )  
               a(3) = (   0.707107  -0.707107  -0.000000 )  

     reciprocal axes: (cart. coord. in units 2 pi/alat)
               b(1) = (  0.707107  0.707107  0.707107 )  
               b(2) = ( -0.707107 -0.707107  0.707107 )  
               b(3) = (  0.707107 -0.707107 -0.707107 )  


     PseudoPot. # 1 for Cs read from file:
     /root/sssp/Cs_pbe_v1.uspp.F.UPF
     MD5 check sum: 3476d69cb178dfad3ffaa59df4e07ca4
     Pseudo is Ultrasoft + core correction, Zval =  9.0
     Generated by new atomic code, or converted to UPF format
     Using radial grid of  905 points,  6 beta functions with: 
                l(1) =   0
                l(2) =   0
                l(3) =   1
                l(4) =   1
                l(5) =   2
                l(6) =   2
     Q(r) pseudized with  6 coefficients,  rinner =    1.500   1.500   1.500
                                                       1.500   1.500

     PseudoPot. # 2 for Sn read from file:
     /root/sssp/Sn_pbe_v1.uspp.F.UPF
     MD5 check sum: 4cf58ce39ec5d5d420df3dd08604eb00
     Pseudo is Ultrasoft + core correction, Zval = 14.0
     Generated by new atomic code, or converted to UPF format
     Using radial grid of  891 points,  6 beta functions with: 
                l(1) =   0
                l(2) =   0
                l(3) =   1
                l(4) =   1
                l(5) =   2
                l(6) =   2
     Q(r) pseudized with  6 coefficients,  rinner =    1.200   1.200   1.200
                                                       1.200   1.200

     PseudoPot. # 3 for Br read from file:
     /root/sssp/br_pbe_v1.4.uspp.F.UPF
     MD5 check sum: d3ffb7b29f6225aa16fe06858fb2a80b
     Pseudo is Ultrasoft + core correction, Zval =  7.0
     Generated by new atomic code, or converted to UPF format
     Using radial grid of  879 points,  6 beta functions with: 
                l(1) =   0
                l(2) =   0
                l(3) =   1
                l(4) =   1
                l(5) =   2
                l(6) =   2
     Q(r) pseudized with  8 coefficients,  rinner =    1.100   1.100   1.100
                                                       1.100   1.100

     atomic species   valence    mass     pseudopotential
     Cs                9.00   132.90550     Cs( 1.00)
     Sn               14.00   118.71000     Sn( 1.00)
     Br                7.00    79.90400     Br( 1.00)

      2 Sym. Ops., with inversion, found ( 1 have fractional translation)



   Cartesian axes

     site n.     atom                  positions (alat units)
         1        Cs     tau(   1) = (   0.7071068  -0.7071068   0.7071068  )
         2        Cs     tau(   2) = (   0.0000000   0.0000000   0.0000000  )
         3        Sn     tau(   3) = (   1.0606602  -1.0606602   1.0606602  )
         4        Sn     tau(   4) = (   0.3535534  -0.3535534   0.3535534  )
         5        Br     tau(   5) = (   0.7071068  -1.0528014   0.3484529  )
         6        Br     tau(   6) = (   0.7071068  -0.3614121   0.3586539  )
         7        Br     tau(   7) = (   0.3614121  -0.7071068   1.0366689  )
         8        Br     tau(   8) = (   0.3456946  -0.7071068   0.3775446  )
         9        Br     tau(   9) = (   1.0555597  -1.0366689   0.7071068  )
        10        Br     tau(  10) = (   1.0657607  -0.3775446   0.7071068  )

     number of k points=   172  Marzari-Vanderbilt smearing, width (Ry)=  0.0050

     Number of k-points >= 100: set verbosity='high' to print them.

     Dense  grid:   490385 G-vectors     FFT dimensions: ( 120, 120, 120)

     Smooth grid:   173463 G-vectors     FFT dimensions: (  80,  80,  80)

     Estimated max dynamical RAM per process >     679.21 MB

     Estimated total dynamical RAM >       5.19 GB

     Initial potential from superposition of free atoms

     starting charge      85.9210, renormalised to      88.0000
     Starting wfcs are   68 randomized atomic wfcs

     total cpu time spent up to now is       66.8 secs

     per-process dynamical memory:   501.2 Mb

     Self-consistent Calculation

     iteration #  1     ecut=    60.00 Ry     beta= 0.40
     Davidson diagonalization with overlap
     ethr =  1.00E-02,  avg # of iterations =  2.7

     Threshold (ethr) on eigenvalues was too large:
     Diagonalizing with lowered threshold

     Davidson diagonalization with overlap
     ethr =  4.84E-04,  avg # of iterations =  2.8

     total cpu time spent up to now is      396.9 secs

     total energy              =    -734.55987491 Ry
     estimated scf accuracy    <       0.40913032 Ry

     iteration #  2     ecut=    60.00 Ry     beta= 0.40
     Davidson diagonalization with overlap
     ethr =  4.65E-04,  avg # of iterations =  2.0

     total cpu time spent up to now is      555.1 secs

     total energy              =    -734.60672830 Ry
     estimated scf accuracy    <       0.03719224 Ry

     iteration #  3     ecut=    60.00 Ry     beta= 0.40
     Davidson diagonalization with overlap
     ethr =  4.23E-05,  avg # of iterations =  9.1

     total cpu time spent up to now is      814.3 secs

     total energy              =    -734.61032017 Ry
     estimated scf accuracy    <       0.00564530 Ry

     iteration #  4     ecut=    60.00 Ry     beta= 0.40
     Davidson diagonalization with overlap
     c_bands:  1 eigenvalues not converged
     ethr =  6.42E-06,  avg # of iterations =  7.7

     total cpu time spent up to now is     1041.4 secs

     total energy              =    -734.61090608 Ry
     estimated scf accuracy    <       0.00048572 Ry

     iteration #  5     ecut=    60.00 Ry     beta= 0.40
     Davidson diagonalization with overlap
     c_bands:  1 eigenvalues not converged
     ethr =  5.52E-07,  avg # of iterations =  5.5

     total cpu time spent up to now is     1238.0 secs

     total energy              =    -734.61097974 Ry
     estimated scf accuracy    <       0.00001257 Ry

     iteration #  6     ecut=    60.00 Ry     beta= 0.40
     Davidson diagonalization with overlap
     ethr =  1.43E-08,  avg # of iterations =  5.7

     total cpu time spent up to now is     1447.1 secs

     total energy              =    -734.61099335 Ry
     estimated scf accuracy    <       0.00000128 Ry

     iteration #  7     ecut=    60.00 Ry     beta= 0.40
     Davidson diagonalization with overlap
     ethr =  1.45E-09,  avg # of iterations =  3.1

     total cpu time spent up to now is     1619.8 secs

     total energy              =    -734.61099578 Ry
     estimated scf accuracy    <       0.00000026 Ry

     iteration #  8     ecut=    60.00 Ry     beta= 0.40
     Davidson diagonalization with overlap
     ethr =  2.94E-10,  avg # of iterations =  2.5

     total cpu time spent up to now is     1785.8 secs

     total energy              =    -734.61099653 Ry
     estimated scf accuracy    <       0.00000005 Ry

     iteration #  9     ecut=    60.00 Ry     beta= 0.40
     Davidson diagonalization with overlap
     ethr =  6.18E-11,  avg # of iterations =  2.6

     total cpu time spent up to now is     1938.1 secs

     total energy              =    -734.61099677 Ry
     estimated scf accuracy    <          1.7E-09 Ry

     iteration # 10     ecut=    60.00 Ry     beta= 0.40
     Davidson diagonalization with overlap
     ethr =  1.97E-12,  avg # of iterations =  5.5

     total cpu time spent up to now is     2149.3 secs

     End of self-consistent calculation

     Number of k-points >= 100: set verbosity='high' to print the bands.

     the Fermi energy is     4.3645 ev

!    total energy              =    -734.61099690 Ry
     estimated scf accuracy    <          2.4E-10 Ry
     smearing contrib. (-TS)   =       0.00000000 Ry
     internal energy E=F+TS    =    -734.61099690 Ry

     The total energy is F=E-TS. E is the sum of the following terms:
     one-electron contribution =    -253.24005527 Ry
     hartree contribution      =     164.10609015 Ry
     xc contribution           =    -312.39894101 Ry
     ewald contribution        =    -333.07809078 Ry

     convergence has been achieved in  10 iterations

     Forces acting on atoms (cartesian axes, Ry/au):

     atom    1 type  1   force =     0.00001528    0.00004515   -0.00007443
     atom    2 type  1   force =    -0.00001528   -0.00004515    0.00007443
     atom    3 type  2   force =     0.00000000    0.00000000    0.00000000
     atom    4 type  2   force =     0.00000000    0.00000000    0.00000000
     atom    5 type  3   force =     0.00000027    0.00032164   -0.00020728
     atom    6 type  3   force =    -0.00000027   -0.00032164    0.00020728
     atom    7 type  3   force =     0.00023313   -0.00000022   -0.00083875
     atom    8 type  3   force =    -0.00023313    0.00000022    0.00083875
     atom    9 type  3   force =    -0.00015377    0.00085680   -0.00000019
     atom   10 type  3   force =     0.00015377   -0.00085680    0.00000019

     Total force =     0.001827     Total SCF correction =     0.000004
     Message from routine punch:
     Nothing written, as per user request (disk_io='none')

     init_run     :     63.18s CPU     66.36s WALL (       1 calls)
     electrons    :   2022.35s CPU   2082.43s WALL (       1 calls)
     forces       :     35.99s CPU     36.61s WALL (       1 calls)

     Called by init_run:
     wfcinit      :     57.60s CPU     60.02s WALL (       1 calls)
     potinit      :      1.71s CPU      1.82s WALL (       1 calls)
     hinit0       :      1.11s CPU      1.18s WALL (       1 calls)

     Called by electrons:
     c_bands      :   1737.21s CPU   1780.10s WALL (      11 calls)
     sum_band     :    249.06s CPU    260.95s WALL (      11 calls)
     v_of_rho     :     11.10s CPU     11.83s WALL (      11 calls)
     newd         :     25.45s CPU     30.62s WALL (      11 calls)
     mix_rho      :      1.13s CPU      1.15s WALL (      11 calls)

     Called by c_bands:
     init_us_2    :     28.67s CPU     28.85s WALL (    2064 calls)
     cegterg      :   1524.55s CPU   1567.20s WALL (     946 calls)

     Called by *egterg:
     cdiaghg      :     18.01s CPU     18.05s WALL (    5047 calls)
     h_psi        :    870.23s CPU    911.35s WALL (    5219 calls)
     s_psi        :     48.72s CPU     48.79s WALL (    5219 calls)
     g_psi        :      3.58s CPU      3.59s WALL (    4187 calls)

     Called by h_psi:
     h_psi:calbec :    176.67s CPU    177.20s WALL (    5219 calls)
     vloc_psi     :    635.99s CPU    674.62s WALL (    5219 calls)
                                        0.00s GPU  (    5219 calls)
     add_vuspsi   :     52.57s CPU     52.62s WALL (    5219 calls)

     General routines
     calbec       :    249.27s CPU    250.05s WALL (    6509 calls)
     fft          :     11.82s CPU     12.23s WALL (     153 calls)
     ffts         :      0.73s CPU      0.74s WALL (      22 calls)
     fftw         :    732.49s CPU    776.44s WALL (  327768 calls)
     interpolate  :      1.32s CPU      1.34s WALL (      11 calls)

     Parallel routines

     PWSCF        :  35m21.98s CPU  36m25.99s WALL


   This run was terminated on:   4:38:11   5Oct2026            

=------------------------------------------------------------------------------=
   JOB DONE.
=------------------------------------------------------------------------------=
