
     Program PWSCF v.7.5 starts on 27Sep2026 at  8: 9:53 

     This program is part of the open-source Quantum ESPRESSO suite
     for quantum simulation of materials; please cite
         "P. Giannozzi et al., J. Phys.:Condens. Matter 21 395502 (2009);
         "P. Giannozzi et al., J. Phys.:Condens. Matter 29 465901 (2017);
         "P. Giannozzi et al., J. Chem. Phys. 152 154105 (2020);
          URL http://www.quantum-espresso.org", 
     in publications or presentations arising from this work. More details at
     http://www.quantum-espresso.org/quote

     Parallel version (MPI & OpenMP), running on       8 processor cores
     Number of MPI processes:                 8
     Threads/MPI process:                     1

     MPI processes distributed on     1 nodes
     72279 MiB available memory on the printing compute node when the environment starts

     Reading input from pw.in

     Current dimensions of program PWSCF are:
     Max number of different atomic species (ntypx) = 10
     Max number of k-points (npk) =  40000
     Max angular momentum in pseudopotentials (lmaxx) =  4
     file Ba.pbe-spn-kjpaw_psl.1.0.0.UPF: wavefunction(s)  5S 6S renormalized
     file O.pbe-n-kjpaw_psl.0.1.UPF: wavefunction(s)  2P renormalized
     Message from routine setup:
     using ibrav=0 with symmetry is DISCOURAGED, use correct ibrav instead

     K-points division:     npool     =       8
     Subspace diagonalization in iterative solution of the eigenvalue problem:
     a serial algorithm will be used


     G-vector sticks info
     --------------------
     sticks:   dense  smooth     PW     G-vecs:    dense   smooth      PW
     Sum        1861     933    277                60005    21247    3407

     Using Slab Decomposition



     bravais-lattice index     =            0
     lattice parameter (alat)  =       7.6272  a.u.
     unit-cell volume          =     443.7078 (a.u.)^3
     number of atoms/cell      =            5
     number of atomic types    =            3
     number of electrons       =        40.00
     number of Kohn-Sham states=           24
     kinetic-energy cutoff     =      50.0000  Ry
     charge density cutoff     =     400.0000  Ry
     scf convergence threshold =      5.0E-10
     mixing beta               =       0.4000
     number of iterations used =            8  plain     mixing
     Exchange-correlation= SLA  PW   PBX  PBC
                           (   1   4   3   4   0   0   0)

     celldm(1)=   7.627207  celldm(2)=   0.000000  celldm(3)=   0.000000
     celldm(4)=   0.000000  celldm(5)=   0.000000  celldm(6)=   0.000000

     crystal axes: (cart. coord. in units of alat)
               a(1) = (  -0.000000   0.000000   1.000000 )  
               a(2) = (   0.000000  -1.000000  -0.000000 )  
               a(3) = (   1.000000  -0.000000  -0.000000 )  

     reciprocal axes: (cart. coord. in units 2 pi/alat)
               b(1) = (  0.000000 -0.000000  1.000000 )  
               b(2) = ( -0.000000 -1.000000  0.000000 )  
               b(3) = (  1.000000  0.000000  0.000000 )  


     PseudoPot. # 1 for Ba read from file:
     /root/sssp/upf/Ba.pbe-spn-kjpaw_psl.1.0.0.UPF
     MD5 check sum: c432291d3e53af55f19d5e8866385beb
     Pseudo is Projector augmented-wave + core cor, Zval = 10.0
     Generated using "atomic" code by A. Dal Corso  v.5.1
     Shape of augmentation charge: PSQ
     Using radial grid of 1251 points,  7 beta functions with: 
                l(1) =   0
                l(2) =   0
                l(3) =   0
                l(4) =   1
                l(5) =   1
                l(6) =   2
                l(7) =   2
     Q(r) pseudized with 0 coefficients 


     PseudoPot. # 2 for Ti read from file:
     /root/sssp/upf/ti_pbe_v1.4.uspp.F.UPF
     MD5 check sum: 88a00a6731bd790ddea75d31a80cb452
     Pseudo is Ultrasoft + core correction, Zval = 12.0
     Generated by new atomic code, or converted to UPF format
     Using radial grid of  851 points,  6 beta functions with: 
                l(1) =   0
                l(2) =   0
                l(3) =   1
                l(4) =   1
                l(5) =   2
                l(6) =   2
     Q(r) pseudized with  6 coefficients,  rinner =    1.000   1.000   1.000
                                                       1.000   1.000

     PseudoPot. # 3 for O  read from file:
     /root/sssp/upf/O.pbe-n-kjpaw_psl.0.1.UPF
     MD5 check sum: 0234752ac141de4415c5fc33072bef88
     Pseudo is Projector augmented-wave + core cor, Zval =  6.0
     Generated using "atomic" code by A. Dal Corso  v.5.0.99 svn rev. 10869
     Shape of augmentation charge: BESSEL
     Using radial grid of 1095 points,  4 beta functions with: 
                l(1) =   0
                l(2) =   0
                l(3) =   1
                l(4) =   1
     Q(r) pseudized with 0 coefficients 


     atomic species   valence    mass     pseudopotential
     Ba               10.00   137.32700     Ba( 1.00)
     Ti               12.00    47.86700     Ti( 1.00)
     O                 6.00    15.99900     O ( 1.00)

      2 Sym. Ops. (no inversion) found



   Cartesian axes

     site n.     atom                  positions (alat units)
         1        Ba     tau(   1) = (  -0.0000010  -0.0000000  -0.0009744  )
         2        Ti     tau(   2) = (   0.4999879  -0.5000002   0.4832598  )
         3        O      tau(   3) = (   1.0000291  -0.5000003   0.5120219  )
         4        O      tau(   4) = (   0.5000111  -1.0000002   0.5120275  )
         5        O      tau(   5) = (   0.5000133  -0.5000002   1.0344083  )

     number of k points=   100  Marzari-Vanderbilt smearing, width (Ry)=  0.0050

     Number of k-points >= 100: set verbosity='high' to print them.

     Dense  grid:    60005 G-vectors     FFT dimensions: (  50,  50,  50)

     Smooth grid:    21247 G-vectors     FFT dimensions: (  36,  36,  36)

     Estimated max dynamical RAM per process >      84.10 MB

     Estimated total dynamical RAM >     570.26 MB

     Check: negative core charge=   -0.000004

     Initial potential from superposition of free atoms

     starting charge      38.9829, renormalised to      40.0000

     negative rho (up, down):  1.022E-03 0.000E+00
     Starting wfcs are   27 randomized atomic wfcs
     Checking if some PAW data can be deallocated... 

     total cpu time spent up to now is        2.5 secs

     per-process dynamical memory:    76.9 Mb

     Self-consistent Calculation

     iteration #  1     ecut=    50.00 Ry     beta= 0.40
     Davidson diagonalization with overlap
     ethr =  1.00E-02,  avg # of iterations =  2.0

     negative rho (up, down):  1.443E-03 0.000E+00

     total cpu time spent up to now is        3.6 secs

     total energy              =    -680.83179502 Ry
     estimated scf accuracy    <       0.84474189 Ry

     iteration #  2     ecut=    50.00 Ry     beta= 0.40
     Davidson diagonalization with overlap
     ethr =  2.11E-03,  avg # of iterations =  4.0

     negative rho (up, down):  9.512E-04 0.000E+00

     total cpu time spent up to now is        4.9 secs

     total energy              =    -680.91628811 Ry
     estimated scf accuracy    <       1.16079738 Ry

     iteration #  3     ecut=    50.00 Ry     beta= 0.40
     Davidson diagonalization with overlap
     ethr =  2.11E-03,  avg # of iterations =  3.0

     negative rho (up, down):  9.698E-04 0.000E+00

     total cpu time spent up to now is        6.0 secs

     total energy              =    -681.12921921 Ry
     estimated scf accuracy    <       0.05335673 Ry

     iteration #  4     ecut=    50.00 Ry     beta= 0.40
     Davidson diagonalization with overlap
     ethr =  1.33E-04,  avg # of iterations =  3.0

     negative rho (up, down):  9.848E-04 0.000E+00

     total cpu time spent up to now is        7.2 secs

     total energy              =    -681.12932769 Ry
     estimated scf accuracy    <       0.01473522 Ry

     iteration #  5     ecut=    50.00 Ry     beta= 0.40
     Davidson diagonalization with overlap
     ethr =  3.68E-05,  avg # of iterations =  3.9

     negative rho (up, down):  9.682E-04 0.000E+00

     total cpu time spent up to now is        8.5 secs

     total energy              =    -681.13283265 Ry
     estimated scf accuracy    <       0.00450160 Ry

     iteration #  6     ecut=    50.00 Ry     beta= 0.40
     Davidson diagonalization with overlap
     ethr =  1.13E-05,  avg # of iterations =  2.4

     negative rho (up, down):  9.522E-04 0.000E+00

     total cpu time spent up to now is        9.7 secs

     total energy              =    -681.13333231 Ry
     estimated scf accuracy    <       0.00057895 Ry

     iteration #  7     ecut=    50.00 Ry     beta= 0.40
     Davidson diagonalization with overlap
     ethr =  1.45E-06,  avg # of iterations =  4.7

     negative rho (up, down):  9.586E-04 0.000E+00

     total cpu time spent up to now is       11.3 secs

     total energy              =    -681.13330293 Ry
     estimated scf accuracy    <       0.00101314 Ry

     iteration #  8     ecut=    50.00 Ry     beta= 0.40
     Davidson diagonalization with overlap
     ethr =  1.45E-06,  avg # of iterations =  3.7

     negative rho (up, down):  9.615E-04 0.000E+00

     total cpu time spent up to now is       12.6 secs

     total energy              =    -681.13345407 Ry
     estimated scf accuracy    <       0.00006385 Ry

     iteration #  9     ecut=    50.00 Ry     beta= 0.40
     Davidson diagonalization with overlap
     ethr =  1.60E-07,  avg # of iterations =  3.8

     negative rho (up, down):  9.605E-04 0.000E+00

     total cpu time spent up to now is       14.2 secs

     total energy              =    -681.13346060 Ry
     estimated scf accuracy    <       0.00013564 Ry

     iteration # 10     ecut=    50.00 Ry     beta= 0.40
     Davidson diagonalization with overlap
     ethr =  1.60E-07,  avg # of iterations =  1.3

     negative rho (up, down):  9.591E-04 0.000E+00

     total cpu time spent up to now is       15.5 secs

     total energy              =    -681.13345133 Ry
     estimated scf accuracy    <       0.00003579 Ry

     iteration # 11     ecut=    50.00 Ry     beta= 0.40
     Davidson diagonalization with overlap
     ethr =  8.95E-08,  avg # of iterations =  2.8

     negative rho (up, down):  9.593E-04 0.000E+00

     total cpu time spent up to now is       16.8 secs

     total energy              =    -681.13345970 Ry
     estimated scf accuracy    <       0.00001434 Ry

     iteration # 12     ecut=    50.00 Ry     beta= 0.40
     Davidson diagonalization with overlap
     ethr =  3.58E-08,  avg # of iterations =  1.0

     negative rho (up, down):  9.593E-04 0.000E+00

     total cpu time spent up to now is       18.1 secs

     total energy              =    -681.13346026 Ry
     estimated scf accuracy    <       0.00002380 Ry

     iteration # 13     ecut=    50.00 Ry     beta= 0.40
     Davidson diagonalization with overlap
     ethr =  3.58E-08,  avg # of iterations =  1.0

     negative rho (up, down):  9.594E-04 0.000E+00

     total cpu time spent up to now is       19.3 secs

     total energy              =    -681.13346042 Ry
     estimated scf accuracy    <       0.00001192 Ry

     iteration # 14     ecut=    50.00 Ry     beta= 0.40
     Davidson diagonalization with overlap
     ethr =  2.98E-08,  avg # of iterations =  1.0

     negative rho (up, down):  9.594E-04 0.000E+00

     total cpu time spent up to now is       20.4 secs

     total energy              =    -681.13346046 Ry
     estimated scf accuracy    <       0.00000701 Ry

     iteration # 15     ecut=    50.00 Ry     beta= 0.40
     Davidson diagonalization with overlap
     ethr =  1.75E-08,  avg # of iterations =  1.0

     negative rho (up, down):  9.594E-04 0.000E+00

     total cpu time spent up to now is       21.5 secs

     total energy              =    -681.13346046 Ry
     estimated scf accuracy    <       0.00000355 Ry

     iteration # 16     ecut=    50.00 Ry     beta= 0.40
     Davidson diagonalization with overlap
     ethr =  8.87E-09,  avg # of iterations =  1.0

     negative rho (up, down):  9.594E-04 0.000E+00

     total cpu time spent up to now is       22.6 secs

     total energy              =    -681.13346046 Ry
     estimated scf accuracy    <       0.00000097 Ry

     iteration # 17     ecut=    50.00 Ry     beta= 0.40
     Davidson diagonalization with overlap
     ethr =  2.42E-09,  avg # of iterations =  1.1

     negative rho (up, down):  9.594E-04 0.000E+00

     total cpu time spent up to now is       23.7 secs

     total energy              =    -681.13346047 Ry
     estimated scf accuracy    <       0.00000013 Ry

     iteration # 18     ecut=    50.00 Ry     beta= 0.40
     Davidson diagonalization with overlap
     ethr =  3.32E-10,  avg # of iterations =  2.2

     negative rho (up, down):  9.594E-04 0.000E+00

     total cpu time spent up to now is       25.1 secs

     total energy              =    -681.13346048 Ry
     estimated scf accuracy    <       0.00000004 Ry

     iteration # 19     ecut=    50.00 Ry     beta= 0.40
     Davidson diagonalization with overlap
     ethr =  9.35E-11,  avg # of iterations =  2.1

     negative rho (up, down):  9.594E-04 0.000E+00

     total cpu time spent up to now is       26.5 secs

     total energy              =    -681.13346048 Ry
     estimated scf accuracy    <          7.8E-09 Ry

     iteration # 20     ecut=    50.00 Ry     beta= 0.40
     Davidson diagonalization with overlap
     ethr =  1.96E-11,  avg # of iterations =  2.7

     negative rho (up, down):  9.594E-04 0.000E+00

     total cpu time spent up to now is       27.7 secs

     total energy              =    -681.13346048 Ry
     estimated scf accuracy    <          7.9E-09 Ry

     iteration # 21     ecut=    50.00 Ry     beta= 0.40
     Davidson diagonalization with overlap
     ethr =  1.96E-11,  avg # of iterations =  2.0

     negative rho (up, down):  9.594E-04 0.000E+00

     total cpu time spent up to now is       28.8 secs

     total energy              =    -681.13346048 Ry
     estimated scf accuracy    <          8.7E-09 Ry

     iteration # 22     ecut=    50.00 Ry     beta= 0.40
     Davidson diagonalization with overlap
     ethr =  1.96E-11,  avg # of iterations =  1.0

     negative rho (up, down):  9.594E-04 0.000E+00

     total cpu time spent up to now is       29.9 secs

     End of self-consistent calculation

     Number of k-points >= 100: set verbosity='high' to print the bands.

     the Fermi energy is    11.2265 ev

!    total energy              =    -681.13346048 Ry
     estimated scf accuracy    <          1.2E-11 Ry
     smearing contrib. (-TS)   =      -0.00000000 Ry
     internal energy E=F+TS    =    -681.13346048 Ry

     The total energy is F=E-TS. E is the sum of the following terms:
     one-electron contribution =     -73.05408580 Ry
     hartree contribution      =      61.14218330 Ry
     xc contribution           =     -60.83417455 Ry
     ewald contribution        =    -204.88074804 Ry
     one-center paw contrib.   =    -403.50663539 Ry

     convergence has been achieved in  22 iterations

     negative rho (up, down):  9.594E-04 0.000E+00

     Forces acting on atoms (cartesian axes, Ry/au):

     atom    1 type  1   force =     0.00000302   -0.00000000    0.00015895
     atom    2 type  2   force =    -0.00002205   -0.00000000    0.00309525
     atom    3 type  3   force =     0.00000471   -0.00000000    0.00772169
     atom    4 type  3   force =     0.00000798   -0.00000000    0.00771718
     atom    5 type  3   force =     0.00000633    0.00000000   -0.01869307

     Total force =     0.021868     Total SCF correction =     0.000002
     Message from routine punch:
     Nothing written, as per user request (disk_io='none')

     init_run     :      2.05s CPU      2.13s WALL (       1 calls)
     electrons    :     27.21s CPU     27.48s WALL (       1 calls)
     forces       :      0.31s CPU      0.31s WALL (       1 calls)

     Called by init_run:
     wfcinit      :      0.51s CPU      0.51s WALL (       1 calls)
     potinit      :      0.41s CPU      0.45s WALL (       1 calls)
     hinit0       :      1.04s CPU      1.05s WALL (       1 calls)

     Called by electrons:
     c_bands      :     17.48s CPU     17.62s WALL (      22 calls)
     sum_band     :      4.68s CPU      4.75s WALL (      22 calls)
     v_of_rho     :      1.16s CPU      1.17s WALL (      23 calls)
     newd         :      1.18s CPU      1.23s WALL (      23 calls)
     PAW_pot      :      2.61s CPU      2.67s WALL (      23 calls)
     mix_rho      :      0.12s CPU      0.12s WALL (      22 calls)

     Called by c_bands:
     init_us_2    :      0.84s CPU      0.84s WALL (     598 calls)
     cegterg      :     14.51s CPU     14.64s WALL (     286 calls)

     Called by *egterg:
     cdiaghg      :      0.51s CPU      0.51s WALL (     939 calls)
     h_psi        :     11.28s CPU     11.39s WALL (     952 calls)
     s_psi        :      0.70s CPU      0.70s WALL (     952 calls)
     g_psi        :      0.15s CPU      0.15s WALL (     653 calls)

     Called by h_psi:
     h_psi:calbec :      0.82s CPU      0.82s WALL (     952 calls)
     vloc_psi     :      9.65s CPU      9.75s WALL (     952 calls)
                                        0.00s GPU  (     952 calls)
     add_vuspsi   :      0.73s CPU      0.74s WALL (     952 calls)

     General routines
     calbec       :      1.21s CPU      1.22s WALL (    1290 calls)
     fft          :      0.54s CPU      0.54s WALL (     308 calls)
     ffts         :      0.21s CPU      0.21s WALL (      45 calls)
     fftw         :     10.15s CPU     10.25s WALL (   38248 calls)
     interpolate  :      0.24s CPU      0.24s WALL (      23 calls)

     Parallel routines

     PWSCF        :     29.88s CPU     30.26s WALL


   This run was terminated on:   8:10:23  27Sep2026            

=------------------------------------------------------------------------------=
   JOB DONE.
=------------------------------------------------------------------------------=
