
     Program PWSCF v.7.5 starts on 27Sep2026 at  9:31:53 

     This program is part of the open-source Quantum ESPRESSO suite
     for quantum simulation of materials; please cite
         "P. Giannozzi et al., J. Phys.:Condens. Matter 21 395502 (2009);
         "P. Giannozzi et al., J. Phys.:Condens. Matter 29 465901 (2017);
         "P. Giannozzi et al., J. Chem. Phys. 152 154105 (2020);
          URL http://www.quantum-espresso.org", 
     in publications or presentations arising from this work. More details at
     http://www.quantum-espresso.org/quote

     Parallel version (MPI & OpenMP), running on       8 processor cores
     Number of MPI processes:                 8
     Threads/MPI process:                     1

     MPI processes distributed on     1 nodes
     68014 MiB available memory on the printing compute node when the environment starts

     Reading input from pw.in

     Current dimensions of program PWSCF are:
     Max number of different atomic species (ntypx) = 10
     Max number of k-points (npk) =  40000
     Max angular momentum in pseudopotentials (lmaxx) =  4
     file Ba.pbe-spn-kjpaw_psl.1.0.0.UPF: wavefunction(s)  5S 6S renormalized
     file O.pbe-n-kjpaw_psl.0.1.UPF: wavefunction(s)  2P renormalized
     Message from routine setup:
     using ibrav=0 with symmetry is DISCOURAGED, use correct ibrav instead

     K-points division:     npool     =       8
     Subspace diagonalization in iterative solution of the eigenvalue problem:
     a serial algorithm will be used


     G-vector sticks info
     --------------------
     sticks:   dense  smooth     PW     G-vecs:    dense   smooth      PW
     Sum        3705    1861    517               119729    42399    6455

     Using Slab Decomposition



     bravais-lattice index     =            0
     lattice parameter (alat)  =      10.7809  a.u.
     unit-cell volume          =     886.0321 (a.u.)^3
     number of atoms/cell      =           10
     number of atomic types    =            3
     number of electrons       =        80.00
     number of Kohn-Sham states=           48
     kinetic-energy cutoff     =      50.0000  Ry
     charge density cutoff     =     400.0000  Ry
     scf convergence threshold =      1.0E-09
     mixing beta               =       0.4000
     number of iterations used =            8  plain     mixing
     Exchange-correlation= SLA  PW   PBX  PBC
                           (   1   4   3   4   0   0   0)

     celldm(1)=  10.780895  celldm(2)=   0.000000  celldm(3)=   0.000000
     celldm(4)=   0.000000  celldm(5)=   0.000000  celldm(6)=   0.000000

     crystal axes: (cart. coord. in units of alat)
               a(1) = (   0.707107   0.000000   0.707107 )  
               a(2) = (   0.707107  -0.000000  -0.707107 )  
               a(3) = (   0.000000   0.707107   0.000000 )  

     reciprocal axes: (cart. coord. in units 2 pi/alat)
               b(1) = (  0.707107 -0.000000  0.707107 )  
               b(2) = (  0.707107  0.000000 -0.707107 )  
               b(3) = (  0.000000  1.414214 -0.000000 )  


     PseudoPot. # 1 for Ba read from file:
     /root/sssp/upf/Ba.pbe-spn-kjpaw_psl.1.0.0.UPF
     MD5 check sum: c432291d3e53af55f19d5e8866385beb
     Pseudo is Projector augmented-wave + core cor, Zval = 10.0
     Generated using "atomic" code by A. Dal Corso  v.5.1
     Shape of augmentation charge: PSQ
     Using radial grid of 1251 points,  7 beta functions with: 
                l(1) =   0
                l(2) =   0
                l(3) =   0
                l(4) =   1
                l(5) =   1
                l(6) =   2
                l(7) =   2
     Q(r) pseudized with 0 coefficients 


     PseudoPot. # 2 for Ti read from file:
     /root/sssp/upf/ti_pbe_v1.4.uspp.F.UPF
     MD5 check sum: 88a00a6731bd790ddea75d31a80cb452
     Pseudo is Ultrasoft + core correction, Zval = 12.0
     Generated by new atomic code, or converted to UPF format
     Using radial grid of  851 points,  6 beta functions with: 
                l(1) =   0
                l(2) =   0
                l(3) =   1
                l(4) =   1
                l(5) =   2
                l(6) =   2
     Q(r) pseudized with  6 coefficients,  rinner =    1.000   1.000   1.000
                                                       1.000   1.000

     PseudoPot. # 3 for O  read from file:
     /root/sssp/upf/O.pbe-n-kjpaw_psl.0.1.UPF
     MD5 check sum: 0234752ac141de4415c5fc33072bef88
     Pseudo is Projector augmented-wave + core cor, Zval =  6.0
     Generated using "atomic" code by A. Dal Corso  v.5.0.99 svn rev. 10869
     Shape of augmentation charge: BESSEL
     Using radial grid of 1095 points,  4 beta functions with: 
                l(1) =   0
                l(2) =   0
                l(3) =   1
                l(4) =   1
     Q(r) pseudized with 0 coefficients 


     atomic species   valence    mass     pseudopotential
     Ba               10.00   137.32700     Ba( 1.00)
     Ti               12.00    47.86700     Ti( 1.00)
     O                 6.00    15.99900     O ( 1.00)

     16 Sym. Ops., with inversion, found ( 8 have fractional translation)



   Cartesian axes

     site n.     atom                  positions (alat units)
         1        Ba     tau(   1) = (   0.0000000   0.0000000   0.0000000  )
         2        Ba     tau(   2) = (   0.7071068  -0.0000000  -0.0000000  )
         3        Ti     tau(   3) = (   1.0606602   0.3623176  -0.3535534  )
         4        Ti     tau(   4) = (   1.0606602   0.3447892   0.3535534  )
         5        O      tau(   5) = (   0.7071068   0.3535534  -0.3535534  )
         6        O      tau(   6) = (   0.7071068   0.3535534   0.3535534  )
         7        O      tau(   7) = (   1.0606602   0.6996315  -0.3535534  )
         8        O      tau(   8) = (   1.0606602   0.0074753   0.3535534  )
         9        O      tau(   9) = (   0.3535534   0.3535534   0.0000000  )
        10        O      tau(  10) = (   1.0606602   0.3535534   0.0000000  )

     number of k points=    24  Marzari-Vanderbilt smearing, width (Ry)=  0.0050
                       cart. coord. in units 2pi/alat
        k(    1) = (   0.0000000   0.0000000   0.0000000), wk =   0.0114286
        k(    2) = (   0.0000000   0.2020305   0.0000000), wk =   0.0228571
        k(    3) = (   0.0000000   0.4040610   0.0000000), wk =   0.0228571
        k(    4) = (   0.0000000   0.6060915   0.0000000), wk =   0.0228571
        k(    5) = (   0.1414214   0.0000000  -0.1414214), wk =   0.0457143
        k(    6) = (   0.1414214   0.2020305  -0.1414214), wk =   0.0914286
        k(    7) = (   0.1414214   0.4040610  -0.1414214), wk =   0.0914286
        k(    8) = (   0.1414214   0.6060915  -0.1414214), wk =   0.0914286
        k(    9) = (   0.2828427   0.0000000  -0.2828427), wk =   0.0457143
        k(   10) = (   0.2828427   0.2020305  -0.2828427), wk =   0.0914286
        k(   11) = (   0.2828427   0.4040610  -0.2828427), wk =   0.0914286
        k(   12) = (   0.2828427   0.6060915  -0.2828427), wk =   0.0914286
        k(   13) = (   0.2828427   0.0000000   0.0000000), wk =   0.0457143
        k(   14) = (   0.2828427   0.2020305   0.0000000), wk =   0.0914286
        k(   15) = (   0.2828427   0.4040610   0.0000000), wk =   0.0914286
        k(   16) = (   0.2828427   0.6060915   0.0000000), wk =   0.0914286
        k(   17) = (   0.4242641   0.0000000  -0.1414214), wk =   0.0914286
        k(   18) = (   0.4242641   0.2020305  -0.1414214), wk =   0.1828571
        k(   19) = (   0.4242641   0.4040610  -0.1414214), wk =   0.1828571
        k(   20) = (   0.4242641   0.6060915  -0.1414214), wk =   0.1828571
        k(   21) = (   0.5656854   0.0000000   0.0000000), wk =   0.0457143
        k(   22) = (   0.5656854   0.2020305   0.0000000), wk =   0.0914286
        k(   23) = (   0.5656854   0.4040610   0.0000000), wk =   0.0914286
        k(   24) = (   0.5656854   0.6060915   0.0000000), wk =   0.0914286

     Dense  grid:   119729 G-vectors     FFT dimensions: (  72,  72,  50)

     Smooth grid:    42399 G-vectors     FFT dimensions: (  50,  50,  36)

     Estimated max dynamical RAM per process >     157.47 MB

     Estimated total dynamical RAM >       1.03 GB

     Check: negative core charge=   -0.000004

     Initial potential from superposition of free atoms

     starting charge      77.9659, renormalised to      80.0000

     negative rho (up, down):  2.262E-03 0.000E+00
     Starting wfcs are   54 randomized atomic wfcs
     Checking if some PAW data can be deallocated... 

     total cpu time spent up to now is        3.6 secs

     per-process dynamical memory:   102.9 Mb

     Self-consistent Calculation

     iteration #  1     ecut=    50.00 Ry     beta= 0.40
     Davidson diagonalization with overlap
     ethr =  1.00E-02,  avg # of iterations =  2.0

     negative rho (up, down):  2.688E-03 0.000E+00

     total cpu time spent up to now is        5.9 secs

     total energy              =   -1361.63213647 Ry
     estimated scf accuracy    <       1.72682620 Ry

     iteration #  2     ecut=    50.00 Ry     beta= 0.40
     Davidson diagonalization with overlap
     ethr =  2.16E-03,  avg # of iterations =  4.0

     negative rho (up, down):  2.123E-03 0.000E+00

     total cpu time spent up to now is        8.5 secs

     total energy              =   -1361.72627023 Ry
     estimated scf accuracy    <       2.92919069 Ry

     iteration #  3     ecut=    50.00 Ry     beta= 0.40
     Davidson diagonalization with overlap
     ethr =  2.16E-03,  avg # of iterations =  3.8

     negative rho (up, down):  2.167E-03 0.000E+00

     total cpu time spent up to now is       10.7 secs

     total energy              =   -1362.25863606 Ry
     estimated scf accuracy    <       0.13483583 Ry

     iteration #  4     ecut=    50.00 Ry     beta= 0.40
     Davidson diagonalization with overlap
     ethr =  1.69E-04,  avg # of iterations =  2.6

     negative rho (up, down):  2.211E-03 0.000E+00

     total cpu time spent up to now is       12.9 secs

     total energy              =   -1362.25361170 Ry
     estimated scf accuracy    <       0.04027819 Ry

     iteration #  5     ecut=    50.00 Ry     beta= 0.40
     Davidson diagonalization with overlap
     ethr =  5.03E-05,  avg # of iterations =  3.9

     negative rho (up, down):  2.191E-03 0.000E+00

     total cpu time spent up to now is       15.3 secs

     total energy              =   -1362.26491355 Ry
     estimated scf accuracy    <       0.01275462 Ry

     iteration #  6     ecut=    50.00 Ry     beta= 0.40
     Davidson diagonalization with overlap
     ethr =  1.59E-05,  avg # of iterations =  2.0

     negative rho (up, down):  2.168E-03 0.000E+00

     total cpu time spent up to now is       17.5 secs

     total energy              =   -1362.26445197 Ry
     estimated scf accuracy    <       0.00315014 Ry

     iteration #  7     ecut=    50.00 Ry     beta= 0.40
     Davidson diagonalization with overlap
     ethr =  3.94E-06,  avg # of iterations =  4.2

     negative rho (up, down):  2.165E-03 0.000E+00

     total cpu time spent up to now is       19.9 secs

     total energy              =   -1362.26523446 Ry
     estimated scf accuracy    <       0.00028368 Ry

     iteration #  8     ecut=    50.00 Ry     beta= 0.40
     Davidson diagonalization with overlap
     ethr =  3.55E-07,  avg # of iterations =  2.4

     negative rho (up, down):  2.169E-03 0.000E+00

     total cpu time spent up to now is       22.1 secs

     total energy              =   -1362.26520547 Ry
     estimated scf accuracy    <       0.00011036 Ry

     iteration #  9     ecut=    50.00 Ry     beta= 0.40
     Davidson diagonalization with overlap
     ethr =  1.38E-07,  avg # of iterations =  4.0

     negative rho (up, down):  2.168E-03 0.000E+00

     total cpu time spent up to now is       24.5 secs

     total energy              =   -1362.26523834 Ry
     estimated scf accuracy    <       0.00009597 Ry

     iteration # 10     ecut=    50.00 Ry     beta= 0.40
     Davidson diagonalization with overlap
     ethr =  1.20E-07,  avg # of iterations =  2.1

     negative rho (up, down):  2.167E-03 0.000E+00

     total cpu time spent up to now is       26.4 secs

     total energy              =   -1362.26524676 Ry
     estimated scf accuracy    <       0.00000442 Ry

     iteration # 11     ecut=    50.00 Ry     beta= 0.40
     Davidson diagonalization with overlap
     ethr =  5.52E-09,  avg # of iterations =  4.0

     negative rho (up, down):  2.167E-03 0.000E+00

     total cpu time spent up to now is       28.8 secs

     total energy              =   -1362.26524875 Ry
     estimated scf accuracy    <       0.00000059 Ry

     iteration # 12     ecut=    50.00 Ry     beta= 0.40
     Davidson diagonalization with overlap
     ethr =  7.39E-10,  avg # of iterations =  2.3

     negative rho (up, down):  2.167E-03 0.000E+00

     total cpu time spent up to now is       31.2 secs

     total energy              =   -1362.26524875 Ry
     estimated scf accuracy    <       0.00000017 Ry

     iteration # 13     ecut=    50.00 Ry     beta= 0.40
     Davidson diagonalization with overlap
     ethr =  2.14E-10,  avg # of iterations =  3.3

     negative rho (up, down):  2.167E-03 0.000E+00

     total cpu time spent up to now is       33.6 secs

     total energy              =   -1362.26524878 Ry
     estimated scf accuracy    <          3.1E-09 Ry

     iteration # 14     ecut=    50.00 Ry     beta= 0.40
     Davidson diagonalization with overlap
     ethr =  3.94E-12,  avg # of iterations =  5.0

     negative rho (up, down):  2.167E-03 0.000E+00

     total cpu time spent up to now is       36.1 secs

     total energy              =   -1362.26524878 Ry
     estimated scf accuracy    <          6.7E-09 Ry

     iteration # 15     ecut=    50.00 Ry     beta= 0.40
     Davidson diagonalization with overlap
     ethr =  3.94E-12,  avg # of iterations =  4.0

     negative rho (up, down):  2.167E-03 0.000E+00

     total cpu time spent up to now is       38.4 secs

     End of self-consistent calculation

          k = 0.0000 0.0000 0.0000 (  5281 PWs)   bands (ev):

   -46.5814 -46.5797 -22.8345 -22.8345 -22.8113 -22.8079 -22.7910 -22.7910
   -14.7766 -14.6027  -6.7680  -6.4446  -6.1118  -6.0659  -6.0244  -6.0244
     0.0125   0.0125   0.0540   0.0540   0.0619   0.4043   5.8422   6.1486
     6.3212   7.4626   7.4626   7.7621   7.7636   7.7636   8.2999   8.9746
     8.9746   9.0099   9.0796   9.0796   9.8606   9.8826   9.8826  10.0011
    11.8165  11.8738  11.8738  13.5314  13.5314  13.8748  13.8955  13.8991

          k = 0.0000 0.2020 0.0000 (  5289 PWs)   bands (ev):

   -46.5812 -46.5795 -22.8341 -22.8341 -22.8202 -22.8165 -22.7906 -22.7906
   -14.7573 -14.5917  -6.7679  -6.3527  -6.1059  -6.0599  -5.9952  -5.9952
    -0.1093  -0.1093   0.0820   0.0820   0.1335   0.1830   5.8448   6.3240
     6.4706   7.4388   7.5272   7.5272   7.7141   7.7141   7.7882   8.7289
     8.7289   8.8419   9.2354   9.2354   9.4031   9.7603   9.7603  10.0146
    11.8423  12.2424  12.2424  13.6354  13.6354  13.8758  13.9408  14.4142

          k = 0.0000 0.4041 0.0000 (  5301 PWs)   bands (ev):

   -46.5809 -46.5792 -22.8400 -22.8356 -22.8332 -22.8332 -22.7899 -22.7899
   -14.7131 -14.5665  -6.8309  -6.1376  -6.0464  -6.0175  -5.9274  -5.9274
    -0.3728  -0.3728  -0.2506   0.1467   0.1467   0.2921   5.8222   6.3303
     6.7369   6.8565   7.1312   7.5525   7.5525   7.6186   7.6186   8.3826
     8.3826   8.5081   8.6747   9.5190   9.5190   9.6278   9.6278  10.0455
    11.9018  12.9376  12.9376  13.8778  13.8846  13.8846  14.0367  15.2524

          k = 0.0000 0.6061 0.0000 (  5254 PWs)   bands (ev):

   -46.5806 -46.5789 -22.8558 -22.8509 -22.8325 -22.8325 -22.7893 -22.7893
   -14.6771 -14.5462  -6.9213  -6.0356  -5.9552  -5.8944  -5.8701  -5.8701
    -0.5760  -0.5760  -0.5532   0.2005   0.2005   0.4173   5.6953   6.1940
     6.3328   6.3352   7.3829   7.3829   7.6156   7.6413   7.6413   8.2151
     8.2151   8.2335   8.2726   9.3912   9.3912   9.9746   9.9746  10.0706
    11.9512  13.4338  13.4338  13.8795  14.1146  14.1146  14.1158  15.7496

          k = 0.1414 0.0000-0.1414 (  5282 PWs)   bands (ev):

   -46.5812 -46.5798 -22.8306 -22.8304 -22.8110 -22.8083 -22.7953 -22.7951
   -14.7573 -14.6165  -6.7695  -6.5456  -6.0993  -6.0627  -6.0290  -5.9872
     0.0172   0.0513   0.0874   0.1052   0.1473   0.3669   6.0064   6.3641
     6.4673   7.4610   7.5025   7.5624   7.6706   7.7197   8.4429   8.6387
     8.7596   8.8475   8.9789   9.0882   9.4319   9.7106   9.7123   9.8944
    12.0469  12.1100  12.1677  13.3753  13.4150  13.7500  14.0404  14.3072

          k = 0.1414 0.2020-0.1414 (  5278 PWs)   bands (ev):

   -46.5811 -46.5797 -22.8302 -22.8300 -22.8198 -22.8168 -22.7950 -22.7948
   -14.7391 -14.6050  -6.7503  -6.4546  -6.1035  -6.0544  -6.0021  -5.9708
    -0.0908  -0.0656   0.0595   0.0645   0.2498   0.2547   6.0113   6.4681
     6.5825   7.2703   7.4497   7.5802   7.5889   7.6329   7.9723   8.3978
     8.4385   9.0232   9.0849   9.1314   9.2276   9.5852   9.6033   9.8942
    12.1840  12.3561  12.3759  13.4867  13.5175  13.7912  14.3067  14.5752

          k = 0.1414 0.4041-0.1414 (  5285 PWs)   bands (ev):

   -46.5807 -46.5793 -22.8396 -22.8360 -22.8292 -22.8291 -22.7942 -22.7940
   -14.6977 -14.5790  -6.7702  -6.2378  -6.0398  -6.0358  -5.9395  -5.9385
    -0.3512  -0.3264  -0.0506   0.0940   0.1162   0.3573   5.9971   6.4714
     6.6674   6.8141   7.0881   7.3660   7.5141   7.6218   7.6546   7.9618
     8.0269   8.7442   8.9468   9.3362   9.3720   9.4966   9.5781   9.9064
    12.2408  12.9733  12.9804  13.7623  13.7695  13.8857  14.3038  15.4542

          k = 0.1414 0.6061-0.1414 (  5284 PWs)   bands (ev):

   -46.5804 -46.5790 -22.8553 -22.8513 -22.8285 -22.8284 -22.7935 -22.7934
   -14.6639 -14.5579  -6.8347  -6.0322  -6.0208  -5.9363  -5.9288  -5.8870
    -0.5094  -0.4876  -0.3477   0.1177   0.2346   0.3641   5.8392   6.1597
     6.3858   6.4752   7.2689   7.3709   7.3886   7.4987   7.6286   7.6654
     7.8587   8.7836   8.7891   9.0602   9.2188   9.8329   9.8341   9.9486
    12.2839  13.4511  13.4525  13.9640  14.0125  14.0149  14.2973  15.9802

          k = 0.2828 0.0000-0.2828 (  5316 PWs)   bands (ev):

   -46.5808 -46.5803 -22.8202 -22.8195 -22.8101 -22.8093 -22.8065 -22.8060
   -14.7093 -14.6554  -6.7598  -6.6905  -6.0534  -6.0489  -6.0405  -5.9878
     0.0292   0.0425   0.1685   0.2675   0.2739   0.2921   6.3875   6.8573
     6.9169   7.0190   7.3345   7.5167   7.6188   7.8622   7.8888   8.2984
     8.5269   8.6926   8.8807   9.0070   9.0461   9.3321   9.5460   9.6667
    12.4741  12.6086  12.7730  12.9755  13.0899  13.3379  14.3260  14.5701

          k = 0.2828 0.2020-0.2828 (  5302 PWs)   bands (ev):

   -46.5806 -46.5801 -22.8201 -22.8191 -22.8185 -22.8177 -22.8062 -22.8057
   -14.6938 -14.6425  -6.7029  -6.6080  -6.0657  -6.0394  -6.0194  -5.9953
    -0.0423   0.0021   0.0174   0.0409   0.3963   0.4125   6.3454   6.7754
     6.8528   7.0204   7.3207   7.4101   7.5036   7.7701   7.9396   8.0450
     8.0913   8.3302   9.0389   9.2204   9.2312   9.3319   9.4543   9.6283
    12.6755  12.7504  12.8106  13.1155  13.1940  13.3808  14.8936  15.1583

          k = 0.2828 0.4041-0.2828 (  5297 PWs)   bands (ev):

   -46.5803 -46.5797 -22.8384 -22.8371 -22.8186 -22.8183 -22.8053 -22.8049
   -14.6586 -14.6132  -6.6145  -6.4232  -6.0580  -6.0074  -6.0073  -5.9705
    -0.2016  -0.2014  -0.0409  -0.0136   0.2814   0.4386   6.2806   6.4625
     6.8382   6.8453   7.0159   7.2413   7.2789   7.6181   7.6572   7.6683
     7.7733   8.0638   9.2525   9.3598   9.3634   9.3937   9.4259   9.6414
    12.8825  13.1546  13.1644  13.4715  13.4756  13.4780  15.2593  15.8734

          k = 0.2828 0.6061-0.2828 (  5286 PWs)   bands (ev):

   -46.5800 -46.5795 -22.8540 -22.8525 -22.8179 -22.8176 -22.8045 -22.8042
   -14.6300 -14.5895  -6.5993  -6.2892  -5.9978  -5.9889  -5.9811  -5.9301
    -0.3282  -0.2269  -0.0894   0.0525   0.0746   0.3223   6.0236   6.0941
     6.6680   6.8424   6.8461   6.9987   7.1936   7.2412   7.6135   7.6647
     7.7536   8.2009   9.1056   9.3058   9.3250   9.4155   9.5817   9.7335
    12.9373  13.5372  13.5552  13.5780  13.7787  13.7882  15.2389  16.2641

          k = 0.2828 0.0000 0.0000 (  5287 PWs)   bands (ev):

   -46.5811 -46.5800 -22.8355 -22.8190 -22.8107 -22.8087 -22.8069 -22.7903
   -14.7409 -14.6268  -6.8004  -6.6478  -6.0921  -6.0283  -6.0221  -5.9487
     0.0709   0.1063   0.1115   0.1475   0.1838   0.3371   6.0300   6.5478
     6.7103   7.1940   7.4087   7.6323   7.6638   7.7441   8.5563   8.6041
     8.6367   8.7169   8.7635   8.9596   9.0871   9.6353   9.6433   9.7446
    11.9144  12.4816  12.5203  13.0429  13.5257  13.6782  13.9030  14.6444

          k = 0.2828 0.2020 0.0000 (  5293 PWs)   bands (ev):

   -46.5809 -46.5798 -22.8351 -22.8197 -22.8183 -22.8171 -22.8067 -22.7900
   -14.7238 -14.6151  -6.7624  -6.5559  -6.0975  -6.0297  -5.9997  -5.9423
    -0.0864   0.0342   0.0587   0.1361   0.2658   0.2732   6.0244   6.6820
     6.7230   7.0660   7.3598   7.4538   7.6221   7.6727   8.0897   8.1325
     8.4213   8.9037   9.0167   9.0507   9.0642   9.4845   9.5373   9.7330
    12.2582  12.5054  12.6607  13.1924  13.6055  13.7159  14.1958  15.0122

          k = 0.2828 0.4041 0.0000 (  5291 PWs)   bands (ev):

   -46.5806 -46.5795 -22.8392 -22.8363 -22.8340 -22.8177 -22.8057 -22.7893
   -14.6848 -14.5886  -6.7309  -6.3319  -6.0708  -6.0088  -5.9579  -5.9296
    -0.3242  -0.1980   0.0396   0.0547   0.2052   0.3179   5.9967   6.5958
     6.7330   6.8366   6.9471   7.1607   7.5078   7.5566   7.6294   7.7488
     8.0813   8.6198   9.0447   9.1567   9.3259   9.4930   9.5810   9.7574
    12.5169  12.9563  13.0925  13.5461  13.8009  13.8163  14.3687  15.7626

          k = 0.2828 0.6061 0.0000 (  5278 PWs)   bands (ev):

   -46.5803 -46.5792 -22.8548 -22.8516 -22.8332 -22.8170 -22.8050 -22.7887
   -14.6529 -14.5672  -6.7612  -6.1047  -6.0161  -5.9635  -5.9586  -5.9212
    -0.4056  -0.3760  -0.2337   0.1125   0.2627   0.2949   5.8520   6.1317
     6.3291   6.8184   7.0099   7.1259   7.1492   7.4190   7.6221   7.6519
     7.9267   8.5703   8.9756   9.0011   9.3637   9.6276   9.6974   9.9691
    12.5510  13.4381  13.5082  13.8555  13.8718  14.0331  14.4004  16.2835

          k = 0.4243 0.0000-0.1414 (  5296 PWs)   bands (ev):

   -46.5807 -46.5803 -22.8320 -22.8212 -22.8101 -22.8092 -22.8051 -22.7942
   -14.7008 -14.6571  -6.8370  -6.7901  -6.0716  -6.0438  -5.9571  -5.9144
     0.1011   0.1156   0.1771   0.2626   0.2943   0.3140   6.2304   6.6626
     7.0476   7.1948   7.4170   7.4268   7.5389   7.9458   8.0191   8.3065
     8.4732   8.5062   8.9075   8.9638   8.9691   9.3632   9.3926   9.4243
    12.1332  12.5766  13.0004  13.0154  13.3873  13.4251  14.1041  14.4355

          k = 0.4243 0.2020-0.1414 (  5303 PWs)   bands (ev):

   -46.5806 -46.5802 -22.8316 -22.8208 -22.8187 -22.8177 -22.8048 -22.7939
   -14.6860 -14.6444  -6.7679  -6.7027  -6.0676  -6.0282  -5.9758  -5.9291
    -0.0090   0.0730   0.1111   0.1121   0.3674   0.3808   6.2037   6.5926
     6.9481   7.2076   7.2608   7.3764   7.4595   7.7404   7.7804   7.9951
     8.3307   8.5865   9.0293   9.0522   9.0895   9.2797   9.3417   9.3856
    12.4217  12.7826  13.0201  13.0850  13.4453  13.4602  14.4915  14.9445

          k = 0.4243 0.4041-0.1414 (  5290 PWs)   bands (ev):

   -46.5802 -46.5798 -22.8382 -22.8372 -22.8305 -22.8197 -22.8040 -22.7931
   -14.6524 -14.6156  -6.6312  -6.4941  -6.0710  -6.0132  -5.9804  -5.9494
    -0.1540  -0.0702  -0.0011   0.0850   0.2813   0.3872   6.1443   6.3902
     6.7060   6.8485   6.8974   7.0427   7.2928   7.5282   7.6717   7.8238
     7.9109   8.3558   8.9896   9.1441   9.2064   9.3754   9.5898   9.6290
    12.9927  13.0886  13.2490  13.3554  13.5225  13.6514  14.8332  15.5819

          k = 0.4243 0.6061-0.1414 (  5274 PWs)   bands (ev):

   -46.5799 -46.5795 -22.8538 -22.8525 -22.8296 -22.8189 -22.8033 -22.7925
   -14.6251 -14.5923  -6.5633  -6.3090  -6.0298  -6.0244  -5.9791  -5.9547
    -0.2037  -0.1686  -0.0175   0.0907   0.1104   0.3197   5.9570   6.0623
     6.4064   6.6136   6.7066   6.7414   7.3495   7.4465   7.5841   7.6591
     7.7610   8.3785   8.9552   9.1393   9.2999   9.4136   9.6866   9.8829
    13.0843  13.4842  13.5713  13.6401  13.6697  13.8865  14.9034  15.7012

          k = 0.5657 0.0000 0.0000 (  5303 PWs)   bands (ev):

   -46.5806 -46.5804 -22.8371 -22.8330 -22.8098 -22.8094 -22.7935 -22.7894
   -14.6818 -14.6651  -6.9374  -6.9229  -6.0717  -6.0600  -5.8476  -5.8281
     0.1873   0.1946   0.2012   0.2339   0.3810   0.3891   6.1422   6.3075
     7.2911   7.3579   7.3770   7.4121   7.5888   8.1701   8.1964   8.2220
     8.2866   8.2938   8.3256   8.8587   9.1710   9.1915   9.3587   9.3770
    11.9850  12.1724  13.3446  13.3798  13.4923  13.5183  13.9096  14.1056

          k = 0.5657 0.2020 0.0000 (  5305 PWs)   bands (ev):

   -46.5805 -46.5803 -22.8366 -22.8325 -22.8184 -22.8181 -22.7932 -22.7890
   -14.6684 -14.6525  -6.8518  -6.8312  -6.0620  -6.0467  -5.8839  -5.8612
     0.0912   0.1457   0.2277   0.2907   0.2928   0.3397   6.1131   6.2677
     7.2080   7.2210   7.2564   7.3203   7.3973   7.4461   7.8310   8.1469
     8.4577   8.7294   8.8324   8.9399   8.9834   9.0919   9.2351   9.2471
    12.3188  12.4606  13.3482  13.4106  13.5035  13.5538  14.2390  14.4851

          k = 0.5657 0.4041 0.0000 (  5290 PWs)   bands (ev):

   -46.5801 -46.5799 -22.8378 -22.8374 -22.8354 -22.8313 -22.7925 -22.7883
   -14.6380 -14.6239  -6.6487  -6.6043  -6.0595  -6.0311  -5.9511  -5.9373
    -0.0026   0.0534   0.1051   0.2110   0.3044   0.3064   6.0434   6.1669
     6.6235   6.6509   6.7506   6.7808   7.3726   7.4215   7.7288   7.7947
     8.3787   8.7177   8.7225   8.9961   9.0458   9.0687   9.6652   9.6660
    12.9674  13.0521  13.3579  13.5267  13.5796  13.7052  14.5732  14.8927

          k = 0.5657 0.6061 0.0000 (  5288 PWs)   bands (ev):

   -46.5798 -46.5796 -22.8533 -22.8528 -22.8345 -22.8303 -22.7919 -22.7877
   -14.6132 -14.6007  -6.4739  -6.3759  -6.0705  -6.0583  -6.0001  -5.9979
    -0.0373  -0.0360   0.0179   0.0854   0.2867   0.3687   5.8837   5.9588
     6.2585   6.3117   6.3416   6.4111   7.4361   7.4544   7.5254   7.5553
     8.1205   8.4663   9.0145   9.1714   9.2199   9.2200   9.8768   9.9359
    13.3604  13.4476  13.5029  13.5445  13.8099  13.9059  14.6695  14.9956

     the Fermi energy is    10.9426 ev

!    total energy              =   -1362.26524878 Ry
     estimated scf accuracy    <          4.5E-10 Ry
     smearing contrib. (-TS)   =       0.00000000 Ry
     internal energy E=F+TS    =   -1362.26524878 Ry

     The total energy is F=E-TS. E is the sum of the following terms:
     one-electron contribution =    -143.46455478 Ry
     hartree contribution      =     120.92734008 Ry
     xc contribution           =    -121.59308425 Ry
     ewald contribution        =    -411.12176271 Ry
     one-center paw contrib.   =    -807.01318712 Ry

     convergence has been achieved in  15 iterations

     negative rho (up, down):  2.167E-03 0.000E+00

     Forces acting on atoms (cartesian axes, Ry/au):

     atom    1 type  1   force =     0.00000000    0.00000000    0.00000000
     atom    2 type  1   force =     0.00000000    0.00000000    0.00000000
     atom    3 type  2   force =     0.00000000    0.01033157    0.00000000
     atom    4 type  2   force =     0.00000000   -0.01033157    0.00000000
     atom    5 type  3   force =     0.00000000   -0.00000000    0.00000000
     atom    6 type  3   force =     0.00000000   -0.00000000   -0.00000000
     atom    7 type  3   force =     0.00000000   -0.00272307    0.00000000
     atom    8 type  3   force =     0.00000000    0.00272307    0.00000000
     atom    9 type  3   force =     0.00000000    0.00000000   -0.00000000
     atom   10 type  3   force =    -0.00000000    0.00000000   -0.00000000

     Total force =     0.015110     Total SCF correction =     0.000003
     Message from routine punch:
     Nothing written, as per user request (disk_io='none')

     init_run     :      2.92s CPU      3.27s WALL (       1 calls)
     electrons    :     30.35s CPU     34.77s WALL (       1 calls)
     forces       :      0.66s CPU      0.77s WALL (       1 calls)

     Called by init_run:
     wfcinit      :      0.51s CPU      0.53s WALL (       1 calls)
     potinit      :      0.89s CPU      1.07s WALL (       1 calls)
     hinit0       :      1.31s CPU      1.33s WALL (       1 calls)

     Called by electrons:
     c_bands      :     15.86s CPU     16.21s WALL (      15 calls)
     sum_band     :      4.54s CPU      5.99s WALL (      15 calls)
     v_of_rho     :      2.21s CPU      2.59s WALL (      16 calls)
     newd         :      1.65s CPU      3.00s WALL (      16 calls)
     PAW_pot      :      6.29s CPU      7.45s WALL (      16 calls)
     mix_rho      :      0.18s CPU      0.18s WALL (      15 calls)

     Called by c_bands:
     init_us_2    :      0.79s CPU      0.80s WALL (      96 calls)
     cegterg      :     13.56s CPU     13.90s WALL (      45 calls)

     Called by *egterg:
     cdiaghg      :      0.41s CPU      0.41s WALL (     199 calls)
     h_psi        :      8.50s CPU      8.64s WALL (     202 calls)
     s_psi        :      1.19s CPU      1.20s WALL (     202 calls)
     g_psi        :      0.10s CPU      0.10s WALL (     154 calls)

     Called by h_psi:
     h_psi:calbec :      1.20s CPU      1.20s WALL (     202 calls)
     vloc_psi     :      6.07s CPU      6.11s WALL (     202 calls)
                                        0.00s GPU  (     202 calls)
     add_vuspsi   :      1.13s CPU      1.14s WALL (     202 calls)

     General routines
     calbec       :      1.75s CPU      1.75s WALL (     259 calls)
     fft          :      1.01s CPU      1.02s WALL (     217 calls)
     ffts         :      0.25s CPU      0.25s WALL (      31 calls)
     fftw         :      6.12s CPU      6.16s WALL (   12734 calls)
     interpolate  :      0.30s CPU      0.31s WALL (      16 calls)

     Parallel routines

     PWSCF        :     34.27s CPU     39.18s WALL


   This run was terminated on:   9:32:32  27Sep2026            

=------------------------------------------------------------------------------=
   JOB DONE.
=------------------------------------------------------------------------------=
