
     Program PWSCF v.7.5 starts on  3Oct2026 at 21:46:38 

     This program is part of the open-source Quantum ESPRESSO suite
     for quantum simulation of materials; please cite
         "P. Giannozzi et al., J. Phys.:Condens. Matter 21 395502 (2009);
         "P. Giannozzi et al., J. Phys.:Condens. Matter 29 465901 (2017);
         "P. Giannozzi et al., J. Chem. Phys. 152 154105 (2020);
          URL http://www.quantum-espresso.org", 
     in publications or presentations arising from this work. More details at
     http://www.quantum-espresso.org/quote

     Parallel version (MPI & OpenMP), running on       8 processor cores
     Number of MPI processes:                 8
     Threads/MPI process:                     1

     MPI processes distributed on     1 nodes
     11005 MiB available memory on the printing compute node when the environment starts

     Reading input from pw.in

     Current dimensions of program PWSCF are:
     Max number of different atomic species (ntypx) = 10
     Max number of k-points (npk) =  40000
     Max angular momentum in pseudopotentials (lmaxx) =  4
     file K.pbe-spn-kjpaw_psl.1.0.0.UPF: wavefunction(s)  3S renormalized
     file Nb.pbe-spn-kjpaw_psl.0.3.0.UPF: wavefunction(s)  4S 4P renormalized
     file O.pbe-n-kjpaw_psl.0.1.UPF: wavefunction(s)  2P renormalized

     K-points division:     npool     =       8
     Subspace diagonalization in iterative solution of the eigenvalue problem:
     a serial algorithm will be used


     G-vector sticks info
     --------------------
     sticks:   dense  smooth     PW     G-vecs:    dense   smooth      PW
     Sum        2241    1117    325                80261    28353    4393

     Using Slab Decomposition



     bravais-lattice index     =            0
     lattice parameter (alat)  =       7.6684  a.u.
     unit-cell volume          =     451.0788 (a.u.)^3
     number of atoms/cell      =            5
     number of atomic types    =            3
     number of electrons       =        40.00
     number of Kohn-Sham states=           24
     kinetic-energy cutoff     =      60.0000  Ry
     charge density cutoff     =     480.0000  Ry
     scf convergence threshold =      5.0E-10
     mixing beta               =       0.4000
     number of iterations used =            8  plain     mixing
     Exchange-correlation= SLA  PW   PBX  PBC
                           (   1   4   3   4   0   0   0)

     celldm(1)=   7.668434  celldm(2)=   0.000000  celldm(3)=   0.000000
     celldm(4)=   0.000000  celldm(5)=   0.000000  celldm(6)=   0.000000

     crystal axes: (cart. coord. in units of alat)
               a(1) = (  -0.000001  -1.000000  -0.000002 )  
               a(2) = (  -1.000037  -0.000001  -0.000002 )  
               a(3) = (  -0.000002  -0.000002  -1.000267 )  

     reciprocal axes: (cart. coord. in units 2 pi/alat)
               b(1) = (  0.000001 -1.000000  0.000002 )  
               b(2) = ( -0.999963  0.000001  0.000002 )  
               b(3) = (  0.000002  0.000002 -0.999733 )  


     PseudoPot. # 1 for K  read from file:
     /root/sssp/K.pbe-spn-kjpaw_psl.1.0.0.UPF
     MD5 check sum: 7d58810084cac21f60fbe77ea2b688fd
     Pseudo is Projector augmented-wave + core cor, Zval =  9.0
     Generated using "atomic" code by A. Dal Corso  v.5.1
     Shape of augmentation charge: PSQ
     Using radial grid of 1165 points,  6 beta functions with: 
                l(1) =   0
                l(2) =   0
                l(3) =   1
                l(4) =   1
                l(5) =   2
                l(6) =   2
     Q(r) pseudized with 0 coefficients 


     PseudoPot. # 2 for Nb read from file:
     /root/sssp/Nb.pbe-spn-kjpaw_psl.0.3.0.UPF
     MD5 check sum: 411d72ad547312f8017e2943ceca08cc
     Pseudo is Projector augmented-wave + core cor, Zval = 13.0
     Generated using "atomic" code by A. Dal Corso  v.5.0.99 svn rev. 10869
     Shape of augmentation charge: PSQ
     Using radial grid of 1227 points,  6 beta functions with: 
                l(1) =   0
                l(2) =   0
                l(3) =   1
                l(4) =   1
                l(5) =   2
                l(6) =   2
     Q(r) pseudized with 0 coefficients 


     PseudoPot. # 3 for O  read from file:
     /root/sssp/O.pbe-n-kjpaw_psl.0.1.UPF
     MD5 check sum: 0234752ac141de4415c5fc33072bef88
     Pseudo is Projector augmented-wave + core cor, Zval =  6.0
     Generated using "atomic" code by A. Dal Corso  v.5.0.99 svn rev. 10869
     Shape of augmentation charge: BESSEL
     Using radial grid of 1095 points,  4 beta functions with: 
                l(1) =   0
                l(2) =   0
                l(3) =   1
                l(4) =   1
     Q(r) pseudized with 0 coefficients 


     atomic species   valence    mass     pseudopotential
     K                 9.00    39.09830     K ( 1.00)
     Nb               13.00    92.90640     Nb( 1.00)
     O                 6.00    15.99900     O ( 1.00)

     No symmetry found



   Cartesian axes

     site n.     atom                  positions (alat units)
         1        K      tau(   1) = (  -0.0004149  -0.9962387  -0.0027565  )
         2        Nb     tau(   2) = (  -0.4995800  -0.5040623  -0.4971110  )
         3        O      tau(   3) = (  -1.0004711  -0.4945244  -0.5040245  )
         4        O      tau(   4) = (  -0.5005604   0.0037884  -0.5041061  )
         5        O      tau(   5) = (  -0.5006028  -0.4948797  -0.0029879  )

     number of k points=   172  Marzari-Vanderbilt smearing, width (Ry)=  0.0050

     Number of k-points >= 100: set verbosity='high' to print them.

     Dense  grid:    80261 G-vectors     FFT dimensions: (  54,  54,  54)

     Smooth grid:    28353 G-vectors     FFT dimensions: (  40,  40,  40)

     Estimated max dynamical RAM per process >     117.19 MB

     Estimated total dynamical RAM >     800.32 MB

     Check: negative core charge=   -0.000003

     Initial potential from superposition of free atoms

     starting charge      39.9790, renormalised to      40.0000
     Starting wfcs are   30 randomized atomic wfcs
     Checking if some PAW data can be deallocated... 

     total cpu time spent up to now is        3.7 secs

     per-process dynamical memory:    86.6 Mb

     Self-consistent Calculation

     iteration #  1     ecut=    60.00 Ry     beta= 0.40
     Davidson diagonalization with overlap
     ethr =  1.00E-02,  avg # of iterations =  2.0

     total cpu time spent up to now is        6.1 secs

     total energy              =    -571.96563472 Ry
     estimated scf accuracy    <       2.58474303 Ry

     iteration #  2     ecut=    60.00 Ry     beta= 0.40
     Davidson diagonalization with overlap
     ethr =  6.46E-03,  avg # of iterations =  4.0

     total cpu time spent up to now is        8.9 secs

     total energy              =    -572.57325530 Ry
     estimated scf accuracy    <       0.85000206 Ry

     iteration #  3     ecut=    60.00 Ry     beta= 0.40
     Davidson diagonalization with overlap
     ethr =  2.13E-03,  avg # of iterations =  2.4

     total cpu time spent up to now is       11.1 secs

     total energy              =    -572.76774222 Ry
     estimated scf accuracy    <       0.05984479 Ry

     iteration #  4     ecut=    60.00 Ry     beta= 0.40
     Davidson diagonalization with overlap
     ethr =  1.50E-04,  avg # of iterations =  4.9

     total cpu time spent up to now is       13.6 secs

     total energy              =    -572.76250174 Ry
     estimated scf accuracy    <       0.02216743 Ry

     iteration #  5     ecut=    60.00 Ry     beta= 0.40
     Davidson diagonalization with overlap
     ethr =  5.54E-05,  avg # of iterations =  4.7

     total cpu time spent up to now is       16.9 secs

     total energy              =    -572.77075269 Ry
     estimated scf accuracy    <       0.01596259 Ry

     iteration #  6     ecut=    60.00 Ry     beta= 0.40
     Davidson diagonalization with overlap
     ethr =  3.99E-05,  avg # of iterations =  1.0

     total cpu time spent up to now is       19.1 secs

     total energy              =    -572.76901741 Ry
     estimated scf accuracy    <       0.00859191 Ry

     iteration #  7     ecut=    60.00 Ry     beta= 0.40
     Davidson diagonalization with overlap
     ethr =  2.15E-05,  avg # of iterations =  1.4

     total cpu time spent up to now is       21.4 secs

     total energy              =    -572.76832108 Ry
     estimated scf accuracy    <       0.00228037 Ry

     iteration #  8     ecut=    60.00 Ry     beta= 0.40
     Davidson diagonalization with overlap
     ethr =  5.70E-06,  avg # of iterations =  4.2

     total cpu time spent up to now is       24.4 secs

     total energy              =    -572.76895313 Ry
     estimated scf accuracy    <       0.00009866 Ry

     iteration #  9     ecut=    60.00 Ry     beta= 0.40
     Davidson diagonalization with overlap
     ethr =  2.47E-07,  avg # of iterations =  3.3

     total cpu time spent up to now is       27.0 secs

     total energy              =    -572.76890696 Ry
     estimated scf accuracy    <       0.00015674 Ry

     iteration # 10     ecut=    60.00 Ry     beta= 0.40
     Davidson diagonalization with overlap
     ethr =  2.47E-07,  avg # of iterations =  2.0

     total cpu time spent up to now is       29.4 secs

     total energy              =    -572.76891937 Ry
     estimated scf accuracy    <       0.00001190 Ry

     iteration # 11     ecut=    60.00 Ry     beta= 0.40
     Davidson diagonalization with overlap
     ethr =  2.97E-08,  avg # of iterations =  3.7

     total cpu time spent up to now is       31.9 secs

     total energy              =    -572.76892179 Ry
     estimated scf accuracy    <       0.00000018 Ry

     iteration # 12     ecut=    60.00 Ry     beta= 0.40
     Davidson diagonalization with overlap
     ethr =  4.55E-10,  avg # of iterations =  4.7

     total cpu time spent up to now is       35.5 secs

     total energy              =    -572.76892190 Ry
     estimated scf accuracy    <       0.00000028 Ry

     iteration # 13     ecut=    60.00 Ry     beta= 0.40
     Davidson diagonalization with overlap
     ethr =  4.55E-10,  avg # of iterations =  1.1

     total cpu time spent up to now is       37.6 secs

     total energy              =    -572.76892182 Ry
     estimated scf accuracy    <       0.00000014 Ry

     iteration # 14     ecut=    60.00 Ry     beta= 0.40
     Davidson diagonalization with overlap
     ethr =  3.48E-10,  avg # of iterations =  3.3

     total cpu time spent up to now is       40.2 secs

     total energy              =    -572.76892186 Ry
     estimated scf accuracy    <       0.00000001 Ry

     iteration # 15     ecut=    60.00 Ry     beta= 0.40
     Davidson diagonalization with overlap
     ethr =  3.64E-11,  avg # of iterations =  2.2

     total cpu time spent up to now is       42.7 secs

     End of self-consistent calculation

     Number of k-points >= 100: set verbosity='high' to print the bands.

     the Fermi energy is     8.3962 ev

!    total energy              =    -572.76892186 Ry
     total all-electron energy =     -9296.255287 Ry
     estimated scf accuracy    <          2.4E-10 Ry
     smearing contrib. (-TS)   =       0.00000000 Ry
     internal energy E=F+TS    =    -572.76892186 Ry

     The total energy is F=E-TS. E is the sum of the following terms:
     one-electron contribution =     -72.94430181 Ry
     hartree contribution      =      58.87440702 Ry
     xc contribution           =     -62.47147903 Ry
     ewald contribution        =    -203.77318211 Ry
     one-center paw contrib.   =    -292.45436594 Ry

     convergence has been achieved in  15 iterations

     Forces acting on atoms (cartesian axes, Ry/au):

     atom    1 type  1   force =     0.00024472   -0.00223482    0.00162507
     atom    2 type  2   force =     0.00071703   -0.00602050    0.00484581
     atom    3 type  3   force =    -0.00116965   -0.00135421    0.00074242
     atom    4 type  3   force =     0.00009097    0.01077306    0.00081620
     atom    5 type  3   force =     0.00011691   -0.00116353   -0.00802950

     Total force =     0.015946     Total SCF correction =     0.000011
     Message from routine punch:
     Nothing written, as per user request (disk_io='none')

     init_run     :      3.28s CPU      3.35s WALL (       1 calls)
     electrons    :     38.72s CPU     39.00s WALL (       1 calls)
     forces       :      0.45s CPU      0.45s WALL (       1 calls)

     Called by init_run:
     wfcinit      :      1.15s CPU      1.16s WALL (       1 calls)
     potinit      :      0.57s CPU      0.61s WALL (       1 calls)
     hinit0       :      1.44s CPU      1.45s WALL (       1 calls)

     Called by electrons:
     c_bands      :     29.08s CPU     29.27s WALL (      15 calls)
     sum_band     :      5.83s CPU      5.90s WALL (      15 calls)
     v_of_rho     :      1.04s CPU      1.06s WALL (      16 calls)
     newd         :      1.01s CPU      1.02s WALL (      16 calls)
     PAW_pot      :      1.79s CPU      1.82s WALL (      16 calls)
     mix_rho      :      0.10s CPU      0.10s WALL (      15 calls)

     Called by c_bands:
     init_us_2    :      1.32s CPU      1.33s WALL (     704 calls)
     cegterg      :     24.80s CPU     24.97s WALL (     330 calls)

     Called by *egterg:
     cdiaghg      :      0.81s CPU      0.82s WALL (    1336 calls)
     h_psi        :     19.45s CPU     19.60s WALL (    1358 calls)
     s_psi        :      1.12s CPU      1.13s WALL (    1358 calls)
     g_psi        :      0.29s CPU      0.29s WALL (    1006 calls)

     Called by h_psi:
     h_psi:calbec :      1.30s CPU      1.31s WALL (    1358 calls)
     vloc_psi     :     16.82s CPU     16.95s WALL (    1358 calls)
                                        0.00s GPU  (    1358 calls)
     add_vuspsi   :      1.20s CPU      1.21s WALL (    1358 calls)

     General routines
     calbec       :      1.90s CPU      1.91s WALL (    1776 calls)
     fft          :      0.55s CPU      0.55s WALL (     217 calls)
     ffts         :      0.26s CPU      0.26s WALL (      31 calls)
     fftw         :     17.36s CPU     17.50s WALL (   46806 calls)
     interpolate  :      0.28s CPU      0.28s WALL (      16 calls)

     Parallel routines

     PWSCF        :     42.82s CPU     43.21s WALL


   This run was terminated on:  21:47:21   3Oct2026            

=------------------------------------------------------------------------------=
   JOB DONE.
=------------------------------------------------------------------------------=
