
     Program PWSCF v.7.5 starts on  5Oct2026 at  3:24:49 

     This program is part of the open-source Quantum ESPRESSO suite
     for quantum simulation of materials; please cite
         "P. Giannozzi et al., J. Phys.:Condens. Matter 21 395502 (2009);
         "P. Giannozzi et al., J. Phys.:Condens. Matter 29 465901 (2017);
         "P. Giannozzi et al., J. Chem. Phys. 152 154105 (2020);
          URL http://www.quantum-espresso.org", 
     in publications or presentations arising from this work. More details at
     http://www.quantum-espresso.org/quote

     Parallel version (MPI & OpenMP), running on       8 processor cores
     Number of MPI processes:                 8
     Threads/MPI process:                     1

     MPI processes distributed on     1 nodes
     110347 MiB available memory on the printing compute node when the environment starts

     Reading input from pw.in

     Current dimensions of program PWSCF are:
     Max number of different atomic species (ntypx) = 10
     Max number of k-points (npk) =  40000
     Max angular momentum in pseudopotentials (lmaxx) =  4
     file Ba.pbe-spn-kjpaw_psl.1.0.0.UPF: wavefunction(s)  5S 6S renormalized
     file O.pbe-n-kjpaw_psl.0.1.UPF: wavefunction(s)  2P renormalized
     Message from routine setup:
     using ibrav=0 with symmetry is DISCOURAGED, use correct ibrav instead

     K-points division:     npool     =       2
     R & G space division:  proc/nbgrp/npool/nimage =       4
     Subspace diagonalization in iterative solution of the eigenvalue problem:
     a serial algorithm will be used


     Parallelization info
     --------------------
     sticks:   dense  smooth     PW     G-vecs:    dense   smooth      PW
     Min        1206     602    168                44327    15709    2332
     Max        1207     603    169                44328    15710    2335
     Sum        4825    2409    673               177311    62839    9333

     Using Slab Decomposition



     bravais-lattice index     =            0
     lattice parameter (alat)  =      10.7809  a.u.
     unit-cell volume          =     886.0321 (a.u.)^3
     number of atoms/cell      =           10
     number of atomic types    =            3
     number of electrons       =        80.00
     number of Kohn-Sham states=           48
     kinetic-energy cutoff     =      65.0000  Ry
     charge density cutoff     =     520.0000  Ry
     scf convergence threshold =      1.0E-09
     mixing beta               =       0.4000
     number of iterations used =            8  plain     mixing
     Exchange-correlation= SLA  PW   PBX  PBC
                           (   1   4   3   4   0   0   0)

     celldm(1)=  10.780895  celldm(2)=   0.000000  celldm(3)=   0.000000
     celldm(4)=   0.000000  celldm(5)=   0.000000  celldm(6)=   0.000000

     crystal axes: (cart. coord. in units of alat)
               a(1) = (   0.707107   0.000000   0.707107 )  
               a(2) = (   0.707107  -0.000000  -0.707107 )  
               a(3) = (   0.000000   0.707107   0.000000 )  

     reciprocal axes: (cart. coord. in units 2 pi/alat)
               b(1) = (  0.707107 -0.000000  0.707107 )  
               b(2) = (  0.707107  0.000000 -0.707107 )  
               b(3) = (  0.000000  1.414214 -0.000000 )  


     PseudoPot. # 1 for Ba read from file:
     /root/sssp/Ba.pbe-spn-kjpaw_psl.1.0.0.UPF
     MD5 check sum: c432291d3e53af55f19d5e8866385beb
     Pseudo is Projector augmented-wave + core cor, Zval = 10.0
     Generated using "atomic" code by A. Dal Corso  v.5.1
     Shape of augmentation charge: PSQ
     Using radial grid of 1251 points,  7 beta functions with: 
                l(1) =   0
                l(2) =   0
                l(3) =   0
                l(4) =   1
                l(5) =   1
                l(6) =   2
                l(7) =   2
     Q(r) pseudized with 0 coefficients 


     PseudoPot. # 2 for Ti read from file:
     /root/sssp/ti_pbe_v1.4.uspp.F.UPF
     MD5 check sum: 88a00a6731bd790ddea75d31a80cb452
     Pseudo is Ultrasoft + core correction, Zval = 12.0
     Generated by new atomic code, or converted to UPF format
     Using radial grid of  851 points,  6 beta functions with: 
                l(1) =   0
                l(2) =   0
                l(3) =   1
                l(4) =   1
                l(5) =   2
                l(6) =   2
     Q(r) pseudized with  6 coefficients,  rinner =    1.000   1.000   1.000
                                                       1.000   1.000

     PseudoPot. # 3 for O  read from file:
     /root/sssp/O.pbe-n-kjpaw_psl.0.1.UPF
     MD5 check sum: 0234752ac141de4415c5fc33072bef88
     Pseudo is Projector augmented-wave + core cor, Zval =  6.0
     Generated using "atomic" code by A. Dal Corso  v.5.0.99 svn rev. 10869
     Shape of augmentation charge: BESSEL
     Using radial grid of 1095 points,  4 beta functions with: 
                l(1) =   0
                l(2) =   0
                l(3) =   1
                l(4) =   1
     Q(r) pseudized with 0 coefficients 


     atomic species   valence    mass     pseudopotential
     Ba               10.00   137.32700     Ba( 1.00)
     Ti               12.00    47.86700     Ti( 1.00)
     O                 6.00    15.99900     O ( 1.00)

     16 Sym. Ops., with inversion, found ( 8 have fractional translation)



   Cartesian axes

     site n.     atom                  positions (alat units)
         1        Ba     tau(   1) = (   0.0000000   0.0000000   0.0000000  )
         2        Ba     tau(   2) = (   0.7071068  -0.0000000  -0.0000000  )
         3        Ti     tau(   3) = (   1.0606602   0.3574486  -0.3535534  )
         4        Ti     tau(   4) = (   1.0606602   0.3496582   0.3535534  )
         5        O      tau(   5) = (   0.7071068   0.3535534  -0.3535534  )
         6        O      tau(   6) = (   0.7071068   0.3535534   0.3535534  )
         7        O      tau(   7) = (   1.0606602   0.7037844  -0.3535534  )
         8        O      tau(   8) = (   1.0606602   0.0033224   0.3535534  )
         9        O      tau(   9) = (   0.3535534   0.3535534   0.0000000  )
        10        O      tau(  10) = (   1.0606602   0.3535534   0.0000000  )

     number of k points=    24  Marzari-Vanderbilt smearing, width (Ry)=  0.0050
                       cart. coord. in units 2pi/alat
        k(    1) = (   0.0000000   0.0000000   0.0000000), wk =   0.0114286
        k(    2) = (   0.0000000   0.2020305   0.0000000), wk =   0.0228571
        k(    3) = (   0.0000000   0.4040610   0.0000000), wk =   0.0228571
        k(    4) = (   0.0000000   0.6060915   0.0000000), wk =   0.0228571
        k(    5) = (   0.1414214   0.0000000  -0.1414214), wk =   0.0457143
        k(    6) = (   0.1414214   0.2020305  -0.1414214), wk =   0.0914286
        k(    7) = (   0.1414214   0.4040610  -0.1414214), wk =   0.0914286
        k(    8) = (   0.1414214   0.6060915  -0.1414214), wk =   0.0914286
        k(    9) = (   0.2828427   0.0000000  -0.2828427), wk =   0.0457143
        k(   10) = (   0.2828427   0.2020305  -0.2828427), wk =   0.0914286
        k(   11) = (   0.2828427   0.4040610  -0.2828427), wk =   0.0914286
        k(   12) = (   0.2828427   0.6060915  -0.2828427), wk =   0.0914286
        k(   13) = (   0.2828427   0.0000000   0.0000000), wk =   0.0457143
        k(   14) = (   0.2828427   0.2020305   0.0000000), wk =   0.0914286
        k(   15) = (   0.2828427   0.4040610   0.0000000), wk =   0.0914286
        k(   16) = (   0.2828427   0.6060915   0.0000000), wk =   0.0914286
        k(   17) = (   0.4242641   0.0000000  -0.1414214), wk =   0.0914286
        k(   18) = (   0.4242641   0.2020305  -0.1414214), wk =   0.1828571
        k(   19) = (   0.4242641   0.4040610  -0.1414214), wk =   0.1828571
        k(   20) = (   0.4242641   0.6060915  -0.1414214), wk =   0.1828571
        k(   21) = (   0.5656854   0.0000000   0.0000000), wk =   0.0457143
        k(   22) = (   0.5656854   0.2020305   0.0000000), wk =   0.0914286
        k(   23) = (   0.5656854   0.4040610   0.0000000), wk =   0.0914286
        k(   24) = (   0.5656854   0.6060915   0.0000000), wk =   0.0914286

     Dense  grid:   177311 G-vectors     FFT dimensions: (  80,  80,  60)

     Smooth grid:    62839 G-vectors     FFT dimensions: (  60,  60,  40)

     Estimated max dynamical RAM per process >     132.25 MB

     Estimated total dynamical RAM >    1014.68 MB

     Check: negative core charge=   -0.000004

     Initial potential from superposition of free atoms

     starting charge      77.9659, renormalised to      80.0000

     negative rho (up, down):  2.338E-03 0.000E+00
     Starting wfcs are   54 randomized atomic wfcs
     Checking if some PAW data can be deallocated... 

     total cpu time spent up to now is        4.9 secs

     per-process dynamical memory:    68.3 Mb

     Self-consistent Calculation

     iteration #  1     ecut=    65.00 Ry     beta= 0.40
     Davidson diagonalization with overlap
     ethr =  1.00E-02,  avg # of iterations =  2.0

     negative rho (up, down):  3.124E-03 0.000E+00

     total cpu time spent up to now is       12.6 secs

     total energy              =   -1361.62715238 Ry
     estimated scf accuracy    <       1.74300349 Ry

     iteration #  2     ecut=    65.00 Ry     beta= 0.40
     Davidson diagonalization with overlap
     ethr =  2.18E-03,  avg # of iterations =  4.0

     negative rho (up, down):  2.107E-03 0.000E+00

     total cpu time spent up to now is       21.5 secs

     total energy              =   -1361.70098125 Ry
     estimated scf accuracy    <       3.09880780 Ry

     iteration #  3     ecut=    65.00 Ry     beta= 0.40
     Davidson diagonalization with overlap
     ethr =  2.18E-03,  avg # of iterations =  3.9

     negative rho (up, down):  2.222E-03 0.000E+00

     total cpu time spent up to now is       29.7 secs

     total energy              =   -1362.26264499 Ry
     estimated scf accuracy    <       0.14530813 Ry

     iteration #  4     ecut=    65.00 Ry     beta= 0.40
     Davidson diagonalization with overlap
     ethr =  1.82E-04,  avg # of iterations =  2.5

     negative rho (up, down):  2.338E-03 0.000E+00

     total cpu time spent up to now is       37.2 secs

     total energy              =   -1362.25611646 Ry
     estimated scf accuracy    <       0.04370110 Ry

     iteration #  5     ecut=    65.00 Ry     beta= 0.40
     Davidson diagonalization with overlap
     ethr =  5.46E-05,  avg # of iterations =  3.9

     negative rho (up, down):  2.291E-03 0.000E+00

     total cpu time spent up to now is       45.0 secs

     total energy              =   -1362.26821681 Ry
     estimated scf accuracy    <       0.01324517 Ry

     iteration #  6     ecut=    65.00 Ry     beta= 0.40
     Davidson diagonalization with overlap
     ethr =  1.66E-05,  avg # of iterations =  2.0

     negative rho (up, down):  2.248E-03 0.000E+00

     total cpu time spent up to now is       50.4 secs

     total energy              =   -1362.26820095 Ry
     estimated scf accuracy    <       0.00239681 Ry

     iteration #  7     ecut=    65.00 Ry     beta= 0.40
     Davidson diagonalization with overlap
     ethr =  3.00E-06,  avg # of iterations =  4.2

     negative rho (up, down):  2.242E-03 0.000E+00

     total cpu time spent up to now is       57.2 secs

     total energy              =   -1362.26885864 Ry
     estimated scf accuracy    <       0.00031133 Ry

     iteration #  8     ecut=    65.00 Ry     beta= 0.40
     Davidson diagonalization with overlap
     ethr =  3.89E-07,  avg # of iterations =  2.1

     negative rho (up, down):  2.255E-03 0.000E+00

     total cpu time spent up to now is       63.4 secs

     total energy              =   -1362.26881084 Ry
     estimated scf accuracy    <       0.00013207 Ry

     iteration #  9     ecut=    65.00 Ry     beta= 0.40
     Davidson diagonalization with overlap
     ethr =  1.65E-07,  avg # of iterations =  4.0

     negative rho (up, down):  2.249E-03 0.000E+00

     total cpu time spent up to now is       70.8 secs

     total energy              =   -1362.26884635 Ry
     estimated scf accuracy    <       0.00017073 Ry

     iteration # 10     ecut=    65.00 Ry     beta= 0.40
     Davidson diagonalization with overlap
     ethr =  1.65E-07,  avg # of iterations =  3.5

     negative rho (up, down):  2.249E-03 0.000E+00

     total cpu time spent up to now is       77.0 secs

     total energy              =   -1362.26886692 Ry
     estimated scf accuracy    <       0.00000206 Ry

     iteration # 11     ecut=    65.00 Ry     beta= 0.40
     Davidson diagonalization with overlap
     ethr =  2.58E-09,  avg # of iterations =  4.5

     negative rho (up, down):  2.249E-03 0.000E+00

     total cpu time spent up to now is       84.7 secs

     total energy              =   -1362.26886824 Ry
     estimated scf accuracy    <       0.00000011 Ry

     iteration # 12     ecut=    65.00 Ry     beta= 0.40
     Davidson diagonalization with overlap
     ethr =  1.37E-10,  avg # of iterations =  3.9

     negative rho (up, down):  2.249E-03 0.000E+00

     total cpu time spent up to now is       92.9 secs

     total energy              =   -1362.26886825 Ry
     estimated scf accuracy    <       0.00000009 Ry

     iteration # 13     ecut=    65.00 Ry     beta= 0.40
     Davidson diagonalization with overlap
     ethr =  1.15E-10,  avg # of iterations =  1.9

     negative rho (up, down):  2.249E-03 0.000E+00

     total cpu time spent up to now is       99.6 secs

     total energy              =   -1362.26886825 Ry
     estimated scf accuracy    <       0.00000001 Ry

     iteration # 14     ecut=    65.00 Ry     beta= 0.40
     Davidson diagonalization with overlap
     ethr =  1.54E-11,  avg # of iterations =  4.0

     negative rho (up, down):  2.249E-03 0.000E+00

     total cpu time spent up to now is      107.0 secs

     total energy              =   -1362.26886826 Ry
     estimated scf accuracy    <          2.4E-09 Ry

     iteration # 15     ecut=    65.00 Ry     beta= 0.40
     Davidson diagonalization with overlap
     ethr =  3.04E-12,  avg # of iterations =  3.5

     negative rho (up, down):  2.249E-03 0.000E+00

     total cpu time spent up to now is      114.5 secs

     End of self-consistent calculation

          k = 0.0000 0.0000 0.0000 (  7819 PWs)   bands (ev):

   -46.6233 -46.6216 -22.8757 -22.8757 -22.8361 -22.8326 -22.8322 -22.8322
   -14.7704 -14.5964  -6.7671  -6.4088  -6.0930  -6.0835  -6.0392  -6.0392
     0.0210   0.0210   0.0619   0.0619   0.0635   0.4070   5.8280   6.1299
     6.2944   7.4634   7.4634   7.7538   7.7542   7.7542   8.3258   8.9853
     8.9853   8.9923   9.1583   9.1583   9.8887   9.8929   9.8929   9.9828
    11.7860  11.7977  11.7977  13.4696  13.4696  13.8416  13.8457  13.8698

          k = 0.0000 0.2020 0.0000 (  7815 PWs)   bands (ev):

   -46.6232 -46.6215 -22.8753 -22.8753 -22.8449 -22.8411 -22.8318 -22.8318
   -14.7510 -14.5853  -6.7729  -6.3167  -6.0809  -6.0775  -6.0102  -6.0102
    -0.1008  -0.1008   0.0901   0.0901   0.1350   0.1850   5.8301   6.2973
     6.4522   7.4371   7.5317   7.5317   7.7047   7.7047   7.8102   8.7643
     8.7643   8.8253   9.2829   9.2829   9.4141   9.7580   9.7580   9.9963
    11.8115  12.1794  12.1794  13.5760  13.5760  13.8426  13.9116  14.3683

          k = 0.0000 0.4041 0.0000 (  7852 PWs)   bands (ev):

   -46.6228 -46.6211 -22.8744 -22.8744 -22.8645 -22.8602 -22.8311 -22.8311
   -14.7068 -14.5601  -6.8440  -6.1010  -6.0641  -5.9836  -5.9427  -5.9427
    -0.3644  -0.3644  -0.2497   0.1551   0.1551   0.2931   5.8057   6.3040
     6.7429   6.8785   7.1127   7.5454   7.5454   7.6255   7.6255   8.4259
     8.4259   8.4928   8.6630   9.5239   9.5239   9.6374   9.6374  10.0269
    11.8703  12.8867  12.8867  13.8308  13.8308  13.8449  14.0080  15.2147

          k = 0.0000 0.6061 0.0000 (  7836 PWs)   bands (ev):

   -46.6225 -46.6208 -22.8802 -22.8753 -22.8736 -22.8736 -22.8305 -22.8305
   -14.6706 -14.5397  -6.9367  -6.0532  -5.9181  -5.8858  -5.8858  -5.8575
    -0.5676  -0.5676  -0.5530   0.2093   0.2093   0.4177   5.6794   6.2064
     6.3094   6.3512   7.3718   7.3718   7.5966   7.6546   7.6546   8.2111
     8.2580   8.2627   8.2627   9.3751   9.3751   9.9896   9.9896  10.0519
    11.9189  13.3861  13.3861  13.8466  14.0658  14.0658  14.0877  15.7271

          k = 0.1414 0.0000-0.1414 (  7802 PWs)   bands (ev):

   -46.6232 -46.6218 -22.8718 -22.8715 -22.8366 -22.8363 -22.8357 -22.8329
   -14.7511 -14.6101  -6.7654  -6.5189  -6.0837  -6.0799  -6.0441  -5.9933
     0.0256   0.0592   0.0917   0.1112   0.1555   0.3695   5.9931   6.3459
     6.4413   7.4687   7.4898   7.5662   7.6557   7.7109   8.4794   8.6264
     8.7646   8.9215   8.9913   9.1377   9.4478   9.7204   9.7314   9.8772
    11.9804  12.0395  12.1381  13.3185  13.3561  13.7209  13.9868  14.2737

          k = 0.1414 0.2020-0.1414 (  7828 PWs)   bands (ev):

   -46.6230 -46.6216 -22.8713 -22.8711 -22.8445 -22.8415 -22.8362 -22.8360
   -14.7329 -14.5986  -6.7521  -6.4290  -6.0818  -6.0718  -6.0173  -5.9757
    -0.0824  -0.0583   0.0639   0.0725   0.2552   0.2582   5.9976   6.4421
     6.5654   7.2635   7.4573   7.5790   7.5953   7.6195   7.9944   8.4098
     8.4614   9.0691   9.0898   9.1230   9.2730   9.5995   9.6035   9.8759
    12.1518  12.2980  12.3138  13.4301  13.4609  13.7621  14.2732  14.5269

          k = 0.1414 0.4041-0.1414 (  7856 PWs)   bands (ev):

   -46.6226 -46.6213 -22.8704 -22.8702 -22.8641 -22.8605 -22.8354 -22.8352
   -14.6914 -14.5726  -6.7821  -6.2173  -6.0532  -6.0074  -5.9550  -5.9382
    -0.3459  -0.3180  -0.0458   0.1025   0.1218   0.3616   5.9828   6.4457
     6.6688   6.8332   7.0783   7.3619   7.5012   7.6328   7.6665   7.9817
     8.0432   8.7314   8.9577   9.3488   9.3672   9.5063   9.5975   9.8893
    12.2098  12.9217  12.9293  13.7097  13.7185  13.8568  14.2700  15.4127

          k = 0.1414 0.6061-0.1414 (  7851 PWs)   bands (ev):

   -46.6223 -46.6210 -22.8797 -22.8757 -22.8696 -22.8695 -22.8347 -22.8346
   -14.6574 -14.5515  -6.8500  -6.0383  -6.0290  -5.9177  -5.9028  -5.8930
    -0.5009  -0.4848  -0.3409   0.1265   0.2421   0.3665   5.8299   6.1701
     6.3977   6.4497   7.2638   7.3754   7.3836   7.5053   7.6429   7.6529
     7.8764   8.7875   8.7993   9.0533   9.2018   9.8240   9.8438   9.9561
    12.2524  13.4033  13.4045  13.9354  13.9662  13.9669  14.2626  15.9483

          k = 0.2828 0.0000-0.2828 (  7840 PWs)   bands (ev):

   -46.6227 -46.6222 -22.8613 -22.8607 -22.8478 -22.8472 -22.8349 -22.8338
   -14.7031 -14.6491  -6.7488  -6.6723  -6.0700  -6.0563  -6.0403  -5.9860
     0.0374   0.0505   0.1709   0.2757   0.2766   0.3003   6.3766   6.8340
     6.9101   7.0024   7.3170   7.5176   7.6123   7.8632   7.8792   8.3027
     8.5883   8.7413   8.8810   9.0306   9.0841   9.3444   9.5448   9.6537
    12.4189  12.5455  12.7443  12.9226  13.0305  13.3091  14.2659  14.5037

          k = 0.2828 0.2020-0.2828 (  7838 PWs)   bands (ev):

   -46.6226 -46.6220 -22.8608 -22.8603 -22.8474 -22.8469 -22.8435 -22.8424
   -14.6875 -14.6362  -6.6966  -6.5925  -6.0560  -6.0523  -6.0352  -5.9908
    -0.0340   0.0073   0.0255   0.0449   0.4023   0.4188   6.3349   6.7681
     6.8294   7.0110   7.3022   7.4159   7.5003   7.7768   7.9398   8.0543
     8.1203   8.3506   9.0550   9.2429   9.2645   9.3460   9.4491   9.6110
    12.6202  12.6910  12.7819  13.0613  13.1369  13.3517  14.8399  15.0995

          k = 0.2828 0.4041-0.2828 (  7844 PWs)   bands (ev):

   -46.6222 -46.6217 -22.8630 -22.8616 -22.8598 -22.8594 -22.8465 -22.8461
   -14.6523 -14.6068  -6.6213  -6.4185  -6.0311  -6.0241  -5.9919  -5.9866
    -0.1972  -0.1931  -0.0325  -0.0093   0.2880   0.4453   6.2752   6.4597
     6.8216   6.8542   7.0306   7.2333   7.2592   7.6285   7.6709   7.6721
     7.7874   8.0441   9.2449   9.3780   9.3781   9.3970   9.4292   9.6402
    12.8525  13.1025  13.1143  13.4201  13.4263  13.4453  15.2290  15.8256

          k = 0.2828 0.6061-0.2828 (  7829 PWs)   bands (ev):

   -46.6219 -46.6214 -22.8784 -22.8769 -22.8591 -22.8588 -22.8457 -22.8454
   -14.6235 -14.5830  -6.6140  -6.3016  -5.9981  -5.9648  -5.9537  -5.9464
    -0.3196  -0.2250  -0.0807   0.0640   0.0744   0.3312   6.0315   6.1017
     6.6655   6.8185   6.8581   7.0162   7.1858   7.2215   7.6305   7.6821
     7.7360   8.1813   9.0893   9.3122   9.3467   9.3948   9.5879   9.7480
    12.9069  13.5074  13.5106  13.5265  13.7313  13.7394  15.2083  16.2368

          k = 0.2828 0.0000 0.0000 (  7841 PWs)   bands (ev):

   -46.6230 -46.6219 -22.8767 -22.8601 -22.8483 -22.8355 -22.8332 -22.8316
   -14.7347 -14.6205  -6.7947  -6.6278  -6.0799  -6.0439  -6.0220  -5.9637
     0.0791   0.1141   0.1152   0.1545   0.1923   0.3396   6.0132   6.5296
     6.6907   7.1800   7.4081   7.6478   7.6538   7.7292   8.6112   8.6231
     8.6284   8.7013   8.8348   8.9876   9.0961   9.6575   9.6589   9.7274
    11.8433  12.4523  12.4600  12.9900  13.4652  13.6492  13.8488  14.5754

          k = 0.2828 0.2020 0.0000 (  7827 PWs)   bands (ev):

   -46.6229 -46.6217 -22.8762 -22.8597 -22.8479 -22.8442 -22.8417 -22.8312
   -14.7175 -14.6088  -6.7618  -6.5374  -6.0793  -6.0459  -5.9981  -5.9575
    -0.0799   0.0448   0.0621   0.1440   0.2712   0.2769   6.0072   6.6662
     6.7043   7.0520   7.3687   7.4487   7.6320   7.6678   8.1121   8.1521
     8.4362   8.8911   9.0194   9.0889   9.1166   9.4777   9.5511   9.7146
    12.1989  12.4751  12.6026  13.1386  13.5470  13.6867  14.1528  14.9736

          k = 0.2828 0.4041 0.0000 (  7833 PWs)   bands (ev):

   -46.6225 -46.6214 -22.8752 -22.8637 -22.8608 -22.8589 -22.8469 -22.8305
   -14.6784 -14.5822  -6.7413  -6.3188  -6.0604  -6.0059  -5.9509  -5.9449
    -0.3195  -0.1882   0.0442   0.0613   0.2135   0.3218   5.9790   6.6014
     6.7141   6.8503   6.9421   7.1536   7.5181   7.5479   7.6308   7.7671
     8.1128   8.6048   9.0361   9.1608   9.3439   9.5043   9.5851   9.7461
    12.4857  12.9071  13.0408  13.4954  13.7612  13.7733  14.3341  15.7212

          k = 0.2828 0.6061 0.0000 (  7853 PWs)   bands (ev):

   -46.6222 -46.6211 -22.8793 -22.8760 -22.8744 -22.8582 -22.8462 -22.8299
   -14.6465 -14.5607  -6.7764  -6.1068  -6.0315  -5.9400  -5.9366  -5.9258
    -0.4031  -0.3659  -0.2274   0.1219   0.2714   0.2962   5.8416   6.1407
     6.3367   6.8016   7.0106   7.1391   7.1394   7.4031   7.6368   7.6454
     7.9711   8.5539   8.9605   8.9851   9.3811   9.6330   9.6802   9.9826
    12.5197  13.3903  13.4603  13.8080  13.8426  13.9847  14.3670  16.2473

          k = 0.4243 0.0000-0.1414 (  7855 PWs)   bands (ev):

   -46.6227 -46.6223 -22.8732 -22.8624 -22.8463 -22.8354 -22.8347 -22.8339
   -14.6945 -14.6508  -6.8277  -6.7765  -6.0641  -6.0401  -5.9711  -5.9279
     0.1092   0.1234   0.1795   0.2650   0.3029   0.3228   6.2124   6.6458
     7.0331   7.1844   7.4181   7.4240   7.5288   7.9526   8.0005   8.3180
     8.5348   8.5609   8.8995   8.9805   8.9836   9.3821   9.4040   9.4109
    12.0702  12.5213  12.9587  12.9715  13.3290  13.3960  14.0465  14.3720

          k = 0.4243 0.2020-0.1414 (  7850 PWs)   bands (ev):

   -46.6225 -46.6221 -22.8727 -22.8619 -22.8460 -22.8434 -22.8425 -22.8351
   -14.6797 -14.6381  -6.7620  -6.6911  -6.0546  -6.0217  -5.9918  -5.9433
    -0.0033   0.0775   0.1192   0.1195   0.3735   0.3876   6.1855   6.5763
     6.9383   7.2106   7.2530   7.3813   7.4569   7.7512   7.7864   7.9918
     8.3629   8.6069   9.0427   9.0637   9.1219   9.2702   9.3504   9.3677
    12.3648  12.7296  12.9909  13.0283  13.3914  13.4276  14.4439  14.8905

          k = 0.4243 0.4041-0.1414 (  7842 PWs)   bands (ev):

   -46.6222 -46.6217 -22.8716 -22.8628 -22.8617 -22.8608 -22.8452 -22.8343
   -14.6460 -14.6092  -6.6361  -6.4903  -6.0538  -5.9990  -5.9896  -5.9636
    -0.1502  -0.0604   0.0047   0.0918   0.2878   0.3941   6.1276   6.3812
     6.7132   6.8581   6.9044   7.0501   7.2818   7.5296   7.6673   7.8343
     7.9258   8.3462   8.9932   9.1530   9.1937   9.3604   9.6045   9.6406
    12.9477  13.0543  13.2019  13.3011  13.4923  13.5986  14.7974  15.5436

          k = 0.4243 0.6061-0.1414 (  7839 PWs)   bands (ev):

   -46.6219 -46.6214 -22.8782 -22.8769 -22.8708 -22.8600 -22.8445 -22.8337
   -14.6186 -14.5858  -6.5779  -6.3208  -6.0183  -5.9987  -5.9727  -5.9648
    -0.1933  -0.1670  -0.0076   0.0936   0.1178   0.3286   5.9544   6.0667
     6.4055   6.6215   6.7216   6.7283   7.3355   7.4317   7.6025   7.6920
     7.7503   8.3617   8.9462   9.1261   9.2894   9.4033   9.7038   9.8983
    13.0535  13.4371  13.5403  13.5943  13.6198  13.8388  14.8703  15.6695

          k = 0.5657 0.0000 0.0000 (  7862 PWs)   bands (ev):

   -46.6225 -46.6224 -22.8782 -22.8741 -22.8348 -22.8344 -22.8341 -22.8306
   -14.6755 -14.6588  -6.9288  -6.9131  -6.0619  -6.0511  -5.8631  -5.8435
     0.1949   0.2022   0.2035   0.2361   0.3906   0.3987   6.1207   6.2862
     7.3031   7.3507   7.3913   7.3984   7.5727   8.1742   8.2536   8.2820
     8.2835   8.2913   8.2993   8.8412   9.1806   9.2133   9.3843   9.3878
    11.9204  12.1126  13.3158  13.3228  13.4598  13.4634  13.8525  14.0468

          k = 0.5657 0.2020 0.0000 (  7862 PWs)   bands (ev):

   -46.6224 -46.6222 -22.8777 -22.8736 -22.8431 -22.8427 -22.8344 -22.8302
   -14.6621 -14.6462  -6.8454  -6.8231  -6.0498  -6.0361  -5.8995  -5.8766
     0.0955   0.1488   0.2354   0.2961   0.3028   0.3487   6.0911   6.2459
     7.2213   7.2322   7.2479   7.3448   7.4071   7.4477   7.8262   8.1318
     8.4472   8.7835   8.8210   8.9830   9.0237   9.1076   9.1811   9.2350
    12.2632  12.4066  13.3190  13.3542  13.4741  13.4963  14.1914  14.4360

          k = 0.5657 0.4041 0.0000 (  7835 PWs)   bands (ev):

   -46.6220 -46.6219 -22.8765 -22.8725 -22.8623 -22.8619 -22.8337 -22.8295
   -14.6316 -14.6175  -6.6498  -6.6024  -6.0424  -6.0146  -5.9642  -5.9526
    -0.0002   0.0585   0.1163   0.2189   0.3124   0.3132   6.0215   6.1468
     6.6375   6.6716   6.7532   6.7897   7.3914   7.4435   7.7135   7.7825
     8.3890   8.7093   8.7309   8.9797   9.0437   9.0566   9.6710   9.6751
    12.9196  13.0043  13.3276  13.4965  13.5267  13.6519  14.5358  14.8551

          k = 0.5657 0.6061 0.0000 (  7858 PWs)   bands (ev):

   -46.6217 -46.6216 -22.8777 -22.8772 -22.8756 -22.8715 -22.8331 -22.8290
   -14.6067 -14.5942  -6.4875  -6.3874  -6.0479  -6.0286  -6.0152  -6.0040
    -0.0364  -0.0229   0.0263   0.0900   0.2948   0.3770   5.8718   5.9515
     6.2795   6.3263   6.3336   6.4039   7.4650   7.4726   7.5337   7.5407
     8.1097   8.4553   8.9988   9.1566   9.2034   9.2064   9.8922   9.9498
    13.3288  13.4002  13.4548  13.5134  13.7628  13.8584  14.6353  14.9618

     the Fermi energy is    10.9059 ev

!    total energy              =   -1362.26886826 Ry
     estimated scf accuracy    <          9.3E-10 Ry
     smearing contrib. (-TS)   =       0.00000000 Ry
     internal energy E=F+TS    =   -1362.26886826 Ry

     The total energy is F=E-TS. E is the sum of the following terms:
     one-electron contribution =    -142.98247990 Ry
     hartree contribution      =     120.66305232 Ry
     xc contribution           =    -121.57668755 Ry
     ewald contribution        =    -411.35930277 Ry
     one-center paw contrib.   =    -807.01345036 Ry

     convergence has been achieved in  15 iterations

     negative rho (up, down):  2.249E-03 0.000E+00

     Forces acting on atoms (cartesian axes, Ry/au):

     atom    1 type  1   force =     0.00000000    0.00000000    0.00000000
     atom    2 type  1   force =     0.00000000    0.00000000    0.00000000
     atom    3 type  2   force =     0.00000000    0.00601601    0.00000000
     atom    4 type  2   force =     0.00000000   -0.00601601    0.00000000
     atom    5 type  3   force =    -0.00000000    0.00000000   -0.00000000
     atom    6 type  3   force =    -0.00000000    0.00000000   -0.00000000
     atom    7 type  3   force =     0.00000000   -0.00237360    0.00000000
     atom    8 type  3   force =     0.00000000    0.00237360    0.00000000
     atom    9 type  3   force =    -0.00000000    0.00000000   -0.00000000
     atom   10 type  3   force =     0.00000000    0.00000000   -0.00000000

     Total force =     0.009146     Total SCF correction =     0.000001
     Message from routine punch:
     Nothing written, as per user request (disk_io='none')

     init_run     :      4.04s CPU      4.50s WALL (       1 calls)
     electrons    :     97.77s CPU    109.65s WALL (       1 calls)
     forces       :      1.56s CPU      1.96s WALL (       1 calls)

     Called by init_run:
     wfcinit      :      0.96s CPU      1.04s WALL (       1 calls)
     potinit      :      1.12s CPU      1.33s WALL (       1 calls)
     hinit0       :      0.68s CPU      0.70s WALL (       1 calls)

     Called by electrons:
     c_bands      :     60.82s CPU     63.63s WALL (      15 calls)
     sum_band     :     18.43s CPU     21.92s WALL (      15 calls)
     v_of_rho     :      1.48s CPU      1.58s WALL (      16 calls)
     newd         :      8.11s CPU     11.59s WALL (      16 calls)
     PAW_pot      :      9.77s CPU     12.08s WALL (      16 calls)
     mix_rho      :      0.18s CPU      0.19s WALL (      15 calls)

     Called by c_bands:
     init_us_2    :      1.60s CPU      1.60s WALL (     384 calls)
     cegterg      :     41.84s CPU     44.61s WALL (     180 calls)

     Called by *egterg:
     cdiaghg      :      2.12s CPU      2.13s WALL (     803 calls)
     h_psi        :     26.57s CPU     29.27s WALL (     815 calls)
     s_psi        :      1.88s CPU      1.89s WALL (     815 calls)
     g_psi        :      0.19s CPU      0.19s WALL (     623 calls)

     Called by h_psi:
     h_psi:calbec :      4.86s CPU      4.98s WALL (     815 calls)
     vloc_psi     :     18.87s CPU     21.42s WALL (     815 calls)
                                        0.00s GPU  (     815 calls)
     add_vuspsi   :      2.39s CPU      2.39s WALL (     815 calls)

     General routines
     calbec       :      6.41s CPU      6.59s WALL (    1043 calls)
     fft          :      1.23s CPU      1.39s WALL (     217 calls)
     ffts         :      0.28s CPU      0.28s WALL (      31 calls)
     fftw         :     19.93s CPU     22.67s WALL (   51006 calls)
     interpolate  :      0.35s CPU      0.37s WALL (      16 calls)

     Parallel routines

     PWSCF        :   1m43.75s CPU   1m56.55s WALL


   This run was terminated on:   3:26:46   5Oct2026            

=------------------------------------------------------------------------------=
   JOB DONE.
=------------------------------------------------------------------------------=
