
     Program PWSCF v.7.5 starts on  3Oct2026 at 21:27:39 

     This program is part of the open-source Quantum ESPRESSO suite
     for quantum simulation of materials; please cite
         "P. Giannozzi et al., J. Phys.:Condens. Matter 21 395502 (2009);
         "P. Giannozzi et al., J. Phys.:Condens. Matter 29 465901 (2017);
         "P. Giannozzi et al., J. Chem. Phys. 152 154105 (2020);
          URL http://www.quantum-espresso.org", 
     in publications or presentations arising from this work. More details at
     http://www.quantum-espresso.org/quote

     Parallel version (MPI & OpenMP), running on       8 processor cores
     Number of MPI processes:                 8
     Threads/MPI process:                     1

     MPI processes distributed on     1 nodes
     8134 MiB available memory on the printing compute node when the environment starts

     Reading input from pw.in

     Current dimensions of program PWSCF are:
     Max number of different atomic species (ntypx) = 10
     Max number of k-points (npk) =  40000
     Max angular momentum in pseudopotentials (lmaxx) =  4

     K-points division:     npool     =       8
     Subspace diagonalization in iterative solution of the eigenvalue problem:
     a serial algorithm will be used


     G-vector sticks info
     --------------------
     sticks:   dense  smooth     PW     G-vecs:    dense   smooth      PW
     Sum        4777    2385    665               248439    87703   12797

     Using Slab Decomposition



     bravais-lattice index     =            0
     lattice parameter (alat)  =      11.1882  a.u.
     unit-cell volume          =    1400.4944 (a.u.)^3
     number of atoms/cell      =            5
     number of atomic types    =            3
     number of electrons       =        44.00
     number of Kohn-Sham states=           26
     kinetic-energy cutoff     =      60.0000  Ry
     charge density cutoff     =     480.0000  Ry
     scf convergence threshold =      5.0E-10
     mixing beta               =       0.4000
     number of iterations used =            8  plain     mixing
     Exchange-correlation=  SLA  PW   PBX  PBC
                           (   1   4   3   4   0   0   0)

     celldm(1)=  11.188210  celldm(2)=   0.000000  celldm(3)=   0.000000
     celldm(4)=   0.000000  celldm(5)=   0.000000  celldm(6)=   0.000000

     crystal axes: (cart. coord. in units of alat)
               a(1) = (   1.000000  -0.000000  -0.000000 )  
               a(2) = (  -0.000000   1.000001   0.000000 )  
               a(3) = (  -0.000000   0.000000   0.999999 )  

     reciprocal axes: (cart. coord. in units 2 pi/alat)
               b(1) = (  1.000000  0.000000  0.000000 )  
               b(2) = (  0.000000  0.999999 -0.000000 )  
               b(3) = (  0.000000 -0.000000  1.000001 )  


     PseudoPot. # 1 for Cs read from file:
     /root/sssp/Cs_pbe_v1.uspp.F.UPF
     MD5 check sum: 3476d69cb178dfad3ffaa59df4e07ca4
     Pseudo is Ultrasoft + core correction, Zval =  9.0
     Generated by new atomic code, or converted to UPF format
     Using radial grid of  905 points,  6 beta functions with: 
                l(1) =   0
                l(2) =   0
                l(3) =   1
                l(4) =   1
                l(5) =   2
                l(6) =   2
     Q(r) pseudized with  6 coefficients,  rinner =    1.500   1.500   1.500
                                                       1.500   1.500

     PseudoPot. # 2 for Sn read from file:
     /root/sssp/Sn_pbe_v1.uspp.F.UPF
     MD5 check sum: 4cf58ce39ec5d5d420df3dd08604eb00
     Pseudo is Ultrasoft + core correction, Zval = 14.0
     Generated by new atomic code, or converted to UPF format
     Using radial grid of  891 points,  6 beta functions with: 
                l(1) =   0
                l(2) =   0
                l(3) =   1
                l(4) =   1
                l(5) =   2
                l(6) =   2
     Q(r) pseudized with  6 coefficients,  rinner =    1.200   1.200   1.200
                                                       1.200   1.200

     PseudoPot. # 3 for Br read from file:
     /root/sssp/br_pbe_v1.4.uspp.F.UPF
     MD5 check sum: d3ffb7b29f6225aa16fe06858fb2a80b
     Pseudo is Ultrasoft + core correction, Zval =  7.0
     Generated by new atomic code, or converted to UPF format
     Using radial grid of  879 points,  6 beta functions with: 
                l(1) =   0
                l(2) =   0
                l(3) =   1
                l(4) =   1
                l(5) =   2
                l(6) =   2
     Q(r) pseudized with  8 coefficients,  rinner =    1.100   1.100   1.100
                                                       1.100   1.100

     atomic species   valence    mass     pseudopotential
     Cs                9.00   132.90550     Cs( 1.00)
     Sn               14.00   118.71000     Sn( 1.00)
     Br                7.00    79.90400     Br( 1.00)

     No symmetry found



   Cartesian axes

     site n.     atom                  positions (alat units)
         1        Cs     tau(   1) = (   0.0000288   0.9999718   0.0000000  )
         2        Sn     tau(   2) = (   0.4999865   0.5000133   0.4999992  )
         3        Br     tau(   3) = (   0.0000008   0.4962864   0.5002685  )
         4        Br     tau(   4) = (   0.5037247  -0.0000004   0.4997300  )
         5        Br     tau(   5) = (   0.4962465   0.5037428   0.9999985  )

     number of k points=    63  Marzari-Vanderbilt smearing, width (Ry)=  0.0050
                       cart. coord. in units 2pi/alat
        k(    1) = (   0.0000000   0.0000000   0.0000000), wk =   0.0160000
        k(    2) = (   0.0000000  -0.0000000   0.2000003), wk =   0.0320000
        k(    3) = (   0.0000000  -0.0000000   0.4000006), wk =   0.0320000
        k(    4) = (   0.0000000   0.1999999  -0.0000000), wk =   0.0320000
        k(    5) = (   0.0000000   0.1999999   0.2000003), wk =   0.0320000
        k(    6) = (   0.0000000   0.1999999   0.4000006), wk =   0.0320000
        k(    7) = (   0.0000000   0.3999998  -0.0000000), wk =   0.0320000
        k(    8) = (   0.0000000   0.3999998   0.2000003), wk =   0.0320000
        k(    9) = (   0.0000000   0.3999998   0.4000006), wk =   0.0320000
        k(   10) = (   0.2000000   0.1999999   0.0000000), wk =   0.0320000
        k(   11) = (   0.2000000   0.1999999   0.2000003), wk =   0.0320000
        k(   12) = (   0.2000000   0.1999999   0.4000006), wk =   0.0320000
        k(   13) = (   0.2000000   0.3999998   0.0000000), wk =   0.0320000
        k(   14) = (   0.2000000   0.3999998   0.2000003), wk =   0.0320000
        k(   15) = (   0.2000000   0.3999998   0.4000006), wk =   0.0320000
        k(   16) = (   0.4000000   0.3999998   0.0000000), wk =   0.0320000
        k(   17) = (   0.4000000   0.3999998   0.2000003), wk =   0.0320000
        k(   18) = (   0.4000000   0.3999998   0.4000006), wk =   0.0320000
        k(   19) = (   0.2000000   0.0000000   0.0000000), wk =   0.0320000
        k(   20) = (   0.0000000  -0.1999999   0.2000003), wk =   0.0320000
        k(   21) = (   0.2000000   0.0000000  -0.2000003), wk =   0.0320000
        k(   22) = (  -0.2000000  -0.0000000  -0.2000003), wk =   0.0320000
        k(   23) = (   0.0000000  -0.1999999   0.4000006), wk =   0.0320000
        k(   24) = (   0.2000000   0.0000000  -0.4000006), wk =   0.0320000
        k(   25) = (  -0.2000000  -0.0000000  -0.4000006), wk =   0.0320000
        k(   26) = (   0.4000000   0.0000000   0.0000000), wk =   0.0320000
        k(   27) = (   0.0000000  -0.3999998   0.2000003), wk =   0.0320000
        k(   28) = (   0.4000000   0.0000000  -0.2000003), wk =   0.0320000
        k(   29) = (  -0.4000000  -0.0000000  -0.2000003), wk =   0.0320000
        k(   30) = (   0.0000000  -0.3999998   0.4000006), wk =   0.0320000
        k(   31) = (   0.4000000   0.0000000  -0.4000006), wk =   0.0320000
        k(   32) = (  -0.4000000  -0.0000000  -0.4000006), wk =   0.0320000
        k(   33) = (  -0.2000000   0.1999999  -0.0000000), wk =   0.0320000
        k(   34) = (  -0.2000000  -0.1999999   0.2000003), wk =   0.0320000
        k(   35) = (  -0.2000000   0.1999999  -0.2000003), wk =   0.0320000
        k(   36) = (   0.2000000  -0.1999999  -0.2000003), wk =   0.0320000
        k(   37) = (  -0.2000000  -0.1999999   0.4000006), wk =   0.0320000
        k(   38) = (  -0.2000000   0.1999999  -0.4000006), wk =   0.0320000
        k(   39) = (   0.2000000  -0.1999999  -0.4000006), wk =   0.0320000
        k(   40) = (  -0.2000000   0.3999998  -0.0000000), wk =   0.0320000
        k(   41) = (   0.4000000   0.1999999   0.0000000), wk =   0.0320000
        k(   42) = (   0.4000000  -0.1999999   0.0000000), wk =   0.0320000
        k(   43) = (  -0.2000000  -0.3999998   0.2000003), wk =   0.0320000
        k(   44) = (  -0.2000000   0.3999998  -0.2000003), wk =   0.0320000
        k(   45) = (   0.2000000  -0.3999998  -0.2000003), wk =   0.0320000
        k(   46) = (   0.4000000   0.1999999  -0.2000003), wk =   0.0320000
        k(   47) = (  -0.4000000  -0.1999999  -0.2000003), wk =   0.0320000
        k(   48) = (   0.4000000  -0.1999999   0.2000003), wk =   0.0320000
        k(   49) = (  -0.4000000   0.1999999   0.2000003), wk =   0.0320000
        k(   50) = (  -0.2000000  -0.3999998   0.4000006), wk =   0.0320000
        k(   51) = (  -0.2000000   0.3999998  -0.4000006), wk =   0.0320000
        k(   52) = (   0.2000000  -0.3999998  -0.4000006), wk =   0.0320000
        k(   53) = (   0.4000000   0.1999999  -0.4000006), wk =   0.0320000
        k(   54) = (  -0.4000000  -0.1999999  -0.4000006), wk =   0.0320000
        k(   55) = (   0.4000000  -0.1999999   0.4000006), wk =   0.0320000
        k(   56) = (  -0.4000000   0.1999999   0.4000006), wk =   0.0320000
        k(   57) = (  -0.4000000   0.3999998  -0.0000000), wk =   0.0320000
        k(   58) = (  -0.4000000  -0.3999998   0.2000003), wk =   0.0320000
        k(   59) = (  -0.4000000   0.3999998  -0.2000003), wk =   0.0320000
        k(   60) = (   0.4000000  -0.3999998  -0.2000003), wk =   0.0320000
        k(   61) = (  -0.4000000  -0.3999998   0.4000006), wk =   0.0320000
        k(   62) = (  -0.4000000   0.3999998  -0.4000006), wk =   0.0320000
        k(   63) = (   0.4000000  -0.3999998  -0.4000006), wk =   0.0320000

     Dense  grid:   248439 G-vectors     FFT dimensions: (  80,  80,  80)

     Smooth grid:    87703 G-vectors     FFT dimensions: (  60,  60,  60)

     Estimated max dynamical RAM per process >     305.37 MB

     Estimated total dynamical RAM >       1.97 GB

     Initial potential from superposition of free atoms

     starting charge      42.9605, renormalised to      44.0000
     Starting wfcs are   34 randomized atomic wfcs

     total cpu time spent up to now is        5.2 secs

     per-process dynamical memory:   166.5 Mb

     Self-consistent Calculation

     iteration #  1     ecut=    60.00 Ry     beta= 0.40
     Davidson diagonalization with overlap
     ethr =  1.00E-02,  avg # of iterations =  2.5

     Threshold (ethr) on eigenvalues was too large:
     Diagonalizing with lowered threshold

     Davidson diagonalization with overlap
     ethr =  4.89E-04,  avg # of iterations =  2.4

     total cpu time spent up to now is       13.5 secs

     total energy              =    -367.28025927 Ry
     estimated scf accuracy    <       0.20674376 Ry

     iteration #  2     ecut=    60.00 Ry     beta= 0.40
     Davidson diagonalization with overlap
     ethr =  4.70E-04,  avg # of iterations =  2.0

     total cpu time spent up to now is       18.0 secs

     total energy              =    -367.30385706 Ry
     estimated scf accuracy    <       0.01910785 Ry

     iteration #  3     ecut=    60.00 Ry     beta= 0.40
     Davidson diagonalization with overlap
     ethr =  4.34E-05,  avg # of iterations =  5.3

     total cpu time spent up to now is       23.3 secs

     total energy              =    -367.30560150 Ry
     estimated scf accuracy    <       0.00293963 Ry

     iteration #  4     ecut=    60.00 Ry     beta= 0.40
     Davidson diagonalization with overlap
     ethr =  6.68E-06,  avg # of iterations =  5.4

     total cpu time spent up to now is       28.8 secs

     total energy              =    -367.30590935 Ry
     estimated scf accuracy    <       0.00024786 Ry

     iteration #  5     ecut=    60.00 Ry     beta= 0.40
     Davidson diagonalization with overlap
     ethr =  5.63E-07,  avg # of iterations =  2.9

     total cpu time spent up to now is       33.7 secs

     total energy              =    -367.30594802 Ry
     estimated scf accuracy    <       0.00000646 Ry

     iteration #  6     ecut=    60.00 Ry     beta= 0.40
     Davidson diagonalization with overlap
     ethr =  1.47E-08,  avg # of iterations =  4.9

     total cpu time spent up to now is       39.4 secs

     total energy              =    -367.30595496 Ry
     estimated scf accuracy    <       0.00000067 Ry

     iteration #  7     ecut=    60.00 Ry     beta= 0.40
     Davidson diagonalization with overlap
     ethr =  1.53E-09,  avg # of iterations =  3.0

     total cpu time spent up to now is       44.9 secs

     total energy              =    -367.30595627 Ry
     estimated scf accuracy    <       0.00000012 Ry

     iteration #  8     ecut=    60.00 Ry     beta= 0.40
     Davidson diagonalization with overlap
     ethr =  2.81E-10,  avg # of iterations =  2.0

     total cpu time spent up to now is       49.4 secs

     total energy              =    -367.30595664 Ry
     estimated scf accuracy    <       0.00000004 Ry

     iteration #  9     ecut=    60.00 Ry     beta= 0.40
     Davidson diagonalization with overlap
     ethr =  8.42E-11,  avg # of iterations =  2.0

     total cpu time spent up to now is       54.0 secs

     End of self-consistent calculation

          k = 0.0000 0.0000 0.0000 ( 11067 PWs)   bands (ev):

   -18.1148 -18.1122 -18.1121 -18.0932 -18.0932 -18.0932 -11.3138 -10.8557
   -10.8556  -4.9027  -4.9027  -4.9027  -2.1804  -0.8867  -0.8865  -0.8865
     1.2488   1.2490   1.2492   1.3574   1.3580   1.3586   6.4075   7.5253
     7.5259   8.1687

          k = 0.0000-0.0000 0.2000 ( 10991 PWs)   bands (ev):

   -18.1145 -18.1121 -18.1106 -18.0932 -18.0932 -18.0932 -11.2801 -10.8975
   -10.8550  -4.8998  -4.8991  -4.8990  -2.6645  -0.8568  -0.8564  -0.1215
     1.1899   1.1993   1.2162   1.3159   1.3172   1.3794   6.7713   7.6131
     7.7991   7.8096

          k = 0.0000-0.0000 0.4000 ( 11004 PWs)   bands (ev):

   -18.1140 -18.1121 -18.1080 -18.0933 -18.0933 -18.0932 -11.2000 -10.9907
   -10.8541  -4.8949  -4.8932  -4.8932  -3.0957  -0.8047  -0.8043   0.5675
     1.0925   1.1012   1.1505   1.2663   1.2671   1.8838   5.8866   7.6124
     8.2674   8.3070

          k = 0.0000 0.2000-0.0000 ( 10991 PWs)   bands (ev):

   -18.1145 -18.1122 -18.1106 -18.0932 -18.0932 -18.0932 -11.2801 -10.8975
   -10.8550  -4.8997  -4.8991  -4.8990  -2.6646  -0.8566  -0.8564  -0.1215
     1.1932   1.1995   1.2122   1.3165   1.3166   1.3797   6.7714   7.6126
     7.7947   7.8168

          k = 0.0000 0.2000 0.2000 ( 10979 PWs)   bands (ev):

   -18.1143 -18.1114 -18.1098 -18.0932 -18.0932 -18.0932 -11.2480 -10.9127
   -10.8774  -4.9055  -4.8957  -4.8935  -3.0254  -0.8225  -0.4367   0.1062
     1.0015   1.1635   1.2506   1.2655   1.4116   1.4277   7.0343   7.3742
     7.5896   8.0257

          k = 0.0000 0.2000 0.4000 ( 10993 PWs)   bands (ev):

   -18.1139 -18.1111 -18.1075 -18.0933 -18.0933 -18.0932 -11.1704 -10.9915
   -10.8851  -4.9035  -4.8961  -4.8902  -3.4036  -0.7622  -0.2304   0.5029
     0.9367   1.0778   1.1861   1.2304   1.4236   2.0262   5.7454   7.2578
     7.8924   8.1295

          k = 0.0000 0.4000-0.0000 ( 11004 PWs)   bands (ev):

   -18.1140 -18.1122 -18.1080 -18.0933 -18.0933 -18.0932 -11.2000 -10.9907
   -10.8540  -4.8949  -4.8932  -4.8932  -3.0959  -0.8044  -0.8043   0.5678
     1.0962   1.1014   1.1455   1.2667   1.2670   1.8845   5.8861   7.6126
     8.3019   8.3033

          k = 0.0000 0.4000 0.2000 ( 10993 PWs)   bands (ev):

   -18.1139 -18.1111 -18.1075 -18.0933 -18.0933 -18.0932 -11.1704 -10.9916
   -10.8851  -4.9036  -4.8961  -4.8902  -3.4037  -0.7621  -0.2304   0.5032
     0.9366   1.0776   1.1863   1.2305   1.4230   2.0268   5.7449   7.2573
     7.8926   8.1305

          k = 0.0000 0.4000 0.4000 ( 10962 PWs)   bands (ev):

   -18.1136 -18.1101 -18.1059 -18.0933 -18.0933 -18.0931 -11.0957 -11.0015
   -10.9538  -4.9114  -4.9068  -4.8855  -3.7533  -0.6860   0.3919   0.5606
     0.9239   1.0360   1.0555   1.1360   1.6338   2.5971   5.4716   5.6135
     7.9619   8.3954

          k = 0.2000 0.2000 0.0000 ( 10979 PWs)   bands (ev):

   -18.1143 -18.1114 -18.1098 -18.0932 -18.0932 -18.0932 -11.2480 -10.9130
   -10.8771  -4.9055  -4.8957  -4.8935  -3.0255  -0.8219  -0.4374   0.1066
     1.0003   1.1634   1.2573   1.2591   1.4069   1.4332   7.0340   7.3728
     7.5921   8.0309

          k = 0.2000 0.2000 0.2000 ( 10978 PWs)   bands (ev):

   -18.1140 -18.1098 -18.1098 -18.0933 -18.0933 -18.0932 -11.2181 -10.9156
   -10.9078  -4.9063  -4.9053  -4.8873  -3.3287  -0.4220  -0.3799   0.2446
     0.9475   0.9732   1.3705   1.4013   1.4062   1.4299   7.1322   7.1585
     7.2435   7.7224

          k = 0.2000 0.2000 0.4000 ( 10967 PWs)   bands (ev):

   -18.1137 -18.1098 -18.1072 -18.0934 -18.0933 -18.0932 -11.1451 -10.9917
   -10.9102  -4.9081  -4.9063  -4.8914  -3.6738  -0.3381  -0.0775   0.4887
     0.7774   0.9567   1.3170   1.3821   1.4677   2.1205   5.6004   7.0095
     7.1749   8.0097

          k = 0.2000 0.4000 0.0000 ( 10993 PWs)   bands (ev):

   -18.1139 -18.1111 -18.1075 -18.0933 -18.0932 -18.0932 -11.1704 -10.9917
   -10.8850  -4.9036  -4.8961  -4.8902  -3.4038  -0.7615  -0.2308   0.5033
     0.9361   1.0774   1.1875   1.2296   1.4230   2.0272   5.7445   7.2592
     7.8925   8.1269

          k = 0.2000 0.4000 0.2000 ( 10967 PWs)   bands (ev):

   -18.1137 -18.1098 -18.1072 -18.0934 -18.0933 -18.0932 -11.1451 -10.9919
   -10.9101  -4.9082  -4.9062  -4.8914  -3.6739  -0.3365  -0.0789   0.4891
     0.7763   0.9571   1.3168   1.3824   1.4672   2.1215   5.5996   7.0138
     7.1700   8.0095

          k = 0.2000 0.4000 0.4000 ( 11024 PWs)   bands (ev):

   -18.1133 -18.1085 -18.1059 -18.0934 -18.0934 -18.0932 -11.0811 -11.0003
   -10.9657  -4.9177  -4.9152  -4.8987  -3.9989  -0.1580   0.4382   0.5618
     0.7079   0.8330   1.3634   1.3997   1.6373   2.6717   5.3152   5.4678
     6.9100   8.2761

          k = 0.4000 0.4000 0.0000 ( 10962 PWs)   bands (ev):

   -18.1136 -18.1101 -18.1059 -18.0933 -18.0933 -18.0931 -11.0956 -11.0018
   -10.9535  -4.9114  -4.9068  -4.8854  -3.7536  -0.6853   0.3914   0.5608
     0.9235   1.0351   1.0573   1.1356   1.6340   2.5974   5.4672   5.6177
     7.9594   8.3951

          k = 0.4000 0.4000 0.2000 ( 11024 PWs)   bands (ev):

   -18.1133 -18.1085 -18.1059 -18.0934 -18.0934 -18.0932 -11.0811 -11.0007
   -10.9654  -4.9178  -4.9151  -4.8986  -3.9991  -0.1573   0.4378   0.5621
     0.7072   0.8332   1.3631   1.3999   1.6376   2.6721   5.3115   5.4715
     6.9085   8.2758

          k = 0.4000 0.4000 0.4000 ( 10996 PWs)   bands (ev):

   -18.1128 -18.1059 -18.1059 -18.0935 -18.0934 -18.0934 -11.0446 -11.0005
   -10.9958  -4.9283  -4.9275  -4.9206  -4.3078   0.5051   0.5493   0.5622
     0.6919   0.7310   1.6162   1.6176   1.6578   3.1177   5.0391   5.0996
     5.4179   8.0467

          k = 0.2000 0.0000 0.0000 ( 10991 PWs)   bands (ev):

   -18.1145 -18.1122 -18.1106 -18.0932 -18.0932 -18.0932 -11.2801 -10.8975
   -10.8550  -4.8997  -4.8991  -4.8990  -2.6646  -0.8566  -0.8564  -0.1215
     1.1932   1.1995   1.2122   1.3165   1.3166   1.3797   6.7714   7.6126
     7.7947   7.8169

          k = 0.0000-0.2000 0.2000 ( 10979 PWs)   bands (ev):

   -18.1143 -18.1114 -18.1098 -18.0932 -18.0932 -18.0932 -11.2480 -10.9127
   -10.8774  -4.9055  -4.8957  -4.8935  -3.0254  -0.8225  -0.4367   0.1061
     1.0017   1.1635   1.2505   1.2655   1.4123   1.4269   7.0343   7.3745
     7.5893   8.0261

          k = 0.2000 0.0000-0.2000 ( 10979 PWs)   bands (ev):

   -18.1143 -18.1114 -18.1098 -18.0932 -18.0932 -18.0932 -11.2480 -10.9127
   -10.8774  -4.9055  -4.8957  -4.8935  -3.0254  -0.8225  -0.4367   0.1061
     1.0017   1.1635   1.2506   1.2655   1.4123   1.4269   7.0343   7.3745
     7.5893   8.0259

          k =-0.2000-0.0000-0.2000 ( 10979 PWs)   bands (ev):

   -18.1143 -18.1114 -18.1098 -18.0932 -18.0932 -18.0932 -11.2480 -10.9127
   -10.8774  -4.9055  -4.8957  -4.8935  -3.0254  -0.8225  -0.4367   0.1062
     1.0015   1.1635   1.2506   1.2655   1.4116   1.4277   7.0343   7.3742
     7.5896   8.0277

          k = 0.0000-0.2000 0.4000 ( 10993 PWs)   bands (ev):

   -18.1139 -18.1111 -18.1075 -18.0933 -18.0933 -18.0932 -11.1705 -10.9915
   -10.8851  -4.9035  -4.8961  -4.8902  -3.4036  -0.7622  -0.2304   0.5029
     0.9368   1.0778   1.1861   1.2304   1.4236   2.0261   5.7454   7.2577
     7.8925   8.1296

          k = 0.2000 0.0000-0.4000 ( 10993 PWs)   bands (ev):

   -18.1139 -18.1111 -18.1075 -18.0933 -18.0933 -18.0932 -11.1705 -10.9915
   -10.8851  -4.9035  -4.8961  -4.8902  -3.4036  -0.7622  -0.2304   0.5029
     0.9368   1.0778   1.1861   1.2304   1.4236   2.0261   5.7454   7.2577
     7.8924   8.1296

          k =-0.2000-0.0000-0.4000 ( 10993 PWs)   bands (ev):

   -18.1139 -18.1111 -18.1075 -18.0933 -18.0933 -18.0932 -11.1704 -10.9915
   -10.8851  -4.9035  -4.8961  -4.8902  -3.4036  -0.7622  -0.2304   0.5029
     0.9367   1.0778   1.1861   1.2304   1.4236   2.0262   5.7454   7.2578
     7.8924   8.1295

          k = 0.4000 0.0000 0.0000 ( 11004 PWs)   bands (ev):

   -18.1140 -18.1122 -18.1080 -18.0933 -18.0933 -18.0932 -11.2000 -10.9907
   -10.8540  -4.8949  -4.8932  -4.8932  -3.0959  -0.8044  -0.8043   0.5678
     1.0962   1.1014   1.1454   1.2667   1.2670   1.8845   5.8861   7.6126
     8.3022   8.3030

          k = 0.0000-0.4000 0.2000 ( 10993 PWs)   bands (ev):

   -18.1139 -18.1111 -18.1075 -18.0933 -18.0933 -18.0932 -11.1704 -10.9916
   -10.8851  -4.9036  -4.8961  -4.8902  -3.4037  -0.7621  -0.2304   0.5031
     0.9367   1.0776   1.1862   1.2305   1.4230   2.0267   5.7450   7.2573
     7.8926   8.1306

          k = 0.4000 0.0000-0.2000 ( 10993 PWs)   bands (ev):

   -18.1139 -18.1111 -18.1075 -18.0933 -18.0933 -18.0932 -11.1704 -10.9916
   -10.8851  -4.9036  -4.8961  -4.8902  -3.4037  -0.7621  -0.2304   0.5031
     0.9367   1.0776   1.1862   1.2305   1.4230   2.0267   5.7450   7.2573
     7.8926   8.1306

          k =-0.4000-0.0000-0.2000 ( 10993 PWs)   bands (ev):

   -18.1139 -18.1111 -18.1075 -18.0933 -18.0933 -18.0932 -11.1704 -10.9916
   -10.8851  -4.9036  -4.8961  -4.8902  -3.4037  -0.7621  -0.2304   0.5032
     0.9366   1.0776   1.1863   1.2305   1.4230   2.0268   5.7449   7.2573
     7.8926   8.1305

          k = 0.0000-0.4000 0.4000 ( 10962 PWs)   bands (ev):

   -18.1136 -18.1101 -18.1059 -18.0933 -18.0933 -18.0931 -11.0957 -11.0014
   -10.9538  -4.9114  -4.9068  -4.8855  -3.7533  -0.6860   0.3919   0.5605
     0.9240   1.0361   1.0554   1.1360   1.6339   2.5970   5.4720   5.6131
     7.9620   8.3955

          k = 0.4000 0.0000-0.4000 ( 10962 PWs)   bands (ev):

   -18.1136 -18.1101 -18.1059 -18.0933 -18.0933 -18.0931 -11.0957 -11.0015
   -10.9538  -4.9114  -4.9068  -4.8855  -3.7533  -0.6859   0.3919   0.5605
     0.9240   1.0361   1.0554   1.1360   1.6339   2.5970   5.4720   5.6131
     7.9619   8.3955

          k =-0.4000-0.0000-0.4000 ( 10962 PWs)   bands (ev):

   -18.1136 -18.1101 -18.1059 -18.0933 -18.0933 -18.0931 -11.0957 -11.0015
   -10.9538  -4.9114  -4.9068  -4.8855  -3.7533  -0.6859   0.3919   0.5606
     0.9239   1.0360   1.0555   1.1360   1.6338   2.5971   5.4716   5.6136
     7.9619   8.3954

          k =-0.2000 0.2000-0.0000 ( 10979 PWs)   bands (ev):

   -18.1143 -18.1114 -18.1098 -18.0932 -18.0932 -18.0932 -11.2480 -10.9124
   -10.8776  -4.9055  -4.8957  -4.8935  -3.0256  -0.8219  -0.4371   0.1059
     1.0026   1.1642   1.2566   1.2591   1.4156   1.4225   7.0345   7.3768
     7.5880   8.0277

          k =-0.2000-0.2000 0.2000 ( 10978 PWs)   bands (ev):

   -18.1140 -18.1098 -18.1098 -18.0933 -18.0933 -18.0932 -11.2181 -10.9153
   -10.9081  -4.9063  -4.9053  -4.8873  -3.3287  -0.4205  -0.3813   0.2445
     0.9483   0.9722   1.3725   1.4015   1.4060   1.4279   7.1317   7.1617
     7.2407   7.7223

          k =-0.2000 0.2000-0.2000 ( 10978 PWs)   bands (ev):

   -18.1140 -18.1098 -18.1098 -18.0933 -18.0933 -18.0932 -11.2182 -10.9118
   -10.9115  -4.9058  -4.9058  -4.8872  -3.3288  -0.4018  -0.4002   0.2443
     0.9597   0.9607   1.3962   1.3994   1.4049   1.4078   7.1294   7.2001
     7.2044   7.7216

          k = 0.2000-0.2000-0.2000 ( 10978 PWs)   bands (ev):

   -18.1140 -18.1098 -18.1098 -18.0933 -18.0933 -18.0932 -11.2182 -10.9118
   -10.9115  -4.9058  -4.9058  -4.8872  -3.3288  -0.4017  -0.4003   0.2443
     0.9597   0.9606   1.3963   1.3994   1.4049   1.4078   7.1294   7.2002
     7.2043   7.7216

          k =-0.2000-0.2000 0.4000 ( 10967 PWs)   bands (ev):

   -18.1137 -18.1098 -18.1072 -18.0934 -18.0933 -18.0932 -11.1451 -10.9917
   -10.9102  -4.9081  -4.9063  -4.8914  -3.6738  -0.3380  -0.0776   0.4886
     0.7775   0.9565   1.3172   1.3821   1.4677   2.1203   5.6005   7.0094
     7.1749   8.0097

          k =-0.2000 0.2000-0.4000 ( 10967 PWs)   bands (ev):

   -18.1137 -18.1098 -18.1072 -18.0934 -18.0933 -18.0932 -11.1452 -10.9917
   -10.9102  -4.9080  -4.9063  -4.8914  -3.6739  -0.3353  -0.0804   0.4889
     0.7769   0.9559   1.3176   1.3822   1.4682   2.1205   5.6005   7.0149
     7.1679   8.0094

          k = 0.2000-0.2000-0.4000 ( 10967 PWs)   bands (ev):

   -18.1137 -18.1098 -18.1072 -18.0934 -18.0933 -18.0932 -11.1452 -10.9917
   -10.9102  -4.9080  -4.9063  -4.8914  -3.6739  -0.3353  -0.0804   0.4889
     0.7769   0.9559   1.3176   1.3822   1.4682   2.1205   5.6005   7.0149
     7.1679   8.0094

          k =-0.2000 0.4000-0.0000 ( 10993 PWs)   bands (ev):

   -18.1139 -18.1111 -18.1075 -18.0933 -18.0932 -18.0932 -11.1705 -10.9915
   -10.8851  -4.9036  -4.8961  -4.8902  -3.4038  -0.7615  -0.2308   0.5026
     0.9374   1.0778   1.1871   1.2295   1.4234   2.0261   5.7451   7.2583
     7.8926   8.1283

          k = 0.4000 0.2000 0.0000 ( 10993 PWs)   bands (ev):

   -18.1139 -18.1111 -18.1075 -18.0933 -18.0932 -18.0932 -11.1704 -10.9917
   -10.8850  -4.9036  -4.8961  -4.8902  -3.4038  -0.7615  -0.2308   0.5033
     0.9361   1.0774   1.1875   1.2296   1.4230   2.0272   5.7445   7.2592
     7.8925   8.1269

          k = 0.4000-0.2000 0.0000 ( 10993 PWs)   bands (ev):

   -18.1139 -18.1111 -18.1075 -18.0933 -18.0932 -18.0932 -11.1705 -10.9915
   -10.8851  -4.9036  -4.8961  -4.8902  -3.4038  -0.7615  -0.2308   0.5026
     0.9374   1.0778   1.1871   1.2295   1.4234   2.0261   5.7451   7.2583
     7.8926   8.1283

          k =-0.2000-0.4000 0.2000 ( 10967 PWs)   bands (ev):

   -18.1137 -18.1098 -18.1072 -18.0934 -18.0933 -18.0932 -11.1451 -10.9919
   -10.9101  -4.9082  -4.9062  -4.8914  -3.6739  -0.3363  -0.0792   0.4891
     0.7763   0.9570   1.3170   1.3824   1.4673   2.1214   5.5997   7.0142
     7.1695   8.0095

          k =-0.2000 0.4000-0.2000 ( 10967 PWs)   bands (ev):

   -18.1137 -18.1098 -18.1072 -18.0934 -18.0933 -18.0932 -11.1452 -10.9916
   -10.9103  -4.9081  -4.9063  -4.8914  -3.6740  -0.3359  -0.0796   0.4887
     0.7772   0.9562   1.3185   1.3818   1.4675   2.1204   5.6004   7.0128
     7.1701   8.0097

          k = 0.2000-0.4000-0.2000 ( 10967 PWs)   bands (ev):

   -18.1137 -18.1098 -18.1072 -18.0934 -18.0933 -18.0932 -11.1452 -10.9917
   -10.9102  -4.9081  -4.9063  -4.8914  -3.6740  -0.3357  -0.0797   0.4887
     0.7771   0.9562   1.3184   1.3818   1.4675   2.1205   5.6003   7.0132
     7.1696   8.0097

          k = 0.4000 0.2000-0.2000 ( 10967 PWs)   bands (ev):

   -18.1137 -18.1098 -18.1072 -18.0934 -18.0933 -18.0932 -11.1451 -10.9919
   -10.9101  -4.9082  -4.9062  -4.8914  -3.6740  -0.3363  -0.0792   0.4891
     0.7763   0.9570   1.3170   1.3824   1.4673   2.1214   5.5997   7.0142
     7.1695   8.0095

          k =-0.4000-0.2000-0.2000 ( 10967 PWs)   bands (ev):

   -18.1137 -18.1098 -18.1072 -18.0934 -18.0933 -18.0932 -11.1451 -10.9919
   -10.9101  -4.9082  -4.9062  -4.8914  -3.6739  -0.3365  -0.0789   0.4891
     0.7763   0.9571   1.3168   1.3824   1.4672   2.1215   5.5996   7.0138
     7.1700   8.0095

          k = 0.4000-0.2000 0.2000 ( 10967 PWs)   bands (ev):

   -18.1137 -18.1098 -18.1072 -18.0934 -18.0933 -18.0932 -11.1452 -10.9917
   -10.9102  -4.9081  -4.9063  -4.8914  -3.6740  -0.3357  -0.0797   0.4887
     0.7771   0.9562   1.3184   1.3818   1.4675   2.1205   5.6003   7.0133
     7.1695   8.0097

          k =-0.4000 0.2000 0.2000 ( 10967 PWs)   bands (ev):

   -18.1137 -18.1098 -18.1072 -18.0934 -18.0933 -18.0932 -11.1452 -10.9917
   -10.9103  -4.9081  -4.9063  -4.8914  -3.6740  -0.3359  -0.0796   0.4887
     0.7772   0.9562   1.3185   1.3818   1.4675   2.1205   5.6004   7.0128
     7.1701   8.0097

          k =-0.2000-0.4000 0.4000 ( 11024 PWs)   bands (ev):

   -18.1133 -18.1085 -18.1059 -18.0934 -18.0934 -18.0932 -11.0811 -11.0003
   -10.9657  -4.9177  -4.9152  -4.8987  -3.9989  -0.1579   0.4382   0.5617
     0.7081   0.8328   1.3635   1.3997   1.6374   2.6716   5.3157   5.4673
     6.9100   8.2762

          k =-0.2000 0.4000-0.4000 ( 11024 PWs)   bands (ev):

   -18.1133 -18.1085 -18.1059 -18.0934 -18.0934 -18.0932 -11.0812 -11.0002
   -10.9658  -4.9177  -4.9152  -4.8987  -3.9990  -0.1574   0.4383   0.5614
     0.7080   0.8319   1.3641   1.3994   1.6376   2.6717   5.3168   5.4663
     6.9093   8.2760

          k = 0.2000-0.4000-0.4000 ( 11024 PWs)   bands (ev):

   -18.1133 -18.1085 -18.1059 -18.0934 -18.0934 -18.0932 -11.0812 -11.0002
   -10.9657  -4.9177  -4.9152  -4.8987  -3.9990  -0.1573   0.4383   0.5614
     0.7079   0.8319   1.3641   1.3995   1.6376   2.6718   5.3165   5.4667
     6.9093   8.2759

          k = 0.4000 0.2000-0.4000 ( 11024 PWs)   bands (ev):

   -18.1133 -18.1085 -18.1059 -18.0934 -18.0934 -18.0932 -11.0811 -11.0003
   -10.9657  -4.9177  -4.9152  -4.8987  -3.9989  -0.1579   0.4382   0.5617
     0.7081   0.8328   1.3635   1.3997   1.6374   2.6716   5.3157   5.4673
     6.9100   8.2762

          k =-0.4000-0.2000-0.4000 ( 11024 PWs)   bands (ev):

   -18.1133 -18.1085 -18.1059 -18.0934 -18.0934 -18.0932 -11.0811 -11.0003
   -10.9657  -4.9177  -4.9152  -4.8987  -3.9989  -0.1580   0.4382   0.5618
     0.7079   0.8330   1.3634   1.3997   1.6373   2.6717   5.3152   5.4678
     6.9100   8.2764

          k = 0.4000-0.2000 0.4000 ( 11024 PWs)   bands (ev):

   -18.1133 -18.1085 -18.1059 -18.0934 -18.0934 -18.0932 -11.0812 -11.0002
   -10.9657  -4.9177  -4.9152  -4.8987  -3.9990  -0.1573   0.4383   0.5614
     0.7079   0.8319   1.3641   1.3995   1.6376   2.6718   5.3165   5.4667
     6.9093   8.2762

          k =-0.4000 0.2000 0.4000 ( 11024 PWs)   bands (ev):

   -18.1133 -18.1085 -18.1059 -18.0934 -18.0934 -18.0932 -11.0812 -11.0002
   -10.9658  -4.9177  -4.9152  -4.8987  -3.9990  -0.1574   0.4383   0.5614
     0.7080   0.8319   1.3641   1.3995   1.6376   2.6717   5.3168   5.4663
     6.9093   8.2760

          k =-0.4000 0.4000-0.0000 ( 10962 PWs)   bands (ev):

   -18.1136 -18.1101 -18.1059 -18.0933 -18.0933 -18.0931 -11.0958 -11.0012
   -10.9539  -4.9114  -4.9068  -4.8854  -3.7536  -0.6853   0.3915   0.5600
     0.9248   1.0364   1.0560   1.1353   1.6343   2.5964   5.4733   5.6118
     7.9598   8.3954

          k =-0.4000-0.4000 0.2000 ( 11024 PWs)   bands (ev):

   -18.1133 -18.1085 -18.1059 -18.0934 -18.0934 -18.0932 -11.0811 -11.0006
   -10.9654  -4.9178  -4.9151  -4.8986  -3.9991  -0.1572   0.4378   0.5620
     0.7072   0.8331   1.3632   1.3999   1.6376   2.6721   5.3117   5.4713
     6.9084   8.2757

          k =-0.4000 0.4000-0.2000 ( 11024 PWs)   bands (ev):

   -18.1133 -18.1085 -18.1059 -18.0934 -18.0934 -18.0932 -11.0813 -11.0000
   -10.9658  -4.9177  -4.9152  -4.8986  -3.9991  -0.1571   0.4379   0.5610
     0.7087   0.8323   1.3640   1.3996   1.6380   2.6712   5.3178   5.4654
     6.9085   8.2761

          k = 0.4000-0.4000-0.2000 ( 11024 PWs)   bands (ev):

   -18.1133 -18.1085 -18.1059 -18.0934 -18.0934 -18.0932 -11.0813 -11.0000
   -10.9658  -4.9177  -4.9152  -4.8986  -3.9991  -0.1571   0.4379   0.5610
     0.7087   0.8323   1.3640   1.3996   1.6380   2.6712   5.3178   5.4654
     6.9085   8.2761

          k =-0.4000-0.4000 0.4000 ( 10996 PWs)   bands (ev):

   -18.1128 -18.1059 -18.1059 -18.0935 -18.0934 -18.0934 -11.0447 -11.0003
   -10.9960  -4.9283  -4.9275  -4.9206  -4.3078   0.5051   0.5498   0.5617
     0.6933   0.7296   1.6161   1.6175   1.6579   3.1177   5.0411   5.0974
     5.4180   8.0467

          k =-0.4000 0.4000-0.4000 ( 10996 PWs)   bands (ev):

   -18.1128 -18.1059 -18.1059 -18.0935 -18.0934 -18.0934 -11.0448 -10.9982
   -10.9980  -4.9279  -4.9279  -4.9206  -4.3078   0.5050   0.5557   0.5562
     0.7103   0.7119   1.6160   1.6170   1.6589   3.1176   5.0678   5.0701
     5.4185   8.0466

          k = 0.4000-0.4000-0.4000 ( 10996 PWs)   bands (ev):

   -18.1128 -18.1059 -18.1059 -18.0935 -18.0934 -18.0934 -11.0448 -10.9982
   -10.9980  -4.9279  -4.9279  -4.9206  -4.3078   0.5050   0.5557   0.5562
     0.7104   0.7118   1.6160   1.6170   1.6589   3.1176   5.0679   5.0700
     5.4185   8.0466

     the Fermi energy is     3.8500 ev

!    total energy              =    -367.30595683 Ry
     estimated scf accuracy    <          1.4E-10 Ry
     smearing contrib. (-TS)   =       0.00000000 Ry
     internal energy E=F+TS    =    -367.30595683 Ry

     The total energy is F=E-TS. E is the sum of the following terms:
     one-electron contribution =    -128.13905155 Ry
     hartree contribution      =      82.63587789 Ry
     xc contribution           =    -156.18237440 Ry
     ewald contribution        =    -165.62040877 Ry

     convergence has been achieved in   9 iterations

     Forces acting on atoms (cartesian axes, Ry/au):

     atom    1 type  1   force =    -0.00000131    0.00000111    0.00000019
     atom    2 type  2   force =     0.00000056   -0.00000046   -0.00000030
     atom    3 type  3   force =    -0.00000003    0.00026260   -0.00001884
     atom    4 type  3   force =    -0.00026335    0.00000003    0.00001875
     atom    5 type  3   force =     0.00026414   -0.00026327    0.00000020

     Total force =     0.000527     Total SCF correction =     0.000001
     Message from routine punch:
     Nothing written, as per user request (disk_io='none')

     init_run     :      4.49s CPU      4.78s WALL (       1 calls)
     electrons    :     46.12s CPU     48.75s WALL (       1 calls)
     forces       :      1.30s CPU      1.48s WALL (       1 calls)

     Called by init_run:
     wfcinit      :      1.69s CPU      1.71s WALL (       1 calls)
     potinit      :      0.72s CPU      0.83s WALL (       1 calls)
     hinit0       :      1.72s CPU      1.74s WALL (       1 calls)

     Called by electrons:
     c_bands      :     32.82s CPU     33.16s WALL (      10 calls)
     sum_band     :      7.78s CPU      9.01s WALL (      10 calls)
     v_of_rho     :      2.52s CPU      2.83s WALL (      10 calls)
     newd         :      3.05s CPU      3.97s WALL (      10 calls)
     mix_rho      :      0.20s CPU      0.21s WALL (      10 calls)

     Called by c_bands:
     init_us_2    :      1.60s CPU      1.64s WALL (     176 calls)
     cegterg      :     26.11s CPU     26.42s WALL (      80 calls)

     Called by *egterg:
     cdiaghg      :      0.29s CPU      0.29s WALL (     368 calls)
     h_psi        :     20.20s CPU     20.38s WALL (     384 calls)
     s_psi        :      1.92s CPU      1.93s WALL (     384 calls)
     g_psi        :      0.28s CPU      0.28s WALL (     296 calls)

     Called by h_psi:
     h_psi:calbec :      1.94s CPU      1.94s WALL (     384 calls)
     vloc_psi     :     16.28s CPU     16.38s WALL (     384 calls)
                                        0.00s GPU  (     384 calls)
     add_vuspsi   :      1.86s CPU      1.86s WALL (     384 calls)

     General routines
     calbec       :      2.81s CPU      2.81s WALL (     496 calls)
     fft          :      1.53s CPU      1.54s WALL (     140 calls)
     ffts         :      0.39s CPU      0.40s WALL (      20 calls)
     fftw         :     16.10s CPU     16.15s WALL (   13528 calls)
     interpolate  :      0.47s CPU      0.48s WALL (      10 calls)

     Parallel routines

     PWSCF        :     52.36s CPU     55.48s WALL


   This run was terminated on:  21:28:34   3Oct2026            

=------------------------------------------------------------------------------=
   JOB DONE.
=------------------------------------------------------------------------------=
