
     Program PWSCF v.7.5 starts on  4Oct2026 at 14:41:35 

     This program is part of the open-source Quantum ESPRESSO suite
     for quantum simulation of materials; please cite
         "P. Giannozzi et al., J. Phys.:Condens. Matter 21 395502 (2009);
         "P. Giannozzi et al., J. Phys.:Condens. Matter 29 465901 (2017);
         "P. Giannozzi et al., J. Chem. Phys. 152 154105 (2020);
          URL http://www.quantum-espresso.org", 
     in publications or presentations arising from this work. More details at
     http://www.quantum-espresso.org/quote

     Parallel version (MPI & OpenMP), running on       8 processor cores
     Number of MPI processes:                 8
     Threads/MPI process:                     1

     MPI processes distributed on     1 nodes
     82490 MiB available memory on the printing compute node when the environment starts

     Reading input from pw.in

     Current dimensions of program PWSCF are:
     Max number of different atomic species (ntypx) = 10
     Max number of k-points (npk) =  40000
     Max angular momentum in pseudopotentials (lmaxx) =  4
     file K.pbe-spn-kjpaw_psl.1.0.0.UPF: wavefunction(s)  3S renormalized
     file Nb.pbe-spn-kjpaw_psl.0.3.0.UPF: wavefunction(s)  4S 4P renormalized
     file O.pbe-n-kjpaw_psl.0.1.UPF: wavefunction(s)  2P renormalized

     K-points division:     npool     =       4
     R & G space division:  proc/nbgrp/npool/nimage =       2
     Subspace diagonalization in iterative solution of the eigenvalue problem:
     a serial algorithm will be used


     Parallelization info
     --------------------
     sticks:   dense  smooth     PW     G-vecs:    dense   smooth      PW
     Min        4496    2246    612               320085   113319   16210
     Max        4497    2247    613               320086   113320   16213
     Sum        8993    4493   1225               640171   226639   32423

     Using Slab Decomposition



     bravais-lattice index     =            0
     lattice parameter (alat)  =      15.3320  a.u.
     unit-cell volume          =    3604.1149 (a.u.)^3
     number of atoms/cell      =           40
     number of atomic types    =            3
     number of electrons       =       320.00
     number of Kohn-Sham states=          192
     kinetic-energy cutoff     =      60.0000  Ry
     charge density cutoff     =     480.0000  Ry
     scf convergence threshold =      4.0E-09
     mixing beta               =       0.4000
     number of iterations used =            8  plain     mixing
     Exchange-correlation= SLA  PW   PBX  PBC
                           (   1   4   3   4   0   0   0)

     celldm(1)=  15.332026  celldm(2)=   0.000000  celldm(3)=   0.000000
     celldm(4)=   0.000000  celldm(5)=   0.000000  celldm(6)=   0.000000

     crystal axes: (cart. coord. in units of alat)
               a(1) = (   1.000000  -0.000000   0.000000 )  
               a(2) = (   0.000000   1.000000  -0.000000 )  
               a(3) = (  -0.000000  -0.000000   1.000000 )  

     reciprocal axes: (cart. coord. in units 2 pi/alat)
               b(1) = (  1.000000  0.000000  0.000000 )  
               b(2) = (  0.000000  1.000000  0.000000 )  
               b(3) = (  0.000000  0.000000  1.000000 )  


     PseudoPot. # 1 for K  read from file:
     /root/sssp/K.pbe-spn-kjpaw_psl.1.0.0.UPF
     MD5 check sum: 7d58810084cac21f60fbe77ea2b688fd
     Pseudo is Projector augmented-wave + core cor, Zval =  9.0
     Generated using "atomic" code by A. Dal Corso  v.5.1
     Shape of augmentation charge: PSQ
     Using radial grid of 1165 points,  6 beta functions with: 
                l(1) =   0
                l(2) =   0
                l(3) =   1
                l(4) =   1
                l(5) =   2
                l(6) =   2
     Q(r) pseudized with 0 coefficients 


     PseudoPot. # 2 for Nb read from file:
     /root/sssp/Nb.pbe-spn-kjpaw_psl.0.3.0.UPF
     MD5 check sum: 411d72ad547312f8017e2943ceca08cc
     Pseudo is Projector augmented-wave + core cor, Zval = 13.0
     Generated using "atomic" code by A. Dal Corso  v.5.0.99 svn rev. 10869
     Shape of augmentation charge: PSQ
     Using radial grid of 1227 points,  6 beta functions with: 
                l(1) =   0
                l(2) =   0
                l(3) =   1
                l(4) =   1
                l(5) =   2
                l(6) =   2
     Q(r) pseudized with 0 coefficients 


     PseudoPot. # 3 for O  read from file:
     /root/sssp/O.pbe-n-kjpaw_psl.0.1.UPF
     MD5 check sum: 0234752ac141de4415c5fc33072bef88
     Pseudo is Projector augmented-wave + core cor, Zval =  6.0
     Generated using "atomic" code by A. Dal Corso  v.5.0.99 svn rev. 10869
     Shape of augmentation charge: BESSEL
     Using radial grid of 1095 points,  4 beta functions with: 
                l(1) =   0
                l(2) =   0
                l(3) =   1
                l(4) =   1
     Q(r) pseudized with 0 coefficients 


     atomic species   valence    mass     pseudopotential
     K                 9.00    39.09830     K ( 1.00)
     Nb               13.00    92.90640     Nb( 1.00)
     O                 6.00    15.99900     O ( 1.00)

     No symmetry found



   Cartesian axes

     site n.     atom                  positions (alat units)
         1        K      tau(   1) = (  -0.0010054   0.0044184   0.0093389  )
         2        K      tau(   2) = (   0.5022413  -0.0046356  -0.0072508  )
         3        K      tau(   3) = (  -0.0106807   0.4916147  -0.0047903  )
         4        K      tau(   4) = (   0.5025364   0.5021071  -0.0044707  )
         5        K      tau(   5) = (  -0.0201357   0.0040896   0.4996379  )
         6        K      tau(   6) = (   0.5088018   0.0065092   0.5108452  )
         7        K      tau(   7) = (   0.0094221   0.4979099   0.5019570  )
         8        K      tau(   8) = (   0.4962855   0.4862831   0.5049582  )
         9        Nb     tau(   9) = (   0.2505442   0.2497063   0.2430119  )
        10        Nb     tau(  10) = (   0.7538718   0.2460167   0.2512384  )
        11        Nb     tau(  11) = (   0.2467331   0.7477508   0.2506667  )
        12        Nb     tau(  12) = (   0.7504229   0.7454334   0.2503547  )
        13        Nb     tau(  13) = (   0.2413109   0.2514710   0.7451831  )
        14        Nb     tau(  14) = (   0.7470465   0.2597461   0.7494179  )
        15        Nb     tau(  15) = (   0.2451408   0.7513266   0.7529017  )
        16        Nb     tau(  16) = (   0.7538798   0.7555025   0.7463381  )
        17        O      tau(  17) = (   0.5123976   0.2556068   0.2526811  )
        18        O      tau(  18) = (   0.0079393   0.2505400   0.2630460  )
        19        O      tau(  19) = (   0.5085806   0.7494920   0.2501467  )
        20        O      tau(  20) = (  -0.0046040   0.7565361   0.2445547  )
        21        O      tau(  21) = (   0.5053808   0.2547628   0.7487912  )
        22        O      tau(  22) = (   0.0030418   0.2672457   0.7494318  )
        23        O      tau(  23) = (   0.5058520   0.7509368   0.7513635  )
        24        O      tau(  24) = (   0.0048177   0.7569959   0.7414812  )
        25        O      tau(  25) = (   0.2669683   0.0063788   0.2416418  )
        26        O      tau(  26) = (   0.7522848  -0.0067274   0.2425755  )
        27        O      tau(  27) = (   0.2585390   0.5012952   0.2448760  )
        28        O      tau(  28) = (   0.7613790   0.4895372   0.2663740  )
        29        O      tau(  29) = (   0.2542592   0.0042357   0.7496041  )
        30        O      tau(  30) = (   0.7576867  -0.0090527   0.7677623  )
        31        O      tau(  31) = (   0.2509859   0.5039629   0.7487243  )
        32        O      tau(  32) = (   0.7581395   0.4923740   0.7534892  )
        33        O      tau(  33) = (   0.2548054   0.2558249  -0.0052973  )
        34        O      tau(  34) = (   0.7563737   0.2593298   0.0127198  )
        35        O      tau(  35) = (   0.2441374   0.7466066  -0.0061696  )
        36        O      tau(  36) = (   0.7423913   0.7349926   0.0037978  )
        37        O      tau(  37) = (   0.2564552   0.2420630   0.4945219  )
        38        O      tau(  38) = (   0.7489941   0.2393138   0.5172059  )
        39        O      tau(  39) = (   0.2377662   0.7522216   0.4906486  )
        40        O      tau(  40) = (   0.7502267   0.7337509   0.5142638  )

     number of k points=    36  Marzari-Vanderbilt smearing, width (Ry)=  0.0050
                       cart. coord. in units 2pi/alat
        k(    1) = (   0.0000000   0.0000000   0.0000000), wk =   0.0312500
        k(    2) = (   0.0000000   0.0000000   0.2500000), wk =   0.0625000
        k(    3) = (   0.0000000   0.0000000  -0.5000000), wk =   0.0312500
        k(    4) = (   0.0000000   0.2500000   0.2500000), wk =   0.0625000
        k(    5) = (   0.0000000   0.2500000  -0.5000000), wk =   0.0625000
        k(    6) = (   0.0000000  -0.5000000  -0.5000000), wk =   0.0312500
        k(    7) = (   0.2500000   0.2500000   0.2500000), wk =   0.0625000
        k(    8) = (   0.2500000   0.2500000  -0.5000000), wk =   0.0625000
        k(    9) = (   0.2500000  -0.5000000  -0.5000000), wk =   0.0625000
        k(   10) = (  -0.5000000  -0.5000000  -0.5000000), wk =   0.0312500
        k(   11) = (   0.2500000   0.0000000   0.0000000), wk =   0.0625000
        k(   12) = (   0.0000000   0.2500000   0.0000000), wk =   0.0625000
        k(   13) = (  -0.5000000   0.0000000   0.0000000), wk =   0.0312500
        k(   14) = (   0.0000000  -0.5000000   0.0000000), wk =   0.0312500
        k(   15) = (   0.0000000  -0.2500000   0.2500000), wk =   0.0625000
        k(   16) = (   0.2500000   0.0000000  -0.2500000), wk =   0.0625000
        k(   17) = (  -0.2500000   0.0000000  -0.2500000), wk =   0.0625000
        k(   18) = (   0.2500000  -0.2500000   0.0000000), wk =   0.0625000
        k(   19) = (  -0.2500000  -0.2500000   0.0000000), wk =   0.0625000
        k(   20) = (   0.2500000   0.0000000   0.5000000), wk =   0.0625000
        k(   21) = (  -0.5000000  -0.2500000   0.0000000), wk =   0.0625000
        k(   22) = (   0.0000000  -0.5000000   0.2500000), wk =   0.0625000
        k(   23) = (   0.2500000  -0.5000000   0.0000000), wk =   0.0625000
        k(   24) = (  -0.5000000   0.0000000   0.2500000), wk =   0.0625000
        k(   25) = (  -0.5000000   0.0000000   0.5000000), wk =   0.0312500
        k(   26) = (  -0.5000000   0.5000000   0.0000000), wk =   0.0312500
        k(   27) = (  -0.2500000  -0.2500000   0.2500000), wk =   0.0625000
        k(   28) = (  -0.2500000   0.2500000  -0.2500000), wk =   0.0625000
        k(   29) = (   0.2500000  -0.2500000  -0.2500000), wk =   0.0625000
        k(   30) = (  -0.2500000   0.2500000   0.5000000), wk =   0.0625000
        k(   31) = (  -0.5000000  -0.2500000   0.2500000), wk =   0.0625000
        k(   32) = (   0.5000000  -0.2500000  -0.2500000), wk =   0.0625000
        k(   33) = (  -0.2500000  -0.5000000   0.2500000), wk =   0.0625000
        k(   34) = (  -0.2500000   0.5000000  -0.2500000), wk =   0.0625000
        k(   35) = (  -0.5000000   0.2500000   0.5000000), wk =   0.0625000
        k(   36) = (  -0.5000000   0.5000000   0.2500000), wk =   0.0625000

     Dense  grid:   640171 G-vectors     FFT dimensions: ( 108, 108, 108)

     Smooth grid:   226639 G-vectors     FFT dimensions: (  75,  75,  75)

     Estimated max dynamical RAM per process >       1.01 GB

     Estimated total dynamical RAM >       7.61 GB

     Check: negative core charge=   -0.000003

     Initial potential from superposition of free atoms

     starting charge     319.8323, renormalised to     320.0000
     Starting wfcs are  240 randomized atomic wfcs
     Checking if some PAW data can be deallocated... 

     total cpu time spent up to now is       79.8 secs

     per-process dynamical memory:   695.5 Mb

     Self-consistent Calculation

     iteration #  1     ecut=    60.00 Ry     beta= 0.40
     Davidson diagonalization with overlap
     ethr =  1.00E-02,  avg # of iterations =  2.0

     total cpu time spent up to now is      248.1 secs

     total energy              =   -4575.66745791 Ry
     estimated scf accuracy    <      20.61793029 Ry

     iteration #  2     ecut=    60.00 Ry     beta= 0.40
     Davidson diagonalization with overlap
     ethr =  6.44E-03,  avg # of iterations =  4.0

     total cpu time spent up to now is      453.7 secs

     total energy              =   -4580.62053099 Ry
     estimated scf accuracy    <       6.50970229 Ry

     iteration #  3     ecut=    60.00 Ry     beta= 0.40
     Davidson diagonalization with overlap
     ethr =  2.03E-03,  avg # of iterations =  2.9

     total cpu time spent up to now is      628.2 secs

     total energy              =   -4582.08397066 Ry
     estimated scf accuracy    <       0.45981058 Ry

     iteration #  4     ecut=    60.00 Ry     beta= 0.40
     Davidson diagonalization with overlap
     ethr =  1.44E-04,  avg # of iterations = 13.1

     total cpu time spent up to now is      887.4 secs

     total energy              =   -4582.05074167 Ry
     estimated scf accuracy    <       0.18418776 Ry

     iteration #  5     ecut=    60.00 Ry     beta= 0.40
     Davidson diagonalization with overlap
     c_bands:  1 eigenvalues not converged
     ethr =  5.76E-05,  avg # of iterations =  7.1

     total cpu time spent up to now is     1125.0 secs

     total energy              =   -4582.10098247 Ry
     estimated scf accuracy    <       0.08820103 Ry

     iteration #  6     ecut=    60.00 Ry     beta= 0.40
     Davidson diagonalization with overlap
     c_bands:  1 eigenvalues not converged
     ethr =  2.76E-05,  avg # of iterations =  2.5

     total cpu time spent up to now is     1277.3 secs

     total energy              =   -4582.09854710 Ry
     estimated scf accuracy    <       0.03616125 Ry

     iteration #  7     ecut=    60.00 Ry     beta= 0.40
     Davidson diagonalization with overlap
     ethr =  1.13E-05,  avg # of iterations =  3.3

     total cpu time spent up to now is     1449.2 secs

     total energy              =   -4582.09429712 Ry
     estimated scf accuracy    <       0.00998501 Ry

     iteration #  8     ecut=    60.00 Ry     beta= 0.40
     Davidson diagonalization with overlap
     ethr =  3.12E-06,  avg # of iterations =  8.8

     total cpu time spent up to now is     1703.3 secs

     total energy              =   -4582.09797269 Ry
     estimated scf accuracy    <       0.00393978 Ry

     iteration #  9     ecut=    60.00 Ry     beta= 0.40
     Davidson diagonalization with overlap
     ethr =  1.23E-06,  avg # of iterations =  1.5

     total cpu time spent up to now is     1850.8 secs

     total energy              =   -4582.09814376 Ry
     estimated scf accuracy    <       0.00053350 Ry

     iteration # 10     ecut=    60.00 Ry     beta= 0.40
     Davidson diagonalization with overlap
     ethr =  1.67E-07,  avg # of iterations =  3.7

     total cpu time spent up to now is     2020.0 secs

     total energy              =   -4582.09815994 Ry
     estimated scf accuracy    <       0.00008315 Ry

     iteration # 11     ecut=    60.00 Ry     beta= 0.40
     Davidson diagonalization with overlap
     ethr =  2.60E-08,  avg # of iterations =  4.3

     total cpu time spent up to now is     2229.8 secs

     total energy              =   -4582.09818818 Ry
     estimated scf accuracy    <       0.00001071 Ry

     iteration # 12     ecut=    60.00 Ry     beta= 0.40
     Davidson diagonalization with overlap
     ethr =  3.35E-09,  avg # of iterations =  2.6

     total cpu time spent up to now is     2407.2 secs

     total energy              =   -4582.09819096 Ry
     estimated scf accuracy    <       0.00000051 Ry

     iteration # 13     ecut=    60.00 Ry     beta= 0.40
     Davidson diagonalization with overlap
     ethr =  1.60E-10,  avg # of iterations =  4.0

     total cpu time spent up to now is     2655.7 secs

     total energy              =   -4582.09819125 Ry
     estimated scf accuracy    <       0.00000009 Ry

     iteration # 14     ecut=    60.00 Ry     beta= 0.40
     Davidson diagonalization with overlap
     ethr =  2.93E-11,  avg # of iterations =  2.1

     total cpu time spent up to now is     2847.6 secs

     total energy              =   -4582.09819127 Ry
     estimated scf accuracy    <       0.00000003 Ry

     iteration # 15     ecut=    60.00 Ry     beta= 0.40
     Davidson diagonalization with overlap
     ethr =  1.08E-11,  avg # of iterations =  2.0

     total cpu time spent up to now is     3020.2 secs

     End of self-consistent calculation

          k = 0.0000 0.0000 0.0000 ( 28353 PWs)   bands (ev):

   -47.3146 -47.1508 -47.1460 -47.1362 -47.0568 -46.9728 -46.8985 -46.8642
   -23.4253 -23.3891 -23.3643 -23.2871 -23.2771 -23.2720 -23.2488 -23.2419
   -23.2411 -23.2226 -23.1853 -23.1754 -23.1657 -23.1637 -23.1550 -23.1498
   -23.1138 -23.0732 -23.0417 -23.0375 -23.0229 -23.0177 -22.9848 -22.9604
   -19.5736 -19.5381 -19.4065 -19.4015 -19.3868 -19.3238 -19.2682 -19.2218
    -9.1185  -9.0999  -9.0487  -9.0371  -8.8268  -8.8185  -8.7879  -8.6864
    -8.6761  -8.6547  -8.6424  -8.5909  -7.9588  -7.9146  -7.8863  -7.8794
    -7.8664  -7.8515  -7.8492  -7.8116  -7.8032  -7.7568  -7.7313  -7.6832
    -3.2262  -3.2174  -3.2087  -3.0975  -3.0833  -3.0763  -3.0064  -3.0005
    -2.9892  -2.9501  -2.9469  -2.9457  -2.9342  -2.9137  -2.9072  -2.8796
    -2.8582  -2.8509  -2.8037  -2.7810  -2.7744  -2.7619  -2.7442  -2.7286
     2.7518   2.8081   2.8273   2.8451   2.9040   2.9966   3.0147   3.0427
     3.1967   3.2313   3.2747   3.5568   3.6596   3.6726   3.6923   4.1925
     4.2083   4.2196   5.1411   5.1437   5.1813   5.2073   5.2334   5.2411
     5.3487   5.3908   5.4158   5.4228   5.4660   5.4823   5.7139   5.7247
     5.7535   5.8195   5.8439   5.8610   5.8688   5.8742   5.9118   5.9828
     5.9855   6.0017   6.3985   6.4133   6.4488   6.4719   6.4972   6.5209
     6.5397   6.5747   6.5866   6.5996   6.6276   6.6474   6.8712   6.8934
     6.9721   6.9812   7.0217   7.0833   7.1020   7.1228   7.1541   7.1930
     7.2328   7.3013   7.8907   7.9091   7.9169   7.9302   7.9673   7.9855
     9.4949   9.6028   9.6517   9.7577   9.7683   9.9791  11.8160  11.8358
    11.8941  11.9029  11.9362  11.9705  11.9788  12.0063  12.0148  12.0243
    12.0319  12.1686  12.8448  12.8835  12.9416  12.9452  12.9859  12.9975
    13.0382  13.0772  13.0993  13.1119  13.2807  14.1565  14.2162  14.2966

          k = 0.0000 0.0000 0.2500 ( 28242 PWs)   bands (ev):

   -47.3145 -47.1508 -47.1460 -47.1362 -47.0568 -46.9728 -46.8985 -46.8642
   -23.4169 -23.3890 -23.3642 -23.2869 -23.2740 -23.2597 -23.2525 -23.2470
   -23.2412 -23.2225 -23.1853 -23.1823 -23.1731 -23.1640 -23.1412 -23.1382
   -23.1131 -23.0731 -23.0549 -23.0413 -23.0342 -23.0178 -22.9854 -22.9604
   -19.5730 -19.5387 -19.4052 -19.4011 -19.3882 -19.3236 -19.2684 -19.2220
    -9.0824  -9.0646  -8.9992  -8.9734  -8.8381  -8.8039  -8.7081  -8.6674
    -8.6419  -8.6189  -8.5907  -8.5446  -8.1036  -8.0263  -7.9988  -7.9052
    -7.8822  -7.8729  -7.8619  -7.8532  -7.8156  -7.7979  -7.7511  -7.6916
    -3.2099  -3.1908  -3.1800  -3.1072  -3.0944  -3.0756  -3.0043  -2.9996
    -2.9836  -2.9590  -2.9501  -2.9460  -2.9378  -2.9120  -2.9086  -2.8792
    -2.8605  -2.8494  -2.8091  -2.7954  -2.7916  -2.7675  -2.7508  -2.7347
     2.8252   2.8382   2.9064   2.9443   3.0029   3.0271   3.0677   3.2338
     3.3668   3.4732   3.5336   3.7214   3.7578   3.8208   3.8652   4.1379
     4.2935   4.3115   4.8512   4.8689   4.9258   4.9649   5.1771   5.2573
     5.2722   5.3048   5.3498   5.3771   5.4446   5.4626   5.4763   5.5125
     5.5567   5.7006   5.7272   5.7697   5.8028   5.8782   5.9241   5.9389
     6.0845   6.2454   6.2671   6.4247   6.4444   6.4839   6.5212   6.5453
     6.5632   6.5943   6.6228   6.6449   6.6905   6.7407   6.8089   6.8470
     6.8777   6.9025   6.9403   6.9951   7.0222   7.0701   7.0987   7.1476
     7.1739   7.2472   7.7832   7.7961   7.8099   7.8561   7.9209   7.9831
     9.6388   9.7500   9.9307  10.0160  10.1082  10.2507  11.5448  11.6010
    11.6553  11.7889  11.8413  11.9544  11.9822  12.0053  12.0182  12.0741
    12.0980  12.1558  12.6752  12.7639  12.8305  12.8568  12.8950  13.0120
    13.0555  13.1073  13.4348  13.4650  13.6894  14.1476  14.2258  14.7135

          k = 0.0000 0.0000-0.5000 ( 28326 PWs)   bands (ev):

   -47.3145 -47.1508 -47.1459 -47.1362 -47.0568 -46.9728 -46.8985 -46.8642
   -23.4075 -23.3890 -23.3641 -23.2868 -23.2737 -23.2621 -23.2478 -23.2413
   -23.2267 -23.2228 -23.2147 -23.1852 -23.1741 -23.1633 -23.1238 -23.1195
   -23.1060 -23.0819 -23.0731 -23.0547 -23.0385 -23.0179 -22.9858 -22.9605
   -19.5723 -19.5394 -19.4040 -19.4004 -19.3900 -19.3234 -19.2686 -19.2222
    -9.0612  -9.0435  -8.9021  -8.8808  -8.8771  -8.8487  -8.6615  -8.6386
    -8.4689  -8.4664  -8.4342  -8.3980  -8.3761  -8.2749  -8.2548  -8.0565
    -7.8926  -7.8804  -7.8633  -7.8516  -7.8261  -7.7947  -7.7561  -7.6971
    -3.1762  -3.1571  -3.1449  -3.1316  -3.1017  -3.0917  -3.0042  -2.9986
    -2.9810  -2.9624  -2.9577  -2.9457  -2.9393  -2.9142  -2.9066  -2.8798
    -2.8593  -2.8438  -2.8208  -2.8159  -2.8044  -2.7733  -2.7575  -2.7403
     2.8284   2.8387   2.9574   2.9803   3.0148   3.0293   3.1913   3.2277
     3.9323   3.9614   4.1098   4.1608   4.2133   4.2475   4.2569   4.3090
     4.3732   4.3923   4.4497   4.4885   4.5444   4.6095   4.6352   4.6562
     4.7296   4.8876   5.2222   5.2685   5.3393   5.3981   5.5037   5.5078
     5.5265   5.5750   5.6463   5.6539   5.6886   5.7131   6.1054   6.1518
     6.1627   6.2359   6.3454   6.3602   6.3994   6.4114   6.4357   6.4491
     6.4952   6.5377   6.5925   6.5954   6.6631   6.6687   6.7218   6.7528
     6.7787   6.8036   7.0700   7.1290   7.1576   7.1867   7.3164   7.4069
     7.4141   7.4338   7.4423   7.4880   7.5559   7.5812   7.9234   7.9801
     9.6541   9.7434  10.7383  10.7491  10.7686  10.8191  10.8554  10.9249
    10.9674  11.2744  11.8420  11.9775  12.0007  12.0186  12.2570  12.2755
    12.2931  12.3441  12.3510  12.4299  12.4943  12.5629  12.8957  13.0218
    13.0384  13.1149  13.8536  13.9557  14.0218  14.0557  14.4865  14.6672

          k = 0.0000 0.2500 0.2500 ( 28303 PWs)   bands (ev):

   -47.3145 -47.1507 -47.1460 -47.1362 -47.0568 -46.9728 -46.8985 -46.8642
   -23.4168 -23.3804 -23.3638 -23.2770 -23.2686 -23.2591 -23.2527 -23.2471
   -23.2412 -23.2321 -23.1917 -23.1852 -23.1802 -23.1521 -23.1401 -23.1359
   -23.1015 -23.0737 -23.0560 -23.0515 -23.0373 -23.0178 -22.9985 -22.9605
   -19.5728 -19.5386 -19.4046 -19.4016 -19.3883 -19.3238 -19.2680 -19.2224
    -9.0434  -9.0187  -8.9718  -8.8978  -8.8474  -8.7202  -8.6898  -8.6250
    -8.6088  -8.5746  -8.5652  -8.5030  -8.1028  -8.0542  -8.0379  -8.0242
    -8.0004  -7.9790  -7.9023  -7.8723  -7.8590  -7.8192  -7.7958  -7.6931
    -3.1961  -3.1796  -3.1626  -3.1074  -3.0955  -3.0745  -3.0062  -2.9996
    -2.9843  -2.9585  -2.9501  -2.9452  -2.9379  -2.9187  -2.9149  -2.8897
    -2.8654  -2.8437  -2.8203  -2.8037  -2.7839  -2.7749  -2.7561  -2.7371
     2.9001   2.9029   2.9638   3.0092   3.1687   3.2494   3.3650   3.3942
     3.5009   3.5494   3.5987   3.8252   3.8967   3.9125   4.0281   4.1656
     4.3145   4.4387   4.7253   4.8914   4.9102   4.9417   4.9768   5.0274
     5.0537   5.1008   5.2755   5.3303   5.3551   5.4051   5.4317   5.4562
     5.4882   5.5071   5.5265   5.5577   5.7017   5.8167   5.8610   5.8821
     5.9073   6.2097   6.3129   6.3175   6.3711   6.3946   6.4667   6.5534
     6.6003   6.6277   6.7111   6.7309   6.7871   6.8054   6.8469   6.8585
     6.8821   6.9119   6.9180   6.9453   6.9962   7.0315   7.0825   7.1180
     7.1286   7.2211   7.6885   7.7248   7.7764   7.8188   7.8432   7.8899
     9.9560  10.0203  10.0824  10.1312  10.2408  10.4722  11.5494  11.6066
    11.6164  11.6392  11.6879  11.7172  11.8207  11.9465  12.0379  12.0724
    12.0940  12.1250  12.4623  12.6516  12.7294  12.7787  12.8137  12.8696
    13.2670  13.4561  13.4972  13.8450  14.0981  14.1210  14.7859  14.9658

          k = 0.0000 0.2500-0.5000 ( 28234 PWs)   bands (ev):

   -47.3145 -47.1507 -47.1460 -47.1362 -47.0568 -46.9728 -46.8985 -46.8642
   -23.4074 -23.3803 -23.3637 -23.2769 -23.2677 -23.2620 -23.2478 -23.2413
   -23.2336 -23.2247 -23.2157 -23.1903 -23.1851 -23.1502 -23.1198 -23.1133
   -23.1051 -23.0786 -23.0736 -23.0557 -23.0520 -23.0179 -22.9993 -22.9606
   -19.5721 -19.5392 -19.4035 -19.4008 -19.3901 -19.3236 -19.2681 -19.2226
    -9.0133  -8.9880  -8.8987  -8.8825  -8.7620  -8.7444  -8.5981  -8.5702
    -8.4754  -8.4685  -8.4211  -8.3967  -8.3759  -8.2778  -8.2578  -8.0741
    -8.0268  -8.0159  -8.0007  -7.8940  -7.8592  -7.8250  -7.7942  -7.6965
    -3.1691  -3.1597  -3.1467  -3.1256  -3.1029  -3.0861  -2.9973  -2.9914
    -2.9756  -2.9657  -2.9563  -2.9419  -2.9358  -2.9285  -2.9177  -2.8883
    -2.8707  -2.8637  -2.8189  -2.8012  -2.7976  -2.7751  -2.7579  -2.7405
     2.9171   2.9219   2.9998   3.0030   3.3516   3.3731   3.4528   3.5246
     4.0385   4.0686   4.1782   4.1878   4.2323   4.2601   4.2682   4.3453
     4.3783   4.4247   4.4730   4.5257   4.5804   4.6288   4.6393   4.6585
     4.8366   4.9156   4.9340   4.9506   5.1645   5.2269   5.2864   5.3665
     5.4032   5.4391   5.5422   5.6056   5.6476   5.6794   5.7136   5.7645
     5.9359   6.0647   6.0839   6.1083   6.4072   6.4252   6.4961   6.5083
     6.5795   6.6168   6.6853   6.7194   6.7452   6.7868   6.8328   6.8562
     6.8813   6.9106   6.9818   7.0418   7.1047   7.1291   7.2862   7.3785
     7.4022   7.4081   7.4354   7.4926   7.5243   7.5768   7.8178   7.8730
     9.9925  10.0838  10.7432  10.8467  10.9104  10.9246  10.9526  10.9633
    11.0048  11.3905  11.5710  11.6667  11.9926  12.0129  12.0587  12.0891
    12.1200  12.3013  12.3085  12.3441  12.4393  12.4898  12.7515  12.8366
    13.3377  13.5097  13.8673  14.0011  14.5512  14.6314  14.7822  15.0255

          k = 0.0000-0.5000-0.5000 ( 28276 PWs)   bands (ev):

   -47.3145 -47.1506 -47.1461 -47.1362 -47.0568 -46.9728 -46.8984 -46.8642
   -23.4074 -23.3715 -23.3619 -23.2753 -23.2621 -23.2480 -23.2441 -23.2413
   -23.2340 -23.2299 -23.2218 -23.2153 -23.1850 -23.1334 -23.1148 -23.1092
   -23.1001 -23.0794 -23.0682 -23.0661 -23.0601 -23.0188 -23.0167 -22.9606
   -19.5720 -19.5391 -19.4027 -19.4014 -19.3903 -19.3239 -19.2677 -19.2231
    -8.9735  -8.9327  -8.8984  -8.8846  -8.5529  -8.5490  -8.5247  -8.5080
    -8.4322  -8.4138  -8.3858  -8.3700  -8.3368  -8.3057  -8.2867  -8.2659
    -8.2445  -8.2101  -8.1528  -8.0240  -7.8598  -7.8243  -7.7944  -7.6962
    -3.1623  -3.1538  -3.1449  -3.1278  -3.1116  -3.0796  -2.9874  -2.9715
    -2.9705  -2.9658  -2.9568  -2.9484  -2.9419  -2.9337  -2.9278  -2.8993
    -2.8821  -2.8735  -2.8247  -2.7914  -2.7845  -2.7753  -2.7638  -2.7413
     2.9394   2.9425   3.0123   3.0183   4.0435   4.0530   4.1083   4.1413
     4.1590   4.1932   4.2358   4.2530   4.2716   4.3108   4.3516   4.3740
     4.4186   4.4421   4.4518   4.4736   4.5121   4.5323   4.6028   4.6469
     4.6838   4.6901   4.7228   4.7620   4.9436   4.9680   5.0014   5.0275
     5.1608   5.1654   5.2489   5.4213   5.4609   5.5038   5.5296   5.6097
     5.8284   5.8553   5.8767   5.9403   6.4111   6.4329   6.4616   6.5024
     6.6344   6.6626   6.6886   6.7359   6.7387   6.7497   6.7948   6.8636
     7.0642   7.1253   7.1706   7.2009   7.2569   7.2998   7.3241   7.3421
     7.3540   7.3746   7.4160   7.4457   7.5275   7.5560   7.5895   7.6585
    10.6495  10.7006  10.7782  10.8534  10.9224  10.9392  10.9969  11.0211
    11.3294  11.3915  11.4401  11.4536  11.5190  11.6253  11.7811  11.8119
    12.2856  12.2980  12.3060  12.3759  12.4112  12.4416  12.4582  12.5240
    13.6123  13.8446  13.8687  13.8988  15.4501  15.5156  15.6390  15.6748

          k = 0.2500 0.2500 0.2500 ( 28324 PWs)   bands (ev):

   -47.3145 -47.1507 -47.1460 -47.1362 -47.0568 -46.9728 -46.8985 -46.8642
   -23.4168 -23.3800 -23.3557 -23.2731 -23.2666 -23.2588 -23.2520 -23.2425
   -23.2322 -23.2317 -23.1942 -23.1917 -23.1801 -23.1522 -23.1401 -23.1359
   -23.1015 -23.0832 -23.0561 -23.0518 -23.0374 -23.0243 -22.9985 -22.9663
   -19.5726 -19.5385 -19.4041 -19.4020 -19.3882 -19.3241 -19.2681 -19.2225
    -8.9831  -8.9437  -8.8981  -8.8778  -8.7440  -8.7246  -8.6970  -8.5914
    -8.5812  -8.5595  -8.5457  -8.4997  -8.1070  -8.0652  -8.0474  -8.0275
    -8.0054  -7.9902  -7.9794  -7.9514  -7.9265  -7.8976  -7.8657  -7.8118
    -3.1882  -3.1732  -3.1568  -3.1056  -3.0958  -3.0761  -3.0118  -2.9932
    -2.9768  -2.9650  -2.9577  -2.9551  -2.9417  -2.9249  -2.9086  -2.8943
    -2.8635  -2.8461  -2.8338  -2.7983  -2.7786  -2.7690  -2.7601  -2.7376
     3.1493   3.1997   3.2211   3.2321   3.2625   3.3621   3.3898   3.4143
     3.5578   3.6069   3.6397   3.8826   4.0285   4.0354   4.0790   4.2721
     4.4095   4.4213   4.8115   4.8474   4.8814   4.9532   4.9725   5.0250
     5.0366   5.0768   5.1013   5.1239   5.1921   5.2004   5.2716   5.3545
     5.3897   5.4314   5.4779   5.4900   5.5262   5.5692   5.5929   5.8553
     5.8931   5.9370   6.1030   6.1488   6.3034   6.3330   6.3945   6.4577
     6.6567   6.7027   6.7424   6.7833   6.8312   6.8527   6.8626   6.8990
     6.9143   6.9508   6.9718   6.9912   7.0220   7.0350   7.0502   7.1012
     7.1240   7.1953   7.6628   7.6795   7.7177   7.7478   7.7657   7.8184
    10.1891  10.3005  10.3178  10.3739  10.4233  10.4761  11.6029  11.6198
    11.6799  11.6935  11.7154  11.7650  11.7776  11.8101  11.8272  11.8419
    11.8573  11.9582  12.4535  12.5265  12.5642  12.5843  12.6482  12.6793
    13.8206  13.8508  13.9623  13.9965  14.1182  14.7410  14.8047  14.8953

          k = 0.2500 0.2500-0.5000 ( 28270 PWs)   bands (ev):

   -47.3145 -47.1507 -47.1460 -47.1362 -47.0568 -46.9728 -46.8985 -46.8642
   -23.4074 -23.3799 -23.3556 -23.2731 -23.2655 -23.2619 -23.2427 -23.2336
   -23.2319 -23.2247 -23.2157 -23.1941 -23.1903 -23.1503 -23.1198 -23.1133
   -23.1051 -23.0831 -23.0786 -23.0558 -23.0524 -23.0244 -22.9994 -22.9663
   -19.5720 -19.5391 -19.4033 -19.4008 -19.3900 -19.3239 -19.2682 -19.2227
    -8.9311  -8.9090  -8.8011  -8.7792  -8.7631  -8.7415  -8.5689  -8.5434
    -8.4783  -8.4701  -8.4224  -8.3979  -8.3751  -8.2799  -8.2625  -8.0842
    -8.0325  -8.0180  -8.0120  -7.9780  -7.9497  -7.9247  -7.8894  -7.8195
    -3.1689  -3.1592  -3.1441  -3.1262  -3.1022  -3.0911  -3.0086  -2.9853
    -2.9808  -2.9642  -2.9601  -2.9524  -2.9434  -2.9332  -2.9123  -2.8875
    -2.8692  -2.8598  -2.8288  -2.7935  -2.7856  -2.7678  -2.7523  -2.7405
     3.2162   3.2306   3.3275   3.3528   3.3839   3.4007   3.5335   3.5820
     4.1199   4.1475   4.1960   4.2172   4.2468   4.3010   4.3278   4.3579
     4.4234   4.4414   4.4949   4.5682   4.6217   4.6429   4.6892   4.7617
     4.8205   4.8974   4.9871   4.9987   5.0721   5.0855   5.1264   5.1709
     5.2662   5.3199   5.3331   5.3452   5.4069   5.4361   5.6515   5.6962
     5.7291   5.7478   5.9522   5.9824   6.0500   6.0769   6.3003   6.3435
     6.7848   6.8032   6.8159   6.8419   6.8702   6.8871   6.8998   6.9197
     6.9324   6.9513   7.0134   7.0493   7.0862   7.0968   7.2836   7.3549
     7.3822   7.3931   7.4122   7.4650   7.5280   7.5688   7.7394   7.7955
    10.2913  10.3791  10.8999  10.9281  10.9521  10.9880  11.0141  11.0903
    11.1263  11.3910  11.6336  11.7581  11.7793  11.8319  12.0082  12.0116
    12.0422  12.0777  12.1137  12.1823  12.2419  12.3163  12.5468  12.6220
    13.8448  14.0100  14.4713  14.5758  14.6470  14.6721  14.9347  15.1422

          k = 0.2500-0.5000-0.5000 ( 28280 PWs)   bands (ev):

   -47.3145 -47.1506 -47.1461 -47.1362 -47.0568 -46.9728 -46.8985 -46.8642
   -23.4073 -23.3701 -23.3549 -23.2693 -23.2620 -23.2441 -23.2429 -23.2339
   -23.2320 -23.2299 -23.2217 -23.2153 -23.1941 -23.1334 -23.1148 -23.1093
   -23.1002 -23.0855 -23.0719 -23.0662 -23.0601 -23.0242 -23.0179 -22.9664
   -19.5719 -19.5390 -19.4028 -19.4012 -19.3901 -19.3242 -19.2678 -19.2232
    -8.8686  -8.8272  -8.7972  -8.7903  -8.5563  -8.5483  -8.5272  -8.5132
    -8.4302  -8.4118  -8.3827  -8.3676  -8.3369  -8.3045  -8.2863  -8.2662
    -8.2484  -8.2145  -8.1552  -8.0311  -7.9870  -7.9496  -7.9216  -7.8194
    -3.1661  -3.1562  -3.1440  -3.1277  -3.1096  -3.0879  -3.0066  -2.9923
    -2.9819  -2.9689  -2.9672  -2.9487  -2.9408  -2.9373  -2.9140  -2.9022
    -2.8849  -2.8579  -2.8118  -2.7847  -2.7728  -2.7669  -2.7535  -2.7367
     3.3117   3.3196   3.3826   3.3856   4.0544   4.0663   4.1236   4.1492
     4.1740   4.2258   4.2617   4.2697   4.3113   4.3217   4.3516   4.3712
     4.4124   4.4448   4.4563   4.4992   4.5941   4.6383   4.6646   4.7319
     4.7561   4.7612   4.7948   4.8230   4.9235   4.9455   4.9901   5.0020
     5.1202   5.1321   5.1800   5.2009   5.2245   5.2541   5.3178   5.4352
     5.5219   5.5497   5.5657   5.6140   5.9745   6.0285   6.0635   6.1124
     6.8316   6.8624   6.8880   6.9013   6.9222   6.9396   6.9561   6.9802
     7.0749   7.1349   7.1760   7.2022   7.2565   7.2784   7.3054   7.3342
     7.3475   7.3598   7.4006   7.4377   7.5157   7.5343   7.5664   7.6464
    10.8249  10.8758  10.9469  11.0243  11.0777  11.0941  11.1483  11.1727
    11.3485  11.3849  11.4429  11.4530  11.5289  11.6125  11.7768  11.8083
    12.0321  12.0441  12.0572  12.1288  12.1583  12.1809  12.2114  12.2775
    14.2496  14.5027  14.5272  14.5656  15.4553  15.5263  15.6451  15.6817

          k =-0.5000-0.5000-0.5000 ( 28480 PWs)   bands (ev):

   -47.3146 -47.1507 -47.1461 -47.1363 -47.0568 -46.9728 -46.8985 -46.8643
   -23.4073 -23.3695 -23.3459 -23.2630 -23.2619 -23.2440 -23.2376 -23.2338
   -23.2299 -23.2217 -23.2212 -23.2152 -23.2042 -23.1334 -23.1148 -23.1093
   -23.1003 -23.0954 -23.0733 -23.0662 -23.0601 -23.0310 -23.0180 -22.9724
   -19.5717 -19.5389 -19.4028 -19.4010 -19.3900 -19.3245 -19.2678 -19.2234
    -8.7120  -8.6717  -8.6588  -8.6415  -8.5731  -8.5502  -8.5451  -8.5392
    -8.4277  -8.4024  -8.3704  -8.3589  -8.3389  -8.3041  -8.2863  -8.2775
    -8.2541  -8.2274  -8.1685  -8.1472  -8.1152  -8.0880  -8.0335  -7.9621
    -3.1710  -3.1569  -3.1429  -3.1280  -3.1082  -3.0958  -3.0193  -3.0064
    -2.9906  -2.9754  -2.9646  -2.9577  -2.9541  -2.9412  -2.9072  -2.8940
    -2.8887  -2.8424  -2.7988  -2.7718  -2.7678  -2.7592  -2.7460  -2.7330
     4.0125   4.0183   4.0371   4.0704   4.0910   4.1315   4.1456   4.1603
     4.1920   4.2224   4.2680   4.2844   4.2932   4.3330   4.3477   4.3640
     4.4085   4.4349   4.4466   4.4626   4.4884   4.5038   4.5188   4.5847
     4.8493   4.8714   4.8912   4.9162   4.9605   4.9801   5.0065   5.0225
     5.0505   5.0862   5.1069   5.1131   5.1646   5.1740   5.1926   5.2156
     5.2358   5.2610   5.2622   5.3045   5.3268   5.3821   5.3982   5.5075
     7.0203   7.0270   7.0575   7.0601   7.0715   7.0934   7.1034   7.1317
     7.1491   7.1842   7.1962   7.2081   7.2158   7.2451   7.2999   7.3206
     7.3521   7.3672   7.3892   7.4186   7.4801   7.4906   7.5344   7.6238
    11.1430  11.2419  11.3058  11.3383  11.3646  11.3822  11.4221  11.4319
    11.4520  11.4703  11.4948  11.5029  11.5113  11.5749  11.6025  11.6315
    11.6586  11.6612  11.7003  11.7347  11.7799  11.8089  11.8409  11.8971
    15.1244  15.4472  15.5713  15.5997  15.6220  15.6509  15.6984  15.7429

          k = 0.2500 0.0000 0.0000 ( 28242 PWs)   bands (ev):

   -47.3145 -47.1508 -47.1460 -47.1362 -47.0568 -46.9728 -46.8985 -46.8642
   -23.4252 -23.3889 -23.3560 -23.2867 -23.2759 -23.2674 -23.2448 -23.2406
   -23.2318 -23.2225 -23.1943 -23.1754 -23.1658 -23.1637 -23.1550 -23.1499
   -23.1138 -23.0829 -23.0417 -23.0376 -23.0246 -23.0226 -22.9849 -22.9661
   -19.5734 -19.5380 -19.4056 -19.4022 -19.3867 -19.3241 -19.2683 -19.2219
    -9.0907  -9.0537  -8.9951  -8.9831  -8.8331  -8.8025  -8.7168  -8.6777
    -8.6295  -8.6120  -8.6041  -8.5710  -8.0109  -7.9548  -7.9535  -7.9372
    -7.9027  -7.8840  -7.8720  -7.8565  -7.8454  -7.8246  -7.7586  -7.7268
    -3.2098  -3.1984  -3.1868  -3.0951  -3.0815  -3.0740  -3.0062  -2.9958
    -2.9850  -2.9590  -2.9475  -2.9426  -2.9367  -2.9209  -2.9147  -2.8840
    -2.8634  -2.8583  -2.8195  -2.7895  -2.7775  -2.7667  -2.7503  -2.7339
     2.7653   2.8866   2.9180   2.9376   3.0282   3.0348   3.0729   3.2227
     3.3856   3.4575   3.5322   3.7188   3.7647   3.8250   3.8386   4.1338
     4.2906   4.3139   4.8761   4.9051   4.9617   4.9983   5.1868   5.2335
     5.2500   5.2717   5.3518   5.3778   5.4228   5.4466   5.4780   5.5051
     5.5710   5.6928   5.7126   5.7979   5.8156   5.8795   5.9243   5.9398
     6.0601   6.2360   6.2408   6.4067   6.4432   6.4744   6.5080   6.5439
     6.5532   6.5809   6.6760   6.6940   6.8066   6.8236   6.8561   6.8639
     6.8879   6.9039   6.9304   6.9375   6.9724   6.9907   7.0133   7.1198
     7.1568   7.1952   7.7952   7.8074   7.8594   7.8658   7.8978   7.9282
     9.5016   9.9344  10.0079  10.0509  10.1052  10.1536  11.6238  11.6484
    11.6779  11.7174  11.8316  11.9065  11.9790  12.0023  12.0182  12.0520
    12.1086  12.1686  12.7287  12.7615  12.8135  12.8590  12.8784  12.9613
    13.0162  13.2654  13.3940  13.4687  13.6324  14.1440  14.2570  14.7135

          k = 0.0000 0.2500 0.0000 ( 28242 PWs)   bands (ev):

   -47.3145 -47.1507 -47.1461 -47.1362 -47.0568 -46.9728 -46.8984 -46.8642
   -23.4252 -23.3804 -23.3638 -23.2771 -23.2769 -23.2663 -23.2489 -23.2419
   -23.2411 -23.2322 -23.1912 -23.1852 -23.1644 -23.1585 -23.1537 -23.1437
   -23.1013 -23.0737 -23.0539 -23.0384 -23.0251 -23.0176 -22.9973 -22.9605
   -19.5734 -19.5380 -19.4059 -19.4020 -19.3869 -19.3240 -19.2678 -19.2222
    -9.0857  -9.0781  -8.9928  -8.9794  -8.8413  -8.8297  -8.6771  -8.6736
    -8.6605  -8.5988  -8.5793  -8.5239  -8.0513  -8.0232  -7.9990  -7.9530
    -7.8985  -7.8859  -7.8682  -7.8474  -7.8182  -7.7993  -7.7427  -7.6863
    -3.2068  -3.1972  -3.1840  -3.0953  -3.0813  -3.0728  -3.0144  -3.0062
    -2.9985  -2.9490  -2.9481  -2.9419  -2.9364  -2.9191  -2.9124  -2.8816
    -2.8578  -2.8470  -2.8133  -2.7928  -2.7811  -2.7719  -2.7526  -2.7357
     2.7816   2.8228   2.9254   2.9450   2.9869   3.0105   3.0850   3.2460
     3.3901   3.4879   3.5279   3.7353   3.7435   3.8366   3.8600   4.1185
     4.3065   4.3286   4.8302   4.8585   4.9291   4.9573   5.1788   5.2403
     5.2909   5.3133   5.3618   5.3806   5.4052   5.4742   5.5004   5.5298
     5.5490   5.7062   5.7329   5.7695   5.7963   5.8895   5.9224   5.9677
     6.0942   6.2132   6.2776   6.4092   6.4456   6.4976   6.5145   6.5293
     6.5679   6.5892   6.6086   6.6457   6.7034   6.7465   6.7932   6.8266
     6.8628   6.8793   6.9149   6.9992   7.0536   7.0845   7.0967   7.1514
     7.2301   7.2625   7.7846   7.8039   7.8097   7.8628   7.9125   7.9648
     9.6105   9.7390   9.9275   9.9947  10.1125  10.2793  11.5456  11.5634
    11.6551  11.7441  11.9103  11.9469  11.9718  11.9847  11.9979  12.0506
    12.1242  12.2029  12.6741  12.7307  12.8332  12.8677  12.9640  12.9804
    13.0391  13.1049  13.4285  13.4672  13.7029  14.1472  14.1812  14.7148

          k =-0.5000 0.0000 0.0000 ( 28326 PWs)   bands (ev):

   -47.3145 -47.1508 -47.1460 -47.1362 -47.0568 -46.9728 -46.8985 -46.8642
   -23.4252 -23.3888 -23.3465 -23.2865 -23.2756 -23.2614 -23.2433 -23.2367
   -23.2225 -23.2210 -23.2043 -23.1754 -23.1659 -23.1637 -23.1551 -23.1499
   -23.1139 -23.0941 -23.0418 -23.0378 -23.0313 -23.0228 -22.9850 -22.9721
   -19.5733 -19.5380 -19.4038 -19.4037 -19.3866 -19.3244 -19.2684 -19.2220
    -9.0712  -9.0283  -8.9138  -8.8919  -8.8630  -8.8404  -8.6761  -8.6094
    -8.5559  -8.5135  -8.4989  -8.4727  -8.1926  -8.1561  -8.1259  -7.9983
    -7.9461  -7.8917  -7.8898  -7.8719  -7.8657  -7.8402  -7.7646  -7.7325
    -3.1908  -3.1786  -3.1594  -3.0925  -3.0783  -3.0703  -2.9988  -2.9938
    -2.9881  -2.9677  -2.9634  -2.9540  -2.9329  -2.9201  -2.9107  -2.8901
    -2.8736  -2.8664  -2.8325  -2.7983  -2.7807  -2.7719  -2.7564  -2.7389
     2.7674   2.8919   2.9408   2.9674   3.0455   3.0837   3.1629   3.2389
     3.9076   3.9758   4.1257   4.1468   4.1593   4.1808   4.2341   4.2871
     4.4095   4.4495   4.4968   4.5035   4.5735   4.6104   4.7091   4.7247
     4.7921   4.8817   5.2345   5.3212   5.3446   5.3561   5.3910   5.4057
     5.5306   5.5669   5.6068   5.6450   5.7119   5.7454   6.0539   6.0873
     6.2383   6.2750   6.3175   6.3442   6.3650   6.4245   6.4408   6.4832
     6.5006   6.5609   6.5928   6.6017   6.6464   6.6770   6.7272   6.7645
     6.7817   6.8825   6.9644   7.1241   7.1413   7.1439   7.2932   7.3088
     7.3372   7.3484   7.5364   7.5412   7.6189   7.6335   7.9025   7.9221
     9.5050   9.9551  10.6842  10.7024  10.7809  10.8383  11.0013  11.0285
    11.0782  11.1002  11.8276  11.9052  12.0060  12.1340  12.1762  12.2132
    12.2860  12.3118  12.4201  12.4637  12.5044  12.5862  12.8591  12.9657
    13.0084  13.2701  13.8044  13.8505  14.0397  14.1682  14.4102  14.7110

          k = 0.0000-0.5000 0.0000 ( 28326 PWs)   bands (ev):

   -47.3145 -47.1506 -47.1462 -47.1362 -47.0568 -46.9728 -46.8984 -46.8642
   -23.4252 -23.3716 -23.3621 -23.2771 -23.2746 -23.2491 -23.2434 -23.2418
   -23.2411 -23.2306 -23.2293 -23.1851 -23.1646 -23.1553 -23.1537 -23.1254
   -23.0833 -23.0800 -23.0688 -23.0356 -23.0341 -23.0174 -23.0108 -22.9606
   -19.5732 -19.5378 -19.4050 -19.4027 -19.3871 -19.3243 -19.2674 -19.2227
    -9.0653  -9.0608  -8.9092  -8.8910  -8.8831  -8.8664  -8.6722  -8.6606
    -8.4711  -8.3814  -8.3560  -8.3496  -8.3329  -8.2967  -8.2605  -8.1442
    -7.9465  -7.8916  -7.8610  -7.8448  -7.8268  -7.7949  -7.7484  -7.6897
    -3.1854  -3.1719  -3.1514  -3.0928  -3.0779  -3.0685  -3.0309  -3.0253
    -3.0053  -2.9492  -2.9477  -2.9428  -2.9368  -2.9220  -2.9164  -2.8800
    -2.8574  -2.8416  -2.8275  -2.8028  -2.7934  -2.7794  -2.7599  -2.7425
     2.7871   2.8228   2.9661   2.9910   2.9935   3.0056   3.1876   3.2543
     3.9120   3.9420   4.1278   4.1491   4.1775   4.2375   4.3335   4.3851
     4.4131   4.4252   4.4534   4.4609   4.4999   4.5841   4.6274   4.6925
     4.8061   4.8302   5.2328   5.2732   5.3061   5.3328   5.5050   5.5216
     5.5888   5.6053   5.6203   5.6636   5.6813   5.7062   6.1034   6.1666
     6.1719   6.2175   6.3568   6.3679   6.3849   6.4006   6.4345   6.4839
     6.5173   6.5663   6.5857   6.6056   6.6246   6.6864   6.6921   6.7218
     6.7463   6.7821   7.0408   7.1410   7.1857   7.2321   7.3596   7.3725
     7.4065   7.4553   7.4815   7.5043   7.5394   7.5537   7.9145   7.9620
     9.6233   9.7298  10.6818  10.7308  10.8289  10.8777  10.8969  10.9476
    11.0098  11.0421  11.9124  11.9564  11.9839  11.9889  12.2425  12.2838
    12.2963  12.3530  12.4221  12.4336  12.4684  12.5245  12.9747  12.9925
    13.0189  13.1079  13.8910  13.9509  14.0059  14.0164  14.4964  14.6150

          k = 0.0000-0.2500 0.2500 ( 28303 PWs)   bands (ev):

   -47.3145 -47.1507 -47.1460 -47.1362 -47.0568 -46.9728 -46.8985 -46.8642
   -23.4168 -23.3804 -23.3638 -23.2770 -23.2687 -23.2590 -23.2527 -23.2471
   -23.2412 -23.2321 -23.1918 -23.1852 -23.1801 -23.1522 -23.1398 -23.1359
   -23.1019 -23.0737 -23.0561 -23.0510 -23.0373 -23.0178 -22.9986 -22.9605
   -19.5728 -19.5386 -19.4046 -19.4016 -19.3883 -19.3238 -19.2680 -19.2224
    -9.0436  -9.0188  -8.9715  -8.8979  -8.8481  -8.7197  -8.6894  -8.6241
    -8.6098  -8.5754  -8.5662  -8.5004  -8.1036  -8.0482  -8.0340  -8.0207
    -8.0091  -7.9830  -7.9168  -7.8651  -7.8540  -7.8174  -7.7960  -7.6930
    -3.2018  -3.1804  -3.1516  -3.1086  -3.0935  -3.0733  -3.0150  -3.0047
    -2.9834  -2.9599  -2.9502  -2.9416  -2.9365  -2.9179  -2.9129  -2.8820
    -2.8669  -2.8560  -2.8169  -2.8042  -2.7817  -2.7720  -2.7559  -2.7390
     2.8997   2.9021   2.9638   3.0090   3.1702   3.2875   3.3650   3.3943
     3.4898   3.5370   3.5977   3.8277   3.8916   3.9083   3.9930   4.1799
     4.3017   4.4063   4.7423   4.8922   4.9151   4.9420   4.9973   5.0032
     5.0600   5.0918   5.2945   5.3316   5.3521   5.3879   5.4415   5.4661
     5.4893   5.5231   5.5515   5.5756   5.6997   5.8269   5.8708   5.9130
     5.9233   6.1853   6.2971   6.3162   6.3444   6.4262   6.4664   6.5394
     6.5864   6.6126   6.6775   6.7303   6.7890   6.8206   6.8539   6.8620
     6.8757   6.8971   6.9255   6.9439   6.9857   7.0507   7.0861   7.0995
     7.1473   7.1945   7.6881   7.7195   7.7742   7.8173   7.8436   7.8921
     9.9383  10.0221  10.0897  10.1397  10.2414  10.5355  11.5561  11.5853
    11.6150  11.6354  11.6958  11.7243  11.7752  11.9485  12.0421  12.0620
    12.0975  12.1290  12.4618  12.6498  12.7370  12.7772  12.7928  12.8850
    13.2674  13.4573  13.5040  13.8464  14.0651  14.1256  14.8004  14.9124

          k = 0.2500 0.0000-0.2500 ( 28303 PWs)   bands (ev):

   -47.3145 -47.1508 -47.1460 -47.1362 -47.0568 -46.9728 -46.8985 -46.8642
   -23.4168 -23.3889 -23.3559 -23.2864 -23.2685 -23.2595 -23.2520 -23.2424
   -23.2318 -23.2225 -23.1942 -23.1823 -23.1731 -23.1641 -23.1412 -23.1382
   -23.1132 -23.0829 -23.0549 -23.0414 -23.0342 -23.0244 -22.9854 -22.9662
   -19.5728 -19.5387 -19.4046 -19.4016 -19.3881 -19.3239 -19.2685 -19.2221
    -9.0380  -9.0027  -8.9606  -8.9156  -8.8146  -8.7332  -8.7168  -8.6293
    -8.6065  -8.5882  -8.5731  -8.5358  -8.1002  -8.0368  -8.0174  -7.9908
    -7.9572  -7.9228  -7.8963  -7.8836  -7.8682  -7.8605  -7.8083  -7.7527
    -3.2025  -3.1750  -3.1636  -3.1064  -3.0941  -3.0770  -3.0033  -2.9957
    -2.9808  -2.9602  -2.9552  -2.9411  -2.9378  -2.9253  -2.9182  -2.8783
    -2.8681  -2.8491  -2.8201  -2.8019  -2.7929  -2.7715  -2.7487  -2.7389
     2.8959   2.9362   2.9951   3.0390   3.1933   3.2032   3.3773   3.3962
     3.4803   3.4920   3.6208   3.8349   3.8961   3.9158   3.9856   4.1726
     4.3145   4.4025   4.7739   4.9175   4.9578   4.9707   5.0119   5.0245
     5.0608   5.0870   5.2436   5.3002   5.3241   5.3619   5.4191   5.4560
     5.4664   5.5006   5.5605   5.5837   5.6799   5.8216   5.8787   5.8865
     5.9402   6.1565   6.2776   6.3111   6.3495   6.4460   6.5088   6.5329
     6.5950   6.6583   6.7202   6.7889   6.8150   6.8456   6.8541   6.8715
     6.8946   6.9144   6.9300   6.9488   6.9606   6.9832   7.0221   7.0365
     7.0896   7.1406   7.7026   7.7658   7.7806   7.8005   7.8251   7.8819
     9.9185  10.0196  10.1202  10.2477  10.3142  10.3729  11.5433  11.6299
    11.6833  11.7276  11.7546  11.7772  11.7982  11.8130  11.9746  11.9980
    12.0882  12.1527  12.5451  12.6111  12.6903  12.7512  12.8495  12.8584
    13.2532  13.4267  13.5775  13.8858  13.9919  14.1979  14.8103  14.9647

          k =-0.2500 0.0000-0.2500 ( 28303 PWs)   bands (ev):

   -47.3145 -47.1508 -47.1460 -47.1362 -47.0568 -46.9728 -46.8985 -46.8642
   -23.4168 -23.3889 -23.3559 -23.2864 -23.2685 -23.2595 -23.2519 -23.2424
   -23.2318 -23.2225 -23.1942 -23.1823 -23.1731 -23.1641 -23.1412 -23.1382
   -23.1132 -23.0829 -23.0550 -23.0414 -23.0342 -23.0244 -22.9854 -22.9662
   -19.5728 -19.5386 -19.4046 -19.4016 -19.3881 -19.3239 -19.2685 -19.2221
    -9.0372  -9.0046  -8.9596  -8.9161  -8.8146  -8.7332  -8.7154  -8.6288
    -8.6065  -8.5864  -8.5745  -8.5369  -8.1028  -8.0406  -8.0140  -7.9874
    -7.9581  -7.9285  -7.8958  -7.8771  -7.8661  -7.8594  -7.8129  -7.7528
    -3.2026  -3.1788  -3.1618  -3.1039  -3.0937  -3.0752  -3.0027  -2.9944
    -2.9821  -2.9599  -2.9554  -2.9429  -2.9373  -2.9258  -2.9219  -2.8840
    -2.8622  -2.8493  -2.8181  -2.8020  -2.7913  -2.7669  -2.7560  -2.7375
     2.8956   2.9360   2.9953   3.0388   3.1982   3.2205   3.3699   3.3974
     3.4679   3.4934   3.6196   3.8153   3.8888   3.9169   3.9938   4.1862
     4.3033   4.3984   4.7830   4.9074   4.9537   4.9770   4.9947   5.0203
     5.0664   5.1049   5.2516   5.3115   5.3383   5.3709   5.4210   5.4313
     5.4675   5.5021   5.5547   5.5916   5.6852   5.8310   5.8640   5.8950
     5.9194   6.1946   6.2943   6.3049   6.3777   6.4596   6.4817   6.5309
     6.5880   6.6456   6.7052   6.7824   6.8024   6.8103   6.8366   6.8748
     6.8835   6.9095   6.9138   6.9415   6.9650   7.0002   7.0292   7.0441
     7.0845   7.1921   7.7019   7.7612   7.7748   7.7982   7.8267   7.8824
     9.8941  10.0548  10.1290  10.2410  10.3128  10.3965  11.5309  11.6370
    11.6793  11.7077  11.7346  11.7795  11.8048  11.8227  11.9736  11.9976
    12.0855  12.1589  12.5480  12.6116  12.6886  12.7518  12.8243  12.8839
    13.2564  13.4257  13.5772  13.8802  13.9801  14.2012  14.8026  14.8634

          k = 0.2500-0.2500 0.0000 ( 28303 PWs)   bands (ev):

   -47.3145 -47.1507 -47.1461 -47.1362 -47.0568 -46.9728 -46.8985 -46.8642
   -23.4252 -23.3800 -23.3557 -23.2770 -23.2729 -23.2642 -23.2449 -23.2407
   -23.2322 -23.2317 -23.1942 -23.1912 -23.1644 -23.1586 -23.1537 -23.1438
   -23.1014 -23.0833 -23.0542 -23.0384 -23.0257 -23.0236 -22.9974 -22.9663
   -19.5733 -19.5379 -19.4052 -19.4025 -19.3868 -19.3243 -19.2679 -19.2223
    -9.0473  -9.0199  -8.9604  -8.9086  -8.8393  -8.7314  -8.6871  -8.6293
    -8.6207  -8.5878  -8.5559  -8.5136  -8.0506  -8.0361  -8.0116  -7.9906
    -7.9512  -7.9493  -7.9343  -7.8946  -7.8863  -7.8450  -7.8243  -7.7336
    -3.2049  -3.1825  -3.1605  -3.0945  -3.0797  -3.0728  -3.0170  -3.0013
    -2.9891  -2.9654  -2.9566  -2.9456  -2.9373  -2.9195  -2.9118  -2.8849
    -2.8588  -2.8553  -2.8153  -2.7986  -2.7848  -2.7757  -2.7573  -2.7370
     2.8396   2.9278   2.9679   3.0618   3.2038   3.2281   3.3761   3.4051
     3.4854   3.5135   3.6198   3.8311   3.8803   3.9206   4.0043   4.1638
     4.3087   4.4269   4.7563   4.8970   4.9413   4.9719   4.9844   5.0327
     5.0710   5.1201   5.2481   5.2963   5.3286   5.3579   5.3957   5.4502
     5.4847   5.5269   5.5691   5.5879   5.7038   5.8234   5.8484   5.9001
     5.9406   6.2220   6.2550   6.3165   6.3974   6.4310   6.4874   6.5220
     6.5505   6.6273   6.6895   6.7627   6.7993   6.8397   6.8528   6.8802
     6.8964   6.9096   6.9271   6.9400   6.9766   7.0032   7.0227   7.0620
     7.1390   7.1590   7.7149   7.7626   7.7728   7.7945   7.8257   7.8747
     9.8854  10.0318  10.0950  10.2512  10.2977  10.4080  11.5366  11.6192
    11.6520  11.6677  11.7629  11.7820  11.8030  11.8344  11.9667  12.0210
    12.0711  12.2025  12.5168  12.6228  12.6835  12.7752  12.8288  12.8792
    13.2632  13.4388  13.5551  13.8676  14.0276  14.1381  14.7937  14.9689

          k =-0.2500-0.2500 0.0000 ( 28303 PWs)   bands (ev):

   -47.3145 -47.1507 -47.1461 -47.1362 -47.0568 -46.9728 -46.8985 -46.8642
   -23.4252 -23.3800 -23.3557 -23.2770 -23.2728 -23.2644 -23.2449 -23.2407
   -23.2322 -23.2317 -23.1942 -23.1912 -23.1644 -23.1586 -23.1537 -23.1438
   -23.1013 -23.0832 -23.0543 -23.0384 -23.0257 -23.0236 -22.9973 -22.9663
   -19.5733 -19.5379 -19.4052 -19.4025 -19.3868 -19.3243 -19.2679 -19.2223
    -9.0479  -9.0198  -8.9595  -8.9088  -8.8402  -8.7315  -8.6865  -8.6279
    -8.6217  -8.5878  -8.5556  -8.5137  -8.0534  -8.0291  -8.0169  -7.9906
    -7.9536  -7.9485  -7.9333  -7.8946  -7.8863  -7.8446  -7.8232  -7.7338
    -3.1939  -3.1837  -3.1749  -3.0948  -3.0805  -3.0716  -3.0132  -2.9983
    -2.9892  -2.9697  -2.9559  -2.9451  -2.9338  -2.9171  -2.9094  -2.8849
    -2.8649  -2.8555  -2.8238  -2.7900  -2.7847  -2.7743  -2.7571  -2.7395
     2.8390   2.9278   2.9682   3.0620   3.2155   3.2436   3.3713   3.4005
     3.4795   3.5102   3.6095   3.8193   3.8909   3.9063   4.0021   4.1678
     4.3010   4.4276   4.7651   4.9084   4.9473   4.9638   4.9734   5.0284
     5.0670   5.0980   5.2582   5.3182   5.3479   5.3811   5.4233   5.4400
     5.4837   5.5126   5.5712   5.6038   5.7070   5.8112   5.8625   5.9200
     5.9460   6.1673   6.2399   6.3214   6.3486   6.4313   6.4611   6.5512
     6.5884   6.6214   6.6676   6.7739   6.8051   6.8182   6.8550   6.8732
     6.8950   6.9187   6.9396   6.9607   6.9855   6.9901   7.0309   7.0596
     7.1136   7.1628   7.7131   7.7583   7.7738   7.7958   7.8228   7.8797
     9.9005  10.0333  10.0935  10.2687  10.2928  10.4133  11.5306  11.6129
    11.6691  11.6831  11.7387  11.7637  11.7928  11.8438  11.9658  12.0203
    12.0712  12.2032  12.5165  12.6239  12.6819  12.7745  12.8373  12.8717
    13.2663  13.4409  13.5514  13.8553  14.0195  14.1420  14.8049  14.9668

          k = 0.2500 0.0000 0.5000 ( 28234 PWs)   bands (ev):

   -47.3145 -47.1508 -47.1459 -47.1362 -47.0568 -46.9728 -46.8985 -46.8642
   -23.4074 -23.3888 -23.3558 -23.2864 -23.2680 -23.2620 -23.2426 -23.2319
   -23.2267 -23.2227 -23.2146 -23.1942 -23.1741 -23.1634 -23.1239 -23.1195
   -23.1061 -23.0829 -23.0818 -23.0547 -23.0386 -23.0245 -22.9859 -22.9662
   -19.5721 -19.5393 -19.4037 -19.4006 -19.3899 -19.3237 -19.2687 -19.2223
    -8.9978  -8.9841  -8.8797  -8.8465  -8.8023  -8.7735  -8.6149  -8.5942
    -8.4716  -8.4653  -8.4354  -8.4004  -8.3754  -8.2778  -8.2603  -8.0673
    -7.9913  -7.9574  -7.9243  -7.8881  -7.8710  -7.8643  -7.8212  -7.7559
    -3.1762  -3.1582  -3.1379  -3.1238  -3.1011  -3.0938  -2.9980  -2.9947
    -2.9777  -2.9640  -2.9539  -2.9489  -2.9379  -2.9304  -2.9213  -2.8757
    -2.8572  -2.8459  -2.8282  -2.8133  -2.8080  -2.7715  -2.7541  -2.7421
     2.9338   2.9344   3.0233   3.0392   3.3459   3.3580   3.4525   3.4734
     4.0258   4.0617   4.1338   4.2072   4.2296   4.2941   4.3088   4.3226
     4.3942   4.4227   4.4709   4.5037   4.5628   4.6124   4.6697   4.7148
     4.8089   4.8820   5.0071   5.0230   5.1618   5.2611   5.2652   5.3265
     5.3556   5.3804   5.5177   5.5673   5.6442   5.6917   5.7334   5.7671
     5.9713   6.0481   6.0772   6.1633   6.4119   6.4411   6.4600   6.4880
     6.6007   6.6111   6.6591   6.7191   6.8052   6.8259   6.8466   6.8669
     6.8961   6.9207   6.9670   7.0009   7.0150   7.0325   7.3147   7.3720
     7.3913   7.4107   7.4320   7.4613   7.5540   7.5744   7.8170   7.8748
    10.0251  10.1206  10.7507  10.7706  10.8127  10.9102  11.0129  11.0754
    11.1412  11.2739  11.6394  11.7157  11.9713  12.0465  12.0577  12.1002
    12.1667  12.2422  12.2712  12.3024  12.3399  12.5580  12.7597  12.8411
    13.3464  13.4716  13.9090  14.0615  14.4987  14.6647  14.7924  14.9562

          k =-0.5000-0.2500 0.0000 ( 28234 PWs)   bands (ev):

   -47.3145 -47.1507 -47.1461 -47.1362 -47.0568 -46.9728 -46.8984 -46.8642
   -23.4252 -23.3798 -23.3463 -23.2770 -23.2705 -23.2601 -23.2433 -23.2368
   -23.2321 -23.2210 -23.2043 -23.1912 -23.1644 -23.1586 -23.1538 -23.1438
   -23.1014 -23.0943 -23.0544 -23.0385 -23.0313 -23.0249 -22.9974 -22.9722
   -19.5731 -19.5378 -19.4040 -19.4034 -19.3867 -19.3246 -19.2680 -19.2225
    -9.0205  -8.9790  -8.9072  -8.8601  -8.7858  -8.7311  -8.6128  -8.5739
    -8.5421  -8.5098  -8.4911  -8.4531  -8.1943  -8.1783  -8.1268  -8.0382
    -8.0211  -8.0125  -7.9696  -7.9449  -7.8994  -7.8895  -7.8427  -7.7387
    -3.1859  -3.1662  -3.1585  -3.0939  -3.0772  -3.0714  -3.0147  -3.0058
    -2.9777  -2.9740  -2.9558  -2.9467  -2.9370  -2.9232  -2.9168  -2.8907
    -2.8716  -2.8590  -2.8225  -2.7973  -2.7887  -2.7775  -2.7613  -2.7408
     2.8512   2.9616   2.9684   3.0911   3.3380   3.4220   3.4326   3.5108
     4.0122   4.0755   4.1502   4.1628   4.1845   4.2332   4.2651   4.3052
     4.4229   4.4890   4.5092   4.5728   4.6011   4.6287   4.7068   4.7511
     4.8981   4.9168   4.9517   4.9762   5.1398   5.1926   5.2493   5.3309
     5.3674   5.3982   5.4779   5.5233   5.6442   5.6972   5.7578   5.8348
     5.9374   6.0156   6.0767   6.1770   6.4041   6.4385   6.4534   6.4855
     6.5629   6.6252   6.6386   6.7006   6.7495   6.7987   6.8395   6.8650
     6.8706   6.9484   6.9861   7.0026   7.0983   7.1220   7.2663   7.2893
     7.3258   7.3556   7.4995   7.5302   7.5845   7.6235   7.8007   7.8216
     9.9178  10.2555  10.7038  10.7756  10.8166  10.9917  11.0097  11.0659
    11.1819  11.2563  11.5608  11.7494  11.8934  11.9667  12.0452  12.1672
    12.2026  12.2340  12.2725  12.2879  12.4697  12.5247  12.7005  12.8602
    13.3242  13.5872  13.8170  14.0532  14.4108  14.7169  14.7829  15.0408

          k = 0.0000-0.5000 0.2500 ( 28234 PWs)   bands (ev):

   -47.3145 -47.1506 -47.1461 -47.1362 -47.0568 -46.9728 -46.8984 -46.8642
   -23.4168 -23.3715 -23.3620 -23.2754 -23.2609 -23.2528 -23.2473 -23.2429
   -23.2412 -23.2306 -23.2292 -23.1851 -23.1808 -23.1428 -23.1399 -23.1234
   -23.0851 -23.0800 -23.0689 -23.0486 -23.0441 -23.0178 -23.0150 -22.9606
   -19.5726 -19.5384 -19.4037 -19.4024 -19.3885 -19.3241 -19.2675 -19.2229
    -9.0152  -8.9950  -8.9050  -8.8788  -8.7809  -8.7656  -8.6107  -8.6042
    -8.4708  -8.3814  -8.3555  -8.3507  -8.3419  -8.2927  -8.2664  -8.1537
    -8.0883  -8.0273  -7.9881  -7.8728  -7.8595  -7.8221  -7.7945  -7.6949
    -3.1786  -3.1622  -3.1497  -3.1086  -3.0963  -3.0702  -3.0146  -3.0024
    -2.9824  -2.9574  -2.9532  -2.9499  -2.9384  -2.9231  -2.9179  -2.8889
    -2.8693  -2.8616  -2.8225  -2.7984  -2.7889  -2.7782  -2.7607  -2.7410
     2.9109   2.9146   2.9977   3.0074   3.3095   3.3700   3.4524   3.5273
     4.0178   4.0418   4.1492   4.1667   4.2427   4.2804   4.3484   4.3954
     4.4243   4.4324   4.4843   4.5115   4.5402   4.5965   4.6711   4.7082
     4.8180   4.9163   4.9387   4.9538   5.1811   5.2352   5.2533   5.3444
     5.3810   5.4063   5.5421   5.6431   5.6489   5.6757   5.7019   5.7585
     5.9224   6.0497   6.1292   6.1429   6.4029   6.4407   6.4847   6.5259
     6.5930   6.5987   6.6551   6.7140   6.7310   6.7634   6.8518   6.8714
     6.8979   6.9507   6.9772   7.0074   7.0631   7.1319   7.3212   7.3480
     7.4042   7.4489   7.4532   7.4991   7.5082   7.5542   7.8089   7.8661
    10.0084  10.0789  10.6839  10.8757  10.8961  10.9118  10.9383  11.0024
    11.1112  11.2151  11.6101  11.6585  11.9817  12.0300  12.0771  12.0847
    12.1859  12.2660  12.2956  12.3653  12.4188  12.4502  12.8031  12.8189
    13.3559  13.4816  13.8966  13.9817  14.5454  14.6368  14.7982  14.9309

          k = 0.2500-0.5000 0.0000 ( 28234 PWs)   bands (ev):

   -47.3145 -47.1506 -47.1462 -47.1362 -47.0568 -46.9728 -46.8984 -46.8642
   -23.4252 -23.3701 -23.3550 -23.2765 -23.2691 -23.2451 -23.2433 -23.2408
   -23.2319 -23.2305 -23.2291 -23.1941 -23.1646 -23.1554 -23.1537 -23.1254
   -23.0858 -23.0833 -23.0730 -23.0356 -23.0342 -23.0239 -23.0108 -22.9664
   -19.5731 -19.5378 -19.4046 -19.4029 -19.3870 -19.3246 -19.2674 -19.2228
    -9.0144  -9.0031  -8.8910  -8.8669  -8.8050  -8.7697  -8.6229  -8.6120
    -8.4736  -8.3849  -8.3539  -8.3483  -8.3425  -8.2935  -8.2704  -8.1475
    -7.9916  -7.9578  -7.9464  -7.9265  -7.8901  -7.8430  -7.8283  -7.7360
    -3.1836  -3.1629  -3.1529  -3.0938  -3.0770  -3.0710  -3.0256  -3.0195
    -3.0046  -2.9569  -2.9484  -2.9437  -2.9382  -2.9202  -2.9164  -2.8830
    -2.8621  -2.8533  -2.8201  -2.7985  -2.7963  -2.7807  -2.7633  -2.7425
     2.8573   2.9367   2.9910   3.0665   3.3478   3.3599   3.4547   3.4888
     4.0142   4.0417   4.1729   4.1855   4.2259   4.2681   4.3478   4.3958
     4.4078   4.4247   4.4822   4.4943   4.5388   4.6179   4.6435   4.7157
     4.8518   4.8856   4.9693   4.9995   5.1782   5.2495   5.3047   5.3402
     5.3632   5.3847   5.5405   5.5923   5.6420   5.6893   5.7538   5.8027
     5.9743   6.0220   6.0738   6.1203   6.3924   6.4171   6.4346   6.4916
     6.5782   6.6255   6.6641   6.6772   6.7458   6.8375   6.8508   6.8807
     6.9038   6.9408   6.9888   7.0122   7.0321   7.0553   7.3560   7.3627
     7.3722   7.4220   7.4770   7.4851   7.5262   7.5388   7.8077   7.8700
    10.0130  10.0769  10.7315  10.8294  10.8418  10.9989  11.0200  11.0604
    11.0723  11.1267  11.6670  11.6853  11.9942  12.0413  12.0557  12.0971
    12.1803  12.1899  12.2575  12.3114  12.4361  12.5213  12.8052  12.8144
    13.3655  13.4630  13.9341  14.0006  14.4599  14.6436  14.8343  14.9263

          k =-0.5000 0.0000 0.2500 ( 28234 PWs)   bands (ev):

   -47.3145 -47.1508 -47.1459 -47.1362 -47.0568 -46.9728 -46.8985 -46.8642
   -23.4168 -23.3887 -23.3464 -23.2862 -23.2632 -23.2586 -23.2517 -23.2371
   -23.2225 -23.2211 -23.2043 -23.1823 -23.1730 -23.1642 -23.1413 -23.1383
   -23.1132 -23.0940 -23.0550 -23.0415 -23.0343 -23.0313 -22.9856 -22.9721
   -19.5726 -19.5386 -19.4036 -19.4024 -19.3880 -19.3241 -19.2686 -19.2222
    -9.0057  -8.9679  -8.8928  -8.8406  -8.8114  -8.7528  -8.6168  -8.5672
    -8.5546  -8.5136  -8.4871  -8.4694  -8.1960  -8.1735  -8.1313  -8.0906
    -8.0308  -8.0045  -7.9742  -7.8875  -7.8762  -7.8647  -7.8586  -7.7549
    -3.1872  -3.1624  -3.1520  -3.1039  -3.0929  -3.0775  -2.9951  -2.9805
    -2.9768  -2.9712  -2.9613  -2.9541  -2.9441  -2.9325  -2.9231  -2.8823
    -2.8654  -2.8536  -2.8301  -2.8116  -2.7905  -2.7708  -2.7537  -2.7416
     2.9016   2.9654   3.0069   3.0612   3.3032   3.4018   3.4352   3.5001
     4.0112   4.0818   4.1460   4.1679   4.1796   4.2347   4.2599   4.3421
     4.4266   4.4694   4.5139   4.5744   4.5930   4.6205   4.7210   4.7585
     4.8553   4.9093   4.9640   4.9978   5.1182   5.1988   5.2394   5.3461
     5.3763   5.4051   5.4671   5.5618   5.6110   5.6684   5.7441   5.7991
     5.9148   5.9975   6.0875   6.2165   6.4086   6.4354   6.4798   6.4981
     6.5837   6.6281   6.6701   6.7212   6.7661   6.7787   6.8306   6.8445
     6.8713   6.9428   6.9789   6.9952   7.0539   7.1250   7.2584   7.3031
     7.3297   7.3481   7.4915   7.5347   7.6046   7.6156   7.7988   7.8220
     9.9219  10.2324  10.6912  10.8367  10.8625  10.9502  11.0307  11.0694
    11.1759  11.2463  11.5541  11.7934  11.9431  11.9765  12.0237  12.1249
    12.1827  12.2044  12.2568  12.3090  12.4715  12.5389  12.6997  12.8539
    13.3145  13.5934  13.7924  14.1067  14.4625  14.7064  14.7349  15.0245

          k =-0.5000 0.0000 0.5000 ( 28276 PWs)   bands (ev):

   -47.3145 -47.1508 -47.1459 -47.1362 -47.0568 -46.9728 -46.8985 -46.8642
   -23.4074 -23.3886 -23.3464 -23.2861 -23.2619 -23.2618 -23.2373 -23.2267
   -23.2227 -23.2211 -23.2146 -23.2043 -23.1741 -23.1635 -23.1239 -23.1195
   -23.1061 -23.0939 -23.0819 -23.0547 -23.0387 -23.0314 -22.9860 -22.9722
   -19.5720 -19.5392 -19.4034 -19.4007 -19.3897 -19.3239 -19.2688 -19.2224
    -8.9338  -8.9268  -8.8900  -8.8405  -8.6483  -8.6033  -8.5233  -8.4947
    -8.4874  -8.4719  -8.4388  -8.4100  -8.3661  -8.2955  -8.2729  -8.1667
    -8.1558  -8.0982  -8.0605  -7.9688  -7.8869  -7.8721  -7.8646  -7.7559
    -3.1730  -3.1582  -3.1292  -3.1161  -3.1039  -3.0994  -2.9962  -2.9859
    -2.9713  -2.9612  -2.9598  -2.9466  -2.9456  -2.9430  -2.9295  -2.8724
    -2.8528  -2.8478  -2.8298  -2.8219  -2.8110  -2.7701  -2.7512  -2.7435
     2.9518   2.9612   3.0362   3.0666   4.0208   4.0380   4.0501   4.1329
     4.1552   4.1722   4.2104   4.2461   4.2696   4.3150   4.3713   4.3892
     4.4154   4.4673   4.4851   4.5159   4.5416   4.5690   4.5796   4.6249
     4.6768   4.7366   4.7603   4.8078   4.8777   4.9384   5.0535   5.1111
     5.1336   5.1925   5.2521   5.3292   5.4106   5.4781   5.4925   5.5840
     5.7163   5.8167   5.9446   5.9849   6.4310   6.4652   6.4992   6.5271
     6.5616   6.5794   6.6491   6.6885   6.7577   6.7942   6.8215   6.8973
     7.0421   7.1152   7.1671   7.2195   7.2276   7.2615   7.2953   7.3159
     7.3377   7.3714   7.4010   7.4472   7.5496   7.5570   7.6044   7.6713
    10.6383  10.7220  10.7724  10.8023  10.8769  11.0466  11.0844  11.2560
    11.2927  11.3844  11.4349  11.5087  11.5621  11.6338  11.7201  11.8159
    12.1596  12.2704  12.2849  12.2907  12.3483  12.4860  12.5227  12.5723
    13.6343  13.7231  13.8730  14.0700  15.3445  15.6039  15.6324  15.6651

          k =-0.5000 0.5000 0.0000 ( 28276 PWs)   bands (ev):

   -47.3145 -47.1506 -47.1462 -47.1362 -47.0568 -46.9728 -46.8984 -46.8642
   -23.4252 -23.3696 -23.3460 -23.2764 -23.2629 -23.2438 -23.2429 -23.2370
   -23.2305 -23.2290 -23.2210 -23.2042 -23.1646 -23.1554 -23.1538 -23.1254
   -23.0955 -23.0834 -23.0745 -23.0357 -23.0342 -23.0307 -23.0109 -22.9724
   -19.5730 -19.5377 -19.4041 -19.4031 -19.3869 -19.3249 -19.2675 -19.2229
    -8.9773  -8.9409  -8.8951  -8.8547  -8.6393  -8.6007  -8.5216  -8.5125
    -8.4916  -8.3945  -8.3893  -8.3452  -8.3353  -8.3072  -8.2839  -8.1682
    -8.1588  -8.1203  -8.0922  -7.9871  -7.9446  -7.8900  -7.8430  -7.7392
    -3.1803  -3.1562  -3.1489  -3.0953  -3.0749  -3.0722  -3.0379  -3.0246
    -2.9891  -2.9575  -2.9553  -2.9381  -2.9332  -2.9192  -2.9104  -2.8923
    -2.8747  -2.8593  -2.8151  -2.8014  -2.7920  -2.7826  -2.7667  -2.7430
     2.8751   2.9780   2.9876   3.1011   4.0458   4.0599   4.0883   4.0983
     4.1539   4.1788   4.2398   4.2559   4.2742   4.3116   4.3234   4.3881
     4.4083   4.4415   4.4855   4.5123   4.5389   4.5738   4.5834   4.6347
     4.6754   4.7056   4.7498   4.7609   4.9464   4.9849   5.0556   5.1340
     5.1895   5.2075   5.2961   5.3348   5.4163   5.4633   5.5120   5.5996
     5.7362   5.7767   5.9056   5.9544   6.4214   6.4776   6.5093   6.5179
     6.5475   6.5709   6.5869   6.6453   6.7258   6.7834   6.8744   6.9173
     7.0962   7.1070   7.1885   7.2175   7.2351   7.2536   7.2791   7.3352
     7.3582   7.3707   7.4520   7.4703   7.4867   7.5134   7.6155   7.6790
    10.6468  10.6983  10.7523  10.8266  10.9965  11.0100  11.0732  11.1335
    11.1504  11.4131  11.4675  11.5017  11.6261  11.6403  11.7137  11.7492
    12.2191  12.2334  12.2778  12.3068  12.4345  12.5003  12.5144  12.5276
    13.6498  13.7427  13.9079  13.9684  15.1342  15.6465  15.7110  15.7345

          k =-0.2500-0.2500 0.2500 ( 28324 PWs)   bands (ev):

   -47.3145 -47.1507 -47.1460 -47.1362 -47.0568 -46.9728 -46.8985 -46.8642
   -23.4168 -23.3800 -23.3556 -23.2732 -23.2667 -23.2586 -23.2520 -23.2425
   -23.2322 -23.2317 -23.1942 -23.1918 -23.1801 -23.1523 -23.1398 -23.1359
   -23.1019 -23.0832 -23.0563 -23.0512 -23.0374 -23.0243 -22.9986 -22.9663
   -19.5726 -19.5385 -19.4041 -19.4019 -19.3882 -19.3241 -19.2681 -19.2225
    -8.9838  -8.9430  -8.8943  -8.8815  -8.7441  -8.7258  -8.6972  -8.5913
    -8.5819  -8.5594  -8.5464  -8.4969  -8.1054  -8.0597  -8.0394  -8.0276
    -8.0165  -7.9939  -7.9764  -7.9557  -7.9270  -7.9069  -7.8595  -7.8073
    -3.1924  -3.1741  -3.1468  -3.1093  -3.0935  -3.0758  -3.0153  -2.9983
    -2.9839  -2.9657  -2.9607  -2.9452  -2.9413  -2.9220  -2.9052  -2.8817
    -2.8685  -2.8618  -2.8288  -2.7980  -2.7804  -2.7700  -2.7516  -2.7412
     3.1475   3.1926   3.2175   3.2286   3.2934   3.3663   3.3881   3.4166
     3.5595   3.6036   3.6288   3.9040   4.0151   4.0389   4.0638   4.2371
     4.3934   4.4263   4.8249   4.8594   4.8721   4.9605   4.9780   5.0386
     5.0516   5.0633   5.1166   5.1278   5.1504   5.1828   5.2765   5.3328
     5.3699   5.4762   5.4848   5.5062   5.5329   5.5787   5.6082   5.8878
     5.9155   5.9447   6.1119   6.1185   6.2697   6.3103   6.3567   6.4278
     6.7026   6.7172   6.7662   6.8250   6.8564   6.8730   6.8778   6.8918
     6.9156   6.9250   6.9624   6.9808   7.0078   7.0384   7.0396   7.0647
     7.1247   7.1622   7.6614   7.6797   7.7166   7.7476   7.7638   7.8269
    10.1945  10.2662  10.3301  10.3628  10.4144  10.5411  11.6114  11.6275
    11.6707  11.7090  11.7265  11.7559  11.7709  11.7840  11.8142  11.8355
    11.8674  11.9596  12.4572  12.5270  12.5586  12.5827  12.6535  12.6724
    13.8217  13.8512  13.9786  14.0070  14.0842  14.7444  14.8106  15.1883

          k =-0.2500 0.2500-0.2500 ( 28324 PWs)   bands (ev):

   -47.3145 -47.1507 -47.1460 -47.1362 -47.0568 -46.9728 -46.8985 -46.8642
   -23.4168 -23.3800 -23.3556 -23.2733 -23.2665 -23.2587 -23.2520 -23.2425
   -23.2322 -23.2317 -23.1942 -23.1918 -23.1800 -23.1523 -23.1398 -23.1359
   -23.1019 -23.0832 -23.0563 -23.0512 -23.0374 -23.0243 -22.9986 -22.9663
   -19.5726 -19.5385 -19.4041 -19.4020 -19.3882 -19.3241 -19.2681 -19.2225
    -8.9828  -8.9437  -8.8976  -8.8790  -8.7449  -8.7230  -8.6979  -8.5916
    -8.5798  -8.5599  -8.5482  -8.4971  -8.1075  -8.0555  -8.0438  -8.0307
    -8.0126  -7.9949  -7.9728  -7.9563  -7.9285  -7.9044  -7.8595  -7.8089
    -3.1962  -3.1746  -3.1415  -3.1067  -3.0942  -3.0735  -3.0200  -2.9912
    -2.9879  -2.9657  -2.9580  -2.9471  -2.9412  -2.9273  -2.9101  -2.8888
    -2.8704  -2.8486  -2.8186  -2.8080  -2.7783  -2.7681  -2.7585  -2.7371
     3.1524   3.1894   3.2094   3.2326   3.2910   3.3673   3.3833   3.4190
     3.5639   3.6019   3.6366   3.8954   4.0145   4.0442   4.0656   4.2479
     4.3913   4.4239   4.8171   4.8575   4.8830   4.9519   4.9756   5.0259
     5.0570   5.0700   5.1076   5.1301   5.1748   5.2043   5.2600   5.3156
     5.3913   5.4174   5.4791   5.5005   5.5409   5.5789   5.6214   5.8774
     5.8993   5.9307   6.0467   6.2027   6.2905   6.3613   6.4127   6.4917
     6.6532   6.7090   6.7360   6.7790   6.8074   6.8504   6.8708   6.8848
     6.9032   6.9414   6.9596   6.9799   7.0093   7.0310   7.0490   7.0978
     7.1207   7.2122   7.6628   7.6799   7.7118   7.7496   7.7630   7.8183
    10.1781  10.2553  10.3351  10.3792  10.4220  10.5422  11.6078  11.6350
    11.6722  11.6969  11.7114  11.7344  11.7567  11.8008  11.8218  11.8549
    11.8742  11.9631  12.4551  12.5311  12.5607  12.5666  12.6542  12.6864
    13.8306  13.8514  13.9663  14.0127  14.0835  14.7443  14.8124  15.1903

          k = 0.2500-0.2500-0.2500 ( 28324 PWs)   bands (ev):

   -47.3145 -47.1507 -47.1460 -47.1362 -47.0568 -46.9728 -46.8985 -46.8642
   -23.4168 -23.3800 -23.3556 -23.2732 -23.2666 -23.2587 -23.2521 -23.2425
   -23.2322 -23.2317 -23.1942 -23.1917 -23.1801 -23.1522 -23.1401 -23.1359
   -23.1015 -23.0832 -23.0561 -23.0517 -23.0374 -23.0243 -22.9985 -22.9663
   -19.5726 -19.5385 -19.4041 -19.4020 -19.3882 -19.3241 -19.2681 -19.2225
    -8.9829  -8.9428  -8.8944  -8.8822  -8.7436  -8.7263  -8.6973  -8.5921
    -8.5823  -8.5589  -8.5451  -8.4991  -8.1041  -8.0622  -8.0482  -8.0296
    -8.0062  -7.9870  -7.9809  -7.9533  -7.9216  -7.9016  -7.8715  -7.8078
    -3.1944  -3.1725  -3.1459  -3.1061  -3.0965  -3.0772  -3.0154  -2.9947
    -2.9817  -2.9658  -2.9560  -2.9512  -2.9418  -2.9227  -2.9113  -2.8886
    -2.8709  -2.8460  -2.8166  -2.8105  -2.7826  -2.7760  -2.7506  -2.7368
     3.1480   3.1874   3.2046   3.2254   3.2588   3.3716   3.3900   3.4208
     3.5773   3.6072   3.6464   3.9022   4.0235   4.0583   4.0727   4.2709
     4.3915   4.4464   4.8110   4.8326   4.8880   4.9637   4.9800   5.0183
     5.0337   5.0812   5.0936   5.1374   5.1896   5.2109   5.2648   5.3155
     5.3634   5.3935   5.4515   5.4844   5.5411   5.5556   5.6049   5.8701
     5.8844   5.9205   6.0485   6.2351   6.3154   6.3378   6.4028   6.4483
     6.6915   6.7083   6.7437   6.8073   6.8382   6.8497   6.8793   6.9009
     6.9203   6.9560   6.9794   6.9940   7.0139   7.0163   7.0683   7.0803
     7.1191   7.1648   7.6636   7.6856   7.7180   7.7501   7.7672   7.8187
    10.1968  10.2486  10.3137  10.3528  10.4065  10.4922  11.6098  11.6393
    11.6871  11.7173  11.7348  11.7621  11.7759  11.7930  11.8238  11.8352
    11.8679  11.9593  12.4613  12.5152  12.5595  12.5889  12.6523  12.6758
    13.8281  13.8511  13.9736  14.0074  14.1161  14.7253  14.8005  14.8872

          k =-0.2500 0.2500 0.5000 ( 28270 PWs)   bands (ev):

   -47.3145 -47.1507 -47.1460 -47.1362 -47.0568 -46.9728 -46.8985 -46.8642
   -23.4074 -23.3799 -23.3556 -23.2732 -23.2654 -23.2619 -23.2427 -23.2336
   -23.2319 -23.2247 -23.2157 -23.1941 -23.1903 -23.1502 -23.1198 -23.1133
   -23.1051 -23.0832 -23.0786 -23.0558 -23.0523 -23.0244 -22.9994 -22.9663
   -19.5720 -19.5391 -19.4033 -19.4008 -19.3900 -19.3239 -19.2682 -19.2227
    -8.9306  -8.9084  -8.8008  -8.7794  -8.7642  -8.7422  -8.5696  -8.5442
    -8.4774  -8.4692  -8.4217  -8.3985  -8.3747  -8.2797  -8.2629  -8.0813
    -8.0355  -8.0244  -8.0041  -7.9792  -7.9494  -7.9246  -7.8900  -7.8193
    -3.1734  -3.1593  -3.1401  -3.1222  -3.1023  -3.0910  -3.0135  -2.9845
    -2.9747  -2.9667  -2.9626  -2.9505  -2.9426  -2.9373  -2.9137  -2.8900
    -2.8689  -2.8582  -2.8164  -2.8010  -2.7925  -2.7672  -2.7518  -2.7370
     3.2076   3.2116   3.3384   3.3557   3.3816   3.4063   3.5371   3.5938
     4.1158   4.1546   4.1895   4.2149   4.2491   4.3064   4.3251   4.3617
     4.4247   4.4839   4.5149   4.5270   4.6163   4.6331   4.7014   4.7451
     4.8410   4.9364   4.9834   4.9989   5.0713   5.0890   5.1215   5.1342
     5.2549   5.2876   5.3140   5.3492   5.3978   5.4253   5.6013   5.6486
     5.7809   5.8136   5.9317   5.9759   6.0392   6.0713   6.3591   6.4195
     6.7747   6.7903   6.8106   6.8406   6.8535   6.8622   6.8801   6.9175
     6.9296   6.9572   7.0294   7.0496   7.0933   7.1103   7.2861   7.3600
     7.3746   7.3948   7.4150   7.4664   7.5241   7.5712   7.7378   7.7947
    10.2613  10.3768  10.8879  10.9300  10.9534  10.9875  11.0174  11.0914
    11.1291  11.3898  11.6455  11.7702  11.8008  11.8192  12.0048  12.0136
    12.0458  12.0644  12.1203  12.1816  12.2289  12.3312  12.5431  12.6249
    13.8571  14.0201  14.4628  14.5724  14.6456  14.6625  14.9320  15.1444

          k =-0.5000-0.2500 0.2500 ( 28270 PWs)   bands (ev):

   -47.3145 -47.1507 -47.1460 -47.1362 -47.0568 -46.9728 -46.8985 -46.8642
   -23.4168 -23.3798 -23.3463 -23.2716 -23.2629 -23.2575 -23.2518 -23.2372
   -23.2320 -23.2211 -23.2043 -23.1918 -23.1800 -23.1523 -23.1399 -23.1360
   -23.1020 -23.0943 -23.0564 -23.0514 -23.0375 -23.0311 -22.9987 -22.9723
   -19.5725 -19.5384 -19.4033 -19.4026 -19.3881 -19.3244 -19.2681 -19.2227
    -8.9343  -8.8968  -8.8071  -8.7861  -8.7556  -8.7307  -8.5772  -8.5698
    -8.5160  -8.4993  -8.4868  -8.4520  -8.2101  -8.1837  -8.1326  -8.0927
    -8.0418  -8.0260  -8.0186  -8.0120  -7.9805  -7.9673  -7.9111  -7.8460
    -3.1843  -3.1615  -3.1449  -3.1083  -3.0944  -3.0773  -3.0141  -3.0032
    -2.9806  -2.9732  -2.9607  -2.9482  -2.9381  -2.9330  -2.9151  -2.8868
    -2.8709  -2.8564  -2.8207  -2.8087  -2.7766  -2.7669  -2.7541  -2.7395
     3.1638   3.2806   3.3196   3.3401   3.4011   3.4467   3.5108   3.5869
     4.1038   4.1429   4.1547   4.1918   4.2222   4.2675   4.2877   4.3569
     4.4628   4.5303   4.5646   4.5939   4.6173   4.6567   4.7578   4.7954
     4.8917   4.9244   4.9711   5.0279   5.0524   5.0767   5.0997   5.1610
     5.2009   5.2451   5.2961   5.3204   5.3762   5.4472   5.6052   5.6908
     5.7668   5.8305   5.9289   5.9676   6.0403   6.0899   6.3103   6.3284
     6.7693   6.7854   6.8120   6.8380   6.8490   6.8704   6.8845   6.9344
     6.9631   6.9810   7.0034   7.0287   7.0705   7.1817   7.2398   7.2852
     7.3224   7.3506   7.4674   7.5093   7.5744   7.6024   7.7252   7.7497
    10.2233  10.5146  10.8113  10.8791  10.9404  10.9945  11.1493  11.1905
    11.2218  11.2602  11.6403  11.7118  11.7712  11.8833  11.9408  11.9833
    11.9986  12.0630  12.1789  12.2076  12.2348  12.3438  12.4840  12.6523
    13.8529  14.0707  14.3955  14.4685  14.6799  14.8015  14.8581  15.2104

          k = 0.5000-0.2500-0.2500 ( 28270 PWs)   bands (ev):

   -47.3145 -47.1507 -47.1460 -47.1362 -47.0568 -46.9728 -46.8985 -46.8642
   -23.4168 -23.3798 -23.3463 -23.2715 -23.2629 -23.2576 -23.2518 -23.2372
   -23.2321 -23.2211 -23.2043 -23.1917 -23.1801 -23.1523 -23.1402 -23.1359
   -23.1016 -23.0943 -23.0562 -23.0519 -23.0375 -23.0311 -22.9986 -22.9723
   -19.5725 -19.5384 -19.4033 -19.4026 -19.3881 -19.3244 -19.2681 -19.2227
    -8.9341  -8.8962  -8.8076  -8.7862  -8.7540  -8.7324  -8.5756  -8.5693
    -8.5214  -8.4991  -8.4842  -8.4524  -8.2103  -8.1834  -8.1328  -8.0928
    -8.0468  -8.0298  -8.0190  -8.0049  -7.9746  -7.9713  -7.8984  -7.8575
    -3.1818  -3.1614  -3.1497  -3.1040  -3.0967  -3.0796  -3.0101  -3.0023
    -2.9816  -2.9752  -2.9591  -2.9459  -2.9367  -2.9318  -2.9211  -2.8920
    -2.8634  -2.8517  -2.8251  -2.8086  -2.7795  -2.7685  -2.7540  -2.7376
     3.1618   3.2483   3.3189   3.3428   3.4042   3.4595   3.5106   3.5965
     4.1053   4.1449   4.1671   4.1732   4.2420   4.2662   4.3066   4.3857
     4.4652   4.5043   4.5737   4.6047   4.6360   4.6609   4.7416   4.8018
     4.8831   4.9232   4.9605   5.0003   5.0522   5.0837   5.1297   5.1588
     5.1944   5.2302   5.2803   5.3225   5.3734   5.4155   5.6005   5.6635
     5.7348   5.8597   5.9312   5.9488   6.0420   6.0841   6.3268   6.3571
     6.7471   6.7754   6.8060   6.8348   6.8498   6.8773   6.8871   6.9293
     6.9808   6.9995   7.0160   7.0417   7.0967   7.1735   7.2400   7.2867
     7.3285   7.3408   7.4711   7.5078   7.5815   7.6006   7.7231   7.7523
    10.2256  10.4469  10.8142  10.8761  10.9434  10.9934  11.1236  11.2018
    11.2271  11.2769  11.6285  11.7200  11.8160  11.8904  11.9419  11.9674
    12.0213  12.0462  12.1649  12.2159  12.2405  12.3351  12.4902  12.6531
    13.8507  14.0981  14.3916  14.4765  14.6477  14.8040  14.8569  15.2033

          k =-0.2500-0.5000 0.2500 ( 28270 PWs)   bands (ev):

   -47.3145 -47.1506 -47.1461 -47.1362 -47.0568 -46.9728 -46.8984 -46.8642
   -23.4168 -23.3701 -23.3550 -23.2695 -23.2608 -23.2522 -23.2429 -23.2426
   -23.2319 -23.2306 -23.2291 -23.1941 -23.1808 -23.1428 -23.1400 -23.1234
   -23.0857 -23.0852 -23.0730 -23.0486 -23.0441 -23.0241 -23.0153 -22.9664
   -19.5725 -19.5384 -19.4034 -19.4026 -19.3884 -19.3244 -19.2676 -19.2230
    -8.9336  -8.9250  -8.8056  -8.7811  -8.7736  -8.7619  -8.5798  -8.5731
    -8.4752  -8.3834  -8.3619  -8.3501  -8.3422  -8.2923  -8.2727  -8.1560
    -8.0882  -8.0289  -8.0063  -7.9766  -7.9594  -7.9178  -7.8767  -7.8097
    -3.1796  -3.1571  -3.1489  -3.1095  -3.0963  -3.0756  -3.0205  -3.0059
    -2.9949  -2.9630  -2.9517  -2.9481  -2.9382  -2.9260  -2.9168  -2.8859
    -2.8763  -2.8622  -2.8142  -2.7968  -2.7847  -2.7726  -2.7535  -2.7393
     3.1770   3.1998   3.3382   3.3652   3.3721   3.3835   3.5420   3.6001
     4.1082   4.1317   4.1954   4.2080   4.2673   4.2977   4.3565   4.4098
     4.4354   4.4593   4.5382   4.5709   4.5825   4.6195   4.6979   4.7488
     4.8561   4.9082   4.9904   4.9981   5.0713   5.0933   5.1056   5.1816
     5.2529   5.2927   5.3136   5.3460   5.3950   5.4278   5.6129   5.7069
     5.7564   5.8131   5.9271   6.0000   6.0220   6.0770   6.2729   6.3366
     6.7814   6.8263   6.8451   6.8552   6.8723   6.8880   6.9115   6.9185
     6.9378   6.9434   7.0059   7.0288   7.0576   7.0958   7.3143   7.3322
     7.3846   7.4204   7.4522   7.4835   7.5060   7.5277   7.7296   7.8010
    10.2975  10.3314  10.8390  10.9134  10.9913  11.0564  11.0693  11.0999
    11.1216  11.2121  11.7181  11.7576  11.7899  11.7945  11.9802  12.0363
    12.0486  12.1142  12.1577  12.1892  12.2040  12.2714  12.5890  12.6038
    13.8849  13.9952  14.4745  14.5652  14.6239  14.6327  14.9495  15.0876

          k =-0.2500 0.5000-0.2500 ( 28270 PWs)   bands (ev):

   -47.3145 -47.1506 -47.1461 -47.1362 -47.0568 -46.9728 -46.8984 -46.8642
   -23.4168 -23.3701 -23.3550 -23.2695 -23.2608 -23.2522 -23.2429 -23.2426
   -23.2319 -23.2306 -23.2291 -23.1941 -23.1808 -23.1428 -23.1400 -23.1234
   -23.0857 -23.0852 -23.0730 -23.0486 -23.0441 -23.0241 -23.0153 -22.9664
   -19.5725 -19.5384 -19.4034 -19.4026 -19.3884 -19.3244 -19.2676 -19.2230
    -8.9338  -8.9255  -8.8059  -8.7855  -8.7723  -8.7564  -8.5810  -8.5739
    -8.4735  -8.3838  -8.3626  -8.3504  -8.3412  -8.2913  -8.2741  -8.1566
    -8.0899  -8.0312  -8.0043  -7.9745  -7.9591  -7.9198  -7.8723  -7.8123
    -3.1783  -3.1593  -3.1489  -3.1091  -3.0967  -3.0745  -3.0220  -3.0069
    -2.9899  -2.9629  -2.9505  -2.9449  -2.9411  -2.9284  -2.9177  -2.8960
    -2.8716  -2.8574  -2.8163  -2.7929  -2.7829  -2.7734  -2.7583  -2.7378
     3.1820   3.2160   3.3365   3.3520   3.3731   3.3819   3.5412   3.5907
     4.1144   4.1288   4.1816   4.2296   4.2541   4.3004   4.3707   4.3895
     4.4369   4.4748   4.5211   4.5388   4.5773   4.6206   4.7145   4.7604
     4.8454   4.9162   4.9816   5.0055   5.0517   5.0975   5.1292   5.1802
     5.2467   5.2927   5.3288   5.3722   5.4061   5.4292   5.6402   5.6983
     5.7416   5.7900   5.9200   5.9959   6.0246   6.0525   6.3227   6.3909
     6.7393   6.7541   6.8367   6.8423   6.8567   6.8783   6.8932   6.9170
     6.9336   6.9523   7.0195   7.0469   7.0699   7.1454   7.3168   7.3352
     7.3743   7.4181   7.4522   7.4834   7.5048   7.5321   7.7295   7.7919
    10.3025  10.3640  10.8399  10.9104  10.9934  11.0460  11.0645  11.1030
    11.1275  11.2163  11.6951  11.7250  11.7963  11.8109  11.9825  12.0350
    12.0485  12.1157  12.1560  12.1765  12.2183  12.2722  12.5913  12.6055
    13.8809  13.9815  14.4809  14.5608  14.6217  14.6534  14.9527  15.0845

          k =-0.5000 0.2500 0.5000 ( 28280 PWs)   bands (ev):

   -47.3145 -47.1507 -47.1460 -47.1362 -47.0568 -46.9728 -46.8985 -46.8642
   -23.4074 -23.3797 -23.3462 -23.2713 -23.2619 -23.2607 -23.2374 -23.2336
   -23.2246 -23.2211 -23.2157 -23.2042 -23.1903 -23.1503 -23.1199 -23.1134
   -23.1052 -23.0942 -23.0786 -23.0559 -23.0525 -23.0313 -22.9995 -22.9723
   -19.5719 -19.5390 -19.4031 -19.4009 -19.3898 -19.3242 -19.2683 -19.2229
    -8.8368  -8.8218  -8.7761  -8.7438  -8.6510  -8.6067  -8.5048  -8.4951
    -8.4807  -8.4683  -8.4239  -8.4031  -8.3674  -8.2964  -8.2749  -8.1743
    -8.1569  -8.0999  -8.0781  -8.0203  -8.0128  -8.0000  -7.9588  -7.8921
    -3.1720  -3.1584  -3.1366  -3.1211  -3.1045  -3.0978  -3.0125  -2.9948
    -2.9824  -2.9732  -2.9607  -2.9543  -2.9452  -2.9407  -2.9130  -2.8908
    -2.8713  -2.8476  -2.8130  -2.7958  -2.7903  -2.7610  -2.7467  -2.7369
     3.3154   3.3400   3.3862   3.4459   4.0329   4.0437   4.0601   4.1386
     4.1825   4.2045   4.2424   4.2529   4.2831   4.3338   4.3727   4.3935
     4.4229   4.4575   4.4957   4.5382   4.6245   4.6564   4.6958   4.7085
     4.7570   4.8020   4.8198   4.8637   4.9046   4.9244   4.9900   5.0393
     5.0911   5.1442   5.1787   5.1819   5.2115   5.2561   5.2933   5.3357
     5.4489   5.5083   5.5834   5.6250   5.9595   6.0106   6.0950   6.1300
     6.8137   6.8566   6.8804   6.9005   6.9143   6.9675   6.9957   7.0359
     7.0607   7.1152   7.1834   7.2094   7.2260   7.2455   7.2837   7.3047
     7.3379   7.3583   7.3955   7.4343   7.5183   7.5529   7.5827   7.6535
    10.7947  10.9011  10.9361  10.9527  11.0315  11.1991  11.2323  11.2814
    11.3609  11.3999  11.4543  11.4941  11.5816  11.6148  11.7287  11.7955
    11.9042  12.0225  12.0276  12.0367  12.0992  12.2325  12.2775  12.3253
    14.2815  14.3989  14.5111  14.7273  15.3610  15.6123  15.6393  15.6655

          k =-0.5000 0.5000 0.2500 ( 28280 PWs)   bands (ev):

   -47.3145 -47.1506 -47.1461 -47.1362 -47.0568 -46.9728 -46.8984 -46.8642
   -23.4167 -23.3696 -23.3459 -23.2636 -23.2603 -23.2520 -23.2428 -23.2375
   -23.2305 -23.2290 -23.2211 -23.2042 -23.1808 -23.1428 -23.1400 -23.1234
   -23.0955 -23.0854 -23.0745 -23.0487 -23.0441 -23.0309 -23.0154 -22.9724
   -19.5724 -19.5383 -19.4030 -19.4027 -19.3883 -19.3247 -19.2677 -19.2231
    -8.8623  -8.8394  -8.7850  -8.7614  -8.6379  -8.6061  -8.5134  -8.4995
    -8.4873  -8.3964  -8.3911  -8.3458  -8.3346  -8.3043  -8.2870  -8.1773
    -8.1595  -8.1217  -8.0986  -8.0869  -8.0239  -7.9893  -7.9782  -7.8570
    -3.1778  -3.1542  -3.1483  -3.1101  -3.0964  -3.0794  -3.0298  -3.0168
    -2.9926  -2.9639  -2.9582  -2.9520  -2.9426  -2.9293  -2.9043  -2.8956
    -2.8777  -2.8558  -2.8065  -2.7885  -2.7832  -2.7692  -2.7518  -2.7368
     3.2586   3.3450   3.3672   3.4449   4.0531   4.0647   4.0896   4.1069
     4.1884   4.2021   4.2571   4.2908   4.3076   4.3273   4.3483   4.3805
     4.4190   4.4541   4.4956   4.5400   4.6159   4.6294   4.6657   4.7066
     4.7570   4.7731   4.8281   4.8468   4.9255   4.9621   5.0140   5.0496
     5.1054   5.1659   5.1883   5.2045   5.2606   5.2759   5.3086   5.3295
     5.4486   5.4873   5.5796   5.6196   5.9320   5.9575   6.0371   6.1674
     6.8299   6.8511   6.8702   6.8961   6.9148   6.9362   6.9833   7.0305
     7.1005   7.1153   7.1847   7.2158   7.2281   7.2572   7.2682   7.3138
     7.3536   7.3627   7.4417   7.4592   7.4756   7.5001   7.5920   7.6623
    10.8321  10.8655  10.9255  10.9935  11.1128  11.1583  11.1704  11.2223
    11.2676  11.4330  11.4669  11.4859  11.6384  11.6582  11.6907  11.7323
    11.9623  11.9708  12.0217  12.0595  12.1837  12.2436  12.2754  12.2821
    14.3118  14.4100  14.5509  14.6198  15.1396  15.6570  15.7138  15.7375

     the Fermi energy is     8.3709 ev

!    total energy              =   -4582.09819128 Ry
     total all-electron energy =    -74369.989113 Ry
     estimated scf accuracy    <          3.6E-09 Ry
     smearing contrib. (-TS)   =       0.00000000 Ry
     internal energy E=F+TS    =   -4582.09819128 Ry

     The total energy is F=E-TS. E is the sum of the following terms:
     one-electron contribution =    -589.28688876 Ry
     hartree contribution      =     474.28972414 Ry
     xc contribution           =    -499.99227268 Ry
     ewald contribution        =   -1627.46506876 Ry
     one-center paw contrib.   =   -2339.64368521 Ry

     convergence has been achieved in  15 iterations

     Forces acting on atoms (cartesian axes, Ry/au):

     atom    1 type  1   force =     0.00075630   -0.00515347   -0.00995237
     atom    2 type  1   force =     0.00144656    0.00412479    0.00729053
     atom    3 type  1   force =     0.01215140    0.01355811    0.00985495
     atom    4 type  1   force =    -0.00172566   -0.00185645    0.00373631
     atom    5 type  1   force =     0.02540203   -0.00609260    0.00234000
     atom    6 type  1   force =    -0.01298628   -0.00868171   -0.01075942
     atom    7 type  1   force =    -0.00892700    0.00266382   -0.00485472
     atom    8 type  1   force =     0.00565397    0.01621098   -0.00627649
     atom    9 type  2   force =     0.01479467   -0.02398200    0.01419794
     atom   10 type  2   force =    -0.04732845    0.03047200   -0.03525391
     atom   11 type  2   force =     0.01272994    0.00259431    0.02443670
     atom   12 type  2   force =    -0.03320492   -0.01346612   -0.05006350
     atom   13 type  2   force =     0.01583486   -0.00964426   -0.00722310
     atom   14 type  2   force =    -0.03837864    0.00462927    0.01036662
     atom   15 type  2   force =     0.02386849   -0.00552239    0.00986977
     atom   16 type  2   force =    -0.04628914    0.00796997    0.03478289
     atom   17 type  3   force =    -0.01138213   -0.00845121    0.00425342
     atom   18 type  3   force =     0.01593473   -0.00899717   -0.01382235
     atom   19 type  3   force =    -0.02869082   -0.00577789    0.00948624
     atom   20 type  3   force =     0.04535202   -0.00737824    0.00646283
     atom   21 type  3   force =     0.00153788   -0.00596309    0.01439224
     atom   22 type  3   force =     0.02842494   -0.03275885    0.00184097
     atom   23 type  3   force =    -0.02458083   -0.00165451   -0.00893517
     atom   24 type  3   force =     0.01160205   -0.01026445    0.01385631
     atom   25 type  3   force =    -0.01697914   -0.01952672   -0.00503248
     atom   26 type  3   force =     0.00639424    0.00503649    0.02792819
     atom   27 type  3   force =    -0.00954858    0.02345448    0.00215482
     atom   28 type  3   force =     0.00121994    0.02425900    0.00077495
     atom   29 type  3   force =    -0.00857952    0.00009552   -0.00137547
     atom   30 type  3   force =     0.00404174    0.01406612   -0.01030031
     atom   31 type  3   force =     0.00324055    0.00310444   -0.01282675
     atom   32 type  3   force =    -0.00273215    0.00917511    0.00393663
     atom   33 type  3   force =    -0.00748396   -0.00444725    0.01391765
     atom   34 type  3   force =     0.00729858   -0.02199187   -0.00125773
     atom   35 type  3   force =     0.00317838    0.00935209    0.00741815
     atom   36 type  3   force =     0.02332109   -0.00267010    0.02698538
     atom   37 type  3   force =    -0.00344569    0.01769909    0.02469672
     atom   38 type  3   force =     0.01408532   -0.00690703   -0.03470834
     atom   39 type  3   force =     0.01795429    0.00207735   -0.01481913
     atom   40 type  3   force =     0.00603894    0.02064443   -0.04751896

     Total force =     0.191481     Total SCF correction =     0.000063
     Message from routine punch:
     Nothing written, as per user request (disk_io='none')

     init_run     :     71.91s CPU     79.19s WALL (       1 calls)
     electrons    :   2834.96s CPU   2940.42s WALL (       1 calls)
     forces       :     43.37s CPU     45.87s WALL (       1 calls)

     Called by init_run:
     wfcinit      :     62.60s CPU     67.52s WALL (       1 calls)
     potinit      :      4.64s CPU      5.14s WALL (       1 calls)
     hinit0       :      1.54s CPU      1.79s WALL (       1 calls)

     Called by electrons:
     c_bands      :   2413.79s CPU   2491.67s WALL (      15 calls)
     sum_band     :    313.79s CPU    330.02s WALL (      15 calls)
     v_of_rho     :     16.63s CPU     18.76s WALL (      16 calls)
     newd         :     43.34s CPU     54.19s WALL (      16 calls)
     PAW_pot      :     47.80s CPU     47.84s WALL (      16 calls)
     mix_rho      :      3.00s CPU      3.09s WALL (      15 calls)

     Called by c_bands:
     init_us_2    :     49.42s CPU     49.83s WALL (     288 calls)
     cegterg      :   1333.97s CPU   1411.22s WALL (     135 calls)

     Called by *egterg:
     cdiaghg      :     44.57s CPU     44.59s WALL (     727 calls)
     h_psi        :    717.76s CPU    761.92s WALL (     736 calls)
     s_psi        :    135.86s CPU    135.88s WALL (     736 calls)
     g_psi        :      4.99s CPU      5.00s WALL (     592 calls)

     Called by h_psi:
     h_psi:calbec :    152.34s CPU    152.90s WALL (     736 calls)
     vloc_psi     :    419.74s CPU    448.02s WALL (     736 calls)
                                        0.00s GPU  (     736 calls)
     add_vuspsi   :    138.98s CPU    139.00s WALL (     736 calls)

     General routines
     calbec       :    228.02s CPU    229.02s WALL (     907 calls)
     fft          :     15.47s CPU     17.20s WALL (     217 calls)
     ffts         :      0.46s CPU      0.50s WALL (      31 calls)
     fftw         :    413.45s CPU    444.93s WALL (  152784 calls)
     interpolate  :      1.41s CPU      1.51s WALL (      16 calls)

     Parallel routines

     PWSCF        :  49m10.97s CPU  51m 6.48s WALL


   This run was terminated on:  15:32:42   4Oct2026            

=------------------------------------------------------------------------------=
   JOB DONE.
=------------------------------------------------------------------------------=
