
     Program PWSCF v.7.5 starts on 27Sep2026 at  9:54: 6 

     This program is part of the open-source Quantum ESPRESSO suite
     for quantum simulation of materials; please cite
         "P. Giannozzi et al., J. Phys.:Condens. Matter 21 395502 (2009);
         "P. Giannozzi et al., J. Phys.:Condens. Matter 29 465901 (2017);
         "P. Giannozzi et al., J. Chem. Phys. 152 154105 (2020);
          URL http://www.quantum-espresso.org", 
     in publications or presentations arising from this work. More details at
     http://www.quantum-espresso.org/quote

     Parallel version (MPI & OpenMP), running on       8 processor cores
     Number of MPI processes:                 8
     Threads/MPI process:                     1

     MPI processes distributed on     1 nodes
     76582 MiB available memory on the printing compute node when the environment starts

     Reading input from pw.in

     Current dimensions of program PWSCF are:
     Max number of different atomic species (ntypx) = 10
     Max number of k-points (npk) =  40000
     Max angular momentum in pseudopotentials (lmaxx) =  4
     file Ba.pbe-spn-kjpaw_psl.1.0.0.UPF: wavefunction(s)  5S 6S renormalized
     file O.pbe-n-kjpaw_psl.0.1.UPF: wavefunction(s)  2P renormalized
     Message from routine setup:
     using ibrav=0 with symmetry is DISCOURAGED, use correct ibrav instead

     K-points division:     npool     =       8
     Subspace diagonalization in iterative solution of the eigenvalue problem:
     a serial algorithm will be used


     G-vector sticks info
     --------------------
     sticks:   dense  smooth     PW     G-vecs:    dense   smooth      PW
     Sum        3713    1855    547               119837    42425    6649

     Using Slab Decomposition



     bravais-lattice index     =            0
     lattice parameter (alat)  =      15.2520  a.u.
     unit-cell volume          =     886.9886 (a.u.)^3
     number of atoms/cell      =           10
     number of atomic types    =            3
     number of electrons       =        80.00
     number of Kohn-Sham states=           48
     kinetic-energy cutoff     =      50.0000  Ry
     charge density cutoff     =     400.0000  Ry
     scf convergence threshold =      1.0E-09
     mixing beta               =       0.4000
     number of iterations used =            8  plain     mixing
     Exchange-correlation= SLA  PW   PBX  PBC
                           (   1   4   3   4   0   0   0)

     celldm(1)=  15.251972  celldm(2)=   0.000000  celldm(3)=   0.000000
     celldm(4)=   0.000000  celldm(5)=   0.000000  celldm(6)=   0.000000

     crystal axes: (cart. coord. in units of alat)
               a(1) = (   1.000000  -0.000000  -0.000000 )  
               a(2) = (  -0.000000   0.500000  -0.000000 )  
               a(3) = (  -0.000000  -0.000000   0.500000 )  

     reciprocal axes: (cart. coord. in units 2 pi/alat)
               b(1) = (  1.000000  0.000000  0.000000 )  
               b(2) = (  0.000000  2.000000  0.000000 )  
               b(3) = (  0.000000  0.000000  2.000000 )  


     PseudoPot. # 1 for Ba read from file:
     /root/sssp/upf/Ba.pbe-spn-kjpaw_psl.1.0.0.UPF
     MD5 check sum: c432291d3e53af55f19d5e8866385beb
     Pseudo is Projector augmented-wave + core cor, Zval = 10.0
     Generated using "atomic" code by A. Dal Corso  v.5.1
     Shape of augmentation charge: PSQ
     Using radial grid of 1251 points,  7 beta functions with: 
                l(1) =   0
                l(2) =   0
                l(3) =   0
                l(4) =   1
                l(5) =   1
                l(6) =   2
                l(7) =   2
     Q(r) pseudized with 0 coefficients 


     PseudoPot. # 2 for Ti read from file:
     /root/sssp/upf/ti_pbe_v1.4.uspp.F.UPF
     MD5 check sum: 88a00a6731bd790ddea75d31a80cb452
     Pseudo is Ultrasoft + core correction, Zval = 12.0
     Generated by new atomic code, or converted to UPF format
     Using radial grid of  851 points,  6 beta functions with: 
                l(1) =   0
                l(2) =   0
                l(3) =   1
                l(4) =   1
                l(5) =   2
                l(6) =   2
     Q(r) pseudized with  6 coefficients,  rinner =    1.000   1.000   1.000
                                                       1.000   1.000

     PseudoPot. # 3 for O  read from file:
     /root/sssp/upf/O.pbe-n-kjpaw_psl.0.1.UPF
     MD5 check sum: 0234752ac141de4415c5fc33072bef88
     Pseudo is Projector augmented-wave + core cor, Zval =  6.0
     Generated using "atomic" code by A. Dal Corso  v.5.0.99 svn rev. 10869
     Shape of augmentation charge: BESSEL
     Using radial grid of 1095 points,  4 beta functions with: 
                l(1) =   0
                l(2) =   0
                l(3) =   1
                l(4) =   1
     Q(r) pseudized with 0 coefficients 


     atomic species   valence    mass     pseudopotential
     Ba               10.00   137.32700     Ba( 1.00)
     Ti               12.00    47.86700     Ti( 1.00)
     O                 6.00    15.99900     O ( 1.00)

      4 Sym. Ops., with inversion, found ( 2 have fractional translation)



   Cartesian axes

     site n.     atom                  positions (alat units)
         1        Ba     tau(   1) = (   0.5000000   0.0000000   0.0000000  )
         2        Ba     tau(   2) = (   1.0000000   0.0000000  -0.0000000  )
         3        Ti     tau(   3) = (   0.2500000   0.2851014   0.2476286  )
         4        Ti     tau(   4) = (   0.7500000   0.2148987   0.2523714  )
         5        O      tau(   5) = (   0.5000000   0.2500000   0.2500000  )
         6        O      tau(   6) = (   1.0000000   0.2500000   0.2500000  )
         7        O      tau(   7) = (   0.2500000   0.4559465   0.2512389  )
         8        O      tau(   8) = (   0.7500000   0.5440535   0.2487610  )
         9        O      tau(   9) = (   0.2500000   0.2316610   0.5029762  )
        10        O      tau(  10) = (   0.7500000   0.2683390   0.4970238  )

     number of k points=    75  Marzari-Vanderbilt smearing, width (Ry)=  0.0050
                       cart. coord. in units 2pi/alat
        k(    1) = (   0.0000000   0.0000000   0.0000000), wk =   0.0102041
        k(    2) = (   0.0000000   0.0000000   0.2857143), wk =   0.0204082
        k(    3) = (   0.0000000   0.0000000   0.5714286), wk =   0.0204082
        k(    4) = (   0.0000000   0.0000000   0.8571429), wk =   0.0204082
        k(    5) = (   0.0000000   0.2857143   0.2857143), wk =   0.0204082
        k(    6) = (   0.0000000   0.2857143   0.5714286), wk =   0.0204082
        k(    7) = (   0.0000000   0.2857143   0.8571429), wk =   0.0204082
        k(    8) = (   0.0000000   0.5714286   0.5714286), wk =   0.0204082
        k(    9) = (   0.0000000   0.5714286   0.8571429), wk =   0.0204082
        k(   10) = (   0.0000000   0.8571428   0.8571429), wk =   0.0204082
        k(   11) = (   0.2500000   0.0000000   0.0000000), wk =   0.0204082
        k(   12) = (   0.2500000   0.0000000   0.2857143), wk =   0.0408163
        k(   13) = (   0.2500000   0.0000000   0.5714286), wk =   0.0408163
        k(   14) = (   0.2500000   0.0000000   0.8571429), wk =   0.0408163
        k(   15) = (   0.2500000   0.2857143   0.2857143), wk =   0.0408163
        k(   16) = (   0.2500000   0.2857143   0.5714286), wk =   0.0408163
        k(   17) = (   0.2500000   0.2857143   0.8571429), wk =   0.0408163
        k(   18) = (   0.2500000   0.5714286   0.5714286), wk =   0.0408163
        k(   19) = (   0.2500000   0.5714286   0.8571429), wk =   0.0408163
        k(   20) = (   0.2500000   0.8571428   0.8571429), wk =   0.0408163
        k(   21) = (  -0.5000000  -0.0000000  -0.0000000), wk =   0.0102041
        k(   22) = (  -0.5000000  -0.0000000   0.2857143), wk =   0.0204082
        k(   23) = (  -0.5000000   0.0000000   0.5714286), wk =   0.0204082
        k(   24) = (  -0.5000000   0.0000000   0.8571429), wk =   0.0204082
        k(   25) = (  -0.5000000   0.2857143   0.2857143), wk =   0.0204082
        k(   26) = (  -0.5000000   0.2857143   0.5714286), wk =   0.0204082
        k(   27) = (  -0.5000000   0.2857143   0.8571429), wk =   0.0204082
        k(   28) = (  -0.5000000   0.5714286   0.5714286), wk =   0.0204082
        k(   29) = (  -0.5000000   0.5714286   0.8571429), wk =   0.0204082
        k(   30) = (  -0.5000000   0.8571428   0.8571429), wk =   0.0204082
        k(   31) = (   0.0000000   0.2857143   0.0000000), wk =   0.0204082
        k(   32) = (   0.0000000   0.5714286   0.0000000), wk =   0.0204082
        k(   33) = (   0.0000000   0.8571428   0.0000000), wk =   0.0204082
        k(   34) = (  -0.0000000   0.2857143  -0.2857143), wk =   0.0204082
        k(   35) = (   0.0000000   0.5714286   0.2857143), wk =   0.0204082
        k(   36) = (  -0.0000000   0.5714286  -0.2857143), wk =   0.0204082
        k(   37) = (  -0.0000000   0.2857143  -0.5714286), wk =   0.0204082
        k(   38) = (   0.0000000   0.8571428   0.2857143), wk =   0.0204082
        k(   39) = (   0.0000000   0.8571428  -0.2857143), wk =   0.0204082
        k(   40) = (  -0.0000000   0.2857143  -0.8571429), wk =   0.0204082
        k(   41) = (  -0.0000000   0.5714286  -0.5714286), wk =   0.0204082
        k(   42) = (   0.0000000   0.8571428   0.5714286), wk =   0.0204082
        k(   43) = (  -0.0000000   0.8571428  -0.5714286), wk =   0.0204082
        k(   44) = (  -0.0000000   0.5714286  -0.8571429), wk =   0.0204082
        k(   45) = (  -0.0000000   0.8571428  -0.8571429), wk =   0.0204082
        k(   46) = (  -0.2500000   0.2857143  -0.0000000), wk =   0.0408163
        k(   47) = (  -0.2500000   0.5714286  -0.0000000), wk =   0.0408163
        k(   48) = (  -0.2500000   0.8571428   0.0000000), wk =   0.0408163
        k(   49) = (   0.2500000   0.2857143  -0.2857143), wk =   0.0408163
        k(   50) = (  -0.2500000   0.5714286   0.2857143), wk =   0.0408163
        k(   51) = (   0.2500000   0.5714286  -0.2857143), wk =   0.0408163
        k(   52) = (  -0.2500000   0.2857143  -0.5714286), wk =   0.0408163
        k(   53) = (  -0.2500000   0.8571428   0.2857143), wk =   0.0408163
        k(   54) = (   0.2500000   0.8571428  -0.2857143), wk =   0.0408163
        k(   55) = (  -0.2500000   0.2857143  -0.8571429), wk =   0.0408163
        k(   56) = (   0.2500000   0.5714286  -0.5714286), wk =   0.0408163
        k(   57) = (  -0.2500000   0.8571428   0.5714286), wk =   0.0408163
        k(   58) = (   0.2500000   0.8571428  -0.5714286), wk =   0.0408163
        k(   59) = (  -0.2500000   0.5714286  -0.8571429), wk =   0.0408163
        k(   60) = (   0.2500000   0.8571428  -0.8571429), wk =   0.0408163
        k(   61) = (   0.5000000   0.2857143   0.0000000), wk =   0.0204082
        k(   62) = (   0.5000000   0.5714286   0.0000000), wk =   0.0204082
        k(   63) = (   0.5000000   0.8571428   0.0000000), wk =   0.0204082
        k(   64) = (  -0.5000000   0.2857143  -0.2857143), wk =   0.0204082
        k(   65) = (   0.5000000   0.5714286   0.2857143), wk =   0.0204082
        k(   66) = (  -0.5000000   0.5714286  -0.2857143), wk =   0.0204082
        k(   67) = (   0.5000000   0.2857143  -0.5714286), wk =   0.0204082
        k(   68) = (   0.5000000   0.8571428   0.2857143), wk =   0.0204082
        k(   69) = (  -0.5000000   0.8571428  -0.2857143), wk =   0.0204082
        k(   70) = (   0.5000000   0.2857143  -0.8571429), wk =   0.0204082
        k(   71) = (  -0.5000000   0.5714286  -0.5714286), wk =   0.0204082
        k(   72) = (   0.5000000   0.8571428   0.5714286), wk =   0.0204082
        k(   73) = (  -0.5000000   0.8571428  -0.5714286), wk =   0.0204082
        k(   74) = (   0.5000000   0.5714286  -0.8571429), wk =   0.0204082
        k(   75) = (  -0.5000000   0.8571428  -0.8571429), wk =   0.0204082

     Dense  grid:   119837 G-vectors     FFT dimensions: ( 100,  50,  50)

     Smooth grid:    42425 G-vectors     FFT dimensions: (  72,  36,  36)

     Estimated max dynamical RAM per process >     184.12 MB

     Estimated total dynamical RAM >       1.24 GB

     Check: negative core charge=   -0.000004

     Initial potential from superposition of free atoms

     starting charge      77.9659, renormalised to      80.0000

     negative rho (up, down):  2.658E-03 0.000E+00
     Starting wfcs are   54 randomized atomic wfcs
     Checking if some PAW data can be deallocated... 

     total cpu time spent up to now is        4.3 secs

     per-process dynamical memory:   132.6 Mb

     Self-consistent Calculation

     iteration #  1     ecut=    50.00 Ry     beta= 0.40
     Davidson diagonalization with overlap
     ethr =  1.00E-02,  avg # of iterations =  2.0

     negative rho (up, down):  2.741E-03 0.000E+00

     total cpu time spent up to now is        8.9 secs

     total energy              =   -1361.33029740 Ry
     estimated scf accuracy    <       1.47680721 Ry

     iteration #  2     ecut=    50.00 Ry     beta= 0.40
     Davidson diagonalization with overlap
     ethr =  1.85E-03,  avg # of iterations =  3.1

     negative rho (up, down):  2.301E-03 0.000E+00

     total cpu time spent up to now is       13.7 secs

     total energy              =   -1361.63514681 Ry
     estimated scf accuracy    <       0.45762950 Ry

     iteration #  3     ecut=    50.00 Ry     beta= 0.40
     Davidson diagonalization with overlap
     ethr =  5.72E-04,  avg # of iterations =  6.3

     negative rho (up, down):  2.338E-03 0.000E+00

     total cpu time spent up to now is       19.1 secs

     total energy              =   -1361.72152373 Ry
     estimated scf accuracy    <       0.04489242 Ry

     iteration #  4     ecut=    50.00 Ry     beta= 0.40
     Davidson diagonalization with overlap
     ethr =  5.61E-05,  avg # of iterations =  7.7

     negative rho (up, down):  2.277E-03 0.000E+00

     total cpu time spent up to now is       24.9 secs

     total energy              =   -1361.72499742 Ry
     estimated scf accuracy    <       0.00909294 Ry

     iteration #  5     ecut=    50.00 Ry     beta= 0.40
     Davidson diagonalization with overlap
     c_bands:  1 eigenvalues not converged
     ethr =  1.14E-05,  avg # of iterations =  5.2

     negative rho (up, down):  2.244E-03 0.000E+00

     total cpu time spent up to now is       30.3 secs

     total energy              =   -1361.72628017 Ry
     estimated scf accuracy    <       0.00102128 Ry

     iteration #  6     ecut=    50.00 Ry     beta= 0.40
     Davidson diagonalization with overlap
     ethr =  1.28E-06,  avg # of iterations =  6.1

     negative rho (up, down):  2.202E-03 0.000E+00

     total cpu time spent up to now is       35.9 secs

     total energy              =   -1361.72645035 Ry
     estimated scf accuracy    <       0.00036819 Ry

     iteration #  7     ecut=    50.00 Ry     beta= 0.40
     Davidson diagonalization with overlap
     ethr =  4.60E-07,  avg # of iterations =  2.6

     negative rho (up, down):  2.207E-03 0.000E+00

     total cpu time spent up to now is       40.4 secs

     total energy              =   -1361.72646556 Ry
     estimated scf accuracy    <       0.00009811 Ry

     iteration #  8     ecut=    50.00 Ry     beta= 0.40
     Davidson diagonalization with overlap
     ethr =  1.23E-07,  avg # of iterations =  3.0

     negative rho (up, down):  2.206E-03 0.000E+00

     total cpu time spent up to now is       45.3 secs

     total energy              =   -1361.72648967 Ry
     estimated scf accuracy    <       0.00002687 Ry

     iteration #  9     ecut=    50.00 Ry     beta= 0.40
     Davidson diagonalization with overlap
     ethr =  3.36E-08,  avg # of iterations =  2.4

     negative rho (up, down):  2.205E-03 0.000E+00

     total cpu time spent up to now is       49.6 secs

     total energy              =   -1361.72649161 Ry
     estimated scf accuracy    <       0.00000294 Ry

     iteration # 10     ecut=    50.00 Ry     beta= 0.40
     Davidson diagonalization with overlap
     ethr =  3.67E-09,  avg # of iterations =  4.0

     negative rho (up, down):  2.205E-03 0.000E+00

     total cpu time spent up to now is       54.3 secs

     total energy              =   -1361.72649260 Ry
     estimated scf accuracy    <       0.00000046 Ry

     iteration # 11     ecut=    50.00 Ry     beta= 0.40
     Davidson diagonalization with overlap
     ethr =  5.80E-10,  avg # of iterations =  2.3

     negative rho (up, down):  2.205E-03 0.000E+00

     total cpu time spent up to now is       59.0 secs

     total energy              =   -1361.72649267 Ry
     estimated scf accuracy    <       0.00000009 Ry

     iteration # 12     ecut=    50.00 Ry     beta= 0.40
     Davidson diagonalization with overlap
     ethr =  1.17E-10,  avg # of iterations =  2.2

     negative rho (up, down):  2.205E-03 0.000E+00

     total cpu time spent up to now is       63.7 secs

     total energy              =   -1361.72649269 Ry
     estimated scf accuracy    <       0.00000001 Ry

     iteration # 13     ecut=    50.00 Ry     beta= 0.40
     Davidson diagonalization with overlap
     ethr =  1.75E-11,  avg # of iterations =  4.0

     negative rho (up, down):  2.205E-03 0.000E+00

     total cpu time spent up to now is       68.7 secs

     total energy              =   -1361.72649269 Ry
     estimated scf accuracy    <          3.2E-09 Ry

     iteration # 14     ecut=    50.00 Ry     beta= 0.40
     Davidson diagonalization with overlap
     ethr =  4.04E-12,  avg # of iterations =  2.3

     negative rho (up, down):  2.205E-03 0.000E+00

     total cpu time spent up to now is       73.3 secs

     End of self-consistent calculation

          k = 0.0000 0.0000 0.0000 (  5267 PWs)   bands (ev):

   -45.3719 -45.3711 -23.6146 -23.6142 -21.2901 -21.2403 -21.2258 -21.2239
   -15.0693 -14.9707  -6.8700  -6.6431  -5.7452  -5.6290  -5.3907  -5.2539
    -0.3530  -0.3172  -0.1546  -0.1414   0.0829   0.1209   5.1137   5.1150
     5.5047   5.5703   6.6073   7.3455   7.9042   8.2344   8.2863   8.3573
     8.4644   8.7216   8.9327   9.1147   9.4116   9.4805  10.0472  10.1882
    12.8345  14.0802  14.4797  14.6111  14.9658  15.2194  15.4698  15.8834

          k = 0.0000 0.0000 0.2857 (  5307 PWs)   bands (ev):

   -45.3717 -45.3710 -23.6141 -23.6137 -21.2893 -21.2400 -21.2352 -21.2328
   -15.0513 -14.9591  -6.8147  -6.6757  -5.7264  -5.6065  -5.3897  -5.2996
    -0.3183  -0.2524  -0.1980  -0.1925   0.0998   0.1120   5.2193   5.2464
     5.3948   5.4373   6.5350   7.3073   7.7869   7.9707   8.0255   8.3232
     8.3672   8.4555   9.1049   9.3265   9.4305   9.6282   9.8019   9.9707
    13.1777  14.2654  14.5762  14.6005  15.0947  15.2101  15.4229  15.9536

          k = 0.0000 0.0000 0.5714 (  5327 PWs)   bands (ev):

   -45.3714 -45.3706 -23.6131 -23.6127 -21.2875 -21.2560 -21.2527 -21.2391
   -15.0103 -14.9327  -6.7630  -6.6871  -5.7089  -5.5568  -5.4035  -5.3400
    -0.3308  -0.3074  -0.2377  -0.1088   0.1177   0.1798   5.1470   5.1725
     5.4591   5.5297   6.3177   7.1148   7.2667   7.5416   7.9300   8.2267
     8.3866   8.5228   8.8465   9.0395   9.2867   9.4811   9.5275  10.2191
    13.8651  14.6140  14.6717  14.6883  15.1089  15.8070  16.0526  16.0625

          k = 0.0000 0.0000 0.8571 (  5310 PWs)   bands (ev):

   -45.3710 -45.3703 -23.6122 -23.6119 -21.2861 -21.2726 -21.2685 -21.2384
   -14.9769 -14.9114  -6.8445  -6.5806  -5.7111  -5.5185  -5.4879  -5.2643
    -0.4572  -0.3800  -0.1702   0.0041   0.1598   0.2372   4.9491   4.9838
     5.6771   5.7496   6.0894   6.8556   6.8971   7.3735   8.0030   8.1878
     8.3660   8.4874   8.6364   8.8678   8.9521   9.1616   9.4581  10.4930
    14.4004  14.7207  14.9513  15.0241  15.5392  15.9267  15.9855  16.2499

          k = 0.0000 0.2857 0.2857 (  5292 PWs)   bands (ev):

   -45.3715 -45.3708 -23.6215 -23.6209 -21.2884 -21.2396 -21.2346 -21.2324
   -15.0348 -14.9482  -6.7178  -6.6031  -5.7988  -5.5909  -5.3883  -5.3284
    -0.3233  -0.3087  -0.2277  -0.2078   0.1111   0.1168   5.1014   5.1569
     5.3752   5.4068   6.4493   6.9236   7.4451   7.9693   8.0263   8.2722
     8.3193   8.7395   9.1779   9.2837   9.3897   9.6103   9.8486   9.8912
    13.2336  14.5180  14.6089  14.8126  15.0980  15.5001  15.6588  16.0951

          k = 0.0000 0.2857 0.5714 (  5303 PWs)   bands (ev):

   -45.3712 -45.3704 -23.6203 -23.6199 -21.2867 -21.2552 -21.2522 -21.2387
   -14.9966 -14.9222  -6.6792  -6.5959  -5.7401  -5.5350  -5.3981  -5.3597
    -0.4344  -0.4311  -0.2117  -0.1941   0.1127   0.1481   5.0924   5.1124
     5.4087   5.4600   6.2745   6.8794   7.4266   7.4702   7.7048   7.9603
     8.3792   8.7522   9.0153   9.1297   9.3617   9.4555   9.5369  10.2208
    13.8908  14.6756  14.7913  14.8962  15.1957  15.8317  16.0866  16.3276

          k = 0.0000 0.2857 0.8571 (  5300 PWs)   bands (ev):

   -45.3709 -45.3701 -23.6194 -23.6190 -21.2854 -21.2716 -21.2679 -21.2380
   -14.9656 -14.9010  -6.7503  -6.4983  -5.7069  -5.4920  -5.4571  -5.3020
    -0.5657  -0.5038  -0.1583  -0.1062   0.0765   0.1362   4.9067   4.9433
     5.6326   5.6829   6.0713   6.7583   7.1589   7.3227   7.7178   7.8319
     8.4923   8.7184   8.8628   8.9070   9.0329   9.1305   9.5030  10.5149
    14.3982  14.8029  15.1000  15.1427  15.6316  15.9117  16.0059  16.2756

          k = 0.0000 0.5714 0.5714 (  5288 PWs)   bands (ev):

   -45.3707 -45.3700 -23.6366 -23.6358 -21.2850 -21.2534 -21.2510 -21.2379
   -14.9657 -14.8982  -6.4735  -6.3818  -5.8416  -5.4874  -5.3882  -5.3821
    -0.6523  -0.6168  -0.3302  -0.2173  -0.0498   0.1583   4.9010   5.0746
     5.3122   5.3149   6.0683   6.2383   7.0619   7.5999   7.8565   7.8927
     8.2175   9.0483   9.1813   9.2779   9.3306   9.4750   9.7591  10.2217
    13.9427  14.7811  15.1458  15.4471  15.4535  15.9766  16.2012  16.7144

          k = 0.0000 0.5714 0.8571 (  5276 PWs)   bands (ev):

   -45.3704 -45.3697 -23.6355 -23.6349 -21.2839 -21.2695 -21.2667 -21.2372
   -14.9400 -14.8777  -6.5145  -6.3105  -5.7205  -5.4502  -5.3849  -5.3568
    -0.8035  -0.7616  -0.3516  -0.3244  -0.0349   0.0693   4.7176   4.9183
     5.5660   5.5678   5.9377   6.2637   7.0357   7.3852   7.5894   7.7961
     8.4118   8.8472   9.1217   9.1946   9.3497   9.4169   9.6612  10.5589
    14.3838  14.9740  15.3527  15.6108  15.7245  15.9492  16.1911  16.2189

          k = 0.0000 0.8571 0.8571 (  5288 PWs)   bands (ev):

   -45.3701 -45.3693 -23.6483 -23.6475 -21.2827 -21.2678 -21.2658 -21.2365
   -14.9192 -14.8587  -6.2726  -6.1655  -5.7734  -5.4736  -5.3302  -5.3238
    -0.9903  -0.9469  -0.6199  -0.4916   0.0070   0.0203   4.5596   4.8826
     5.5020   5.5078   5.6947   5.8278   6.7788   7.3153   7.5734   8.1537
     8.2985   8.8874   9.2389   9.5318   9.6363   9.7736   9.8466  10.5847
    14.3690  15.0971  15.6192  15.6592  16.0122  16.0259  16.2862  16.5297

          k = 0.2500 0.0000 0.0000 (  5290 PWs)   bands (ev):

   -45.3718 -45.3712 -23.6145 -23.6142 -21.2829 -21.2477 -21.2256 -21.2242
   -15.0551 -14.9854  -6.8313  -6.6696  -5.7098  -5.6284  -5.4013  -5.3026
    -0.3080  -0.2928  -0.1685  -0.1623   0.0738   0.0950   5.1694   5.1828
     5.4454   5.5049   6.7700   7.3068   7.9162   8.2277   8.2916   8.3548
     8.3993   8.8510   9.0116   9.1002   9.3891   9.4178   9.8553   9.9156
    13.1255  14.2689  14.3576  14.6943  15.1216  15.4243  15.6406  15.7894

          k = 0.2500 0.0000 0.2857 (  5297 PWs)   bands (ev):

   -45.3716 -45.3711 -23.6141 -23.6138 -21.2822 -21.2473 -21.2348 -21.2332
   -15.0380 -14.9728  -6.7874  -6.6881  -5.6884  -5.6010  -5.4098  -5.3479
    -0.3479  -0.2750  -0.1843  -0.1317   0.0946   0.1017   5.1049   5.2334
     5.4205   5.5508   6.6887   7.2415   7.8281   8.0282   8.0450   8.2488
     8.4057   8.5357   9.0511   9.2369   9.2903   9.4109   9.7628  10.0574
    13.3505  14.3578  14.4544  14.7878  15.1252  15.2261  15.6761  16.1005

          k = 0.2500 0.0000 0.5714 (  5313 PWs)   bands (ev):

   -45.3712 -45.3707 -23.6130 -23.6128 -21.2805 -21.2555 -21.2532 -21.2462
   -14.9991 -14.9443  -6.7452  -6.6911  -5.6720  -5.5376  -5.4464  -5.3741
    -0.3875  -0.3062  -0.2051  -0.0788   0.1242   0.1671   5.0230   5.2465
     5.3982   5.6526   6.4648   7.0267   7.4040   7.6286   7.9233   8.2332
     8.2439   8.5471   8.8160   8.8501   9.0461   9.3306   9.8700  10.2245
    13.9047  14.4547  14.8028  14.8241  15.1082  15.6855  16.1913  16.3665

          k = 0.2500 0.0000 0.8571 (  5301 PWs)   bands (ev):

   -45.3709 -45.3704 -23.6122 -23.6120 -21.2792 -21.2720 -21.2691 -21.2455
   -14.9675 -14.9211  -6.8047  -6.6177  -5.6814  -5.5239  -5.4819  -5.3019
    -0.4339  -0.3142  -0.2290  -0.0447   0.1686   0.2228   4.9876   5.1541
     5.4929   5.6816   6.2735   6.8149   7.0220   7.4812   7.9618   8.1318
     8.2020   8.4013   8.6109   8.7108   8.8129   9.3114   9.6658  10.4252
    14.3973  14.6285  15.0186  15.1418  15.5090  15.6332  16.3002  16.5279

          k = 0.2500 0.2857 0.2857 (  5300 PWs)   bands (ev):

   -45.3714 -45.3709 -23.6214 -23.6210 -21.2813 -21.2468 -21.2342 -21.2327
   -15.0223 -14.9611  -6.6942  -6.6120  -5.7598  -5.6032  -5.4032  -5.3625
    -0.3652  -0.3327  -0.2168  -0.2037   0.1325   0.1565   5.0103   5.1763
     5.3456   5.5152   6.5718   6.8970   7.4893   7.9187   8.0054   8.1964
     8.4125   8.7976   9.1382   9.2008   9.3444   9.4782   9.7432  10.0148
    13.4076  14.3735  14.6344  14.9900  15.1668  15.4303  15.9123  16.1600

          k = 0.2500 0.2857 0.5714 (  5304 PWs)   bands (ev):

   -45.3711 -45.3705 -23.6203 -23.6199 -21.2798 -21.2548 -21.2526 -21.2458
   -14.9858 -14.9332  -6.6606  -6.6015  -5.7018  -5.5331  -5.4352  -5.3810
    -0.4773  -0.3831  -0.2936  -0.1879   0.1493   0.1869   4.9665   5.1664
     5.3629   5.5900   6.3979   6.8228   7.4538   7.5725   7.7243   8.0017
     8.1951   8.6681   8.9937   9.0936   9.1315   9.3772   9.8495  10.2208
    13.9390  14.4823  14.9037  15.0307  15.2044  15.7560  16.2791  16.5147

          k = 0.2500 0.2857 0.8571 (  5302 PWs)   bands (ev):

   -45.3707 -45.3702 -23.6193 -23.6191 -21.2785 -21.2711 -21.2685 -21.2450
   -14.9563 -14.9106  -6.7120  -6.5336  -5.6742  -5.4996  -5.4616  -5.3288
    -0.5416  -0.4431  -0.2660  -0.1617   0.1055   0.1649   4.9467   5.1084
     5.4474   5.6334   6.2284   6.6934   7.2730   7.4335   7.7201   7.8473
     8.1726   8.4623   8.8874   8.9021   8.9515   9.3941   9.6241  10.4369
    14.4064  14.6815  15.1808  15.2314  15.5980  15.7159  16.3541  16.5270

          k = 0.2500 0.5714 0.5714 (  5299 PWs)   bands (ev):

   -45.3706 -45.3701 -23.6365 -23.6359 -21.2781 -21.2531 -21.2514 -21.2448
   -14.9559 -14.9082  -6.4538  -6.3894  -5.7985  -5.5472  -5.4009  -5.3685
    -0.6593  -0.5623  -0.3957  -0.2683  -0.0115   0.1849   4.8264   5.0405
     5.2925   5.4854   6.0986   6.2155   7.2043   7.5843   7.7927   8.0228
     8.1039   8.7970   9.1644   9.2726   9.3974   9.4709   9.8255  10.1967
    14.0192  14.5906  15.2533  15.5149  15.5288  15.9279  16.3593  16.8882

          k = 0.2500 0.5714 0.8571 (  5277 PWs)   bands (ev):

   -45.3703 -45.3698 -23.6354 -23.6350 -21.2771 -21.2691 -21.2671 -21.2441
   -14.9310 -14.8869  -6.4822  -6.3380  -5.6790  -5.4562  -5.4231  -5.3629
    -0.7598  -0.6954  -0.4002  -0.3535  -0.1266   0.0952   4.8153   5.0470
     5.3612   5.5593   6.0184   6.2384   7.1688   7.3880   7.6216   7.8428
     8.1977   8.5519   9.2407   9.3029   9.3607   9.4725   9.6810  10.4493
    14.4263  14.8227  15.4625  15.6196  15.8437  15.9231  16.2978  16.5048

          k = 0.2500 0.8571 0.8571 (  5271 PWs)   bands (ev):

   -45.3700 -45.3695 -23.6482 -23.6477 -21.2759 -21.2675 -21.2661 -21.2433
   -14.9105 -14.8677  -6.2545  -6.1785  -5.7205  -5.4479  -5.4217  -5.3260
    -0.9269  -0.8446  -0.5802  -0.5374  -0.1593  -0.0307   4.7032   4.9990
     5.2966   5.5158   5.7157   5.8167   6.9589   7.3085   7.6169   8.1615
     8.2918   8.6037   9.3355   9.5867   9.6440   9.7270   9.8162  10.4242
    14.4490  14.9424  15.7585  15.9399  16.0304  16.1490  16.3200  16.5359

          k =-0.5000-0.0000-0.0000 (  5338 PWs)   bands (ev):

   -45.3715 -45.3715 -23.6144 -23.6144 -21.2654 -21.2653 -21.2249 -21.2249
   -15.0205 -15.0205  -6.7445  -6.7445  -5.6470  -5.6470  -5.3857  -5.3857
    -0.2325  -0.2325  -0.2149  -0.2149   0.0657   0.0657   5.3055   5.3056
     5.3451   5.3452   7.1074   7.1074   8.0067   8.0067   8.3230   8.3230
     8.6493   8.6493   9.2601   9.2601   9.4200   9.4200   9.5029   9.5029
    13.7577  13.7577  14.6615  14.6615  15.5692  15.5692  15.7707  15.7707

          k =-0.5000-0.0000 0.2857 (  5332 PWs)   bands (ev):

   -45.3714 -45.3713 -23.6139 -23.6139 -21.2648 -21.2648 -21.2340 -21.2340
   -15.0056 -15.0056  -6.7303  -6.7303  -5.6153  -5.6153  -5.4207  -5.4207
    -0.3364  -0.3364  -0.1199  -0.1199   0.0884   0.0884   5.1072   5.1072
     5.5534   5.5534   7.0134   7.0134   7.9813   7.9813   8.0783   8.0783
     8.6706   8.6706   8.9207   8.9207   9.2009   9.2009   9.9512   9.9513
    13.8264  13.8264  14.8755  14.8755  15.1093  15.1093  16.2428  16.2428

          k =-0.5000 0.0000 0.5714 (  5308 PWs)   bands (ev):

   -45.3710 -45.3709 -23.6129 -23.6129 -21.2635 -21.2635 -21.2543 -21.2543
   -14.9719 -14.9719  -6.7112  -6.7112  -5.5783  -5.5783  -5.4473  -5.4473
    -0.3807  -0.3807  -0.1044  -0.1044   0.1424   0.1425   5.0600   5.0600
     5.6039   5.6039   6.7802   6.7802   7.7416   7.7416   7.8889   7.8889
     8.3358   8.3358   8.8195   8.8196   9.0466   9.0466  10.1481  10.1481
    14.1159  14.1159  15.0058  15.0058  15.2274  15.2274  16.8428  16.8430

          k =-0.5000 0.0000 0.8571 (  5290 PWs)   bands (ev):

   -45.3707 -45.3706 -23.6121 -23.6120 -21.2706 -21.2705 -21.2623 -21.2623
   -14.9444 -14.9444  -6.7099  -6.7099  -5.6057  -5.6057  -5.3924  -5.3924
    -0.3466  -0.3466  -0.1735  -0.1735   0.1930   0.1930   5.2029   5.2029
     5.4438   5.4438   6.5877   6.5877   7.4733   7.4733   7.7884   7.7884
     8.2738   8.2738   8.6243   8.6243   8.9913   8.9913  10.1652  10.1653
    14.4662  14.4662  15.2270  15.2270  15.3971  15.3971  16.5622  16.5622

          k =-0.5000 0.2857 0.2857 (  5312 PWs)   bands (ev):

   -45.3712 -45.3711 -23.6212 -23.6212 -21.2641 -21.2641 -21.2335 -21.2334
   -14.9919 -14.9919  -6.6457  -6.6457  -5.6678  -5.6678  -5.4077  -5.4077
    -0.3770  -0.3770  -0.2054  -0.2054   0.1728   0.1728   5.0327   5.0327
     5.4944   5.4944   6.7863   6.7863   7.6825   7.6825   8.0531   8.0531
     8.7325   8.7325   9.0524   9.0524   9.2983   9.2983   9.9320   9.9320
    13.8670  13.8670  14.9706  14.9706  15.2431  15.2432  16.4293  16.4293

          k =-0.5000 0.2857 0.5714 (  5296 PWs)   bands (ev):

   -45.3708 -45.3708 -23.6201 -23.6201 -21.2629 -21.2629 -21.2537 -21.2536
   -14.9597 -14.9597  -6.6246  -6.6246  -5.6045  -5.6045  -5.4301  -5.4301
    -0.4535  -0.4535  -0.2476  -0.2476   0.2007   0.2008   4.9960   4.9960
     5.5509   5.5509   6.6473   6.6473   7.5895   7.5895   7.8680   7.8680
     8.2636   8.2636   9.0509   9.0510   9.1691   9.1691  10.1358  10.1358
    14.1497  14.1497  15.0983  15.0983  15.3687  15.3687  16.9395  16.9395

          k =-0.5000 0.2857 0.8571 (  5292 PWs)   bands (ev):

   -45.3705 -45.3705 -23.6192 -23.6192 -21.2698 -21.2698 -21.2618 -21.2618
   -14.9336 -14.9336  -6.6213  -6.6212  -5.5903  -5.5903  -5.3949  -5.3949
    -0.4410  -0.4410  -0.2974  -0.2974   0.1571   0.1571   5.1573   5.1573
     5.4014   5.4014   6.5023   6.5023   7.5701   7.5701   7.7137   7.7137
     8.0518   8.0518   8.8817   8.8817   9.1411   9.1411  10.1520  10.1520
    14.4937  14.4937  15.3626  15.3626  15.4771  15.4771  16.8110  16.8110

          k =-0.5000 0.5714 0.5714 (  5290 PWs)   bands (ev):

   -45.3704 -45.3703 -23.6362 -23.6362 -21.2615 -21.2615 -21.2522 -21.2522
   -14.9322 -14.9322  -6.4156  -6.4156  -5.6822  -5.6822  -5.3832  -5.3832
    -0.5923  -0.5923  -0.3898  -0.3898   0.1238   0.1238   4.8652   4.8652
     5.4787   5.4787   6.1582   6.1583   7.4894   7.4894   7.8601   7.8601
     8.3198   8.3198   9.1957   9.1957   9.4630   9.4630  10.0492  10.0492
    14.2582  14.2582  15.4381  15.4381  15.7043  15.7043  17.0024  17.0024

          k =-0.5000 0.5714 0.8571 (  5278 PWs)   bands (ev):

   -45.3701 -45.3700 -23.6352 -23.6352 -21.2681 -21.2681 -21.2606 -21.2606
   -14.9091 -14.9091  -6.4078  -6.4077  -5.5712  -5.5712  -5.3940  -5.3940
    -0.6130  -0.6130  -0.5148  -0.5147  -0.0090  -0.0090   5.0655   5.0655
     5.3326   5.3326   6.1537   6.1537   7.3601   7.3601   7.8735   7.8735
     8.0436   8.0436   9.2876   9.2876   9.4286   9.4286  10.1056  10.1056
    14.5788  14.5788  15.6711  15.6711  15.7614  15.7614  16.9354  16.9354

          k =-0.5000 0.8571 0.8571 (  5276 PWs)   bands (ev):

   -45.3697 -45.3697 -23.6479 -23.6479 -21.2668 -21.2668 -21.2596 -21.2596
   -14.8892 -14.8892  -6.2142  -6.2141  -5.5808  -5.5808  -5.3846  -5.3846
    -0.7582  -0.7581  -0.5966  -0.5966  -0.2129  -0.2129   5.0027   5.0027
     5.2777   5.2777   5.7783   5.7783   7.2381   7.2381   7.9034   7.9034
     8.2977   8.2977   9.5221   9.5221   9.6468   9.6468  10.0611  10.0611
    14.6668  14.6668  15.9677  15.9677  16.1562  16.1562  16.8148  16.8150

          k = 0.0000 0.2857 0.0000 (  5307 PWs)   bands (ev):

   -45.3717 -45.3709 -23.6220 -23.6213 -21.2891 -21.2400 -21.2254 -21.2235
   -15.0517 -14.9596  -6.7723  -6.5762  -5.8284  -5.6168  -5.3859  -5.2989
    -0.3357  -0.2977  -0.1610  -0.1126   0.0567   0.1018   4.9768   5.0487
     5.5007   5.5253   6.5073   6.9110   7.4379   8.2085   8.2537   8.5385
     8.6317   8.7569   8.8963   9.0692   9.2548   9.4999   9.9985  10.1175
    12.9047  14.3469  14.6008  14.8186  15.2732  15.3278  15.6235  15.9880

          k = 0.0000 0.5714 0.0000 (  5327 PWs)   bands (ev):

   -45.3713 -45.3705 -23.6386 -23.6374 -21.2869 -21.2392 -21.2242 -21.2225
   -15.0116 -14.9346  -6.5366  -6.4298  -5.9834  -5.6158  -5.4006  -5.3733
    -0.3345  -0.2984  -0.2523  -0.0461   0.0106   0.2220   4.6975   4.9083
     5.4355   5.4762   5.9623   6.2631   7.0183   8.0051   8.0280   8.3909
     8.6948   8.7317   9.0442   9.1403   9.2080   9.5784   9.9370  10.0052
    13.0626  14.5702  15.0118  15.1726  15.7703  16.0236  16.1158  16.1693

          k = 0.0000 0.8571 0.0000 (  5310 PWs)   bands (ev):

   -45.3710 -45.3702 -23.6519 -23.6503 -21.2851 -21.2386 -21.2233 -21.2217
   -14.9790 -14.9143  -6.4208  -6.2246  -6.0664  -5.6521  -5.4827  -5.3620
    -0.5078  -0.2706  -0.2160  -0.0140   0.0094   0.3596   4.4909   4.8037
     5.3694   5.3993   5.4519   5.8384   6.9015   7.8199   7.8326   8.1195
     8.4716   8.8117   8.8879   9.3449   9.4618   9.7299   9.9209   9.9555
    13.1954  14.5365  15.2652  15.7112  15.8049  16.2142  16.4535  16.5946

          k =-0.0000 0.2857-0.2857 (  5292 PWs)   bands (ev):

   -45.3715 -45.3708 -23.6215 -23.6209 -21.2884 -21.2396 -21.2346 -21.2323
   -15.0350 -14.9482  -6.7218  -6.6032  -5.7968  -5.5893  -5.3883  -5.3283
    -0.3192  -0.2991  -0.2300  -0.2111   0.1081   0.1173   5.1126   5.1589
     5.3905   5.3993   6.4615   6.9119   7.4613   7.9415   8.0312   8.2624
     8.3039   8.7054   9.1743   9.2766   9.3793   9.6081   9.8447   9.9138
    13.2257  14.5175  14.6165  14.7321  15.2494  15.5189  15.6257  16.1966

          k = 0.0000 0.5714 0.2857 (  5303 PWs)   bands (ev):

   -45.3711 -45.3704 -23.6380 -23.6369 -21.2863 -21.2388 -21.2332 -21.2313
   -14.9975 -14.9234  -6.4946  -6.4266  -5.9504  -5.5769  -5.3959  -5.3771
    -0.4436  -0.3504  -0.2859  -0.2131   0.0491   0.2167   4.8717   5.0325
     5.2189   5.3742   6.0619   6.2370   7.0381   7.8552   8.0278   8.2066
     8.3204   9.0042   9.1109   9.1948   9.4755   9.6794   9.7680   9.8594
    13.3576  14.6218  15.1575  15.2004  15.3445  16.0417  16.2119  16.3007

          k =-0.0000 0.5714-0.2857 (  5303 PWs)   bands (ev):

   -45.3711 -45.3704 -23.6380 -23.6369 -21.2863 -21.2388 -21.2333 -21.2313
   -14.9978 -14.9234  -6.4970  -6.4324  -5.9463  -5.5734  -5.3958  -5.3773
    -0.4302  -0.3457  -0.2881  -0.2156   0.0455   0.2129   4.8826   5.0280
     5.2542   5.3678   6.0558   6.2330   7.0407   7.8327   8.0596   8.1573
     8.3077   8.9849   9.1031   9.1812   9.4889   9.6132   9.8386   9.8544
    13.3502  14.6310  15.1340  15.1529  15.4194  16.0651  16.2294  16.3412

          k =-0.0000 0.2857-0.5714 (  5303 PWs)   bands (ev):

   -45.3712 -45.3704 -23.6203 -23.6198 -21.2867 -21.2552 -21.2521 -21.2387
   -14.9969 -14.9222  -6.6786  -6.6019  -5.7383  -5.5320  -5.3980  -5.3596
    -0.4284  -0.4243  -0.2131  -0.1930   0.1100   0.1443   5.1124   5.1236
     5.4159   5.4547   6.2774   6.8675   7.4264   7.4622   7.6947   7.9598
     8.3783   8.6969   9.0339   9.1167   9.3615   9.4609   9.5030  10.2347
    13.8794  14.6921  14.7431  14.8935  15.3159  15.8521  16.0990  16.3693

          k = 0.0000 0.8571 0.2857 (  5300 PWs)   bands (ev):

   -45.3708 -45.3700 -23.6512 -23.6498 -21.2846 -21.2382 -21.2322 -21.2305
   -14.9672 -14.9034  -6.3647  -6.1966  -6.0689  -5.5941  -5.4526  -5.3639
    -0.6097  -0.3094  -0.2808  -0.2004  -0.0588   0.2913   4.7291   4.9348
     5.0456   5.3376   5.6283   5.8208   6.9120   7.7925   7.8711   8.1792
     8.3386   8.8332   9.0347   9.4439   9.4443   9.7266   9.8548   9.8604
    13.4633  14.6241  15.3355  15.6977  15.8517  16.2234  16.4261  16.6359

          k = 0.0000 0.8571-0.2857 (  5300 PWs)   bands (ev):

   -45.3708 -45.3700 -23.6512 -23.6497 -21.2846 -21.2382 -21.2322 -21.2305
   -14.9674 -14.9034  -6.3636  -6.2090  -6.0602  -5.5916  -5.4526  -5.3640
    -0.6046  -0.3052  -0.2804  -0.2040  -0.0601   0.2887   4.7335   4.9288
     5.0717   5.3351   5.6114   5.8253   6.9128   7.7828   7.8765   8.1661
     8.3356   8.8246   9.0396   9.4301   9.4411   9.7141   9.8591   9.8782
    13.4608  14.6273  15.3303  15.6953  15.8458  16.2367  16.4537  16.6270

          k =-0.0000 0.2857-0.8571 (  5300 PWs)   bands (ev):

   -45.3709 -45.3701 -23.6194 -23.6190 -21.2854 -21.2717 -21.2679 -21.2381
   -14.9657 -14.9010  -6.7502  -6.5011  -5.7066  -5.4900  -5.4570  -5.3020
    -0.5616  -0.5029  -0.1589  -0.1033   0.0756   0.1323   4.9164   4.9458
     5.6415   5.6839   6.0641   6.7526   7.1540   7.3139   7.7249   7.8352
     8.4948   8.6829   8.8952   8.9024   9.0065   9.1382   9.4913  10.5192
    14.3938  14.8080  15.0793  15.1449  15.6891  15.9361  16.0097  16.2890

          k =-0.0000 0.5714-0.5714 (  5288 PWs)   bands (ev):

   -45.3707 -45.3700 -23.6366 -23.6358 -21.2849 -21.2535 -21.2510 -21.2379
   -14.9660 -14.8982  -6.4731  -6.3924  -5.8361  -5.4837  -5.3880  -5.3820
    -0.6384  -0.6147  -0.3305  -0.2209  -0.0495   0.1531   4.9334   5.0861
     5.3090   5.3144   6.0788   6.2226   7.0685   7.5511   7.8447   7.8907
     8.2042   9.0299   9.1818   9.2698   9.3314   9.4789   9.7345  10.2393
    13.9333  14.7940  15.0836  15.4500  15.5337  16.0015  16.2246  16.7191

          k = 0.0000 0.8571 0.5714 (  5276 PWs)   bands (ev):

   -45.3704 -45.3697 -23.6496 -23.6485 -21.2835 -21.2520 -21.2501 -21.2372
   -14.9407 -14.8787  -6.2677  -6.1954  -5.9668  -5.4540  -5.3895  -5.3826
    -0.8258  -0.6731  -0.4172  -0.4066  -0.0598   0.1389   4.7334   5.0716
     5.2025   5.2271   5.7562   5.7843   6.8905   7.6001   7.8673   7.9911
     8.2613   9.0742   9.2652   9.2849   9.5157   9.6379   9.8291  10.2243
    13.9902  14.8532  15.5407  15.6183  16.0326  16.2759  16.3604  16.5615

          k =-0.0000 0.8571-0.5714 (  5276 PWs)   bands (ev):

   -45.3704 -45.3697 -23.6496 -23.6485 -21.2835 -21.2520 -21.2501 -21.2372
   -14.9409 -14.8787  -6.2667  -6.2053  -5.9605  -5.4524  -5.3890  -5.3826
    -0.8196  -0.6717  -0.4196  -0.4070  -0.0592   0.1362   4.7511   5.0764
     5.1997   5.2232   5.7562   5.7834   6.8906   7.5793   7.8604   7.9972
     8.2477   9.0731   9.2630   9.2964   9.5034   9.6386   9.8194  10.2328
    13.9873  14.8575  15.4794  15.6775  16.0259  16.2384  16.3820  16.5851

          k =-0.0000 0.5714-0.8571 (  5276 PWs)   bands (ev):

   -45.3704 -45.3697 -23.6355 -23.6349 -21.2839 -21.2695 -21.2667 -21.2372
   -14.9401 -14.8777  -6.5148  -6.3146  -5.7177  -5.4502  -5.3848  -5.3555
    -0.7977  -0.7609  -0.3533  -0.3241  -0.0343   0.0666   4.7316   4.9190
     5.5698   5.5734   5.9320   6.2619   7.0393   7.3586   7.5869   7.7923
     8.4092   8.8463   9.1260   9.1766   9.3708   9.4173   9.6380  10.5641
    14.3806  14.9784  15.3120  15.6118  15.7872  15.9449  16.2098  16.2289

          k =-0.0000 0.8571-0.8571 (  5288 PWs)   bands (ev):

   -45.3701 -45.3693 -23.6483 -23.6475 -21.2826 -21.2678 -21.2658 -21.2365
   -14.9193 -14.8587  -6.2735  -6.1675  -5.7704  -5.4757  -5.3284  -5.3238
    -0.9875  -0.9467  -0.6204  -0.4920   0.0073   0.0194   4.5665   4.8823
     5.5031   5.5075   5.6961   5.8266   6.7780   7.3046   7.5716   8.1577
     8.2914   8.8881   9.2439   9.5246   9.6406   9.7728   9.8402  10.5873
    14.3681  15.0987  15.5855  15.6742  16.0253  16.0583  16.2459  16.5421

          k =-0.2500 0.2857-0.0000 (  5297 PWs)   bands (ev):

   -45.3716 -45.3711 -23.6219 -23.6214 -21.2820 -21.2472 -21.2251 -21.2238
   -15.0384 -14.9733  -6.7379  -6.5977  -5.7902  -5.6340  -5.3936  -5.3337
    -0.3242  -0.2722  -0.2042  -0.1412   0.0792   0.1155   5.0482   5.1195
     5.4173   5.4566   6.6362   6.9104   7.4785   8.0621   8.2223   8.4003
     8.6528   8.9854   8.9956   9.0874   9.2779   9.4570   9.8050   9.9139
    13.1842  14.3628  14.4583  14.9948  15.3604  15.5849  15.7195  15.9117

          k =-0.2500 0.5714-0.0000 (  5313 PWs)   bands (ev):

   -45.3712 -45.3706 -23.6385 -23.6376 -21.2800 -21.2462 -21.2240 -21.2227
   -15.0005 -14.9461  -6.5112  -6.4316  -5.9501  -5.6932  -5.3885  -5.3694
    -0.3559  -0.3203  -0.2241  -0.0783   0.0623   0.2115   4.7875   4.9863
     5.3154   5.3603   6.0607   6.2568   7.1618   7.8744   8.0289   8.2520
     8.8008   8.9299   8.9905   9.1430   9.2038   9.6282   9.7502   9.8650
    13.3163  14.3686  15.0474  15.3881  15.7043  15.9434  16.0886  16.2541

          k =-0.2500 0.8571 0.0000 (  5301 PWs)   bands (ev):

   -45.3708 -45.3703 -23.6516 -23.6505 -21.2783 -21.2454 -21.2231 -21.2219
   -14.9697 -14.9239  -6.3694  -6.2160  -6.0658  -5.7925  -5.4096  -5.3579
    -0.4774  -0.3034  -0.1852  -0.0263   0.0293   0.3000   4.5836   4.8878
     5.1437   5.2923   5.6182   5.8147   7.0880   7.7821   7.8461   8.0412
     8.6047   8.9800   8.9830   9.1834   9.3545   9.6939   9.7552   9.8111
    13.4270  14.3663  15.4978  15.7028  15.8755  16.0334  16.4743  16.5782

          k = 0.2500 0.2857-0.2857 (  5300 PWs)   bands (ev):

   -45.3714 -45.3709 -23.6214 -23.6210 -21.2813 -21.2468 -21.2343 -21.2327
   -15.0225 -14.9611  -6.6976  -6.6126  -5.7577  -5.6014  -5.4030  -5.3631
    -0.3604  -0.3234  -0.2182  -0.2058   0.1289   0.1546   5.0195   5.1865
     5.3462   5.5172   6.5828   6.8901   7.5017   7.8992   8.0045   8.1821
     8.4005   8.7625   9.1268   9.1939   9.3456   9.4812   9.7364  10.0263
    13.4061  14.3839  14.6265  14.9314  15.2696  15.4536  15.8997  16.2289

          k =-0.2500 0.5714 0.2857 (  5304 PWs)   bands (ev):

   -45.3710 -45.3705 -23.6379 -23.6371 -21.2794 -21.2458 -21.2330 -21.2316
   -14.9868 -14.9345  -6.4760  -6.4258  -5.9119  -5.6513  -5.3903  -5.3703
    -0.4611  -0.3899  -0.2794  -0.2221   0.1040   0.2253   4.8166   5.0384
     5.1950   5.4512   6.0971   6.2273   7.1809   7.7899   7.9780   8.0989
     8.4931   9.0364   9.0653   9.1552   9.4278   9.5201   9.7588   9.9181
    13.5351  14.4184  15.1949  15.3710  15.4279  15.8141  16.3264  16.5225

          k = 0.2500 0.5714-0.2857 (  5304 PWs)   bands (ev):

   -45.3710 -45.3705 -23.6378 -23.6371 -21.2794 -21.2458 -21.2330 -21.2316
   -14.9871 -14.9345  -6.4788  -6.4309  -5.9080  -5.6478  -5.3902  -5.3706
    -0.4491  -0.3841  -0.2816  -0.2232   0.1001   0.2203   4.8290   5.0578
     5.1937   5.4509   6.0944   6.2277   7.1821   7.7706   7.9848   8.0743
     8.4846   9.0182   9.0348   9.1528   9.4182   9.5377   9.7423   9.9386
    13.5349  14.4315  15.1750  15.3163  15.4987  15.8199  16.3604  16.6012

          k =-0.2500 0.2857-0.5714 (  5304 PWs)   bands (ev):

   -45.3711 -45.3705 -23.6202 -23.6199 -21.2798 -21.2548 -21.2526 -21.2458
   -14.9861 -14.9333  -6.6608  -6.6064  -5.7000  -5.5302  -5.4352  -5.3813
    -0.4707  -0.3739  -0.2973  -0.1852   0.1457   0.1817   4.9797   5.1825
     5.3661   5.5935   6.3984   6.8134   7.4526   7.5491   7.7247   8.0002
     8.1988   8.6501   8.9631   9.0916   9.1286   9.3563   9.8430  10.2338
    13.9353  14.4970  14.8827  15.0240  15.2878  15.7709  16.2981  16.5653

          k =-0.2500 0.8571 0.2857 (  5302 PWs)   bands (ev):

   -45.3707 -45.3701 -23.6510 -23.6500 -21.2778 -21.2450 -21.2319 -21.2307
   -14.9580 -14.9129  -6.3221  -6.1983  -6.0465  -5.7346  -5.3858  -5.3562
    -0.5856  -0.3894  -0.2385  -0.1772  -0.0250   0.2338   4.6806   4.8967
     5.0867   5.4092   5.6317   5.7959   7.1020   7.7384   7.9142   8.0510
     8.5414   8.9296   9.0923   9.2610   9.3311   9.5431   9.7983   9.8575
    13.6423  14.4533  15.5532  15.7664  15.8523  16.0813  16.5147  16.7086

          k = 0.2500 0.8571-0.2857 (  5302 PWs)   bands (ev):

   -45.3707 -45.3701 -23.6509 -23.6500 -21.2778 -21.2450 -21.2319 -21.2307
   -14.9581 -14.9129  -6.3218  -6.2080  -6.0397  -5.7324  -5.3856  -5.3563
    -0.5808  -0.3866  -0.2380  -0.1778  -0.0272   0.2307   4.6864   4.9110
     5.0824   5.4081   5.6225   5.8007   7.1027   7.7299   7.9165   8.0407
     8.5413   8.9203   9.1007   9.2470   9.3049   9.5683   9.7853   9.8696
    13.6432  14.4586  15.5453  15.7668  15.8404  16.0811  16.5634  16.6984

          k =-0.2500 0.2857-0.8571 (  5302 PWs)   bands (ev):

   -45.3707 -45.3702 -23.6193 -23.6191 -21.2785 -21.2711 -21.2685 -21.2450
   -14.9564 -14.9106  -6.7121  -6.5357  -5.6739  -5.4988  -5.4609  -5.3287
    -0.5380  -0.4407  -0.2673  -0.1587   0.1042   0.1610   4.9536   5.1154
     5.4518   5.6351   6.2232   6.6875   7.2674   7.4208   7.7295   7.8486
     8.1781   8.4627   8.8417   8.9168   8.9579   9.3818   9.6231  10.4406
    14.4063  14.6883  15.1775  15.2257  15.6259  15.7352  16.3795  16.5352

          k = 0.2500 0.5714-0.5714 (  5299 PWs)   bands (ev):

   -45.3706 -45.3701 -23.6365 -23.6359 -21.2781 -21.2531 -21.2514 -21.2448
   -14.9562 -14.9082  -6.4546  -6.3981  -5.7933  -5.5427  -5.4014  -5.3692
    -0.6496  -0.5538  -0.4005  -0.2683  -0.0121   0.1795   4.8495   5.0540
     5.2978   5.4834   6.1081   6.2044   7.2046   7.5335   7.7737   8.0361
     8.0974   8.7984   9.1311   9.2674   9.3921   9.4665   9.8138  10.2148
    14.0173  14.6072  15.2118  15.5108  15.5738  15.9439  16.4100  16.8878

          k =-0.2500 0.8571 0.5714 (  5277 PWs)   bands (ev):

   -45.3703 -45.3698 -23.6494 -23.6487 -21.2768 -21.2517 -21.2504 -21.2440
   -14.9317 -14.8879  -6.2486  -6.2002  -5.9179  -5.5830  -5.3751  -5.3367
    -0.8030  -0.5931  -0.4940  -0.3379  -0.1262   0.0841   4.7051   4.9672
     5.2381   5.4116   5.7378   5.7585   7.0908   7.5912   7.8365   7.9966
     8.3252   8.9131   9.1765   9.3619   9.4662   9.6297   9.7955  10.1237
    14.0953  14.6869  15.7044  15.7529  16.0453  16.2175  16.4666  16.6943

          k = 0.2500 0.8571-0.5714 (  5277 PWs)   bands (ev):

   -45.3703 -45.3698 -23.6494 -23.6487 -21.2768 -21.2517 -21.2504 -21.2440
   -14.9319 -14.8879  -6.2485  -6.2081  -5.9125  -5.5801  -5.3760  -5.3364
    -0.7984  -0.5842  -0.5031  -0.3383  -0.1244   0.0815   4.7178   4.9705
     5.2420   5.4069   5.7399   5.7563   7.0894   7.5680   7.8273   8.0048
     8.3218   8.9167   9.1620   9.3657   9.4596   9.6297   9.7864  10.1348
    14.0958  14.6936  15.6412  15.7989  16.0440  16.1985  16.4933  16.7270

          k =-0.2500 0.5714-0.8571 (  5277 PWs)   bands (ev):

   -45.3703 -45.3698 -23.6354 -23.6350 -21.2771 -21.2691 -21.2671 -21.2441
   -14.9311 -14.8869  -6.4829  -6.3414  -5.6763  -5.4542  -5.4237  -5.3635
    -0.7553  -0.6926  -0.4039  -0.3530  -0.1252   0.0931   4.8280   5.0486
     5.3685   5.5579   6.0170   6.2377   7.1661   7.3599   7.6179   7.8432
     8.2055   8.5502   9.2176   9.3163   9.3552   9.4757   9.6700  10.4547
    14.4264  14.8293  15.4342  15.6239  15.8719  15.9283  16.3143  16.5197

          k = 0.2500 0.8571-0.8571 (  5271 PWs)   bands (ev):

   -45.3700 -45.3695 -23.6482 -23.6476 -21.2759 -21.2675 -21.2661 -21.2433
   -14.9105 -14.8677  -6.2555  -6.1803  -5.7176  -5.4511  -5.4181  -5.3268
    -0.9256  -0.8422  -0.5843  -0.5357  -0.1586  -0.0312   4.7093   4.9987
     5.2990   5.5149   5.7170   5.8160   6.9560   7.2975   7.6152   8.1665
     8.2895   8.6025   9.3349   9.5796   9.6494   9.7256   9.8117  10.4276
    14.4492  14.9450  15.7300  15.9576  16.0502  16.1364  16.3158  16.5519

          k = 0.5000 0.2857 0.0000 (  5332 PWs)   bands (ev):

   -45.3714 -45.3713 -23.6217 -23.6217 -21.2647 -21.2647 -21.2244 -21.2244
   -15.0061 -15.0061  -6.6615  -6.6615  -5.7011  -5.7011  -5.3854  -5.3853
    -0.2785  -0.2785  -0.2079  -0.2079   0.1136   0.1136   5.2268   5.2269
     5.2891   5.2892   6.8427   6.8427   7.6939   7.6939   8.2781   8.2782
     8.8191   8.8191   9.2467   9.2467   9.3933   9.3933   9.5774   9.5774
    13.7916  13.7917  14.8006  14.8006  15.6930  15.6930  15.9138  15.9139

          k = 0.5000 0.5714 0.0000 (  5308 PWs)   bands (ev):

   -45.3709 -45.3709 -23.6381 -23.6380 -21.2632 -21.2631 -21.2234 -21.2234
   -14.9735 -14.9735  -6.4601  -6.4601  -5.8406  -5.8406  -5.3735  -5.3735
    -0.3582  -0.3582  -0.1531  -0.1531   0.1559   0.1559   5.0257   5.0258
     5.1735   5.1736   6.1940   6.1940   7.5280   7.5280   8.1076   8.1076
     8.8734   8.8734   9.1767   9.1767   9.3400   9.3400   9.7212   9.7212
    13.8658  13.8658  15.2432  15.2433  15.8448  15.8449  16.2018  16.2018

          k = 0.5000 0.8571 0.0000 (  5290 PWs)   bands (ev):

   -45.3706 -45.3706 -23.6511 -23.6511 -21.2619 -21.2619 -21.2225 -21.2225
   -14.9469 -14.9469  -6.2643  -6.2643  -5.9808  -5.9808  -5.3618  -5.3618
    -0.3942  -0.3941  -0.1080  -0.1080   0.1589   0.1589   4.8303   4.8303
     5.0900   5.0901   5.7432   5.7432   7.5061   7.5061   7.9236   7.9236
     8.8761   8.8761   9.1747   9.1747   9.3488   9.3489   9.6710   9.6710
    13.9248  13.9248  15.7285  15.7285  15.9096  15.9096  16.5257  16.5257

          k =-0.5000 0.2857-0.2857 (  5312 PWs)   bands (ev):

   -45.3712 -45.3711 -23.6212 -23.6212 -21.2641 -21.2641 -21.2335 -21.2334
   -14.9920 -14.9920  -6.6477  -6.6477  -5.6655  -5.6655  -5.4083  -5.4083
    -0.3698  -0.3698  -0.2064  -0.2064   0.1689   0.1689   5.0429   5.0429
     5.4958   5.4958   6.7906   6.7907   7.6836   7.6836   8.0407   8.0407
     8.7068   8.7068   9.0476   9.0476   9.2933   9.2933   9.9353   9.9353
    13.8741  13.8741  14.9656  14.9656  15.2666  15.2666  16.4886  16.4887

          k = 0.5000 0.5714 0.2857 (  5296 PWs)   bands (ev):

   -45.3708 -45.3707 -23.6375 -23.6375 -21.2627 -21.2626 -21.2323 -21.2323
   -14.9608 -14.9608  -6.4415  -6.4414  -5.7971  -5.7971  -5.3763  -5.3763
    -0.4533  -0.4533  -0.2500  -0.2500   0.1937   0.1937   4.8620   4.8620
     5.3880   5.3880   6.1752   6.1753   7.5281   7.5281   7.9895   7.9895
     8.7865   8.7865   9.0584   9.0584   9.4320   9.4320   9.8644   9.8644
    13.9670  13.9670  15.3705  15.3705  15.5599  15.5599  16.6288  16.6288

          k =-0.5000 0.5714-0.2857 (  5296 PWs)   bands (ev):

   -45.3708 -45.3707 -23.6375 -23.6374 -21.2627 -21.2626 -21.2323 -21.2323
   -14.9609 -14.9609  -6.4452  -6.4452  -5.7935  -5.7935  -5.3765  -5.3765
    -0.4443  -0.4443  -0.2511  -0.2511   0.1886   0.1886   4.8792   4.8792
     5.3833   5.3833   6.1780   6.1780   7.5213   7.5213   7.9806   7.9806
     8.7686   8.7686   9.0455   9.0455   9.4301   9.4301   9.8681   9.8681
    13.9782  13.9783  15.3496  15.3496  15.5781  15.5781  16.6832  16.6832

          k = 0.5000 0.2857-0.5714 (  5296 PWs)   bands (ev):

   -45.3708 -45.3708 -23.6201 -23.6200 -21.2629 -21.2629 -21.2536 -21.2536
   -14.9598 -14.9598  -6.6269  -6.6269  -5.6023  -5.6023  -5.4304  -5.4304
    -0.4469  -0.4469  -0.2460  -0.2460   0.1955   0.1955   5.0085   5.0085
     5.5578   5.5578   6.6423   6.6423   7.5688   7.5688   7.8794   7.8794
     8.2597   8.2597   9.0325   9.0326   9.1494   9.1494  10.1398  10.1398
    14.1585  14.1586  15.1237  15.1237  15.3707  15.3707  16.9873  16.9873

          k = 0.5000 0.8571 0.2857 (  5292 PWs)   bands (ev):

   -45.3704 -45.3704 -23.6505 -23.6504 -21.2615 -21.2615 -21.2313 -21.2313
   -14.9356 -14.9356  -6.2415  -6.2415  -5.9308  -5.9308  -5.3508  -5.3508
    -0.5057  -0.5057  -0.1890  -0.1890   0.0968   0.0968   4.7244   4.7244
     5.3082   5.3082   5.7198   5.7198   7.5143   7.5144   7.9425   7.9425
     8.8839   8.8839   9.0552   9.0552   9.3585   9.3585   9.7639   9.7639
    14.0544  14.0544  15.7906  15.7906  15.9104  15.9104  16.7030  16.7030

          k =-0.5000 0.8571-0.2857 (  5292 PWs)   bands (ev):

   -45.3704 -45.3704 -23.6505 -23.6504 -21.2615 -21.2615 -21.2313 -21.2313
   -14.9357 -14.9356  -6.2448  -6.2448  -5.9277  -5.9277  -5.3508  -5.3508
    -0.5020  -0.5020  -0.1882  -0.1882   0.0934   0.0934   4.7340   4.7340
     5.3012   5.3012   5.7228   5.7228   7.5119   7.5119   7.9380   7.9380
     8.8777   8.8777   9.0521   9.0521   9.3532   9.3532   9.7682   9.7682
    14.0598  14.0598  15.7901  15.7901  15.8965  15.8965  16.7319  16.7320

          k = 0.5000 0.2857-0.8571 (  5292 PWs)   bands (ev):

   -45.3705 -45.3705 -23.6192 -23.6192 -21.2698 -21.2698 -21.2618 -21.2618
   -14.9337 -14.9336  -6.6222  -6.6222  -5.5899  -5.5899  -5.3945  -5.3945
    -0.4374  -0.4373  -0.2972  -0.2971   0.1545   0.1545   5.1670   5.1670
     5.4018   5.4018   6.4965   6.4965   7.5436   7.5436   7.7406   7.7406
     8.0496   8.0496   8.8784   8.8785   9.1264   9.1264  10.1535  10.1535
    14.4999  14.4999  15.3615  15.3615  15.4933  15.4933  16.8006  16.8006

          k =-0.5000 0.5714-0.5714 (  5290 PWs)   bands (ev):

   -45.3704 -45.3703 -23.6362 -23.6362 -21.2616 -21.2615 -21.2522 -21.2522
   -14.9324 -14.9324  -6.4200  -6.4200  -5.6773  -5.6773  -5.3843  -5.3843
    -0.5831  -0.5831  -0.3917  -0.3917   0.1205   0.1205   4.8821   4.8821
     5.4819   5.4819   6.1585   6.1585   7.4552   7.4552   7.8654   7.8654
     8.3190   8.3190   9.1767   9.1767   9.4475   9.4475  10.0593  10.0593
    14.2706  14.2707  15.4282  15.4282  15.7147  15.7147  17.0850  17.0851

          k = 0.5000 0.8571 0.5714 (  5278 PWs)   bands (ev):

   -45.3700 -45.3700 -23.6491 -23.6490 -21.2605 -21.2604 -21.2511 -21.2510
   -14.9100 -14.9099  -6.2176  -6.2176  -5.7738  -5.7737  -5.3419  -5.3419
    -0.6880  -0.6880  -0.3880  -0.3880  -0.0723  -0.0723   4.7753   4.7753
     5.4397   5.4397   5.7157   5.7157   7.4824   7.4824   7.8677   7.8677
     8.5051   8.5051   9.3325   9.3325   9.4958   9.4958   9.9061   9.9061
    14.3687  14.3687  15.8378  15.8378  16.0977  16.0977  16.8921  16.8921

          k =-0.5000 0.8571-0.5714 (  5278 PWs)   bands (ev):

   -45.3700 -45.3700 -23.6491 -23.6490 -21.2605 -21.2605 -21.2510 -21.2510
   -14.9100 -14.9100  -6.2212  -6.2211  -5.7698  -5.7698  -5.3425  -5.3425
    -0.6842  -0.6842  -0.3894  -0.3894  -0.0730  -0.0730   4.7826   4.7826
     5.4407   5.4407   5.7147   5.7147   7.4686   7.4686   7.8676   7.8676
     8.5079   8.5079   9.3188   9.3188   9.4909   9.4909   9.9150   9.9150
    14.3746  14.3746  15.8218  15.8218  16.0954  16.0954  16.9433  16.9435

          k = 0.5000 0.5714-0.8571 (  5278 PWs)   bands (ev):

   -45.3701 -45.3700 -23.6352 -23.6351 -21.2681 -21.2681 -21.2606 -21.2606
   -14.9091 -14.9091  -6.4096  -6.4096  -5.5684  -5.5684  -5.3951  -5.3951
    -0.6053  -0.6053  -0.5200  -0.5200  -0.0096  -0.0096   5.0774   5.0774
     5.3301   5.3301   6.1540   6.1541   7.3365   7.3365   7.8902   7.8902
     8.0366   8.0366   9.2868   9.2868   9.4145   9.4145  10.1103  10.1103
    14.5850  14.5850  15.6573  15.6573  15.7755  15.7755  16.9453  16.9453

          k =-0.5000 0.8571-0.8571 (  5276 PWs)   bands (ev):

   -45.3697 -45.3697 -23.6479 -23.6479 -21.2668 -21.2668 -21.2596 -21.2596
   -14.8892 -14.8892  -6.2155  -6.2155  -5.5782  -5.5782  -5.3859  -5.3859
    -0.7557  -0.7557  -0.5988  -0.5988  -0.2123  -0.2123   5.0066   5.0066
     5.2777   5.2777   5.7783   5.7783   7.2291   7.2291   7.9064   7.9064
     8.2977   8.2977   9.5171   9.5171   9.6443   9.6443  10.0650  10.0651
    14.6692  14.6692  15.9593  15.9593  16.1573  16.1573  16.8296  16.8315

     the Fermi energy is    11.7825 ev

!    total energy              =   -1361.72649269 Ry
     estimated scf accuracy    <          6.5E-10 Ry
     smearing contrib. (-TS)   =       0.00000000 Ry
     internal energy E=F+TS    =   -1361.72649269 Ry

     The total energy is F=E-TS. E is the sum of the following terms:
     one-electron contribution =    -172.56835196 Ry
     hartree contribution      =     136.24632526 Ry
     xc contribution           =    -122.67019596 Ry
     ewald contribution        =    -395.71603415 Ry
     one-center paw contrib.   =    -807.01823588 Ry

     convergence has been achieved in  14 iterations

     negative rho (up, down):  2.205E-03 0.000E+00

     Forces acting on atoms (cartesian axes, Ry/au):

     atom    1 type  1   force =     0.00000000    0.00000000    0.00000000
     atom    2 type  1   force =     0.00000000    0.00000000    0.00000000
     atom    3 type  2   force =    -0.00000000   -1.00875286   -0.00864882
     atom    4 type  2   force =     0.00000000    1.00875286    0.00864882
     atom    5 type  3   force =     0.00000000    0.00000000    0.00000000
     atom    6 type  3   force =     0.00000000    0.00000000    0.00000000
     atom    7 type  3   force =     0.00000000    0.96345194    0.01677695
     atom    8 type  3   force =    -0.00000000   -0.96345194   -0.01677695
     atom    9 type  3   force =    -0.00000000    0.02225520   -0.01044729
     atom   10 type  3   force =     0.00000000   -0.02225520    0.01044729

     Total force =     1.973212     Total SCF correction =     0.000027
     Message from routine punch:
     Nothing written, as per user request (disk_io='none')

     init_run     :      3.63s CPU      4.00s WALL (       1 calls)
     electrons    :     65.20s CPU     68.97s WALL (       1 calls)
     forces       :      0.82s CPU      0.93s WALL (       1 calls)

     Called by init_run:
     wfcinit      :      1.44s CPU      1.47s WALL (       1 calls)
     potinit      :      0.85s CPU      1.03s WALL (       1 calls)
     hinit0       :      1.17s CPU      1.20s WALL (       1 calls)

     Called by electrons:
     c_bands      :     48.49s CPU     48.93s WALL (      14 calls)
     sum_band     :      7.99s CPU      9.22s WALL (      14 calls)
     v_of_rho     :      1.53s CPU      1.72s WALL (      15 calls)
     newd         :      1.41s CPU      2.62s WALL (      15 calls)
     PAW_pot      :      5.98s CPU      6.94s WALL (      15 calls)
     mix_rho      :      0.14s CPU      0.14s WALL (      14 calls)

     Called by c_bands:
     init_us_2    :      1.67s CPU      1.68s WALL (     300 calls)
     cegterg      :     39.93s CPU     40.35s WALL (     140 calls)

     Called by *egterg:
     cdiaghg      :      1.63s CPU      1.63s WALL (     705 calls)
     h_psi        :     26.22s CPU     26.49s WALL (     715 calls)
     s_psi        :      3.19s CPU      3.19s WALL (     715 calls)
     g_psi        :      0.35s CPU      0.35s WALL (     565 calls)

     Called by h_psi:
     h_psi:calbec :      3.46s CPU      3.47s WALL (     715 calls)
     vloc_psi     :     19.49s CPU     19.62s WALL (     715 calls)
                                        0.00s GPU  (     715 calls)
     add_vuspsi   :      3.04s CPU      3.05s WALL (     715 calls)

     General routines
     calbec       :      4.95s CPU      4.96s WALL (     895 calls)
     fft          :      0.72s CPU      0.73s WALL (     204 calls)
     ffts         :      0.30s CPU      0.31s WALL (      29 calls)
     fftw         :     19.76s CPU     19.88s WALL (   41822 calls)
     interpolate  :      0.35s CPU      0.35s WALL (      15 calls)

     Parallel routines

     PWSCF        :   1m10.00s CPU   1m14.28s WALL


   This run was terminated on:   9:55:20  27Sep2026            

=------------------------------------------------------------------------------=
   JOB DONE.
=------------------------------------------------------------------------------=
