
     Program PWSCF v.7.5 starts on  4Oct2026 at 21:27:45 

     This program is part of the open-source Quantum ESPRESSO suite
     for quantum simulation of materials; please cite
         "P. Giannozzi et al., J. Phys.:Condens. Matter 21 395502 (2009);
         "P. Giannozzi et al., J. Phys.:Condens. Matter 29 465901 (2017);
         "P. Giannozzi et al., J. Chem. Phys. 152 154105 (2020);
          URL http://www.quantum-espresso.org", 
     in publications or presentations arising from this work. More details at
     http://www.quantum-espresso.org/quote

     Parallel version (MPI & OpenMP), running on       8 processor cores
     Number of MPI processes:                 8
     Threads/MPI process:                     1

     MPI processes distributed on     1 nodes
     118506 MiB available memory on the printing compute node when the environment starts

     Reading input from pw.in

     Current dimensions of program PWSCF are:
     Max number of different atomic species (ntypx) = 10
     Max number of k-points (npk) =  40000
     Max angular momentum in pseudopotentials (lmaxx) =  4
     Message from routine setup:
     using ibrav=0 with symmetry is DISCOURAGED, use correct ibrav instead

     K-points division:     npool     =       8
     Subspace diagonalization in iterative solution of the eigenvalue problem:
     a serial algorithm will be used


     G-vector sticks info
     --------------------
     sticks:   dense  smooth     PW     G-vecs:    dense   smooth      PW
     Sum        3721    1857    623                58675    20737    4057

     Using Slab Decomposition



     bravais-lattice index     =            0
     lattice parameter (alat)  =      17.6006  a.u.
     unit-cell volume          =     932.7184 (a.u.)^3
     number of atoms/cell      =            6
     number of atomic types    =            1
     number of electrons       =        72.00
     number of Kohn-Sham states=           43
     kinetic-energy cutoff     =      30.0000  Ry
     charge density cutoff     =     240.0000  Ry
     scf convergence threshold =      6.0E-10
     mixing beta               =       0.4000
     number of iterations used =            8  plain     mixing
     Exchange-correlation= SLA  PW   PBE  PBE
                           (   1   4   3   4   0   0   0)

     celldm(1)=  17.600634  celldm(2)=   0.000000  celldm(3)=   0.000000
     celldm(4)=   0.000000  celldm(5)=   0.000000  celldm(6)=   0.000000

     crystal axes: (cart. coord. in units of alat)
               a(1) = (  -0.577350   0.577350   0.577350 )  
               a(2) = (   0.384900  -0.384900   0.384900 )  
               a(3) = (   0.192450   0.192450  -0.192450 )  

     reciprocal axes: (cart. coord. in units 2 pi/alat)
               b(1) = ( -0.000000  0.866025  0.866025 )  
               b(2) = (  1.299038 -0.000000  1.299038 )  
               b(3) = (  2.598076  2.598076 -0.000000 )  


     PseudoPot. # 1 for Zr read from file:
     /root/sssp/Zr_pbe_v1.uspp.F.UPF
     MD5 check sum: 5db81b1e868ab7776c4564c113de050b
     Pseudo is Ultrasoft + core correction, Zval = 12.0
     Generated by new atomic code, or converted to UPF format
     Using radial grid of  887 points,  6 beta functions with: 
                l(1) =   0
                l(2) =   0
                l(3) =   1
                l(4) =   1
                l(5) =   2
                l(6) =   2
     Q(r) pseudized with  6 coefficients,  rinner =    1.200   1.200   1.200
                                                       1.200   1.200

     atomic species   valence    mass     pseudopotential
     Zr               12.00    91.22400     Zr( 1.00)

      2 Sym. Ops., with inversion, found ( 1 have fractional translation)



   Cartesian axes

     site n.     atom                  positions (alat units)
         1        Zr     tau(   1) = (   0.0483151   0.0391210  -0.0154071  )
         2        Zr     tau(   2) = (  -0.2166077   0.1728896   0.2001536  )
         3        Zr     tau(   3) = (  -0.4090577   0.3653397   0.3926037  )
         4        Zr     tau(   4) = (   0.1441350  -0.2315711   0.2078571  )
         5        Zr     tau(   5) = (   0.0241576   0.0195605   0.3771967  )
         6        Zr     tau(   6) = (  -0.1682925   0.2120106   0.5696467  )

     number of k points=   460  Marzari-Vanderbilt smearing, width (Ry)=  0.0200

     Number of k-points >= 100: set verbosity='high' to print them.

     Dense  grid:    58675 G-vectors     FFT dimensions: (  90,  60,  30)

     Smooth grid:    20737 G-vectors     FFT dimensions: (  64,  48,  24)

     Estimated max dynamical RAM per process >     164.00 MB

     Estimated total dynamical RAM >       1.18 GB

     Check: negative core charge=   -0.000004

     Initial potential from superposition of free atoms

     starting charge      71.9871, renormalised to      72.0000

     negative rho (up, down):  3.632E-01 0.000E+00
     Starting wfcs are   78 randomized atomic wfcs

     total cpu time spent up to now is       60.8 secs

     per-process dynamical memory:   151.9 Mb

     Self-consistent Calculation

     iteration #  1     ecut=    30.00 Ry     beta= 0.40
     Davidson diagonalization with overlap
     ethr =  1.00E-02,  avg # of iterations =  2.0

     Threshold (ethr) on eigenvalues was too large:
     Diagonalizing with lowered threshold

     Davidson diagonalization with overlap
     ethr =  4.56E-04,  avg # of iterations =  2.0

     negative rho (up, down):  3.651E-01 0.000E+00

     total cpu time spent up to now is      134.7 secs

     total energy              =    -594.71461150 Ry
     estimated scf accuracy    <       0.34458107 Ry

     iteration #  2     ecut=    30.00 Ry     beta= 0.40
     Davidson diagonalization with overlap
     ethr =  4.79E-04,  avg # of iterations =  5.2

     negative rho (up, down):  3.657E-01 0.000E+00

     total cpu time spent up to now is      189.1 secs

     total energy              =    -594.65060380 Ry
     estimated scf accuracy    <       2.05834161 Ry

     iteration #  3     ecut=    30.00 Ry     beta= 0.40
     Davidson diagonalization with overlap
     ethr =  4.79E-04,  avg # of iterations =  4.2

     negative rho (up, down):  3.669E-01 0.000E+00

     total cpu time spent up to now is      238.8 secs

     total energy              =    -594.82521215 Ry
     estimated scf accuracy    <       0.05525122 Ry

     iteration #  4     ecut=    30.00 Ry     beta= 0.40
     Davidson diagonalization with overlap
     ethr =  7.67E-05,  avg # of iterations =  5.3

     negative rho (up, down):  3.688E-01 0.000E+00

     total cpu time spent up to now is      275.3 secs

     total energy              =    -594.82362727 Ry
     estimated scf accuracy    <       0.31384622 Ry

     iteration #  5     ecut=    30.00 Ry     beta= 0.40
     Davidson diagonalization with overlap
     ethr =  7.67E-05,  avg # of iterations =  2.7

     negative rho (up, down):  3.699E-01 0.000E+00

     total cpu time spent up to now is      361.6 secs

     total energy              =    -594.83899770 Ry
     estimated scf accuracy    <       0.00762421 Ry

     iteration #  6     ecut=    30.00 Ry     beta= 0.40
     Davidson diagonalization with overlap
     ethr =  1.06E-05,  avg # of iterations =  5.8

     negative rho (up, down):  3.706E-01 0.000E+00

     total cpu time spent up to now is      420.4 secs

     total energy              =    -594.84021410 Ry
     estimated scf accuracy    <       0.00154952 Ry

     iteration #  7     ecut=    30.00 Ry     beta= 0.40
     Davidson diagonalization with overlap
     ethr =  2.15E-06,  avg # of iterations =  2.9

     negative rho (up, down):  3.710E-01 0.000E+00

     total cpu time spent up to now is      447.5 secs

     total energy              =    -594.84028482 Ry
     estimated scf accuracy    <       0.00031835 Ry

     iteration #  8     ecut=    30.00 Ry     beta= 0.40
     Davidson diagonalization with overlap
     ethr =  4.42E-07,  avg # of iterations =  2.8

     negative rho (up, down):  3.711E-01 0.000E+00

     total cpu time spent up to now is      478.3 secs

     total energy              =    -594.84030786 Ry
     estimated scf accuracy    <       0.00005687 Ry

     iteration #  9     ecut=    30.00 Ry     beta= 0.40
     Davidson diagonalization with overlap
     ethr =  7.90E-08,  avg # of iterations =  3.7

     negative rho (up, down):  3.711E-01 0.000E+00

     total cpu time spent up to now is      515.8 secs

     total energy              =    -594.84031471 Ry
     estimated scf accuracy    <       0.00000749 Ry

     iteration # 10     ecut=    30.00 Ry     beta= 0.40
     Davidson diagonalization with overlap
     ethr =  1.04E-08,  avg # of iterations =  3.8

     negative rho (up, down):  3.711E-01 0.000E+00

     total cpu time spent up to now is      581.4 secs

     total energy              =    -594.84031554 Ry
     estimated scf accuracy    <       0.00000044 Ry

     iteration # 11     ecut=    30.00 Ry     beta= 0.40
     Davidson diagonalization with overlap
     ethr =  6.06E-10,  avg # of iterations =  4.3

     negative rho (up, down):  3.711E-01 0.000E+00

     total cpu time spent up to now is      706.1 secs

     total energy              =    -594.84031568 Ry
     estimated scf accuracy    <       0.00000011 Ry

     iteration # 12     ecut=    30.00 Ry     beta= 0.40
     Davidson diagonalization with overlap
     ethr =  1.57E-10,  avg # of iterations =  2.0

     negative rho (up, down):  3.711E-01 0.000E+00

     total cpu time spent up to now is      793.3 secs

     total energy              =    -594.84031569 Ry
     estimated scf accuracy    <          8.5E-09 Ry

     iteration # 13     ecut=    30.00 Ry     beta= 0.40
     Davidson diagonalization with overlap
     ethr =  1.18E-11,  avg # of iterations =  4.2

     negative rho (up, down):  3.711E-01 0.000E+00

     total cpu time spent up to now is      877.1 secs

     total energy              =    -594.84031569 Ry
     estimated scf accuracy    <          9.7E-10 Ry

     iteration # 14     ecut=    30.00 Ry     beta= 0.40
     Davidson diagonalization with overlap
     ethr =  1.35E-12,  avg # of iterations =  3.0

     negative rho (up, down):  3.711E-01 0.000E+00

     total cpu time spent up to now is      936.0 secs

     End of self-consistent calculation

     Number of k-points >= 100: set verbosity='high' to print the bands.

     the Fermi energy is    14.0672 ev

!    total energy              =    -594.84031569 Ry
     estimated scf accuracy    <          1.1E-10 Ry
     smearing contrib. (-TS)   =      -0.00010642 Ry
     internal energy E=F+TS    =    -594.84020927 Ry

     The total energy is F=E-TS. E is the sum of the following terms:
     one-electron contribution =    -111.00326781 Ry
     hartree contribution      =      83.95053401 Ry
     xc contribution           =    -106.80371012 Ry
     ewald contribution        =    -460.98376536 Ry

     convergence has been achieved in  14 iterations

     negative rho (up, down):  3.711E-01 0.000E+00

     Forces acting on atoms (cartesian axes, Ry/au):

     atom    1 type  1   force =    -0.06331061   -0.01425650   -0.01260482
     atom    2 type  1   force =     0.01719922    0.01084036   -0.01216482
     atom    3 type  1   force =    -0.00306557    0.00388841    0.01443280
     atom    4 type  1   force =     0.06331061    0.01425650    0.01260482
     atom    5 type  1   force =     0.00306557   -0.00388841   -0.01443280
     atom    6 type  1   force =    -0.01719922   -0.01084036    0.01216482

     Total force =     0.101632     Total SCF correction =     0.000020
     Message from routine punch:
     Nothing written, as per user request (disk_io='none')

     init_run     :     34.79s CPU     35.55s WALL (       1 calls)
     electrons    :    872.85s CPU    875.21s WALL (       1 calls)
     forces       :     10.36s CPU     10.38s WALL (       1 calls)

     Called by init_run:
     wfcinit      :     32.96s CPU     33.55s WALL (       1 calls)
     potinit      :      0.61s CPU      0.66s WALL (       1 calls)
     hinit0       :      1.11s CPU      1.20s WALL (       1 calls)

     Called by electrons:
     c_bands      :    774.39s CPU    776.31s WALL (      15 calls)
     sum_band     :     91.56s CPU     91.95s WALL (      15 calls)
     v_of_rho     :      2.35s CPU      2.41s WALL (      15 calls)
     newd         :      4.01s CPU      4.04s WALL (      15 calls)
     mix_rho      :      0.16s CPU      0.16s WALL (      15 calls)

     Called by c_bands:
     init_us_2    :     13.24s CPU     13.27s WALL (    1856 calls)
     cegterg      :    365.76s CPU    367.37s WALL (     870 calls)

     Called by *egterg:
     cdiaghg      :     11.28s CPU     11.32s WALL (    3911 calls)
     h_psi        :    296.82s CPU    298.76s WALL (    4027 calls)
     s_psi        :     17.50s CPU     17.54s WALL (    4027 calls)
     g_psi        :      1.34s CPU      1.35s WALL (    3099 calls)

     Called by h_psi:
     h_psi:calbec :     27.31s CPU     27.35s WALL (    4027 calls)
     vloc_psi     :    246.32s CPU    247.75s WALL (    4027 calls)
                                        0.00s GPU  (    4027 calls)
     add_vuspsi   :     19.87s CPU     19.91s WALL (    4027 calls)

     General routines
     calbec       :     36.18s CPU     36.24s WALL (    5129 calls)
     fft          :      1.22s CPU      1.25s WALL (     205 calls)
     ffts         :      0.37s CPU      0.37s WALL (      30 calls)
     fftw         :    247.22s CPU    248.61s WALL (  227316 calls)
     interpolate  :      0.43s CPU      0.43s WALL (      15 calls)

     Parallel routines

     PWSCF        :  15m43.48s CPU  15m46.66s WALL


   This run was terminated on:  21:43:32   4Oct2026            

=------------------------------------------------------------------------------=
   JOB DONE.
=------------------------------------------------------------------------------=
