
     Program PWSCF v.7.5 starts on  5Oct2026 at  6:13:38 

     This program is part of the open-source Quantum ESPRESSO suite
     for quantum simulation of materials; please cite
         "P. Giannozzi et al., J. Phys.:Condens. Matter 21 395502 (2009);
         "P. Giannozzi et al., J. Phys.:Condens. Matter 29 465901 (2017);
         "P. Giannozzi et al., J. Chem. Phys. 152 154105 (2020);
          URL http://www.quantum-espresso.org", 
     in publications or presentations arising from this work. More details at
     http://www.quantum-espresso.org/quote

     Parallel version (MPI & OpenMP), running on       8 processor cores
     Number of MPI processes:                 8
     Threads/MPI process:                     1

     MPI processes distributed on     1 nodes
     106024 MiB available memory on the printing compute node when the environment starts

     Reading input from pw.in

     Current dimensions of program PWSCF are:
     Max number of different atomic species (ntypx) = 10
     Max number of k-points (npk) =  40000
     Max angular momentum in pseudopotentials (lmaxx) =  4
     file Ba.pbe-spn-kjpaw_psl.1.0.0.UPF: wavefunction(s)  5S 6S renormalized
     file O.pbe-n-kjpaw_psl.0.1.UPF: wavefunction(s)  2P renormalized

     IMPORTANT: XC functional enforced from input :
     Exchange-correlation= PBESOL
                           (   1   4  10   8   0   0   0)
     Any further DFT definition will be discarded
     Please, verify this is what you really want

     Found identity + ( -0.5000 -0.0000 -0.0000) symmetry
     This is a supercell, fractional translations are disabled

     K-points division:     npool     =       2
     R & G space division:  proc/nbgrp/npool/nimage =       4
     Subspace diagonalization in iterative solution of the eigenvalue problem:
     a serial algorithm will be used


     Parallelization info
     --------------------
     sticks:   dense  smooth     PW     G-vecs:    dense   smooth      PW
     Min        1854     926    261                59980    21204    3210
     Max        1855     927    263                59981    21206    3211
     Sum        7417    3705   1049               239921    84819   12843

     Using Slab Decomposition



     bravais-lattice index     =            0
     lattice parameter (alat)  =      15.2544  a.u.
     unit-cell volume          =    1774.8311 (a.u.)^3
     number of atoms/cell      =           20
     number of atomic types    =            3
     number of electrons       =       160.00
     number of Kohn-Sham states=           96
     kinetic-energy cutoff     =      50.0000  Ry
     charge density cutoff     =     400.0000  Ry
     scf convergence threshold =      2.0E-09
     mixing beta               =       0.4000
     number of iterations used =            8  plain     mixing
     Exchange-correlation= PBESOL
                           (   1   4  10   8   0   0   0)

     celldm(1)=  15.254415  celldm(2)=   0.000000  celldm(3)=   0.000000
     celldm(4)=   0.000000  celldm(5)=   0.000000  celldm(6)=   0.000000

     crystal axes: (cart. coord. in units of alat)
               a(1) = (  -0.000000   0.000000   1.000000 )  
               a(2) = (   0.000000  -1.000000  -0.000000 )  
               a(3) = (   0.500000  -0.000000  -0.000000 )  

     reciprocal axes: (cart. coord. in units 2 pi/alat)
               b(1) = (  0.000000 -0.000000  1.000000 )  
               b(2) = ( -0.000000 -1.000000  0.000000 )  
               b(3) = (  1.999999  0.000000  0.000000 )  


     PseudoPot. # 1 for Ba read from file:
     /root/sssp/Ba.pbe-spn-kjpaw_psl.1.0.0.UPF
     MD5 check sum: c432291d3e53af55f19d5e8866385beb
     Pseudo is Projector augmented-wave + core cor, Zval = 10.0
     Generated using "atomic" code by A. Dal Corso  v.5.1
     Shape of augmentation charge: PSQ
     Using radial grid of 1251 points,  7 beta functions with: 
                l(1) =   0
                l(2) =   0
                l(3) =   0
                l(4) =   1
                l(5) =   1
                l(6) =   2
                l(7) =   2
     Q(r) pseudized with 0 coefficients 


     PseudoPot. # 2 for Ti read from file:
     /root/sssp/ti_pbe_v1.4.uspp.F.UPF
     MD5 check sum: 88a00a6731bd790ddea75d31a80cb452
     Pseudo is Ultrasoft + core correction, Zval = 12.0
     Generated by new atomic code, or converted to UPF format
     Using radial grid of  851 points,  6 beta functions with: 
                l(1) =   0
                l(2) =   0
                l(3) =   1
                l(4) =   1
                l(5) =   2
                l(6) =   2
     Q(r) pseudized with  6 coefficients,  rinner =    1.000   1.000   1.000
                                                       1.000   1.000

     PseudoPot. # 3 for O  read from file:
     /root/sssp/O.pbe-n-kjpaw_psl.0.1.UPF
     MD5 check sum: 0234752ac141de4415c5fc33072bef88
     Pseudo is Projector augmented-wave + core cor, Zval =  6.0
     Generated using "atomic" code by A. Dal Corso  v.5.0.99 svn rev. 10869
     Shape of augmentation charge: BESSEL
     Using radial grid of 1095 points,  4 beta functions with: 
                l(1) =   0
                l(2) =   0
                l(3) =   1
                l(4) =   1
     Q(r) pseudized with 0 coefficients 


     atomic species   valence    mass     pseudopotential
     Ba               10.00   137.32700     Ba( 1.00)
     Ti               12.00    47.86700     Ti( 1.00)
     O                 6.00    15.99900     O ( 1.00)

     No symmetry found



   Cartesian axes

     site n.     atom                  positions (alat units)
         1        Ba     tau(   1) = (   0.0000005  -0.0000000   0.0000006  )
         2        Ba     tau(   2) = (   0.0000004   0.0000001   0.5000006  )
         3        Ba     tau(   3) = (   0.0000005  -0.5000003   0.0000005  )
         4        Ba     tau(   4) = (   0.0000004  -0.5000001   0.5000005  )
         5        Ti     tau(   5) = (   0.2500003  -0.2500001   0.2500005  )
         6        Ti     tau(   6) = (   0.2500002  -0.2500000   0.7500005  )
         7        Ti     tau(   7) = (   0.2500004  -0.7500004   0.2500004  )
         8        Ti     tau(   8) = (   0.2500003  -0.7500003   0.7500004  )
         9        O      tau(   9) = (   0.4999998  -0.2500001   0.2500001  )
        10        O      tau(  10) = (   0.4999997  -0.2500000   0.7500001  )
        11        O      tau(  11) = (   0.4999998  -0.7500003   0.2499999  )
        12        O      tau(  12) = (   0.4999997  -0.7500002   0.7499999  )
        13        O      tau(  13) = (   0.2499998  -0.5000001   0.2499998  )
        14        O      tau(  14) = (   0.2499997  -0.5000000   0.7499998  )
        15        O      tau(  15) = (   0.2499999  -1.0000003   0.2499997  )
        16        O      tau(  16) = (   0.2499998  -1.0000002   0.7499997  )
        17        O      tau(  17) = (   0.2499999  -0.2500001   0.4999985  )
        18        O      tau(  18) = (   0.2499998  -0.2500000   0.9999985  )
        19        O      tau(  19) = (   0.2500000  -0.7500003   0.4999984  )
        20        O      tau(  20) = (   0.2499999  -0.7500002   0.9999984  )

     number of k points=    58  Marzari-Vanderbilt smearing, width (Ry)=  0.0050
                       cart. coord. in units 2pi/alat
        k(    1) = (   0.0000000   0.0000000   0.0000000), wk =   0.0178571
        k(    2) = (   0.2857142   0.0000000   0.0000001), wk =   0.0357143
        k(    3) = (   0.5714283   0.0000000   0.0000001), wk =   0.0357143
        k(    4) = (   0.8571425   0.0000001   0.0000002), wk =   0.0357143
        k(    5) = (  -0.0000000  -0.2499999   0.0000001), wk =   0.0357143
        k(    6) = (   0.2857141  -0.2499999   0.0000001), wk =   0.0357143
        k(    7) = (   0.5714283  -0.2499998   0.0000002), wk =   0.0357143
        k(    8) = (   0.8571425  -0.2499998   0.0000002), wk =   0.0357143
        k(    9) = (  -0.8571425  -0.2500000  -0.0000001), wk =   0.0357143
        k(   10) = (  -0.5714284  -0.2499999  -0.0000001), wk =   0.0357143
        k(   11) = (  -0.2857142  -0.2499999  -0.0000000), wk =   0.0357143
        k(   12) = (   0.0000000   0.4999998  -0.0000001), wk =   0.0178571
        k(   13) = (   0.2857142   0.4999998  -0.0000001), wk =   0.0357143
        k(   14) = (   0.5714284   0.4999998   0.0000000), wk =   0.0357143
        k(   15) = (   0.8571425   0.4999998   0.0000001), wk =   0.0357143
        k(   16) = (   0.0000001  -0.0000001   0.2500000), wk =   0.0357143
        k(   17) = (   0.2857142  -0.0000000   0.2500001), wk =   0.0357143
        k(   18) = (   0.5714284  -0.0000000   0.2500001), wk =   0.0357143
        k(   19) = (   0.8571426   0.0000000   0.2500002), wk =   0.0357143
        k(   20) = (  -0.8571425  -0.0000001   0.2499998), wk =   0.0357143
        k(   21) = (  -0.5714283  -0.0000001   0.2499999), wk =   0.0357143
        k(   22) = (  -0.2857141  -0.0000001   0.2499999), wk =   0.0357143
        k(   23) = (   0.0000000  -0.2499999   0.2500001), wk =   0.0357143
        k(   24) = (   0.2857142  -0.2499999   0.2500001), wk =   0.0357143
        k(   25) = (   0.5714284  -0.2499999   0.2500002), wk =   0.0357143
        k(   26) = (   0.8571425  -0.2499999   0.2500002), wk =   0.0357143
        k(   27) = (  -0.8571425  -0.2500000   0.2499999), wk =   0.0357143
        k(   28) = (  -0.5714283  -0.2500000   0.2499999), wk =   0.0357143
        k(   29) = (  -0.2857141  -0.2500000   0.2500000), wk =   0.0357143
        k(   30) = (   0.0000001   0.4999997   0.2499999), wk =   0.0357143
        k(   31) = (   0.2857143   0.4999997   0.2499999), wk =   0.0357143
        k(   32) = (   0.5714284   0.4999998   0.2500000), wk =   0.0357143
        k(   33) = (   0.8571426   0.4999998   0.2500001), wk =   0.0357143
        k(   34) = (  -0.8571424   0.4999996   0.2499997), wk =   0.0357143
        k(   35) = (  -0.5714282   0.4999997   0.2499998), wk =   0.0357143
        k(   36) = (  -0.2857141   0.4999997   0.2499998), wk =   0.0357143
        k(   37) = (   0.0000001   0.2499998   0.2499999), wk =   0.0357143
        k(   38) = (   0.2857142   0.2499999   0.2500000), wk =   0.0357143
        k(   39) = (   0.5714284   0.2499999   0.2500001), wk =   0.0357143
        k(   40) = (   0.8571426   0.2499999   0.2500001), wk =   0.0357143
        k(   41) = (  -0.8571424   0.2499998   0.2499998), wk =   0.0357143
        k(   42) = (  -0.5714283   0.2499998   0.2499998), wk =   0.0357143
        k(   43) = (  -0.2857141   0.2499998   0.2499999), wk =   0.0357143
        k(   44) = (  -0.0000001   0.0000001  -0.5000000), wk =   0.0178571
        k(   45) = (   0.2857141   0.0000001  -0.4999999), wk =   0.0357143
        k(   46) = (   0.5714282   0.0000002  -0.4999999), wk =   0.0357143
        k(   47) = (   0.8571424   0.0000002  -0.4999998), wk =   0.0357143
        k(   48) = (  -0.0000001  -0.2499998  -0.4999999), wk =   0.0357143
        k(   49) = (   0.2857140  -0.2499998  -0.4999999), wk =   0.0357143
        k(   50) = (   0.5714282  -0.2499997  -0.4999998), wk =   0.0357143
        k(   51) = (   0.8571424  -0.2499997  -0.4999998), wk =   0.0357143
        k(   52) = (  -0.8571426  -0.2499998  -0.5000001), wk =   0.0357143
        k(   53) = (  -0.5714285  -0.2499998  -0.5000001), wk =   0.0357143
        k(   54) = (  -0.2857143  -0.2499998  -0.5000000), wk =   0.0357143
        k(   55) = (  -0.0000001   0.4999999  -0.5000001), wk =   0.0178571
        k(   56) = (   0.2857141   0.4999999  -0.5000001), wk =   0.0357143
        k(   57) = (   0.5714283   0.4999999  -0.5000000), wk =   0.0357143
        k(   58) = (   0.8571424   0.4999999  -0.4999999), wk =   0.0357143

     Dense  grid:   239921 G-vectors     FFT dimensions: ( 100, 100,  50)

     Smooth grid:    84819 G-vectors     FFT dimensions: (  72,  72,  36)

     Estimated max dynamical RAM per process >     279.81 MB

     Estimated total dynamical RAM >       2.13 GB

     Check: negative core charge=   -0.000004

     Initial potential from superposition of free atoms

     starting charge     155.9318, renormalised to     160.0000

     negative rho (up, down):  3.609E-03 0.000E+00
     Starting wfcs are  108 randomized atomic wfcs
     Checking if some PAW data can be deallocated... 

     total cpu time spent up to now is       16.6 secs

     per-process dynamical memory:   184.1 Mb

     Self-consistent Calculation

     iteration #  1     ecut=    50.00 Ry     beta= 0.40
     Davidson diagonalization with overlap
     ethr =  1.00E-02,  avg # of iterations =  2.0

     negative rho (up, down):  5.491E-02 0.000E+00

     total cpu time spent up to now is       57.1 secs

     total energy              =   -2691.49258752 Ry
     estimated scf accuracy    <       3.62209759 Ry

     iteration #  2     ecut=    50.00 Ry     beta= 0.40
     Davidson diagonalization with overlap
     ethr =  2.26E-03,  avg # of iterations =  4.0

     negative rho (up, down):  8.972E-02 0.000E+00

     total cpu time spent up to now is      104.1 secs

     total energy              =   -2691.64719042 Ry
     estimated scf accuracy    <       5.03880397 Ry

     iteration #  3     ecut=    50.00 Ry     beta= 0.40
     Davidson diagonalization with overlap
     ethr =  2.26E-03,  avg # of iterations =  3.6

     negative rho (up, down):  1.865E-01 0.000E+00

     total cpu time spent up to now is      144.8 secs

     total energy              =   -2692.58243363 Ry
     estimated scf accuracy    <       0.33201768 Ry

     iteration #  4     ecut=    50.00 Ry     beta= 0.40
     Davidson diagonalization with overlap
     ethr =  2.08E-04,  avg # of iterations =  2.3

     negative rho (up, down):  1.914E-01 0.000E+00

     total cpu time spent up to now is      183.8 secs

     total energy              =   -2692.59274648 Ry
     estimated scf accuracy    <       0.05854856 Ry

     iteration #  5     ecut=    50.00 Ry     beta= 0.40
     Davidson diagonalization with overlap
     ethr =  3.66E-05,  avg # of iterations =  3.8

     negative rho (up, down):  1.930E-01 0.000E+00

     total cpu time spent up to now is      230.1 secs

     total energy              =   -2692.60374352 Ry
     estimated scf accuracy    <       0.03044087 Ry

     iteration #  6     ecut=    50.00 Ry     beta= 0.40
     Davidson diagonalization with overlap
     ethr =  1.90E-05,  avg # of iterations =  1.0

     negative rho (up, down):  1.488E-01 0.000E+00

     total cpu time spent up to now is      263.2 secs

     total energy              =   -2692.60572466 Ry
     estimated scf accuracy    <       0.04447545 Ry

     iteration #  7     ecut=    50.00 Ry     beta= 0.40
     Davidson diagonalization with overlap
     ethr =  1.90E-05,  avg # of iterations =  1.3

     negative rho (up, down):  1.013E-01 0.000E+00

     total cpu time spent up to now is      298.4 secs

     total energy              =   -2692.60768897 Ry
     estimated scf accuracy    <       0.05477730 Ry

     iteration #  8     ecut=    50.00 Ry     beta= 0.40
     Davidson diagonalization with overlap
     ethr =  1.90E-05,  avg # of iterations =  1.5

     negative rho (up, down):  1.027E-01 0.000E+00

     total cpu time spent up to now is      338.5 secs

     total energy              =   -2692.60774382 Ry
     estimated scf accuracy    <       0.05542123 Ry

     iteration #  9     ecut=    50.00 Ry     beta= 0.40
     Davidson diagonalization with overlap
     ethr =  1.90E-05,  avg # of iterations =  1.0

     negative rho (up, down):  9.873E-02 0.000E+00

     total cpu time spent up to now is      370.9 secs

     total energy              =   -2692.60802601 Ry
     estimated scf accuracy    <       0.06325739 Ry

     iteration # 10     ecut=    50.00 Ry     beta= 0.40
     Davidson diagonalization with overlap
     ethr =  1.90E-05,  avg # of iterations =  1.0

     negative rho (up, down):  9.154E-02 0.000E+00

     total cpu time spent up to now is      401.0 secs

     total energy              =   -2692.60815942 Ry
     estimated scf accuracy    <       0.07083418 Ry

     iteration # 11     ecut=    50.00 Ry     beta= 0.40
     Davidson diagonalization with overlap
     ethr =  1.90E-05,  avg # of iterations =  1.0

     negative rho (up, down):  8.543E-02 0.000E+00

     total cpu time spent up to now is      431.1 secs

     total energy              =   -2692.60822465 Ry
     estimated scf accuracy    <       0.07005901 Ry

     iteration # 12     ecut=    50.00 Ry     beta= 0.40
     Davidson diagonalization with overlap
     ethr =  1.90E-05,  avg # of iterations =  1.0

     negative rho (up, down):  7.735E-02 0.000E+00

     total cpu time spent up to now is      461.1 secs

     total energy              =   -2692.60828662 Ry
     estimated scf accuracy    <       0.07210611 Ry

     iteration # 13     ecut=    50.00 Ry     beta= 0.40
     Davidson diagonalization with overlap
     ethr =  1.90E-05,  avg # of iterations =  1.0

     negative rho (up, down):  6.838E-02 0.000E+00

     total cpu time spent up to now is      490.3 secs

     total energy              =   -2692.60827614 Ry
     estimated scf accuracy    <       0.06920021 Ry

     iteration # 14     ecut=    50.00 Ry     beta= 0.40
     Davidson diagonalization with overlap
     ethr =  1.90E-05,  avg # of iterations =  1.0

     negative rho (up, down):  3.458E-03 0.000E+00

     total cpu time spent up to now is      519.2 secs

     total energy              =   -2692.60689739 Ry
     estimated scf accuracy    <       0.06576146 Ry

     iteration # 15     ecut=    50.00 Ry     beta= 0.40
     Davidson diagonalization with overlap
     ethr =  1.90E-05,  avg # of iterations =  2.0

     negative rho (up, down):  3.725E-03 0.000E+00

     total cpu time spent up to now is      553.5 secs

     total energy              =   -2692.60771169 Ry
     estimated scf accuracy    <       0.02074344 Ry

     iteration # 16     ecut=    50.00 Ry     beta= 0.40
     Davidson diagonalization with overlap
     ethr =  1.30E-05,  avg # of iterations =  2.0

     negative rho (up, down):  3.473E-03 0.000E+00

     total cpu time spent up to now is      586.3 secs

     total energy              =   -2692.60833665 Ry
     estimated scf accuracy    <       0.01530354 Ry

     iteration # 17     ecut=    50.00 Ry     beta= 0.40
     Davidson diagonalization with overlap
     ethr =  9.56E-06,  avg # of iterations =  1.0

     negative rho (up, down):  3.476E-03 0.000E+00

     total cpu time spent up to now is      616.0 secs

     total energy              =   -2692.60838346 Ry
     estimated scf accuracy    <       0.00410383 Ry

     iteration # 18     ecut=    50.00 Ry     beta= 0.40
     Davidson diagonalization with overlap
     ethr =  2.56E-06,  avg # of iterations =  1.4

     negative rho (up, down):  3.473E-03 0.000E+00

     total cpu time spent up to now is      648.7 secs

     total energy              =   -2692.60842341 Ry
     estimated scf accuracy    <       0.00001520 Ry

     iteration # 19     ecut=    50.00 Ry     beta= 0.40
     Davidson diagonalization with overlap
     ethr =  9.50E-09,  avg # of iterations =  4.0

     negative rho (up, down):  3.472E-03 0.000E+00

     total cpu time spent up to now is      690.7 secs

     total energy              =   -2692.60842890 Ry
     estimated scf accuracy    <       0.00005355 Ry

     iteration # 20     ecut=    50.00 Ry     beta= 0.40
     Davidson diagonalization with overlap
     ethr =  9.50E-09,  avg # of iterations =  1.6

     negative rho (up, down):  3.471E-03 0.000E+00

     total cpu time spent up to now is      723.5 secs

     total energy              =   -2692.60842959 Ry
     estimated scf accuracy    <       0.00002129 Ry

     iteration # 21     ecut=    50.00 Ry     beta= 0.40
     Davidson diagonalization with overlap
     ethr =  9.50E-09,  avg # of iterations =  2.0

     negative rho (up, down):  3.471E-03 0.000E+00

     total cpu time spent up to now is      757.7 secs

     total energy              =   -2692.60843012 Ry
     estimated scf accuracy    <       0.00000318 Ry

     iteration # 22     ecut=    50.00 Ry     beta= 0.40
     Davidson diagonalization with overlap
     ethr =  1.99E-09,  avg # of iterations =  2.3

     negative rho (up, down):  3.470E-03 0.000E+00

     total cpu time spent up to now is      787.1 secs

     total energy              =   -2692.60843028 Ry
     estimated scf accuracy    <       0.00000365 Ry

     iteration # 23     ecut=    50.00 Ry     beta= 0.40
     Davidson diagonalization with overlap
     ethr =  1.99E-09,  avg # of iterations =  1.5

     negative rho (up, down):  3.470E-03 0.000E+00

     total cpu time spent up to now is      813.6 secs

     total energy              =   -2692.60843033 Ry
     estimated scf accuracy    <       0.00000114 Ry

     iteration # 24     ecut=    50.00 Ry     beta= 0.40
     Davidson diagonalization with overlap
     ethr =  7.15E-10,  avg # of iterations =  2.9

     negative rho (up, down):  3.470E-03 0.000E+00

     total cpu time spent up to now is      846.4 secs

     total energy              =   -2692.60843040 Ry
     estimated scf accuracy    <       0.00000025 Ry

     iteration # 25     ecut=    50.00 Ry     beta= 0.40
     Davidson diagonalization with overlap
     ethr =  1.58E-10,  avg # of iterations =  2.1

     negative rho (up, down):  3.470E-03 0.000E+00

     total cpu time spent up to now is      882.2 secs

     total energy              =   -2692.60843040 Ry
     estimated scf accuracy    <       0.00000006 Ry

     iteration # 26     ecut=    50.00 Ry     beta= 0.40
     Davidson diagonalization with overlap
     ethr =  3.66E-11,  avg # of iterations =  2.5

     negative rho (up, down):  3.470E-03 0.000E+00

     total cpu time spent up to now is      918.8 secs

     total energy              =   -2692.60843041 Ry
     estimated scf accuracy    <          4.0E-09 Ry

     iteration # 27     ecut=    50.00 Ry     beta= 0.40
     Davidson diagonalization with overlap
     ethr =  2.50E-12,  avg # of iterations =  3.8

     negative rho (up, down):  3.470E-03 0.000E+00

     total cpu time spent up to now is      960.0 secs

     total energy              =   -2692.60843041 Ry
     estimated scf accuracy    <          5.5E-09 Ry

     iteration # 28     ecut=    50.00 Ry     beta= 0.40
     Davidson diagonalization with overlap
     ethr =  2.50E-12,  avg # of iterations =  2.1

     negative rho (up, down):  3.470E-03 0.000E+00

     total cpu time spent up to now is      990.2 secs

     End of self-consistent calculation

          k = 0.0000 0.0000 0.0000 ( 10613 PWs)   bands (ev):

   -46.6253 -46.6244 -46.6244 -46.6235 -22.9203 -22.9203 -22.9174 -22.9174
   -22.8731 -22.8731 -22.8731 -22.8713 -22.8713 -22.8713 -22.8713 -22.8696
   -14.8696 -14.7623 -14.7623 -14.6922  -7.0417  -7.0417  -6.8478  -6.4702
    -6.1503  -6.1502  -6.1172  -6.1171  -6.1083  -6.1083  -5.8858  -5.8858
    -0.0819  -0.0819  -0.0428  -0.0428  -0.0428   0.1177   0.1177   0.1177
     0.1177   0.3129   0.3431   0.3431   5.6173   5.9036   5.9458   5.9458
     6.1145   7.1435   7.1435   7.1435   7.1435   7.2633   7.2633   7.5719
     7.5719   7.5719   7.9482   7.9482   8.0243   8.0243   8.0767   8.0767
     8.0767   8.0767   8.1520   8.8167   8.8168   8.8168   9.0149   9.0149
     9.1858   9.1858   9.1859   9.1859   9.7401   9.7401   9.7401   9.8225
    11.5952  11.5952  11.5952  11.7427  11.7427  13.3113  13.3113  13.3113
    13.3113  13.3223  13.3223  13.7306  13.7334  13.7334  13.7389  13.7389

          k = 0.2857 0.0000 0.0000 ( 10621 PWs)   bands (ev):

   -46.6251 -46.6243 -46.6242 -46.6234 -22.9198 -22.9198 -22.9170 -22.9170
   -22.8821 -22.8801 -22.8800 -22.8782 -22.8728 -22.8728 -22.8710 -22.8710
   -14.8498 -14.7493 -14.7493 -14.6809  -6.9505  -6.9505  -6.8555  -6.3760
    -6.1441  -6.1369  -6.1028  -6.1028  -6.0783  -6.0783  -5.9270  -5.9270
    -0.2088  -0.2088  -0.0138  -0.0138   0.0313   0.0725   0.0725   0.0813
     0.1527   0.1527   0.2563   0.2563   5.6179   5.9090   5.9090   6.1176
     6.2382   7.0558   7.0558   7.1051   7.1052   7.1595   7.1595   7.2544
     7.3401   7.3401   7.5202   7.5202   7.6355   7.9143   7.9143   8.2028
     8.2028   8.5958   8.5958   8.6431   8.9040   8.9041   8.9049   8.9049
     8.9335   8.9335   9.1315   9.1315   9.2528   9.5990   9.5990   9.8362
    11.6220  11.9929  11.9929  12.0949  12.0949  13.3127  13.3128  13.3363
    13.3363  13.4301  13.4301  13.7345  13.7744  14.0779  14.0779  14.2549

          k = 0.5714 0.0000 0.0000 ( 10621 PWs)   bands (ev):

   -46.6247 -46.6239 -46.6239 -46.6230 -22.9185 -22.9185 -22.9160 -22.9160
   -22.9021 -22.8996 -22.8995 -22.8975 -22.8720 -22.8720 -22.8702 -22.8702
   -14.8046 -14.7198 -14.7198 -14.6551  -6.9307  -6.7263  -6.7263  -6.1554
    -6.1301  -6.0837  -6.0837  -6.0363  -6.0209  -6.0209  -6.0081  -6.0081
    -0.4827  -0.4827  -0.3687  -0.0155  -0.0155   0.0534   0.0534   0.0726
     0.0726   0.1952   0.2343   0.2343   5.5868   5.8227   5.8227   6.1246
     6.3674   6.3674   6.5594   6.5659   6.5659   6.7060   6.9206   7.2038
     7.2038   7.3542   7.3542   7.4482   7.4482   7.5665   7.5665   8.2558
     8.2558   8.2993   8.4777   8.4919   8.4919   8.6353   8.6353   8.8142
     8.8142   9.3631   9.3631   9.4781   9.4781   9.5205   9.5205   9.8672
    11.6838  12.7236  12.7236  12.7674  12.7674  13.3172  13.3172  13.4822
    13.4822  13.6895  13.6895  13.7368  13.8755  14.4313  14.4313  15.0965

          k = 0.8571 0.0000 0.0000 ( 10574 PWs)   bands (ev):

   -46.6244 -46.6236 -46.6236 -46.6227 -22.9180 -22.9175 -22.9175 -22.9152
   -22.9152 -22.9151 -22.9151 -22.9129 -22.8714 -22.8714 -22.8697 -22.8697
   -14.7677 -14.6958 -14.6958 -14.6343  -7.0264  -6.5086  -6.5086  -6.1188
    -6.0998  -6.0998  -6.0971  -6.0971  -5.9680  -5.9487  -5.9487  -5.9070
    -0.6935  -0.6935  -0.6809  -0.0742  -0.0742  -0.0630  -0.0630   0.1093
     0.1094   0.3027   0.3027   0.3244   5.4511   5.6606   5.6606   5.9570
     5.9570   6.0226   6.1302   6.1557   6.1557   6.1831   7.1726   7.1726
     7.2541   7.2541   7.3012   7.3012   7.4188   7.4858   7.4858   8.0098
     8.0576   8.0946   8.0946   8.1938   8.1938   8.9674   8.9674   8.9828
     8.9828   9.2070   9.2070   9.7925   9.7925   9.8376   9.8376   9.8925
    11.7351  13.2388  13.2388  13.2533  13.2533  13.3216  13.3216  13.6926
    13.6926  13.7387  13.9311  13.9311  13.9589  14.5327  14.5327  15.6076

          k =-0.0000-0.2500 0.0000 ( 10596 PWs)   bands (ev):

   -46.6251 -46.6245 -46.6243 -46.6237 -22.9199 -22.9178 -22.9135 -22.9107
   -22.8801 -22.8781 -22.8729 -22.8729 -22.8716 -22.8716 -22.8711 -22.8698
   -14.8542 -14.7783 -14.7522 -14.7026  -6.9970  -6.9711  -6.8521  -6.5769
    -6.1454  -6.1419  -6.1220  -6.1058  -6.0897  -6.0753  -5.9472  -5.9179
    -0.0584  -0.0254  -0.0203  -0.0203   0.0149   0.0822   0.0931   0.0931
     0.1449   0.2753   0.2828   0.2877   5.7276   5.9168   6.0655   6.1740
     6.2542   7.0845   7.1558   7.2134   7.2280   7.2280   7.2377   7.3245
     7.3759   7.5327   7.5328   7.9499   8.1242   8.1331   8.1331   8.1347
     8.1591   8.2767   8.6405   8.6405   8.6804   8.8047   8.8739   8.9244
     8.9503   8.9852   9.2497   9.2497   9.3497   9.6270   9.6270   9.7271
    11.6160  11.7202  11.9105  11.9105  12.0209  13.0952  13.0952  13.1171
    13.3124  13.3203  13.3287  13.6237  13.7342  13.7381  14.0163  14.1506

          k = 0.2857-0.2500 0.0000 ( 10585 PWs)   bands (ev):

   -46.6250 -46.6244 -46.6241 -46.6235 -22.9194 -22.9174 -22.9129 -22.9103
   -22.8818 -22.8803 -22.8798 -22.8797 -22.8785 -22.8777 -22.8725 -22.8712
   -14.8354 -14.7643 -14.7394 -14.6910  -6.9162  -6.8796  -6.8433  -6.4846
    -6.1442  -6.1316  -6.1102  -6.0893  -6.0610  -6.0550  -5.9825  -5.9480
    -0.2101  -0.1463  -0.0467  -0.0387   0.0095   0.0336   0.1123   0.1272
     0.1313   0.1826   0.2087   0.2522   5.7273   5.8867   6.1252   6.2587
     6.3177   6.9595   7.0442   7.0600   7.1109   7.1482   7.2415   7.2476
     7.3110   7.3886   7.4091   7.4951   7.5934   7.8028   7.9611   8.2092
     8.2854   8.4368   8.5244   8.7714   8.7995   8.8274   8.8840   8.9280
     9.0092   9.0208   9.0337   9.0507   9.1109   9.4610   9.4810   9.7288
    11.9085  12.0275  12.0775  12.1663  12.3026  13.0998  13.1266  13.2391
    13.3445  13.3515  13.4174  13.6660  13.9586  14.0771  14.4354  14.4657

          k = 0.5714-0.2500 0.0000 ( 10595 PWs)   bands (ev):

   -46.6246 -46.6240 -46.6238 -46.6231 -22.9182 -22.9164 -22.9118 -22.9093
   -22.9017 -22.8999 -22.8993 -22.8978 -22.8789 -22.8770 -22.8718 -22.8705
   -14.7924 -14.7324 -14.7104 -14.6647  -6.8834  -6.7326  -6.6551  -6.2652
    -6.1238  -6.1086  -6.0647  -6.0547  -6.0328  -6.0180  -6.0089  -5.9977
    -0.4941  -0.4065  -0.2111  -0.1510  -0.0534  -0.0142  -0.0022   0.0786
     0.1382   0.2019   0.2065   0.2228   5.6993   5.8154   6.0016   6.2670
     6.4594   6.4979   6.5273   6.5781   6.6371   6.6823   6.8431   7.1885
     7.1925   7.2748   7.3567   7.4530   7.5036   7.5100   7.6014   7.6870
     8.0952   8.1119   8.4444   8.4938   8.5937   8.7857   8.8813   8.8975
     8.9032   9.1879   9.2625   9.3433   9.4597   9.5063   9.5122   9.7466
    11.9725  12.7321  12.7553  12.7685  12.8894  13.1122  13.3152  13.3776
    13.5120  13.5382  13.6589  13.7638  14.0119  14.4108  14.8922  15.2884

          k = 0.8571-0.2500 0.0000 ( 10583 PWs)   bands (ev):

   -46.6243 -46.6237 -46.6235 -46.6229 -22.9176 -22.9172 -22.9156 -22.9155
   -22.9148 -22.9132 -22.9108 -22.9086 -22.8782 -22.8764 -22.8711 -22.8699
   -14.7573 -14.7065 -14.6869 -14.6434  -6.9583  -6.5945  -6.4363  -6.1081
    -6.1072  -6.0766  -6.0763  -6.0625  -6.0575  -5.9715  -5.9619  -5.9378
    -0.6413  -0.6055  -0.5234  -0.1811  -0.1605  -0.0719   0.0086   0.0690
     0.1363   0.1435   0.2714   0.2729   5.5538   5.6618   5.7790   5.9909
     6.1272   6.1579   6.1670   6.1970   6.2786   6.3097   7.0848   7.1844
     7.2281   7.2603   7.2835   7.2968   7.3523   7.3845   7.4740   7.4836
     7.7977   7.9651   8.1913   8.3155   8.7748   8.7780   8.9692   9.0094
     9.0123   9.0698   9.0713   9.6734   9.7073   9.7145   9.7998   9.8463
    12.0147  13.1137  13.2407  13.2529  13.2567  13.3399  13.4023  13.5771
    13.7263  13.8123  13.8450  13.8949  14.0167  14.5046  14.9964  15.8086

          k =-0.8571-0.2500-0.0000 ( 10583 PWs)   bands (ev):

   -46.6243 -46.6237 -46.6235 -46.6229 -22.9176 -22.9172 -22.9156 -22.9155
   -22.9148 -22.9132 -22.9108 -22.9086 -22.8782 -22.8764 -22.8711 -22.8699
   -14.7573 -14.7065 -14.6869 -14.6434  -6.9583  -6.5945  -6.4363  -6.1081
    -6.1072  -6.0766  -6.0763  -6.0625  -6.0575  -5.9715  -5.9619  -5.9378
    -0.6413  -0.6055  -0.5234  -0.1811  -0.1605  -0.0719   0.0086   0.0690
     0.1363   0.1435   0.2714   0.2729   5.5538   5.6618   5.7790   5.9909
     6.1272   6.1579   6.1670   6.1970   6.2786   6.3097   7.0848   7.1844
     7.2281   7.2603   7.2835   7.2968   7.3523   7.3845   7.4740   7.4836
     7.7977   7.9651   8.1913   8.3155   8.7748   8.7780   8.9692   9.0094
     9.0123   9.0698   9.0713   9.6734   9.7073   9.7145   9.7998   9.8463
    12.0147  13.1137  13.2407  13.2529  13.2567  13.3399  13.4023  13.5771
    13.7263  13.8123  13.8450  13.8949  14.0167  14.5046  14.9964  15.8086

          k =-0.5714-0.2500-0.0000 ( 10595 PWs)   bands (ev):

   -46.6246 -46.6240 -46.6238 -46.6231 -22.9182 -22.9164 -22.9118 -22.9093
   -22.9017 -22.8999 -22.8993 -22.8978 -22.8789 -22.8770 -22.8718 -22.8705
   -14.7924 -14.7324 -14.7104 -14.6647  -6.8834  -6.7326  -6.6551  -6.2652
    -6.1238  -6.1086  -6.0647  -6.0547  -6.0328  -6.0180  -6.0089  -5.9977
    -0.4941  -0.4065  -0.2111  -0.1510  -0.0534  -0.0142  -0.0022   0.0786
     0.1382   0.2019   0.2065   0.2228   5.6993   5.8154   6.0016   6.2670
     6.4594   6.4979   6.5273   6.5781   6.6371   6.6823   6.8431   7.1885
     7.1925   7.2748   7.3567   7.4530   7.5036   7.5100   7.6014   7.6870
     8.0952   8.1119   8.4444   8.4938   8.5937   8.7857   8.8813   8.8975
     8.9032   9.1879   9.2625   9.3433   9.4597   9.5063   9.5122   9.7466
    11.9725  12.7321  12.7553  12.7685  12.8894  13.1122  13.3152  13.3776
    13.5120  13.5382  13.6589  13.7638  14.0119  14.4108  14.8922  15.2884

          k =-0.2857-0.2500-0.0000 ( 10585 PWs)   bands (ev):

   -46.6250 -46.6244 -46.6241 -46.6235 -22.9194 -22.9174 -22.9129 -22.9103
   -22.8818 -22.8803 -22.8798 -22.8797 -22.8785 -22.8777 -22.8725 -22.8712
   -14.8354 -14.7643 -14.7394 -14.6910  -6.9162  -6.8796  -6.8433  -6.4846
    -6.1442  -6.1316  -6.1102  -6.0893  -6.0610  -6.0550  -5.9825  -5.9480
    -0.2101  -0.1463  -0.0467  -0.0387   0.0095   0.0336   0.1123   0.1272
     0.1313   0.1826   0.2087   0.2522   5.7273   5.8867   6.1252   6.2587
     6.3177   6.9595   7.0442   7.0600   7.1109   7.1482   7.2415   7.2476
     7.3110   7.3886   7.4091   7.4951   7.5934   7.8028   7.9611   8.2092
     8.2854   8.4368   8.5244   8.7714   8.7995   8.8274   8.8840   8.9280
     9.0092   9.0208   9.0337   9.0507   9.1109   9.4610   9.4810   9.7288
    11.9085  12.0275  12.0775  12.1663  12.3026  13.0998  13.1266  13.2391
    13.3445  13.3515  13.4174  13.6660  13.9586  14.0771  14.4354  14.4657

          k = 0.0000 0.5000-0.0000 ( 10606 PWs)   bands (ev):

   -46.6248 -46.6248 -46.6240 -46.6240 -22.9188 -22.9188 -22.8968 -22.8968
   -22.8944 -22.8944 -22.8722 -22.8722 -22.8722 -22.8722 -22.8704 -22.8704
   -14.8166 -14.8166 -14.7276 -14.7276  -6.9047  -6.9047  -6.7886  -6.7886
    -6.1338  -6.1338  -6.0863  -6.0863  -6.0707  -6.0707  -5.9961  -5.9960
     0.0060   0.0060   0.0354   0.0354   0.0354   0.0354   0.1194   0.1194
     0.1524   0.1524   0.2124   0.2124   5.8493   5.8493   6.5259   6.5260
     6.7161   6.7161   6.7395   6.7395   7.1907   7.1907   7.4049   7.4049
     7.4049   7.4050   7.6559   7.6559   8.3276   8.3276   8.3276   8.3276
     8.3846   8.3846   8.5236   8.5237   8.5976   8.5976   8.6545   8.6545
     8.7907   8.7907   9.3992   9.3992   9.4194   9.4194   9.4194   9.4194
    11.6673  11.6673  12.5443  12.5443  12.5443  12.5443  12.6003  12.6004
    13.3159  13.3159  13.4316  13.4316  13.7362  13.7362  14.3728  14.3728

          k = 0.2857 0.5000-0.0000 ( 10620 PWs)   bands (ev):

   -46.6247 -46.6247 -46.6238 -46.6238 -22.9184 -22.9184 -22.8964 -22.8964
   -22.8941 -22.8941 -22.8811 -22.8811 -22.8791 -22.8791 -22.8719 -22.8719
   -14.8001 -14.8001 -14.7154 -14.7154  -6.8556  -6.8556  -6.6968  -6.6967
    -6.1291  -6.1291  -6.0848  -6.0848  -6.0640  -6.0640  -6.0003  -6.0003
    -0.1608  -0.1608  -0.0284  -0.0284   0.0126   0.0126   0.0673   0.0673
     0.2033   0.2033   0.2065   0.2065   5.8351   5.8351   6.5784   6.5784
     6.6396   6.6396   6.7363   6.7363   7.1478   7.1478   7.1945   7.1945
     7.3999   7.3999   7.5169   7.5169   7.7344   7.7344   8.1033   8.1033
     8.1406   8.1406   8.5421   8.5421   8.8264   8.8264   8.8854   8.8855
     8.9091   8.9091   9.2105   9.2105   9.3279   9.3279   9.3746   9.3746
    12.0351  12.0351  12.5595  12.5595  12.6334  12.6334  12.7800  12.7800
    13.3853  13.3853  13.4670  13.4670  14.0606  14.0606  14.9348  14.9349

          k = 0.5714 0.5000 0.0000 ( 10592 PWs)   bands (ev):

   -46.6243 -46.6243 -46.6234 -46.6234 -22.9173 -22.9173 -22.9008 -22.9008
   -22.8985 -22.8985 -22.8953 -22.8953 -22.8932 -22.8932 -22.8711 -22.8711
   -14.7626 -14.7626 -14.6877 -14.6877  -6.7869  -6.7869  -6.4732  -6.4732
    -6.1270  -6.1270  -6.0580  -6.0580  -6.0229  -6.0229  -6.0124  -6.0124
    -0.3726  -0.3726  -0.2157  -0.2157  -0.0591  -0.0591   0.0346   0.0346
     0.1413   0.1413   0.2116   0.2116   5.7924   5.7924   6.3176   6.3176
     6.6016   6.6016   6.6600   6.6601   6.8191   6.8191   6.8288   6.8288
     7.0791   7.0791   7.3497   7.3497   7.4560   7.4560   7.6647   7.6647
     7.8051   7.8051   8.3998   8.3998   8.8602   8.8602   8.8997   8.8997
     9.0747   9.0747   9.3235   9.3235   9.4221   9.4222   9.5116   9.5116
    12.5557  12.5557  12.7643  12.7644  12.9833  12.9833  13.2023  13.2023
    13.5456  13.5456  13.5854  13.5854  14.3108  14.3108  15.7794  15.7820

          k = 0.8571 0.5000 0.0000 ( 10578 PWs)   bands (ev):

   -46.6240 -46.6240 -46.6232 -46.6232 -22.9166 -22.9166 -22.9164 -22.9164
   -22.9140 -22.9140 -22.8945 -22.8945 -22.8925 -22.8925 -22.8705 -22.8705
   -14.7321 -14.7321 -14.6652 -14.6652  -6.7851  -6.7851  -6.2556  -6.2556
    -6.0927  -6.0927  -6.0249  -6.0249  -6.0191  -6.0191  -6.0067  -6.0066
    -0.4260  -0.4260  -0.3877  -0.3877  -0.2026  -0.2026  -0.0131  -0.0131
     0.1420   0.1420   0.2032   0.2032   5.6474   5.6474   5.9157   5.9157
     6.1634   6.1635   6.5738   6.5738   6.7345   6.7345   6.7392   6.7392
     6.9057   6.9057   7.2179   7.2179   7.4345   7.4345   7.4619   7.4619
     7.6659   7.6659   8.4860   8.4860   8.6293   8.6293   8.8235   8.8235
     9.3320   9.3320   9.3670   9.3670   9.4080   9.4080   9.8202   9.8202
    12.5962  12.5962  13.2461  13.2461  13.3689  13.3689  13.5624  13.5624
    13.6091  13.6091  13.8093  13.8093  14.3682  14.3682  15.9384  15.9384

          k = 0.0000-0.0000 0.2500 ( 10596 PWs)   bands (ev):

   -46.6251 -46.6245 -46.6243 -46.6237 -22.9199 -22.9178 -22.9135 -22.9107
   -22.8801 -22.8781 -22.8729 -22.8729 -22.8716 -22.8716 -22.8711 -22.8698
   -14.8542 -14.7783 -14.7522 -14.7026  -6.9970  -6.9711  -6.8521  -6.5769
    -6.1454  -6.1419  -6.1220  -6.1058  -6.0897  -6.0752  -5.9473  -5.9178
    -0.0584  -0.0254  -0.0203  -0.0203   0.0149   0.0822   0.0931   0.0931
     0.1449   0.2753   0.2828   0.2877   5.7276   5.9168   6.0655   6.1740
     6.2542   7.0845   7.1557   7.2134   7.2280   7.2280   7.2377   7.3245
     7.3759   7.5327   7.5328   7.9499   8.1242   8.1331   8.1331   8.1347
     8.1591   8.2767   8.6404   8.6405   8.6804   8.8047   8.8739   8.9244
     8.9503   8.9852   9.2497   9.2497   9.3497   9.6270   9.6270   9.7271
    11.6160  11.7202  11.9105  11.9105  12.0209  13.0952  13.0952  13.1171
    13.3124  13.3203  13.3287  13.6237  13.7342  13.7381  14.0163  14.1506

          k = 0.2857-0.0000 0.2500 ( 10585 PWs)   bands (ev):

   -46.6250 -46.6244 -46.6241 -46.6235 -22.9194 -22.9174 -22.9129 -22.9103
   -22.8818 -22.8803 -22.8798 -22.8797 -22.8785 -22.8777 -22.8725 -22.8712
   -14.8354 -14.7643 -14.7394 -14.6910  -6.9162  -6.8797  -6.8433  -6.4846
    -6.1442  -6.1316  -6.1102  -6.0894  -6.0610  -6.0549  -5.9825  -5.9480
    -0.2101  -0.1463  -0.0467  -0.0387   0.0095   0.0336   0.1123   0.1272
     0.1313   0.1826   0.2087   0.2522   5.7273   5.8867   6.1252   6.2587
     6.3177   6.9595   7.0442   7.0600   7.1109   7.1482   7.2415   7.2476
     7.3110   7.3886   7.4091   7.4951   7.5934   7.8028   7.9611   8.2092
     8.2854   8.4368   8.5244   8.7714   8.7995   8.8274   8.8840   8.9280
     9.0092   9.0208   9.0337   9.0507   9.1109   9.4610   9.4810   9.7288
    11.9085  12.0275  12.0775  12.1663  12.3026  13.0998  13.1266  13.2391
    13.3445  13.3515  13.4174  13.6660  13.9586  14.0771  14.4354  14.4657

          k = 0.5714-0.0000 0.2500 ( 10595 PWs)   bands (ev):

   -46.6246 -46.6240 -46.6238 -46.6231 -22.9182 -22.9164 -22.9118 -22.9093
   -22.9017 -22.8999 -22.8993 -22.8978 -22.8789 -22.8770 -22.8718 -22.8705
   -14.7924 -14.7324 -14.7104 -14.6647  -6.8834  -6.7326  -6.6551  -6.2652
    -6.1238  -6.1086  -6.0647  -6.0547  -6.0328  -6.0180  -6.0089  -5.9977
    -0.4941  -0.4065  -0.2111  -0.1510  -0.0534  -0.0142  -0.0022   0.0786
     0.1382   0.2019   0.2065   0.2228   5.6993   5.8154   6.0016   6.2670
     6.4594   6.4979   6.5273   6.5781   6.6371   6.6823   6.8431   7.1885
     7.1925   7.2748   7.3566   7.4530   7.5036   7.5100   7.6014   7.6870
     8.0952   8.1119   8.4444   8.4938   8.5937   8.7857   8.8813   8.8975
     8.9032   9.1879   9.2625   9.3433   9.4597   9.5063   9.5122   9.7466
    11.9725  12.7321  12.7553  12.7685  12.8894  13.1122  13.3152  13.3776
    13.5120  13.5382  13.6589  13.7638  14.0119  14.4108  14.8922  15.2884

          k = 0.8571 0.0000 0.2500 ( 10583 PWs)   bands (ev):

   -46.6243 -46.6237 -46.6235 -46.6229 -22.9176 -22.9172 -22.9156 -22.9155
   -22.9148 -22.9132 -22.9108 -22.9086 -22.8782 -22.8764 -22.8711 -22.8699
   -14.7573 -14.7065 -14.6869 -14.6434  -6.9583  -6.5945  -6.4363  -6.1081
    -6.1072  -6.0766  -6.0763  -6.0625  -6.0575  -5.9715  -5.9619  -5.9378
    -0.6413  -0.6055  -0.5234  -0.1811  -0.1605  -0.0719   0.0086   0.0690
     0.1363   0.1435   0.2714   0.2729   5.5538   5.6618   5.7790   5.9909
     6.1272   6.1579   6.1670   6.1971   6.2786   6.3097   7.0848   7.1844
     7.2281   7.2603   7.2835   7.2968   7.3523   7.3845   7.4740   7.4836
     7.7977   7.9651   8.1913   8.3155   8.7748   8.7780   8.9692   9.0094
     9.0123   9.0698   9.0713   9.6734   9.7073   9.7145   9.7999   9.8463
    12.0147  13.1137  13.2407  13.2529  13.2567  13.3399  13.4023  13.5771
    13.7263  13.8123  13.8450  13.8949  14.0167  14.5046  14.9964  15.8086

          k =-0.8571-0.0000 0.2500 ( 10583 PWs)   bands (ev):

   -46.6243 -46.6237 -46.6235 -46.6229 -22.9176 -22.9172 -22.9156 -22.9155
   -22.9148 -22.9132 -22.9108 -22.9086 -22.8782 -22.8764 -22.8711 -22.8699
   -14.7573 -14.7065 -14.6869 -14.6434  -6.9583  -6.5945  -6.4363  -6.1081
    -6.1072  -6.0766  -6.0763  -6.0625  -6.0575  -5.9715  -5.9619  -5.9378
    -0.6413  -0.6055  -0.5234  -0.1811  -0.1605  -0.0719   0.0086   0.0690
     0.1363   0.1435   0.2714   0.2729   5.5538   5.6618   5.7790   5.9909
     6.1272   6.1579   6.1670   6.1971   6.2786   6.3097   7.0848   7.1844
     7.2281   7.2603   7.2835   7.2968   7.3523   7.3845   7.4740   7.4836
     7.7977   7.9651   8.1913   8.3155   8.7748   8.7780   8.9692   9.0094
     9.0123   9.0698   9.0713   9.6734   9.7073   9.7145   9.7999   9.8463
    12.0147  13.1137  13.2407  13.2529  13.2567  13.3399  13.4023  13.5771
    13.7263  13.8123  13.8450  13.8949  14.0167  14.5046  14.9964  15.8086

          k =-0.5714-0.0000 0.2500 ( 10595 PWs)   bands (ev):

   -46.6246 -46.6240 -46.6238 -46.6231 -22.9182 -22.9164 -22.9118 -22.9093
   -22.9017 -22.8999 -22.8993 -22.8978 -22.8789 -22.8770 -22.8718 -22.8705
   -14.7924 -14.7324 -14.7104 -14.6647  -6.8834  -6.7326  -6.6551  -6.2652
    -6.1238  -6.1086  -6.0647  -6.0547  -6.0328  -6.0180  -6.0089  -5.9977
    -0.4941  -0.4065  -0.2111  -0.1510  -0.0534  -0.0142  -0.0022   0.0786
     0.1382   0.2019   0.2065   0.2228   5.6993   5.8154   6.0016   6.2670
     6.4594   6.4979   6.5273   6.5781   6.6371   6.6823   6.8431   7.1885
     7.1925   7.2748   7.3567   7.4530   7.5036   7.5100   7.6014   7.6870
     8.0952   8.1119   8.4444   8.4938   8.5937   8.7857   8.8813   8.8975
     8.9032   9.1879   9.2625   9.3433   9.4597   9.5063   9.5122   9.7466
    11.9725  12.7321  12.7553  12.7685  12.8894  13.1122  13.3152  13.3776
    13.5120  13.5382  13.6589  13.7638  14.0119  14.4108  14.8922  15.2884

          k =-0.2857-0.0000 0.2500 ( 10585 PWs)   bands (ev):

   -46.6250 -46.6244 -46.6241 -46.6235 -22.9194 -22.9174 -22.9129 -22.9103
   -22.8818 -22.8803 -22.8798 -22.8797 -22.8785 -22.8777 -22.8725 -22.8712
   -14.8354 -14.7643 -14.7394 -14.6910  -6.9162  -6.8797  -6.8433  -6.4846
    -6.1442  -6.1316  -6.1102  -6.0894  -6.0610  -6.0549  -5.9825  -5.9480
    -0.2101  -0.1463  -0.0467  -0.0387   0.0095   0.0336   0.1123   0.1272
     0.1313   0.1826   0.2087   0.2522   5.7273   5.8867   6.1252   6.2587
     6.3177   6.9595   7.0442   7.0600   7.1109   7.1482   7.2415   7.2476
     7.3110   7.3886   7.4091   7.4951   7.5934   7.8028   7.9611   8.2092
     8.2854   8.4368   8.5244   8.7714   8.7995   8.8274   8.8840   8.9280
     9.0092   9.0208   9.0337   9.0507   9.1109   9.4610   9.4810   9.7288
    11.9085  12.0275  12.0775  12.1663  12.3026  13.0998  13.1266  13.2391
    13.3445  13.3515  13.4174  13.6660  13.9586  14.0771  14.4354  14.4657

          k = 0.0000-0.2500 0.2500 ( 10620 PWs)   bands (ev):

   -46.6250 -46.6244 -46.6244 -46.6238 -22.9131 -22.9131 -22.9112 -22.9109
   -22.8800 -22.8796 -22.8784 -22.8784 -22.8726 -22.8713 -22.8713 -22.8701
   -14.8396 -14.7674 -14.7674 -14.7139  -6.9342  -6.9342  -6.8438  -6.6314
    -6.1452  -6.1349  -6.1155  -6.1125  -6.1125  -6.0457  -5.9751  -5.9751
    -0.0752  -0.0468   0.0029   0.0454   0.0454   0.0530   0.0967   0.1196
     0.1196   0.2536   0.2612   0.2612   5.8645   6.1358   6.1358   6.2520
     6.3413   7.1055   7.1055   7.1658   7.2385   7.2385   7.2819   7.4040
     7.4040   7.4131   7.4260   7.5046   7.9987   7.9987   8.2565   8.2565
     8.2726   8.3926   8.4787   8.6668   8.7616   8.7616   8.8283   8.9729
     9.0582   9.0582   9.0923   9.1000   9.1000   9.4939   9.5030   9.6628
    11.8834  11.9672  12.0025  12.0025  12.1080  13.0848  13.0987  13.0987
    13.1165  13.1165  13.1419  13.4922  13.9378  14.0167  14.0167  14.3782

          k = 0.2857-0.2500 0.2500 ( 10607 PWs)   bands (ev):

   -46.6249 -46.6243 -46.6242 -46.6236 -22.9125 -22.9125 -22.9108 -22.9105
   -22.8815 -22.8801 -22.8801 -22.8796 -22.8793 -22.8788 -22.8780 -22.8780
   -14.8216 -14.7537 -14.7537 -14.7019  -6.8522  -6.8522  -6.8224  -6.5416
    -6.1363  -6.1355  -6.0976  -6.0976  -6.0889  -6.0328  -6.0019  -6.0019
    -0.1800  -0.1496  -0.0461  -0.0414  -0.0396  -0.0396   0.0605   0.0605
     0.1945   0.2073   0.2954   0.2954   5.8662   6.0913   6.0913   6.3408
     6.4278   6.9354   6.9354   6.9582   7.1872   7.1872   7.2641   7.3164
     7.3164   7.3597   7.3810   7.4401   7.6474   7.6474   7.8725   8.1312
     8.1566   8.4110   8.4110   8.7224   8.8535   8.8535   8.8884   8.9712
     8.9935   8.9935   9.0384   9.0384   9.1164   9.3890   9.3948   9.6526
    12.1132  12.1924  12.2067  12.2832  12.2832  13.1342  13.1342  13.1483
    13.1483  13.2011  13.2470  13.5358  14.3767  14.4427  14.4428  14.4883

          k = 0.5714-0.2500 0.2500 ( 10592 PWs)   bands (ev):

   -46.6245 -46.6239 -46.6239 -46.6233 -22.9114 -22.9114 -22.9098 -22.9096
   -22.9014 -22.8996 -22.8996 -22.8981 -22.8787 -22.8785 -22.8773 -22.8773
   -14.7806 -14.7226 -14.7226 -14.6748  -6.8335  -6.6654  -6.6654  -6.3315
    -6.1134  -6.0901  -6.0901  -6.0710  -6.0335  -6.0335  -6.0271  -6.0050
    -0.4385  -0.4092  -0.1358  -0.1358  -0.0679  -0.0538  -0.0538  -0.0300
    -0.0057   0.2668   0.2668   0.2989   5.8498   5.9864   5.9864   6.3423
     6.4310   6.5344   6.5344   6.6394   6.6812   6.6812   6.8936   7.0856
     7.2628   7.2628   7.2756   7.4602   7.4939   7.5407   7.5407   7.6857
     7.7798   8.0644   8.0644   8.4162   8.8118   8.8118   8.9036   9.0343
     9.0343   9.1506   9.1846   9.2995   9.4132   9.4872   9.4872   9.6631
    12.1892  12.7836  12.7964  12.8700  12.8700  13.1801  13.1801  13.3484
    13.3484  13.5003  13.5116  13.6351  14.3707  14.8800  14.8800  15.3940

          k = 0.8571-0.2500 0.2500 ( 10568 PWs)   bands (ev):

   -46.6242 -46.6236 -46.6236 -46.6230 -22.9172 -22.9152 -22.9152 -22.9136
   -22.9105 -22.9105 -22.9090 -22.9088 -22.8780 -22.8778 -22.8766 -22.8766
   -14.7472 -14.6973 -14.6973 -14.6528  -6.8898  -6.5236  -6.5236  -6.1532
    -6.0955  -6.0859  -6.0859  -6.0431  -6.0431  -5.9847  -5.9753  -5.9605
    -0.5877  -0.5542  -0.3611  -0.1685  -0.1685  -0.1211  -0.1211  -0.0217
     0.1286   0.1831   0.1831   0.2635   5.6737   5.7809   5.7809   5.9639
     6.2650   6.2745   6.2745   6.3087   6.3087   6.3454   6.9713   7.1018
     7.1682   7.1925   7.2691   7.2691   7.4079   7.4079   7.4672   7.4780
     7.6279   7.9181   7.9181   8.5294   8.7684   8.8961   8.9140   8.9140
     8.9732   9.0735   9.0735   9.5609   9.6233   9.7052   9.7052   9.7650
    12.2349  13.2052  13.2052  13.2681  13.2728  13.3305  13.3305  13.6105
    13.6105  13.7170  13.7764  13.7770  14.3594  14.9751  14.9751  15.9405

          k =-0.8571-0.2500 0.2500 ( 10568 PWs)   bands (ev):

   -46.6242 -46.6236 -46.6236 -46.6230 -22.9172 -22.9152 -22.9152 -22.9136
   -22.9105 -22.9105 -22.9090 -22.9088 -22.8780 -22.8778 -22.8766 -22.8766
   -14.7472 -14.6973 -14.6973 -14.6528  -6.8898  -6.5236  -6.5236  -6.1532
    -6.0955  -6.0859  -6.0859  -6.0431  -6.0431  -5.9847  -5.9753  -5.9605
    -0.5877  -0.5542  -0.3611  -0.1685  -0.1685  -0.1211  -0.1211  -0.0217
     0.1286   0.1831   0.1831   0.2635   5.6737   5.7809   5.7809   5.9639
     6.2650   6.2745   6.2745   6.3087   6.3087   6.3454   6.9713   7.1018
     7.1682   7.1925   7.2691   7.2691   7.4079   7.4079   7.4672   7.4780
     7.6279   7.9181   7.9181   8.5294   8.7684   8.8961   8.9140   8.9140
     8.9732   9.0735   9.0735   9.5609   9.6233   9.7052   9.7052   9.7650
    12.2349  13.2052  13.2052  13.2681  13.2728  13.3305  13.3305  13.6105
    13.6105  13.7170  13.7764  13.7770  14.3594  14.9751  14.9751  15.9405

          k =-0.5714-0.2500 0.2500 ( 10592 PWs)   bands (ev):

   -46.6245 -46.6239 -46.6239 -46.6233 -22.9114 -22.9114 -22.9098 -22.9096
   -22.9014 -22.8996 -22.8996 -22.8981 -22.8787 -22.8785 -22.8773 -22.8773
   -14.7806 -14.7226 -14.7226 -14.6748  -6.8335  -6.6654  -6.6654  -6.3315
    -6.1134  -6.0901  -6.0901  -6.0710  -6.0335  -6.0335  -6.0271  -6.0050
    -0.4385  -0.4092  -0.1358  -0.1358  -0.0679  -0.0538  -0.0538  -0.0300
    -0.0057   0.2668   0.2668   0.2989   5.8498   5.9864   5.9864   6.3423
     6.4310   6.5344   6.5344   6.6394   6.6812   6.6812   6.8936   7.0856
     7.2628   7.2628   7.2756   7.4602   7.4939   7.5407   7.5407   7.6857
     7.7798   8.0644   8.0644   8.4162   8.8118   8.8118   8.9036   9.0343
     9.0343   9.1506   9.1846   9.2995   9.4132   9.4872   9.4872   9.6631
    12.1892  12.7836  12.7964  12.8700  12.8700  13.1801  13.1801  13.3484
    13.3484  13.5003  13.5116  13.6351  14.3707  14.8800  14.8800  15.3940

          k =-0.2857-0.2500 0.2500 ( 10607 PWs)   bands (ev):

   -46.6249 -46.6243 -46.6242 -46.6236 -22.9125 -22.9125 -22.9108 -22.9105
   -22.8815 -22.8801 -22.8801 -22.8796 -22.8793 -22.8788 -22.8780 -22.8780
   -14.8216 -14.7537 -14.7537 -14.7019  -6.8522  -6.8522  -6.8224  -6.5416
    -6.1363  -6.1355  -6.0976  -6.0976  -6.0889  -6.0328  -6.0019  -6.0019
    -0.1800  -0.1496  -0.0461  -0.0414  -0.0396  -0.0396   0.0605   0.0605
     0.1945   0.2073   0.2954   0.2954   5.8662   6.0913   6.0913   6.3408
     6.4278   6.9354   6.9354   6.9582   7.1872   7.1872   7.2641   7.3164
     7.3164   7.3597   7.3810   7.4401   7.6474   7.6474   7.8725   8.1312
     8.1566   8.4110   8.4110   8.7224   8.8535   8.8535   8.8884   8.9712
     8.9935   8.9935   9.0384   9.0384   9.1164   9.3890   9.3948   9.6526
    12.1132  12.1924  12.2067  12.2832  12.2832  13.1342  13.1342  13.1483
    13.1483  13.2011  13.2470  13.5358  14.3767  14.4427  14.4428  14.4883

          k = 0.0000 0.5000 0.2500 ( 10618 PWs)   bands (ev):

   -46.6247 -46.6247 -46.6241 -46.6241 -22.9121 -22.9121 -22.8965 -22.8965
   -22.8948 -22.8948 -22.8791 -22.8791 -22.8720 -22.8720 -22.8707 -22.8707
   -14.8038 -14.8038 -14.7409 -14.7409  -6.8658  -6.8658  -6.7807  -6.7807
    -6.1292  -6.1292  -6.1048  -6.1048  -6.0835  -6.0835  -6.0249  -6.0248
    -0.0360  -0.0360  -0.0192  -0.0192   0.0602   0.0602   0.1719   0.1719
     0.1853   0.1853   0.1996   0.1996   6.0410   6.0410   6.6580   6.6580
     6.6631   6.6631   6.8034   6.8034   7.2396   7.2397   7.2660   7.2660
     7.4015   7.4015   7.6921   7.6921   7.8166   7.8166   8.1805   8.1805
     8.4381   8.4381   8.5519   8.5519   8.6928   8.6928   8.8105   8.8105
     8.8643   8.8643   9.2525   9.2525   9.3249   9.3249   9.4205   9.4205
    11.9586  11.9587  12.5558  12.5558  12.5875  12.5875  12.6092  12.6092
    13.1085  13.1085  13.2507  13.2507  14.0070  14.0070  14.3570  14.3570

          k = 0.2857 0.5000 0.2500 ( 10616 PWs)   bands (ev):

   -46.6246 -46.6246 -46.6239 -46.6239 -22.9116 -22.9116 -22.8960 -22.8960
   -22.8944 -22.8944 -22.8808 -22.8808 -22.8794 -22.8794 -22.8787 -22.8787
   -14.7879 -14.7879 -14.7280 -14.7280  -6.8117  -6.8117  -6.6954  -6.6954
    -6.1175  -6.1175  -6.0987  -6.0987  -6.0822  -6.0822  -6.0326  -6.0326
    -0.1435  -0.1435  -0.0519  -0.0519  -0.0451  -0.0451  -0.0321  -0.0321
     0.2826   0.2826   0.2994   0.2994   6.0135   6.0135   6.5497   6.5497
     6.6241   6.6241   6.8498   6.8498   7.1232   7.1232   7.2384   7.2384
     7.2899   7.2899   7.5574   7.5574   7.7744   7.7744   7.8384   7.8384
     8.0379   8.0379   8.3716   8.3716   8.8736   8.8736   8.9730   8.9730
     9.0373   9.0373   9.1889   9.1889   9.2513   9.2513   9.3801   9.3801
    12.2336  12.2336  12.6388  12.6388  12.6605  12.6606  12.7591  12.7591
    13.1874  13.1874  13.2912  13.2912  14.4516  14.4516  14.9318  14.9319

          k = 0.5714 0.5000 0.2500 ( 10606 PWs)   bands (ev):

   -46.6242 -46.6242 -46.6236 -46.6236 -22.9106 -22.9106 -22.9005 -22.9005
   -22.8989 -22.8989 -22.8950 -22.8950 -22.8935 -22.8935 -22.8779 -22.8779
   -14.7518 -14.7518 -14.6989 -14.6989  -6.7291  -6.7291  -6.4995  -6.4995
    -6.1117  -6.1117  -6.0661  -6.0661  -6.0466  -6.0466  -6.0336  -6.0336
    -0.3264  -0.3264  -0.2570  -0.2570  -0.1061  -0.1061  -0.0516  -0.0516
     0.1550   0.1550   0.3302   0.3302   5.9632   5.9632   6.2558   6.2558
     6.5392   6.5392   6.7596   6.7596   6.8048   6.8048   6.9614   6.9614
     7.0183   7.0183   7.3913   7.3913   7.4736   7.4736   7.5952   7.5952
     7.6879   7.6879   8.0661   8.0661   8.9416   8.9416   9.0639   9.0639
     9.1076   9.1076   9.3060   9.3060   9.3699   9.3699   9.4842   9.4842
    12.6795  12.6795  12.8463  12.8463  13.0178  13.0178  13.1725  13.1725
    13.3772  13.3772  13.4283  13.4283  14.7803  14.7803  15.7933  15.7945

          k = 0.8571 0.5000 0.2500 ( 10572 PWs)   bands (ev):

   -46.6239 -46.6239 -46.6233 -46.6233 -22.9162 -22.9162 -22.9144 -22.9144
   -22.9097 -22.9097 -22.8943 -22.8943 -22.8928 -22.8928 -22.8773 -22.8773
   -14.7224 -14.7224 -14.6752 -14.6752  -6.7156  -6.7156  -6.3456  -6.3456
    -6.0750  -6.0750  -6.0341  -6.0341  -6.0110  -6.0110  -6.0087  -6.0086
    -0.4079  -0.4079  -0.3524  -0.3524  -0.1264  -0.1264  -0.0686  -0.0686
     0.0084   0.0084   0.2427   0.2427   5.7717   5.7717   5.9021   5.9021
     6.2837   6.2837   6.5833   6.5833   6.6921   6.6921   6.7704   6.7704
     6.9049   6.9049   7.1981   7.1981   7.4469   7.4469   7.5246   7.5246
     7.5483   7.5483   8.1621   8.1621   8.8155   8.8155   8.9373   8.9373
     9.2268   9.2268   9.3519   9.3519   9.3833   9.3833   9.7119   9.7119
    12.7330  12.7330  13.3010  13.3010  13.3979  13.3979  13.4460  13.4460
    13.5351  13.5351  13.6923  13.6923  14.8186  14.8186  15.9389  15.9389

          k =-0.8571 0.5000 0.2500 ( 10572 PWs)   bands (ev):

   -46.6239 -46.6239 -46.6233 -46.6233 -22.9162 -22.9162 -22.9144 -22.9144
   -22.9097 -22.9097 -22.8943 -22.8943 -22.8928 -22.8928 -22.8773 -22.8773
   -14.7224 -14.7224 -14.6752 -14.6752  -6.7156  -6.7156  -6.3456  -6.3456
    -6.0750  -6.0750  -6.0341  -6.0341  -6.0110  -6.0110  -6.0087  -6.0086
    -0.4079  -0.4079  -0.3524  -0.3524  -0.1264  -0.1264  -0.0686  -0.0686
     0.0084   0.0084   0.2427   0.2427   5.7717   5.7717   5.9021   5.9021
     6.2837   6.2837   6.5833   6.5833   6.6921   6.6921   6.7704   6.7704
     6.9049   6.9049   7.1981   7.1981   7.4469   7.4469   7.5246   7.5246
     7.5483   7.5483   8.1621   8.1621   8.8155   8.8155   8.9373   8.9373
     9.2268   9.2268   9.3519   9.3519   9.3833   9.3833   9.7119   9.7119
    12.7330  12.7330  13.3010  13.3010  13.3979  13.3979  13.4460  13.4460
    13.5351  13.5351  13.6923  13.6923  14.8186  14.8186  15.9389  15.9389

          k =-0.5714 0.5000 0.2500 ( 10606 PWs)   bands (ev):

   -46.6242 -46.6242 -46.6236 -46.6236 -22.9106 -22.9106 -22.9005 -22.9005
   -22.8989 -22.8989 -22.8950 -22.8950 -22.8935 -22.8935 -22.8779 -22.8779
   -14.7518 -14.7518 -14.6989 -14.6989  -6.7291  -6.7291  -6.4995  -6.4995
    -6.1117  -6.1117  -6.0661  -6.0661  -6.0466  -6.0466  -6.0336  -6.0336
    -0.3264  -0.3264  -0.2570  -0.2570  -0.1061  -0.1061  -0.0516  -0.0516
     0.1550   0.1550   0.3302   0.3302   5.9632   5.9632   6.2558   6.2558
     6.5392   6.5392   6.7596   6.7596   6.8048   6.8048   6.9614   6.9614
     7.0183   7.0183   7.3913   7.3913   7.4736   7.4736   7.5952   7.5952
     7.6879   7.6879   8.0661   8.0661   8.9416   8.9416   9.0639   9.0639
     9.1076   9.1076   9.3060   9.3060   9.3699   9.3699   9.4842   9.4842
    12.6795  12.6795  12.8463  12.8463  13.0178  13.0178  13.1725  13.1725
    13.3772  13.3772  13.4283  13.4283  14.7803  14.7803  15.7931  15.7947

          k =-0.2857 0.5000 0.2500 ( 10616 PWs)   bands (ev):

   -46.6246 -46.6246 -46.6239 -46.6239 -22.9116 -22.9116 -22.8960 -22.8960
   -22.8944 -22.8944 -22.8808 -22.8808 -22.8794 -22.8794 -22.8787 -22.8787
   -14.7879 -14.7879 -14.7280 -14.7280  -6.8117  -6.8117  -6.6954  -6.6954
    -6.1175  -6.1175  -6.0987  -6.0987  -6.0822  -6.0822  -6.0326  -6.0326
    -0.1435  -0.1435  -0.0519  -0.0519  -0.0451  -0.0451  -0.0321  -0.0321
     0.2826   0.2826   0.2994   0.2994   6.0135   6.0135   6.5497   6.5497
     6.6241   6.6241   6.8498   6.8498   7.1232   7.1232   7.2384   7.2384
     7.2899   7.2899   7.5574   7.5574   7.7744   7.7744   7.8384   7.8384
     8.0379   8.0379   8.3716   8.3716   8.8736   8.8736   8.9730   8.9730
     9.0373   9.0373   9.1889   9.1889   9.2513   9.2513   9.3801   9.3801
    12.2336  12.2336  12.6388  12.6388  12.6605  12.6606  12.7591  12.7591
    13.1874  13.1874  13.2912  13.2912  14.4516  14.4516  14.9318  14.9319

          k = 0.0000 0.2500 0.2500 ( 10620 PWs)   bands (ev):

   -46.6250 -46.6244 -46.6244 -46.6238 -22.9131 -22.9131 -22.9112 -22.9109
   -22.8800 -22.8796 -22.8784 -22.8784 -22.8726 -22.8713 -22.8713 -22.8701
   -14.8396 -14.7674 -14.7674 -14.7139  -6.9342  -6.9342  -6.8438  -6.6314
    -6.1452  -6.1349  -6.1155  -6.1125  -6.1125  -6.0457  -5.9751  -5.9751
    -0.0752  -0.0468   0.0029   0.0454   0.0454   0.0530   0.0967   0.1196
     0.1196   0.2536   0.2612   0.2612   5.8645   6.1358   6.1358   6.2520
     6.3413   7.1055   7.1055   7.1658   7.2385   7.2385   7.2819   7.4040
     7.4040   7.4131   7.4260   7.5046   7.9987   7.9987   8.2565   8.2565
     8.2726   8.3926   8.4787   8.6668   8.7616   8.7616   8.8283   8.9729
     9.0582   9.0582   9.0923   9.1000   9.1000   9.4939   9.5030   9.6628
    11.8834  11.9672  12.0025  12.0025  12.1080  13.0848  13.0987  13.0987
    13.1165  13.1165  13.1419  13.4922  13.9378  14.0167  14.0167  14.3782

          k = 0.2857 0.2500 0.2500 ( 10607 PWs)   bands (ev):

   -46.6249 -46.6243 -46.6242 -46.6236 -22.9125 -22.9125 -22.9108 -22.9105
   -22.8815 -22.8801 -22.8801 -22.8796 -22.8793 -22.8788 -22.8780 -22.8780
   -14.8216 -14.7537 -14.7537 -14.7019  -6.8522  -6.8522  -6.8224  -6.5416
    -6.1363  -6.1355  -6.0976  -6.0976  -6.0889  -6.0328  -6.0019  -6.0019
    -0.1800  -0.1496  -0.0461  -0.0414  -0.0396  -0.0396   0.0605   0.0605
     0.1945   0.2073   0.2954   0.2955   5.8662   6.0913   6.0913   6.3408
     6.4278   6.9354   6.9354   6.9582   7.1872   7.1872   7.2641   7.3164
     7.3164   7.3597   7.3810   7.4401   7.6474   7.6474   7.8725   8.1312
     8.1566   8.4110   8.4110   8.7224   8.8535   8.8535   8.8884   8.9712
     8.9935   8.9935   9.0384   9.0384   9.1164   9.3890   9.3948   9.6526
    12.1132  12.1924  12.2067  12.2832  12.2832  13.1342  13.1342  13.1483
    13.1483  13.2011  13.2470  13.5358  14.3767  14.4427  14.4428  14.4883

          k = 0.5714 0.2500 0.2500 ( 10592 PWs)   bands (ev):

   -46.6245 -46.6239 -46.6239 -46.6233 -22.9114 -22.9114 -22.9098 -22.9096
   -22.9014 -22.8996 -22.8996 -22.8981 -22.8787 -22.8785 -22.8773 -22.8773
   -14.7806 -14.7226 -14.7226 -14.6748  -6.8335  -6.6654  -6.6654  -6.3315
    -6.1134  -6.0901  -6.0901  -6.0710  -6.0335  -6.0335  -6.0271  -6.0050
    -0.4385  -0.4092  -0.1358  -0.1358  -0.0679  -0.0538  -0.0538  -0.0300
    -0.0057   0.2668   0.2668   0.2989   5.8498   5.9864   5.9864   6.3423
     6.4310   6.5344   6.5344   6.6394   6.6812   6.6812   6.8936   7.0856
     7.2628   7.2628   7.2756   7.4602   7.4939   7.5407   7.5407   7.6857
     7.7798   8.0644   8.0644   8.4162   8.8118   8.8118   8.9036   9.0343
     9.0343   9.1506   9.1846   9.2995   9.4132   9.4872   9.4872   9.6631
    12.1892  12.7836  12.7965  12.8700  12.8700  13.1801  13.1801  13.3484
    13.3484  13.5003  13.5116  13.6351  14.3707  14.8800  14.8800  15.3940

          k = 0.8571 0.2500 0.2500 ( 10568 PWs)   bands (ev):

   -46.6242 -46.6236 -46.6236 -46.6230 -22.9172 -22.9152 -22.9152 -22.9136
   -22.9105 -22.9105 -22.9090 -22.9088 -22.8780 -22.8778 -22.8766 -22.8766
   -14.7472 -14.6973 -14.6973 -14.6528  -6.8898  -6.5236  -6.5236  -6.1532
    -6.0955  -6.0859  -6.0859  -6.0431  -6.0431  -5.9847  -5.9753  -5.9605
    -0.5877  -0.5542  -0.3611  -0.1685  -0.1685  -0.1211  -0.1211  -0.0217
     0.1286   0.1831   0.1831   0.2635   5.6737   5.7809   5.7809   5.9639
     6.2650   6.2745   6.2745   6.3087   6.3087   6.3454   6.9713   7.1018
     7.1682   7.1925   7.2691   7.2691   7.4079   7.4079   7.4672   7.4780
     7.6279   7.9181   7.9181   8.5294   8.7684   8.8961   8.9140   8.9140
     8.9732   9.0735   9.0735   9.5609   9.6233   9.7052   9.7052   9.7650
    12.2349  13.2052  13.2052  13.2681  13.2728  13.3305  13.3305  13.6105
    13.6105  13.7170  13.7764  13.7770  14.3594  14.9751  14.9751  15.9405

          k =-0.8571 0.2500 0.2500 ( 10568 PWs)   bands (ev):

   -46.6242 -46.6236 -46.6236 -46.6230 -22.9172 -22.9152 -22.9152 -22.9136
   -22.9105 -22.9105 -22.9090 -22.9088 -22.8780 -22.8778 -22.8766 -22.8766
   -14.7472 -14.6973 -14.6973 -14.6528  -6.8898  -6.5236  -6.5236  -6.1532
    -6.0955  -6.0859  -6.0859  -6.0431  -6.0431  -5.9847  -5.9753  -5.9605
    -0.5877  -0.5542  -0.3611  -0.1685  -0.1685  -0.1211  -0.1211  -0.0217
     0.1286   0.1831   0.1831   0.2635   5.6737   5.7809   5.7809   5.9639
     6.2650   6.2745   6.2745   6.3087   6.3087   6.3454   6.9713   7.1018
     7.1682   7.1925   7.2691   7.2691   7.4079   7.4079   7.4672   7.4780
     7.6279   7.9181   7.9181   8.5294   8.7684   8.8961   8.9140   8.9140
     8.9732   9.0735   9.0735   9.5609   9.6233   9.7052   9.7052   9.7650
    12.2349  13.2052  13.2052  13.2681  13.2728  13.3305  13.3305  13.6105
    13.6105  13.7170  13.7764  13.7770  14.3594  14.9751  14.9751  15.9405

          k =-0.5714 0.2500 0.2500 ( 10592 PWs)   bands (ev):

   -46.6245 -46.6239 -46.6239 -46.6233 -22.9114 -22.9114 -22.9098 -22.9096
   -22.9014 -22.8996 -22.8996 -22.8981 -22.8787 -22.8785 -22.8773 -22.8773
   -14.7806 -14.7226 -14.7226 -14.6748  -6.8335  -6.6654  -6.6654  -6.3315
    -6.1134  -6.0901  -6.0901  -6.0710  -6.0335  -6.0335  -6.0271  -6.0050
    -0.4385  -0.4092  -0.1358  -0.1358  -0.0679  -0.0538  -0.0538  -0.0300
    -0.0057   0.2668   0.2668   0.2989   5.8498   5.9864   5.9864   6.3423
     6.4310   6.5344   6.5344   6.6394   6.6812   6.6812   6.8936   7.0856
     7.2628   7.2628   7.2756   7.4602   7.4939   7.5407   7.5407   7.6857
     7.7798   8.0644   8.0644   8.4162   8.8118   8.8118   8.9036   9.0343
     9.0343   9.1506   9.1846   9.2995   9.4132   9.4872   9.4872   9.6631
    12.1892  12.7836  12.7964  12.8700  12.8700  13.1801  13.1801  13.3484
    13.3484  13.5003  13.5116  13.6351  14.3707  14.8800  14.8800  15.3940

          k =-0.2857 0.2500 0.2500 ( 10607 PWs)   bands (ev):

   -46.6249 -46.6243 -46.6242 -46.6236 -22.9125 -22.9125 -22.9108 -22.9105
   -22.8815 -22.8801 -22.8801 -22.8796 -22.8793 -22.8788 -22.8780 -22.8780
   -14.8216 -14.7537 -14.7537 -14.7019  -6.8522  -6.8522  -6.8224  -6.5416
    -6.1363  -6.1355  -6.0976  -6.0976  -6.0889  -6.0328  -6.0019  -6.0019
    -0.1800  -0.1496  -0.0461  -0.0414  -0.0396  -0.0396   0.0605   0.0605
     0.1945   0.2073   0.2954   0.2955   5.8662   6.0913   6.0913   6.3408
     6.4278   6.9354   6.9354   6.9582   7.1872   7.1872   7.2641   7.3164
     7.3164   7.3597   7.3810   7.4401   7.6474   7.6474   7.8725   8.1312
     8.1566   8.4110   8.4110   8.7224   8.8535   8.8535   8.8884   8.9712
     8.9935   8.9935   9.0384   9.0384   9.1164   9.3890   9.3948   9.6526
    12.1132  12.1924  12.2067  12.2832  12.2832  13.1342  13.1342  13.1483
    13.1483  13.2011  13.2470  13.5358  14.3767  14.4427  14.4428  14.4883

          k =-0.0000 0.0000-0.5000 ( 10606 PWs)   bands (ev):

   -46.6248 -46.6248 -46.6240 -46.6240 -22.9188 -22.9188 -22.8968 -22.8968
   -22.8944 -22.8944 -22.8722 -22.8722 -22.8722 -22.8722 -22.8704 -22.8704
   -14.8166 -14.8166 -14.7276 -14.7276  -6.9047  -6.9047  -6.7886  -6.7886
    -6.1338  -6.1338  -6.0863  -6.0863  -6.0708  -6.0707  -5.9961  -5.9960
     0.0060   0.0060   0.0354   0.0354   0.0354   0.0354   0.1194   0.1194
     0.1524   0.1524   0.2124   0.2124   5.8493   5.8493   6.5259   6.5260
     6.7161   6.7161   6.7395   6.7395   7.1907   7.1907   7.4049   7.4049
     7.4049   7.4050   7.6559   7.6560   8.3276   8.3276   8.3276   8.3276
     8.3846   8.3846   8.5237   8.5237   8.5976   8.5976   8.6545   8.6545
     8.7907   8.7907   9.3992   9.3992   9.4193   9.4194   9.4194   9.4194
    11.6673  11.6673  12.5443  12.5443  12.5443  12.5443  12.6004  12.6004
    13.3159  13.3159  13.4316  13.4316  13.7362  13.7362  14.3728  14.3728

          k = 0.2857 0.0000-0.5000 ( 10620 PWs)   bands (ev):

   -46.6247 -46.6247 -46.6238 -46.6238 -22.9184 -22.9184 -22.8964 -22.8964
   -22.8941 -22.8941 -22.8811 -22.8811 -22.8791 -22.8791 -22.8719 -22.8719
   -14.8001 -14.8001 -14.7154 -14.7154  -6.8556  -6.8556  -6.6968  -6.6968
    -6.1291  -6.1291  -6.0848  -6.0848  -6.0640  -6.0640  -6.0003  -6.0003
    -0.1608  -0.1608  -0.0284  -0.0284   0.0126   0.0126   0.0673   0.0673
     0.2033   0.2033   0.2065   0.2065   5.8351   5.8351   6.5784   6.5784
     6.6396   6.6396   6.7363   6.7363   7.1478   7.1478   7.1945   7.1945
     7.3999   7.3999   7.5169   7.5169   7.7344   7.7344   8.1033   8.1033
     8.1406   8.1406   8.5421   8.5422   8.8264   8.8264   8.8854   8.8854
     8.9091   8.9091   9.2105   9.2105   9.3279   9.3279   9.3746   9.3746
    12.0351  12.0351  12.5595  12.5595  12.6334  12.6334  12.7800  12.7800
    13.3853  13.3853  13.4670  13.4670  14.0606  14.0606  14.9347  14.9348

          k = 0.5714 0.0000-0.5000 ( 10592 PWs)   bands (ev):

   -46.6243 -46.6243 -46.6234 -46.6234 -22.9173 -22.9173 -22.9008 -22.9008
   -22.8985 -22.8985 -22.8953 -22.8953 -22.8932 -22.8932 -22.8711 -22.8711
   -14.7626 -14.7626 -14.6877 -14.6877  -6.7869  -6.7869  -6.4732  -6.4732
    -6.1271  -6.1270  -6.0580  -6.0580  -6.0229  -6.0229  -6.0124  -6.0124
    -0.3726  -0.3726  -0.2157  -0.2157  -0.0591  -0.0591   0.0346   0.0346
     0.1413   0.1413   0.2116   0.2116   5.7924   5.7924   6.3176   6.3176
     6.6016   6.6016   6.6601   6.6601   6.8191   6.8191   6.8288   6.8288
     7.0791   7.0791   7.3497   7.3497   7.4560   7.4560   7.6647   7.6647
     7.8051   7.8051   8.3998   8.3998   8.8602   8.8602   8.8997   8.8997
     9.0746   9.0747   9.3235   9.3235   9.4221   9.4222   9.5116   9.5117
    12.5557  12.5557  12.7643  12.7644  12.9833  12.9833  13.2023  13.2023
    13.5456  13.5456  13.5854  13.5854  14.3108  14.3108  15.7790  15.7813

          k = 0.8571 0.0000-0.5000 ( 10578 PWs)   bands (ev):

   -46.6240 -46.6240 -46.6232 -46.6232 -22.9166 -22.9166 -22.9164 -22.9164
   -22.9140 -22.9140 -22.8945 -22.8945 -22.8925 -22.8925 -22.8705 -22.8705
   -14.7321 -14.7321 -14.6652 -14.6652  -6.7851  -6.7851  -6.2556  -6.2556
    -6.0927  -6.0927  -6.0249  -6.0249  -6.0191  -6.0191  -6.0067  -6.0066
    -0.4260  -0.4260  -0.3877  -0.3877  -0.2026  -0.2026  -0.0131  -0.0131
     0.1420   0.1420   0.2032   0.2032   5.6474   5.6474   5.9157   5.9157
     6.1635   6.1635   6.5738   6.5738   6.7345   6.7345   6.7392   6.7392
     6.9057   6.9057   7.2179   7.2179   7.4345   7.4345   7.4619   7.4619
     7.6659   7.6659   8.4860   8.4860   8.6293   8.6293   8.8235   8.8235
     9.3320   9.3320   9.3670   9.3670   9.4080   9.4080   9.8202   9.8202
    12.5962  12.5962  13.2461  13.2461  13.3689  13.3689  13.5624  13.5624
    13.6091  13.6091  13.8093  13.8093  14.3682  14.3682  15.9384  15.9385

          k =-0.0000-0.2500-0.5000 ( 10618 PWs)   bands (ev):

   -46.6247 -46.6247 -46.6241 -46.6241 -22.9121 -22.9121 -22.8965 -22.8965
   -22.8948 -22.8948 -22.8791 -22.8791 -22.8720 -22.8720 -22.8707 -22.8707
   -14.8038 -14.8038 -14.7409 -14.7409  -6.8658  -6.8658  -6.7807  -6.7807
    -6.1292  -6.1292  -6.1048  -6.1048  -6.0836  -6.0835  -6.0249  -6.0248
    -0.0360  -0.0360  -0.0192  -0.0192   0.0602   0.0602   0.1719   0.1719
     0.1853   0.1853   0.1996   0.1996   6.0410   6.0410   6.6580   6.6580
     6.6631   6.6631   6.8034   6.8034   7.2396   7.2397   7.2660   7.2660
     7.4015   7.4015   7.6921   7.6921   7.8166   7.8166   8.1805   8.1805
     8.4381   8.4381   8.5519   8.5519   8.6928   8.6928   8.8105   8.8105
     8.8643   8.8643   9.2525   9.2525   9.3249   9.3249   9.4205   9.4205
    11.9586  11.9587  12.5558  12.5558  12.5875  12.5875  12.6092  12.6092
    13.1085  13.1085  13.2507  13.2507  14.0070  14.0070  14.3570  14.3570

          k = 0.2857-0.2500-0.5000 ( 10616 PWs)   bands (ev):

   -46.6246 -46.6246 -46.6239 -46.6239 -22.9116 -22.9116 -22.8960 -22.8960
   -22.8944 -22.8944 -22.8808 -22.8808 -22.8794 -22.8794 -22.8787 -22.8787
   -14.7879 -14.7879 -14.7280 -14.7280  -6.8117  -6.8117  -6.6954  -6.6954
    -6.1175  -6.1175  -6.0987  -6.0987  -6.0822  -6.0822  -6.0326  -6.0326
    -0.1435  -0.1435  -0.0519  -0.0519  -0.0451  -0.0451  -0.0321  -0.0321
     0.2826   0.2826   0.2994   0.2994   6.0135   6.0135   6.5497   6.5497
     6.6241   6.6241   6.8498   6.8498   7.1232   7.1232   7.2384   7.2384
     7.2899   7.2899   7.5574   7.5574   7.7744   7.7744   7.8384   7.8384
     8.0379   8.0379   8.3716   8.3716   8.8736   8.8736   8.9730   8.9730
     9.0373   9.0373   9.1889   9.1889   9.2513   9.2513   9.3801   9.3801
    12.2336  12.2336  12.6388  12.6388  12.6606  12.6606  12.7591  12.7591
    13.1874  13.1874  13.2912  13.2912  14.4516  14.4516  14.9319  14.9319

          k = 0.5714-0.2500-0.5000 ( 10606 PWs)   bands (ev):

   -46.6242 -46.6242 -46.6236 -46.6236 -22.9106 -22.9106 -22.9005 -22.9005
   -22.8989 -22.8989 -22.8950 -22.8950 -22.8935 -22.8935 -22.8779 -22.8779
   -14.7518 -14.7518 -14.6989 -14.6989  -6.7291  -6.7291  -6.4995  -6.4995
    -6.1117  -6.1117  -6.0661  -6.0661  -6.0466  -6.0465  -6.0337  -6.0336
    -0.3264  -0.3264  -0.2570  -0.2570  -0.1061  -0.1061  -0.0516  -0.0516
     0.1550   0.1550   0.3302   0.3302   5.9632   5.9632   6.2558   6.2558
     6.5392   6.5392   6.7596   6.7596   6.8048   6.8048   6.9614   6.9614
     7.0183   7.0183   7.3913   7.3913   7.4736   7.4736   7.5952   7.5952
     7.6879   7.6879   8.0661   8.0661   8.9416   8.9416   9.0639   9.0639
     9.1076   9.1076   9.3060   9.3060   9.3698   9.3699   9.4842   9.4842
    12.6795  12.6795  12.8463  12.8463  13.0178  13.0178  13.1725  13.1725
    13.3772  13.3772  13.4283  13.4283  14.7803  14.7803  15.7935  15.7962

          k = 0.8571-0.2500-0.5000 ( 10572 PWs)   bands (ev):

   -46.6239 -46.6239 -46.6233 -46.6233 -22.9162 -22.9162 -22.9144 -22.9144
   -22.9097 -22.9097 -22.8943 -22.8942 -22.8928 -22.8928 -22.8773 -22.8773
   -14.7224 -14.7224 -14.6752 -14.6752  -6.7156  -6.7156  -6.3456  -6.3456
    -6.0751  -6.0750  -6.0341  -6.0341  -6.0110  -6.0110  -6.0087  -6.0086
    -0.4079  -0.4079  -0.3524  -0.3524  -0.1264  -0.1264  -0.0686  -0.0686
     0.0084   0.0084   0.2427   0.2427   5.7717   5.7718   5.9021   5.9021
     6.2837   6.2837   6.5833   6.5833   6.6921   6.6921   6.7704   6.7704
     6.9049   6.9049   7.1981   7.1981   7.4469   7.4469   7.5246   7.5246
     7.5483   7.5483   8.1621   8.1621   8.8155   8.8155   8.9373   8.9373
     9.2268   9.2268   9.3519   9.3519   9.3833   9.3833   9.7119   9.7119
    12.7330  12.7330  13.3010  13.3010  13.3979  13.3979  13.4460  13.4460
    13.5351  13.5351  13.6923  13.6923  14.8186  14.8186  15.9389  15.9389

          k =-0.8571-0.2500-0.5000 ( 10572 PWs)   bands (ev):

   -46.6239 -46.6239 -46.6233 -46.6233 -22.9162 -22.9162 -22.9144 -22.9144
   -22.9097 -22.9097 -22.8943 -22.8942 -22.8928 -22.8928 -22.8773 -22.8773
   -14.7224 -14.7224 -14.6752 -14.6752  -6.7156  -6.7156  -6.3456  -6.3456
    -6.0751  -6.0750  -6.0341  -6.0341  -6.0110  -6.0110  -6.0087  -6.0086
    -0.4079  -0.4079  -0.3524  -0.3524  -0.1264  -0.1264  -0.0686  -0.0686
     0.0084   0.0084   0.2427   0.2427   5.7717   5.7718   5.9021   5.9021
     6.2837   6.2837   6.5833   6.5833   6.6921   6.6921   6.7704   6.7704
     6.9049   6.9049   7.1981   7.1981   7.4469   7.4469   7.5246   7.5246
     7.5483   7.5483   8.1621   8.1621   8.8155   8.8155   8.9373   8.9373
     9.2268   9.2268   9.3519   9.3519   9.3833   9.3833   9.7119   9.7119
    12.7330  12.7330  13.3010  13.3010  13.3979  13.3979  13.4460  13.4460
    13.5351  13.5351  13.6923  13.6923  14.8186  14.8186  15.9389  15.9389

          k =-0.5714-0.2500-0.5000 ( 10606 PWs)   bands (ev):

   -46.6242 -46.6242 -46.6236 -46.6236 -22.9106 -22.9106 -22.9005 -22.9005
   -22.8989 -22.8989 -22.8950 -22.8950 -22.8935 -22.8935 -22.8779 -22.8779
   -14.7518 -14.7518 -14.6989 -14.6989  -6.7291  -6.7291  -6.4995  -6.4995
    -6.1117  -6.1117  -6.0661  -6.0661  -6.0466  -6.0465  -6.0337  -6.0336
    -0.3264  -0.3264  -0.2570  -0.2570  -0.1061  -0.1061  -0.0516  -0.0516
     0.1550   0.1550   0.3302   0.3302   5.9632   5.9632   6.2558   6.2558
     6.5392   6.5392   6.7596   6.7596   6.8048   6.8048   6.9614   6.9614
     7.0183   7.0183   7.3913   7.3913   7.4736   7.4736   7.5952   7.5952
     7.6879   7.6879   8.0661   8.0661   8.9416   8.9416   9.0639   9.0639
     9.1076   9.1076   9.3060   9.3060   9.3698   9.3699   9.4842   9.4842
    12.6795  12.6795  12.8463  12.8463  13.0178  13.0178  13.1725  13.1725
    13.3772  13.3772  13.4283  13.4283  14.7803  14.7803  15.7934  15.7959

          k =-0.2857-0.2500-0.5000 ( 10616 PWs)   bands (ev):

   -46.6246 -46.6246 -46.6239 -46.6239 -22.9116 -22.9116 -22.8960 -22.8960
   -22.8944 -22.8944 -22.8808 -22.8808 -22.8794 -22.8794 -22.8787 -22.8787
   -14.7879 -14.7879 -14.7280 -14.7280  -6.8117  -6.8117  -6.6954  -6.6954
    -6.1175  -6.1175  -6.0987  -6.0987  -6.0822  -6.0822  -6.0326  -6.0326
    -0.1435  -0.1435  -0.0519  -0.0519  -0.0451  -0.0451  -0.0321  -0.0321
     0.2826   0.2826   0.2994   0.2994   6.0135   6.0135   6.5497   6.5497
     6.6241   6.6241   6.8498   6.8498   7.1232   7.1232   7.2384   7.2384
     7.2899   7.2899   7.5574   7.5574   7.7744   7.7744   7.8384   7.8384
     8.0379   8.0379   8.3716   8.3716   8.8736   8.8736   8.9730   8.9730
     9.0373   9.0373   9.1889   9.1889   9.2513   9.2513   9.3801   9.3801
    12.2336  12.2336  12.6388  12.6388  12.6606  12.6606  12.7591  12.7591
    13.1874  13.1874  13.2912  13.2912  14.4516  14.4516  14.9318  14.9319

          k =-0.0000 0.5000-0.5000 ( 10640 PWs)   bands (ev):

   -46.6244 -46.6244 -46.6244 -46.6244 -22.8960 -22.8960 -22.8960 -22.8960
   -22.8953 -22.8953 -22.8953 -22.8953 -22.8713 -22.8713 -22.8713 -22.8713
   -14.7726 -14.7726 -14.7726 -14.7726  -6.7981  -6.7981  -6.7981  -6.7981
    -6.1314  -6.1314  -6.1314  -6.1314  -6.0693  -6.0692  -6.0692  -6.0692
    -0.0596  -0.0596  -0.0596  -0.0596   0.1215   0.1215   0.1215   0.1215
     0.2193   0.2193   0.2193   0.2193   6.4218   6.4218   6.4218   6.4218
     6.8999   6.8999   6.8999   6.8999   7.2349   7.2349   7.2349   7.2349
     7.3716   7.3716   7.3716   7.3716   7.8791   7.8791   7.8791   7.8791
     8.4152   8.4152   8.4152   8.4152   8.8947   8.8947   8.8947   8.8947
     8.9431   8.9431   8.9431   8.9431   9.4072   9.4072   9.4072   9.4072
    12.5042  12.5042  12.5042  12.5042  12.6359  12.6359  12.6360  12.6360
    12.8753  12.8753  12.8753  12.8753  14.2758  14.2758  14.2758  14.2758

          k = 0.2857 0.5000-0.5000 ( 10608 PWs)   bands (ev):

   -46.6243 -46.6243 -46.6242 -46.6242 -22.8955 -22.8955 -22.8955 -22.8955
   -22.8949 -22.8949 -22.8949 -22.8949 -22.8801 -22.8801 -22.8801 -22.8801
   -14.7582 -14.7582 -14.7582 -14.7582  -6.7294  -6.7294  -6.7294  -6.7294
    -6.1132  -6.1132  -6.1132  -6.1132  -6.0803  -6.0802  -6.0802  -6.0802
    -0.1101  -0.1101  -0.1101  -0.1101  -0.0774  -0.0774  -0.0774  -0.0774
     0.3467   0.3467   0.3467   0.3467   6.3215   6.3215   6.3215   6.3215
     6.8899   6.8899   6.8899   6.8899   7.0857   7.0857   7.0857   7.0857
     7.4644   7.4644   7.4644   7.4644   7.7164   7.7164   7.7164   7.7164
     7.9903   7.9903   7.9903   7.9903   9.0247   9.0247   9.0247   9.0247
     9.1061   9.1061   9.1061   9.1061   9.3304   9.3304   9.3304   9.3304
    12.6716  12.6716  12.6716  12.6716  12.7531  12.7531  12.7531  12.7531
    12.9191  12.9191  12.9191  12.9191  14.8681  14.8681  14.8682  14.8682

          k = 0.5714 0.5000-0.5000 ( 10600 PWs)   bands (ev):

   -46.6239 -46.6239 -46.6239 -46.6239 -22.8997 -22.8997 -22.8997 -22.8997
   -22.8945 -22.8945 -22.8945 -22.8945 -22.8941 -22.8941 -22.8940 -22.8940
   -14.7255 -14.7255 -14.7255 -14.7255  -6.5991  -6.5991  -6.5991  -6.5991
    -6.0759  -6.0759  -6.0759  -6.0759  -6.0714  -6.0714  -6.0714  -6.0714
    -0.2245  -0.2245  -0.2245  -0.2245  -0.2120  -0.2120  -0.2120  -0.2120
     0.3104   0.3104   0.3104   0.3104   6.1458   6.1458   6.1458   6.1458
     6.7616   6.7616   6.7616   6.7616   6.8670   6.8670   6.8670   6.8670
     7.2482   7.2482   7.2482   7.2482   7.5333   7.5333   7.5333   7.5333
     7.5723   7.5723   7.5723   7.5723   9.1465   9.1465   9.1465   9.1465
     9.2269   9.2269   9.2269   9.2269   9.3625   9.3625   9.3625   9.3625
    13.0110  13.0110  13.0110  13.0110  13.0946  13.0946  13.0946  13.0946
    13.1015  13.1015  13.1015  13.1015  15.6594  15.6594  15.6594  15.6594

          k = 0.8571 0.5000-0.5000 ( 10604 PWs)   bands (ev):

   -46.6236 -46.6236 -46.6236 -46.6236 -22.9153 -22.9153 -22.9153 -22.9153
   -22.8937 -22.8937 -22.8937 -22.8937 -22.8934 -22.8934 -22.8934 -22.8934
   -14.6989 -14.6989 -14.6989 -14.6989  -6.5396  -6.5396  -6.5396  -6.5395
    -6.0370  -6.0370  -6.0370  -6.0370  -6.0215  -6.0215  -6.0215  -6.0215
    -0.3172  -0.3172  -0.3172  -0.3172  -0.1822  -0.1822  -0.1822  -0.1822
     0.1371   0.1371   0.1371   0.1371   5.8719   5.8719   5.8719   5.8719
     6.5819   6.5819   6.5819   6.5819   6.8457   6.8457   6.8457   6.8457
     6.8517   6.8517   6.8517   6.8517   7.4667   7.4667   7.4667   7.4667
     7.7085   7.7085   7.7085   7.7085   9.0265   9.0265   9.0265   9.0265
     9.2924   9.2924   9.2924   9.2924   9.4133   9.4133   9.4133   9.4133
    13.0798  13.0798  13.0798  13.0798  13.4593  13.4593  13.4593  13.4593
    13.4738  13.4738  13.4738  13.4738  15.6280  15.6280  15.6280  15.6280

     the Fermi energy is    10.6277 ev

!    total energy              =   -2692.60843041 Ry
     estimated scf accuracy    <          7.0E-10 Ry
     smearing contrib. (-TS)   =       0.00000000 Ry
     internal energy E=F+TS    =   -2692.60843041 Ry

     The total energy is F=E-TS. E is the sum of the following terms:
     one-electron contribution =    -284.95796281 Ry
     hartree contribution      =     239.48861991 Ry
     xc contribution           =    -240.06799399 Ry
     ewald contribution        =    -822.40745778 Ry
     one-center paw contrib.   =   -1584.66363574 Ry

     convergence has been achieved in  28 iterations

     negative rho (up, down):  3.470E-03 0.000E+00

     Forces acting on atoms (cartesian axes, Ry/au):

     atom    1 type  1   force =    -0.00000103    0.00000433   -0.00000364
     atom    2 type  1   force =     0.00000339    0.00000151    0.00000224
     atom    3 type  1   force =    -0.00000080   -0.00000629   -0.00000099
     atom    4 type  1   force =     0.00000536    0.00000019    0.00000711
     atom    5 type  2   force =     0.00000076   -0.00000032    0.00000323
     atom    6 type  2   force =     0.00000075   -0.00000008    0.00000399
     atom    7 type  2   force =     0.00000078   -0.00000020    0.00000430
     atom    8 type  2   force =     0.00000077   -0.00000044    0.00000272
     atom    9 type  3   force =    -0.00000111    0.00000010   -0.00000263
     atom   10 type  3   force =    -0.00000110    0.00000025   -0.00000241
     atom   11 type  3   force =    -0.00000116    0.00000027   -0.00000240
     atom   12 type  3   force =    -0.00000115    0.00000040   -0.00000261
     atom   13 type  3   force =    -0.00000052   -0.00000012   -0.00000201
     atom   14 type  3   force =    -0.00000061   -0.00000024   -0.00000211
     atom   15 type  3   force =    -0.00000059   -0.00000032   -0.00000211
     atom   16 type  3   force =    -0.00000056   -0.00000046   -0.00000204
     atom   17 type  3   force =    -0.00000079    0.00000036   -0.00000013
     atom   18 type  3   force =    -0.00000084    0.00000038   -0.00000019
     atom   19 type  3   force =    -0.00000078    0.00000035   -0.00000020
     atom   20 type  3   force =    -0.00000077    0.00000031   -0.00000012

     Total force =     0.000017     Total SCF correction =     0.000021
     SCF correction compared to forces is large: reduce conv_thr to get better values
     Message from routine punch:
     Nothing written, as per user request (disk_io='none')

     init_run     :     15.33s CPU     16.20s WALL (       1 calls)
     electrons    :    938.26s CPU    973.62s WALL (       1 calls)
     forces       :      7.33s CPU      7.62s WALL (       1 calls)

     Called by init_run:
     wfcinit      :     12.40s CPU     12.91s WALL (       1 calls)
     potinit      :      1.30s CPU      1.43s WALL (       1 calls)
     hinit0       :      0.63s CPU      0.66s WALL (       1 calls)

     Called by electrons:
     c_bands      :    745.57s CPU    765.97s WALL (      28 calls)
     sum_band     :    145.49s CPU    155.32s WALL (      28 calls)
     v_of_rho     :      4.81s CPU      4.99s WALL (      29 calls)
     newd         :     20.33s CPU     25.39s WALL (      29 calls)
     PAW_pot      :     22.05s CPU     22.17s WALL (      29 calls)
     mix_rho      :      0.78s CPU      0.82s WALL (      28 calls)

     Called by c_bands:
     init_us_2    :     15.62s CPU     15.65s WALL (    1682 calls)
     cegterg      :    611.99s CPU    632.26s WALL (     812 calls)

     Called by *egterg:
     cdiaghg      :     26.81s CPU     26.85s WALL (    2429 calls)
     h_psi        :    329.52s CPU    349.20s WALL (    2458 calls)
     s_psi        :     29.85s CPU     29.88s WALL (    2458 calls)
     g_psi        :      1.84s CPU      1.85s WALL (    1617 calls)

     Called by h_psi:
     h_psi:calbec :     63.61s CPU     64.40s WALL (    2458 calls)
     vloc_psi     :    232.35s CPU    251.09s WALL (    2458 calls)
                                        0.00s GPU  (    2458 calls)
     add_vuspsi   :     30.21s CPU     30.25s WALL (    2458 calls)

     General routines
     calbec       :     94.09s CPU     95.25s WALL (    3386 calls)
     fft          :     12.14s CPU     12.44s WALL (     386 calls)
     ffts         :      0.54s CPU      0.56s WALL (      57 calls)
     fftw         :    281.02s CPU    302.37s WALL (  414860 calls)
     interpolate  :      0.77s CPU      0.81s WALL (      29 calls)

     Parallel routines

     PWSCF        :  16m 1.32s CPU  16m37.93s WALL


   This run was terminated on:   6:30:16   5Oct2026            

=------------------------------------------------------------------------------=
   JOB DONE.
=------------------------------------------------------------------------------=
