
     Program PWSCF v.7.5 starts on  3Oct2026 at 21:47:33 

     This program is part of the open-source Quantum ESPRESSO suite
     for quantum simulation of materials; please cite
         "P. Giannozzi et al., J. Phys.:Condens. Matter 21 395502 (2009);
         "P. Giannozzi et al., J. Phys.:Condens. Matter 29 465901 (2017);
         "P. Giannozzi et al., J. Chem. Phys. 152 154105 (2020);
          URL http://www.quantum-espresso.org", 
     in publications or presentations arising from this work. More details at
     http://www.quantum-espresso.org/quote

     Parallel version (MPI & OpenMP), running on       8 processor cores
     Number of MPI processes:                 8
     Threads/MPI process:                     1

     MPI processes distributed on     1 nodes
     11789 MiB available memory on the printing compute node when the environment starts

     Reading input from pw.in

     Current dimensions of program PWSCF are:
     Max number of different atomic species (ntypx) = 10
     Max number of k-points (npk) =  40000
     Max angular momentum in pseudopotentials (lmaxx) =  4
     file K.pbe-spn-kjpaw_psl.1.0.0.UPF: wavefunction(s)  3S renormalized
     file Nb.pbe-spn-kjpaw_psl.0.3.0.UPF: wavefunction(s)  4S 4P renormalized
     file O.pbe-n-kjpaw_psl.0.1.UPF: wavefunction(s)  2P renormalized

     K-points division:     npool     =       8
     Subspace diagonalization in iterative solution of the eigenvalue problem:
     a serial algorithm will be used


     G-vector sticks info
     --------------------
     sticks:   dense  smooth     PW     G-vecs:    dense   smooth      PW
     Sum        2241    1117    325                80261    28353    4393

     Using Slab Decomposition



     bravais-lattice index     =            0
     lattice parameter (alat)  =       7.6684  a.u.
     unit-cell volume          =     451.0788 (a.u.)^3
     number of atoms/cell      =            5
     number of atomic types    =            3
     number of electrons       =        40.00
     number of Kohn-Sham states=           24
     kinetic-energy cutoff     =      60.0000  Ry
     charge density cutoff     =     480.0000  Ry
     scf convergence threshold =      5.0E-10
     mixing beta               =       0.4000
     number of iterations used =            8  plain     mixing
     Exchange-correlation= SLA  PW   PBX  PBC
                           (   1   4   3   4   0   0   0)

     celldm(1)=   7.668434  celldm(2)=   0.000000  celldm(3)=   0.000000
     celldm(4)=   0.000000  celldm(5)=   0.000000  celldm(6)=   0.000000

     crystal axes: (cart. coord. in units of alat)
               a(1) = (  -0.000001  -1.000000  -0.000002 )  
               a(2) = (  -1.000037  -0.000001  -0.000002 )  
               a(3) = (  -0.000002  -0.000002  -1.000267 )  

     reciprocal axes: (cart. coord. in units 2 pi/alat)
               b(1) = (  0.000001 -1.000000  0.000002 )  
               b(2) = ( -0.999963  0.000001  0.000002 )  
               b(3) = (  0.000002  0.000002 -0.999733 )  


     PseudoPot. # 1 for K  read from file:
     /root/sssp/K.pbe-spn-kjpaw_psl.1.0.0.UPF
     MD5 check sum: 7d58810084cac21f60fbe77ea2b688fd
     Pseudo is Projector augmented-wave + core cor, Zval =  9.0
     Generated using "atomic" code by A. Dal Corso  v.5.1
     Shape of augmentation charge: PSQ
     Using radial grid of 1165 points,  6 beta functions with: 
                l(1) =   0
                l(2) =   0
                l(3) =   1
                l(4) =   1
                l(5) =   2
                l(6) =   2
     Q(r) pseudized with 0 coefficients 


     PseudoPot. # 2 for Nb read from file:
     /root/sssp/Nb.pbe-spn-kjpaw_psl.0.3.0.UPF
     MD5 check sum: 411d72ad547312f8017e2943ceca08cc
     Pseudo is Projector augmented-wave + core cor, Zval = 13.0
     Generated using "atomic" code by A. Dal Corso  v.5.0.99 svn rev. 10869
     Shape of augmentation charge: PSQ
     Using radial grid of 1227 points,  6 beta functions with: 
                l(1) =   0
                l(2) =   0
                l(3) =   1
                l(4) =   1
                l(5) =   2
                l(6) =   2
     Q(r) pseudized with 0 coefficients 


     PseudoPot. # 3 for O  read from file:
     /root/sssp/O.pbe-n-kjpaw_psl.0.1.UPF
     MD5 check sum: 0234752ac141de4415c5fc33072bef88
     Pseudo is Projector augmented-wave + core cor, Zval =  6.0
     Generated using "atomic" code by A. Dal Corso  v.5.0.99 svn rev. 10869
     Shape of augmentation charge: BESSEL
     Using radial grid of 1095 points,  4 beta functions with: 
                l(1) =   0
                l(2) =   0
                l(3) =   1
                l(4) =   1
     Q(r) pseudized with 0 coefficients 


     atomic species   valence    mass     pseudopotential
     K                 9.00    39.09830     K ( 1.00)
     Nb               13.00    92.90640     Nb( 1.00)
     O                 6.00    15.99900     O ( 1.00)

     No symmetry found



   Cartesian axes

     site n.     atom                  positions (alat units)
         1        K      tau(   1) = (  -0.0050509  -0.9539861  -0.0337324  )
         2        Nb     tau(   2) = (  -0.4946027  -0.5497227  -0.4630562  )
         3        O      tau(   3) = (  -1.0053737  -0.4329171  -0.5477537  )
         4        O      tau(   4) = (  -0.5066615   0.0464469  -0.5488778  )
         5        O      tau(   5) = (  -0.5071721  -0.4372559  -0.0365419  )

     number of k points=   172  Marzari-Vanderbilt smearing, width (Ry)=  0.0050

     Number of k-points >= 100: set verbosity='high' to print them.

     Dense  grid:    80261 G-vectors     FFT dimensions: (  54,  54,  54)

     Smooth grid:    28353 G-vectors     FFT dimensions: (  40,  40,  40)

     Estimated max dynamical RAM per process >     117.19 MB

     Estimated total dynamical RAM >     800.32 MB

     Check: negative core charge=   -0.000003

     Initial potential from superposition of free atoms

     starting charge      39.9790, renormalised to      40.0000
     Starting wfcs are   30 randomized atomic wfcs
     Checking if some PAW data can be deallocated... 

     total cpu time spent up to now is        3.7 secs

     per-process dynamical memory:    86.8 Mb

     Self-consistent Calculation

     iteration #  1     ecut=    60.00 Ry     beta= 0.40
     Davidson diagonalization with overlap
     ethr =  1.00E-02,  avg # of iterations =  2.7

     total cpu time spent up to now is        6.3 secs

     total energy              =    -571.90412971 Ry
     estimated scf accuracy    <       2.41263827 Ry

     iteration #  2     ecut=    60.00 Ry     beta= 0.40
     Davidson diagonalization with overlap
     ethr =  6.03E-03,  avg # of iterations =  3.2

     total cpu time spent up to now is        9.1 secs

     total energy              =    -572.54131739 Ry
     estimated scf accuracy    <       0.69845404 Ry

     iteration #  3     ecut=    60.00 Ry     beta= 0.40
     Davidson diagonalization with overlap
     ethr =  1.75E-03,  avg # of iterations =  1.9

     total cpu time spent up to now is       11.5 secs

     total energy              =    -572.67654231 Ry
     estimated scf accuracy    <       0.02683436 Ry

     iteration #  4     ecut=    60.00 Ry     beta= 0.40
     Davidson diagonalization with overlap
     ethr =  6.71E-05,  avg # of iterations =  6.7

     total cpu time spent up to now is       14.7 secs

     total energy              =    -572.67966339 Ry
     estimated scf accuracy    <       0.00665126 Ry

     iteration #  5     ecut=    60.00 Ry     beta= 0.40
     Davidson diagonalization with overlap
     ethr =  1.66E-05,  avg # of iterations =  3.4

     total cpu time spent up to now is       17.8 secs

     total energy              =    -572.68045504 Ry
     estimated scf accuracy    <       0.00126640 Ry

     iteration #  6     ecut=    60.00 Ry     beta= 0.40
     Davidson diagonalization with overlap
     ethr =  3.17E-06,  avg # of iterations =  3.4

     total cpu time spent up to now is       20.5 secs

     total energy              =    -572.68047247 Ry
     estimated scf accuracy    <       0.00023684 Ry

     iteration #  7     ecut=    60.00 Ry     beta= 0.40
     Davidson diagonalization with overlap
     ethr =  5.92E-07,  avg # of iterations =  3.4

     total cpu time spent up to now is       23.6 secs

     total energy              =    -572.68055780 Ry
     estimated scf accuracy    <       0.00014183 Ry

     iteration #  8     ecut=    60.00 Ry     beta= 0.40
     Davidson diagonalization with overlap
     ethr =  3.55E-07,  avg # of iterations =  1.7

     total cpu time spent up to now is       25.9 secs

     total energy              =    -572.68056650 Ry
     estimated scf accuracy    <       0.00001298 Ry

     iteration #  9     ecut=    60.00 Ry     beta= 0.40
     Davidson diagonalization with overlap
     ethr =  3.25E-08,  avg # of iterations =  3.8

     total cpu time spent up to now is       28.6 secs

     total energy              =    -572.68057135 Ry
     estimated scf accuracy    <       0.00000158 Ry

     iteration # 10     ecut=    60.00 Ry     beta= 0.40
     Davidson diagonalization with overlap
     ethr =  3.94E-09,  avg # of iterations =  2.5

     total cpu time spent up to now is       31.3 secs

     total energy              =    -572.68057147 Ry
     estimated scf accuracy    <       0.00000035 Ry

     iteration # 11     ecut=    60.00 Ry     beta= 0.40
     Davidson diagonalization with overlap
     ethr =  8.83E-10,  avg # of iterations =  2.8

     total cpu time spent up to now is       34.1 secs

     total energy              =    -572.68057158 Ry
     estimated scf accuracy    <       0.00000003 Ry

     iteration # 12     ecut=    60.00 Ry     beta= 0.40
     Davidson diagonalization with overlap
     ethr =  8.31E-11,  avg # of iterations =  3.5

     total cpu time spent up to now is       37.0 secs

     total energy              =    -572.68057159 Ry
     estimated scf accuracy    <          1.4E-09 Ry

     iteration # 13     ecut=    60.00 Ry     beta= 0.40
     Davidson diagonalization with overlap
     ethr =  3.60E-12,  avg # of iterations =  4.2

     total cpu time spent up to now is       40.5 secs

     End of self-consistent calculation

     Number of k-points >= 100: set verbosity='high' to print the bands.

     the Fermi energy is    10.2352 ev

!    total energy              =    -572.68057159 Ry
     total all-electron energy =     -9296.166937 Ry
     estimated scf accuracy    <          1.2E-10 Ry
     smearing contrib. (-TS)   =      -0.00000000 Ry
     internal energy E=F+TS    =    -572.68057159 Ry

     The total energy is F=E-TS. E is the sum of the following terms:
     one-electron contribution =     -75.79728530 Ry
     hartree contribution      =      60.51025057 Ry
     xc contribution           =     -62.68065040 Ry
     ewald contribution        =    -202.24065573 Ry
     one-center paw contrib.   =    -292.47223073 Ry

     convergence has been achieved in  13 iterations

     Forces acting on atoms (cartesian axes, Ry/au):

     atom    1 type  1   force =     0.00366612   -0.03136418    0.02387833
     atom    2 type  2   force =     0.00440447    0.33141675   -0.12708408
     atom    3 type  3   force =    -0.00612234   -0.04983600    0.02907656
     atom    4 type  3   force =    -0.00275388   -0.21501023   -0.00254171
     atom    5 type  3   force =     0.00080563   -0.03520635    0.07667091

     Total force =     0.429305     Total SCF correction =     0.000023
     Message from routine punch:
     Nothing written, as per user request (disk_io='none')

     init_run     :      3.25s CPU      3.32s WALL (       1 calls)
     electrons    :     36.51s CPU     36.79s WALL (       1 calls)
     forces       :      0.46s CPU      0.46s WALL (       1 calls)

     Called by init_run:
     wfcinit      :      1.19s CPU      1.20s WALL (       1 calls)
     potinit      :      0.53s CPU      0.56s WALL (       1 calls)
     hinit0       :      1.43s CPU      1.44s WALL (       1 calls)

     Called by electrons:
     c_bands      :     27.93s CPU     28.13s WALL (      13 calls)
     sum_band     :      5.21s CPU      5.26s WALL (      13 calls)
     v_of_rho     :      0.92s CPU      0.94s WALL (      14 calls)
     newd         :      0.89s CPU      0.91s WALL (      14 calls)
     PAW_pot      :      1.60s CPU      1.64s WALL (      14 calls)
     mix_rho      :      0.08s CPU      0.08s WALL (      13 calls)

     Called by c_bands:
     init_us_2    :      1.21s CPU      1.21s WALL (     616 calls)
     cegterg      :     23.91s CPU     24.10s WALL (     286 calls)

     Called by *egterg:
     cdiaghg      :      0.81s CPU      0.82s WALL (    1218 calls)
     h_psi        :     18.66s CPU     18.83s WALL (    1240 calls)
     s_psi        :      1.09s CPU      1.10s WALL (    1240 calls)
     g_psi        :      0.29s CPU      0.29s WALL (     932 calls)

     Called by h_psi:
     h_psi:calbec :      1.27s CPU      1.29s WALL (    1240 calls)
     vloc_psi     :     16.11s CPU     16.26s WALL (    1240 calls)
                                        0.00s GPU  (    1240 calls)
     add_vuspsi   :      1.17s CPU      1.17s WALL (    1240 calls)

     General routines
     calbec       :      1.83s CPU      1.85s WALL (    1614 calls)
     fft          :      0.51s CPU      0.51s WALL (     191 calls)
     ffts         :      0.25s CPU      0.25s WALL (      27 calls)
     fftw         :     16.49s CPU     16.64s WALL (   43224 calls)
     interpolate  :      0.28s CPU      0.28s WALL (      14 calls)

     Parallel routines

     PWSCF        :     40.59s CPU     40.96s WALL


   This run was terminated on:  21:48:13   3Oct2026            

=------------------------------------------------------------------------------=
   JOB DONE.
=------------------------------------------------------------------------------=
