
     Program PWSCF v.7.5 starts on  4Oct2026 at 21:58: 8 

     This program is part of the open-source Quantum ESPRESSO suite
     for quantum simulation of materials; please cite
         "P. Giannozzi et al., J. Phys.:Condens. Matter 21 395502 (2009);
         "P. Giannozzi et al., J. Phys.:Condens. Matter 29 465901 (2017);
         "P. Giannozzi et al., J. Chem. Phys. 152 154105 (2020);
          URL http://www.quantum-espresso.org", 
     in publications or presentations arising from this work. More details at
     http://www.quantum-espresso.org/quote

     Parallel version (MPI & OpenMP), running on       8 processor cores
     Number of MPI processes:                 8
     Threads/MPI process:                     1

     MPI processes distributed on     1 nodes
     75124 MiB available memory on the printing compute node when the environment starts

     Reading input from pw.in

     Current dimensions of program PWSCF are:
     Max number of different atomic species (ntypx) = 10
     Max number of k-points (npk) =  40000
     Max angular momentum in pseudopotentials (lmaxx) =  4

     K-points division:     npool     =       8
     Subspace diagonalization in iterative solution of the eigenvalue problem:
     a serial algorithm will be used


     G-vector sticks info
     --------------------
     sticks:   dense  smooth     PW     G-vecs:    dense   smooth      PW
     Sum        9555    4781   1301               496805   175711   25001

     Using Slab Decomposition



     bravais-lattice index     =            0
     lattice parameter (alat)  =      22.3764  a.u.
     unit-cell volume          =    2800.9888 (a.u.)^3
     number of atoms/cell      =           10
     number of atomic types    =            3
     number of electrons       =        88.00
     number of Kohn-Sham states=           53
     kinetic-energy cutoff     =      60.0000  Ry
     charge density cutoff     =     480.0000  Ry
     scf convergence threshold =      1.0E-09
     mixing beta               =       0.4000
     number of iterations used =            8  plain     mixing
     Exchange-correlation=  SLA  PW   PBX  PBC
                           (   1   4   3   4   0   0   0)

     celldm(1)=  22.376419  celldm(2)=   0.000000  celldm(3)=   0.000000
     celldm(4)=   0.000000  celldm(5)=   0.000000  celldm(6)=   0.000000

     crystal axes: (cart. coord. in units of alat)
               a(1) = (   1.000000  -0.000000  -0.000000 )  
               a(2) = (  -0.000000   0.500000   0.000000 )  
               a(3) = (  -0.000000   0.000000   0.499999 )  

     reciprocal axes: (cart. coord. in units 2 pi/alat)
               b(1) = (  1.000000  0.000000  0.000000 )  
               b(2) = (  0.000000  1.999999 -0.000000 )  
               b(3) = (  0.000000 -0.000000  2.000003 )  


     PseudoPot. # 1 for Cs read from file:
     /root/sssp/Cs_pbe_v1.uspp.F.UPF
     MD5 check sum: 3476d69cb178dfad3ffaa59df4e07ca4
     Pseudo is Ultrasoft + core correction, Zval =  9.0
     Generated by new atomic code, or converted to UPF format
     Using radial grid of  905 points,  6 beta functions with: 
                l(1) =   0
                l(2) =   0
                l(3) =   1
                l(4) =   1
                l(5) =   2
                l(6) =   2
     Q(r) pseudized with  6 coefficients,  rinner =    1.500   1.500   1.500
                                                       1.500   1.500

     PseudoPot. # 2 for Sn read from file:
     /root/sssp/Sn_pbe_v1.uspp.F.UPF
     MD5 check sum: 4cf58ce39ec5d5d420df3dd08604eb00
     Pseudo is Ultrasoft + core correction, Zval = 14.0
     Generated by new atomic code, or converted to UPF format
     Using radial grid of  891 points,  6 beta functions with: 
                l(1) =   0
                l(2) =   0
                l(3) =   1
                l(4) =   1
                l(5) =   2
                l(6) =   2
     Q(r) pseudized with  6 coefficients,  rinner =    1.200   1.200   1.200
                                                       1.200   1.200

     PseudoPot. # 3 for Br read from file:
     /root/sssp/br_pbe_v1.4.uspp.F.UPF
     MD5 check sum: d3ffb7b29f6225aa16fe06858fb2a80b
     Pseudo is Ultrasoft + core correction, Zval =  7.0
     Generated by new atomic code, or converted to UPF format
     Using radial grid of  879 points,  6 beta functions with: 
                l(1) =   0
                l(2) =   0
                l(3) =   1
                l(4) =   1
                l(5) =   2
                l(6) =   2
     Q(r) pseudized with  8 coefficients,  rinner =    1.100   1.100   1.100
                                                       1.100   1.100

     atomic species   valence    mass     pseudopotential
     Cs                9.00   132.90550     Cs( 1.00)
     Sn               14.00   118.71000     Sn( 1.00)
     Br                7.00    79.90400     Br( 1.00)

     No symmetry found



   Cartesian axes

     site n.     atom                  positions (alat units)
         1        Cs     tau(   1) = (   0.0000000   0.5014435  -0.0014443  )
         2        Cs     tau(   2) = (   0.5000000   0.4985710   0.0014658  )
         3        Sn     tau(   3) = (   0.2499614   0.2500011   0.2500928  )
         4        Sn     tau(   4) = (   0.7500385   0.2499988   0.2499064  )
         5        Br     tau(   5) = (  -0.0000000   0.2481234   0.2518687  )
         6        Br     tau(   6) = (   0.5000000   0.2518744   0.2481268  )
         7        Br     tau(   7) = (   0.2504428   0.0001274   0.2502339  )
         8        Br     tau(   8) = (   0.7495572  -0.0001271   0.2497653  )
         9        Br     tau(   9) = (   0.2493906   0.2504969   0.5000664  )
        10        Br     tau(  10) = (   0.7506093   0.2495033   0.4999320  )

     number of k points=    38  Marzari-Vanderbilt smearing, width (Ry)=  0.0050
                       cart. coord. in units 2pi/alat
        k(    1) = (   0.0000000   0.0000000   0.0000000), wk =   0.0266667
        k(    2) = (   0.0000000  -0.0000000   0.4000006), wk =   0.0533333
        k(    3) = (   0.0000000  -0.0000000   0.8000012), wk =   0.0533333
        k(    4) = (   0.0000000   0.3999998  -0.0000000), wk =   0.0533333
        k(    5) = (   0.0000000   0.3999998   0.4000006), wk =   0.0533333
        k(    6) = (   0.0000000   0.3999998   0.8000012), wk =   0.0533333
        k(    7) = (   0.0000000   0.7999996  -0.0000000), wk =   0.0533333
        k(    8) = (   0.0000000   0.7999996   0.4000006), wk =   0.0533333
        k(    9) = (   0.0000000   0.7999996   0.8000012), wk =   0.0533333
        k(   10) = (   0.3333333   0.0000000   0.0000000), wk =   0.0533333
        k(   11) = (   0.3333334   0.0000000   0.4000006), wk =   0.0533333
        k(   12) = (   0.3333334  -0.0000000   0.8000012), wk =   0.0533333
        k(   13) = (   0.3333333   0.3999998   0.0000000), wk =   0.0533333
        k(   14) = (   0.3333334   0.3999998   0.4000006), wk =   0.0533333
        k(   15) = (   0.3333334   0.3999998   0.8000012), wk =   0.0533333
        k(   16) = (   0.3333333   0.7999996   0.0000000), wk =   0.0533333
        k(   17) = (   0.3333334   0.7999996   0.4000006), wk =   0.0533333
        k(   18) = (   0.3333334   0.7999996   0.8000012), wk =   0.0533333
        k(   19) = (   0.0000000  -0.3999998   0.4000006), wk =   0.0533333
        k(   20) = (   0.0000000  -0.3999998   0.8000012), wk =   0.0533333
        k(   21) = (   0.0000000  -0.7999996   0.4000006), wk =   0.0533333
        k(   22) = (   0.0000000  -0.7999996   0.8000012), wk =   0.0533333
        k(   23) = (  -0.3333333  -0.0000000   0.4000006), wk =   0.0533333
        k(   24) = (  -0.3333333  -0.0000000   0.8000012), wk =   0.0533333
        k(   25) = (  -0.3333333   0.3999998  -0.0000000), wk =   0.0533333
        k(   26) = (  -0.3333333  -0.3999998   0.4000006), wk =   0.0533333
        k(   27) = (  -0.3333333   0.3999998  -0.4000006), wk =   0.0533333
        k(   28) = (   0.3333333  -0.3999998  -0.4000006), wk =   0.0533333
        k(   29) = (  -0.3333333  -0.3999998   0.8000012), wk =   0.0533333
        k(   30) = (  -0.3333334   0.3999998  -0.8000012), wk =   0.0533333
        k(   31) = (   0.3333333  -0.3999998  -0.8000012), wk =   0.0533333
        k(   32) = (  -0.3333333   0.7999996  -0.0000000), wk =   0.0533333
        k(   33) = (  -0.3333333  -0.7999996   0.4000006), wk =   0.0533333
        k(   34) = (  -0.3333333   0.7999996  -0.4000006), wk =   0.0533333
        k(   35) = (   0.3333333  -0.7999996  -0.4000006), wk =   0.0533333
        k(   36) = (  -0.3333333  -0.7999996   0.8000012), wk =   0.0533333
        k(   37) = (  -0.3333334   0.7999996  -0.8000012), wk =   0.0533333
        k(   38) = (   0.3333333  -0.7999996  -0.8000012), wk =   0.0533333

     Dense  grid:   496805 G-vectors     FFT dimensions: ( 160,  80,  80)

     Smooth grid:   175711 G-vectors     FFT dimensions: ( 120,  60,  60)

     Estimated max dynamical RAM per process >     672.30 MB

     Estimated total dynamical RAM >       4.42 GB

     Initial potential from superposition of free atoms

     starting charge      85.9210, renormalised to      88.0000
     Starting wfcs are   68 randomized atomic wfcs

     total cpu time spent up to now is       89.6 secs

     per-process dynamical memory:   390.9 Mb

     Self-consistent Calculation

     iteration #  1     ecut=    60.00 Ry     beta= 0.40
     Davidson diagonalization with overlap
     ethr =  1.00E-02,  avg # of iterations =  2.8

     Threshold (ethr) on eigenvalues was too large:
     Diagonalizing with lowered threshold

     Davidson diagonalization with overlap
     ethr =  4.89E-04,  avg # of iterations =  2.6

     total cpu time spent up to now is      362.8 secs

     total energy              =    -734.55975020 Ry
     estimated scf accuracy    <       0.41363876 Ry

     iteration #  2     ecut=    60.00 Ry     beta= 0.40
     Davidson diagonalization with overlap
     ethr =  4.70E-04,  avg # of iterations =  2.0

     total cpu time spent up to now is      556.0 secs

     total energy              =    -734.60684865 Ry
     estimated scf accuracy    <       0.03806601 Ry

     iteration #  3     ecut=    60.00 Ry     beta= 0.40
     Davidson diagonalization with overlap
     ethr =  4.33E-05,  avg # of iterations =  8.4

     total cpu time spent up to now is      794.3 secs

     total energy              =    -734.61030091 Ry
     estimated scf accuracy    <       0.00585375 Ry

     iteration #  4     ecut=    60.00 Ry     beta= 0.40
     Davidson diagonalization with overlap
     ethr =  6.65E-06,  avg # of iterations =  8.8

     total cpu time spent up to now is     1025.9 secs

     total energy              =    -734.61089385 Ry
     estimated scf accuracy    <       0.00049649 Ry

     iteration #  5     ecut=    60.00 Ry     beta= 0.40
     Davidson diagonalization with overlap
     c_bands:  4 eigenvalues not converged
     ethr =  5.64E-07,  avg # of iterations =  5.8

     total cpu time spent up to now is     1231.3 secs

     total energy              =    -734.61096953 Ry
     estimated scf accuracy    <       0.00001291 Ry

     iteration #  6     ecut=    60.00 Ry     beta= 0.40
     Davidson diagonalization with overlap
     ethr =  1.47E-08,  avg # of iterations =  5.8

     total cpu time spent up to now is     1408.4 secs

     total energy              =    -734.61098322 Ry
     estimated scf accuracy    <       0.00000128 Ry

     iteration #  7     ecut=    60.00 Ry     beta= 0.40
     Davidson diagonalization with overlap
     ethr =  1.46E-09,  avg # of iterations =  3.4

     total cpu time spent up to now is     1546.9 secs

     total energy              =    -734.61098578 Ry
     estimated scf accuracy    <       0.00000025 Ry

     iteration #  8     ecut=    60.00 Ry     beta= 0.40
     Davidson diagonalization with overlap
     ethr =  2.82E-10,  avg # of iterations =  2.1

     total cpu time spent up to now is     1754.1 secs

     total energy              =    -734.61098654 Ry
     estimated scf accuracy    <       0.00000006 Ry

     iteration #  9     ecut=    60.00 Ry     beta= 0.40
     Davidson diagonalization with overlap
     ethr =  6.80E-11,  avg # of iterations =  2.4

     total cpu time spent up to now is     1960.3 secs

     total energy              =    -734.61098678 Ry
     estimated scf accuracy    <          4.0E-09 Ry

     iteration # 10     ecut=    60.00 Ry     beta= 0.40
     Davidson diagonalization with overlap
     ethr =  4.56E-12,  avg # of iterations =  4.5

     total cpu time spent up to now is     2140.6 secs

     End of self-consistent calculation

          k = 0.0000 0.0000 0.0000 ( 21959 PWs)   bands (ev):

   -18.1179 -18.1144 -18.1141 -18.1141 -18.1133 -18.1125 -18.0983 -18.0982
   -18.0981 -18.0980 -18.0950 -18.0950 -11.3122 -11.1787 -11.0072 -10.8568
   -10.8552 -10.8504  -4.9021  -4.9019  -4.9018  -4.8933  -4.8912  -4.8911
    -3.1536  -2.1830  -0.8878  -0.8876  -0.8872  -0.7966  -0.7928   0.6157
     1.0893   1.0893   1.1263   1.2470   1.2510   1.2534   1.2584   1.2591
     1.3586   1.3597   1.3611   2.0991   5.5441   6.4079   7.5260   7.5274
     7.8029   8.1688   8.1706   8.1713   8.2947

          k = 0.0000-0.0000 0.4000 ( 21957 PWs)   bands (ev):

   -18.1176 -18.1142 -18.1136 -18.1128 -18.1123 -18.1122 -18.0982 -18.0981
   -18.0981 -18.0980 -18.0951 -18.0951 -11.2783 -11.1488 -11.0075 -10.8973
   -10.8866 -10.8513  -4.9003  -4.8990  -4.8984  -4.8979  -4.8978  -4.8882
    -3.4571  -2.6671  -0.8576  -0.8552  -0.7505  -0.2109  -0.1222   0.5195
     0.9489   1.0655   1.1767   1.1984   1.2005   1.2092   1.2227   1.3167
     1.3195   1.3776   1.4261   2.2502   5.3970   6.7719   7.2444   7.6131
     7.8021   7.8103   8.0883   8.1146   8.2893

          k = 0.0000-0.0000 0.8000 ( 21988 PWs)   bands (ev):

   -18.1174 -18.1138 -18.1136 -18.1121 -18.1105 -18.1097 -18.0982 -18.0982
   -18.0980 -18.0978 -18.0952 -18.0951 -11.1973 -11.0692 -11.0084 -10.9908
   -10.9688 -10.8505  -4.9101  -4.9096  -4.8939  -4.8924  -4.8924  -4.8836
    -3.8045  -3.0983  -0.8054  -0.8024  -0.6715   0.3761   0.5693   0.6783
     0.9524   1.0276   1.0390   1.0873   1.1011   1.1039   1.1439   1.2665
     1.2715   1.6622   1.8834   2.8128   5.1601   5.5099   5.8848   7.6129
     7.9369   8.2901   8.3055   8.3094   8.3798

          k = 0.0000 0.4000-0.0000 ( 21957 PWs)   bands (ev):

   -18.1176 -18.1142 -18.1136 -18.1128 -18.1123 -18.1122 -18.0982 -18.0981
   -18.0981 -18.0980 -18.0951 -18.0951 -11.2783 -11.1488 -11.0075 -10.8973
   -10.8866 -10.8513  -4.9003  -4.8997  -4.8982  -4.8980  -4.8972  -4.8883
    -3.4571  -2.6671  -0.8576  -0.8552  -0.7505  -0.2109  -0.1222   0.5195
     0.9489   1.0655   1.1768   1.1984   1.2005   1.2091   1.2227   1.3167
     1.3195   1.3776   1.4260   2.2502   5.3970   6.7719   7.2445   7.6132
     7.8022   7.8103   8.0883   8.1142   8.2891

          k = 0.0000 0.4000 0.4000 ( 21957 PWs)   bands (ev):

   -18.1171 -18.1139 -18.1125 -18.1121 -18.1117 -18.1117 -18.0983 -18.0982
   -18.0981 -18.0980 -18.0951 -18.0951 -11.2460 -11.1238 -11.0073 -10.9136
   -10.9113 -10.8727  -4.9066  -4.9060  -4.9041  -4.8950  -4.8932  -4.8917
    -3.7243  -3.0279  -0.8192  -0.4380  -0.3239  -0.0475   0.1060   0.5047
     0.7522   0.9779   1.0033   1.1629   1.2567   1.2631   1.2966   1.3774
     1.4143   1.4202   1.4819   2.3618   5.2452   6.9874   7.0352   7.1597
     7.3746   7.5886   8.0273   8.0415   8.1387

          k = 0.0000 0.4000 0.8000 ( 21981 PWs)   bands (ev):

   -18.1166 -18.1136 -18.1124 -18.1118 -18.1096 -18.1093 -18.0983 -18.0982
   -18.0981 -18.0979 -18.0952 -18.0951 -11.1677 -11.0581 -11.0077 -10.9914
   -10.9766 -10.8814  -4.9173  -4.9169  -4.9028  -4.8992  -4.8949  -4.8895
    -4.0478  -3.4062  -0.7583  -0.2314  -0.1387   0.4300   0.5035   0.6369
     0.6989   0.8651   0.9410   1.0771   1.1864   1.2335   1.3594   1.3859
     1.4230   1.6663   2.0260   2.9013   4.9982   5.3588   5.7436   6.8792
     7.2571   7.8929   8.1315   8.3750   8.4202

          k = 0.0000 0.8000-0.0000 ( 21988 PWs)   bands (ev):

   -18.1174 -18.1138 -18.1136 -18.1121 -18.1105 -18.1097 -18.0982 -18.0982
   -18.0980 -18.0978 -18.0952 -18.0951 -11.1973 -11.0692 -11.0085 -10.9908
   -10.9688 -10.8505  -4.9101  -4.9097  -4.8938  -4.8924  -4.8923  -4.8837
    -3.8045  -3.0983  -0.8054  -0.8024  -0.6714   0.3761   0.5693   0.6783
     0.9524   1.0276   1.0391   1.0874   1.1011   1.1038   1.1438   1.2665
     1.2716   1.6622   1.8834   2.8128   5.1601   5.5098   5.8847   7.6129
     7.9368   8.2901   8.3053   8.3093   8.3797

          k = 0.0000 0.8000 0.4000 ( 21981 PWs)   bands (ev):

   -18.1166 -18.1136 -18.1124 -18.1118 -18.1096 -18.1093 -18.0983 -18.0982
   -18.0981 -18.0979 -18.0952 -18.0951 -11.1677 -11.0581 -11.0077 -10.9914
   -10.9766 -10.8814  -4.9173  -4.9170  -4.9026  -4.8992  -4.8950  -4.8895
    -4.0478  -3.4062  -0.7583  -0.2314  -0.1386   0.4299   0.5035   0.6369
     0.6989   0.8651   0.9410   1.0771   1.1864   1.2336   1.3594   1.3859
     1.4230   1.6663   2.0260   2.9013   4.9982   5.3588   5.7435   6.8791
     7.2570   7.8928   8.1315   8.3750   8.4202

          k = 0.0000 0.8000 0.8000 ( 21986 PWs)   bands (ev):

   -18.1158 -18.1132 -18.1113 -18.1113 -18.1079 -18.1079 -18.0984 -18.0982
   -18.0982 -18.0981 -18.0953 -18.0949 -11.0928 -11.0302 -11.0086 -10.9990
   -10.9989 -10.9500  -4.9289  -4.9287  -4.9238  -4.9103  -4.9058  -4.8847
    -4.3553  -3.7559  -0.6814   0.3914   0.5110   0.5560   0.5577   0.5614
     0.6968   0.8515   0.9294   1.0365   1.0549   1.1382   1.6296   1.6326
     1.6416   1.6827   2.5966   3.3527   4.7284   5.0247   5.2953   5.4713
     5.6100   7.9629   8.0195   8.3960   8.5693

          k = 0.3333 0.0000 0.0000 ( 21971 PWs)   bands (ev):

   -18.1168 -18.1145 -18.1143 -18.1141 -18.1141 -18.1126 -18.0982 -18.0981
   -18.0981 -18.0981 -18.0950 -18.0950 -11.2887 -11.2273 -10.9528 -10.8798
   -10.8564 -10.8556  -4.9000  -4.8994  -4.8992  -4.8953  -4.8938  -4.8936
    -2.9967  -2.5634  -0.8663  -0.8661  -0.8210  -0.8207  -0.2984   0.4463
     1.1341   1.1351   1.1533   1.2171   1.2185   1.2221   1.2781   1.2783
     1.3272   1.3283   1.3650   1.6430   6.3829   6.6679   7.3540   7.6712
     7.7293   7.9627   8.1102   8.2650   8.2661

          k = 0.3333 0.0000 0.4000 ( 21977 PWs)   bands (ev):

   -18.1165 -18.1144 -18.1141 -18.1128 -18.1126 -18.1124 -18.0982 -18.0981
   -18.0981 -18.0981 -18.0951 -18.0951 -11.2559 -11.1970 -10.9564 -10.9037
   -10.8855 -10.8712  -4.9046  -4.9039  -4.8960  -4.8935  -4.8930  -4.8905
    -3.3144  -2.9431  -0.8330  -0.7807  -0.5144  -0.2676   0.0252   0.4419
     0.9317   1.0360   1.1099   1.1763   1.2025   1.2382   1.2613   1.2752
     1.3828   1.4097   1.4312   1.7670   6.2431   6.9664   7.2653   7.4887
     7.6738   7.7271   7.9661   8.0079   8.1529

          k = 0.3333-0.0000 0.8000 ( 21976 PWs)   bands (ev):

   -18.1163 -18.1144 -18.1138 -18.1121 -18.1104 -18.1101 -18.0982 -18.0982
   -18.0981 -18.0979 -18.0952 -18.0951 -11.1767 -11.1212 -10.9943 -10.9914
   -10.9289 -10.8724  -4.9091  -4.9027  -4.9005  -4.8939  -4.8904  -4.8856
    -3.6696  -3.3310  -0.7749  -0.7093  -0.3772   0.3554   0.4262   0.5238
     0.9115   0.9546   1.0495   1.0835   1.0958   1.1722   1.2156   1.2383
     1.3762   1.5885   1.9783   2.3593   5.5801   5.7822   6.0817   7.5146
     7.8343   8.0018   8.1686   8.2308   8.3813

          k = 0.3333 0.4000 0.0000 ( 21977 PWs)   bands (ev):

   -18.1165 -18.1144 -18.1141 -18.1128 -18.1126 -18.1124 -18.0982 -18.0981
   -18.0981 -18.0981 -18.0951 -18.0951 -11.2559 -11.1970 -10.9564 -10.9037
   -10.8856 -10.8712  -4.9045  -4.9042  -4.8958  -4.8935  -4.8929  -4.8907
    -3.3144  -2.9431  -0.8329  -0.7807  -0.5144  -0.2676   0.0252   0.4419
     0.9318   1.0360   1.1099   1.1763   1.2026   1.2382   1.2613   1.2752
     1.3828   1.4098   1.4311   1.7670   6.2431   6.9664   7.2654   7.4887
     7.6739   7.7270   7.9661   8.0079   8.1526

          k = 0.3333 0.4000 0.4000 ( 21966 PWs)   bands (ev):

   -18.1160 -18.1139 -18.1137 -18.1122 -18.1117 -18.1117 -18.0983 -18.0982
   -18.0980 -18.0980 -18.0951 -18.0951 -11.2252 -11.1702 -10.9578 -10.9130
   -10.9120 -10.8964  -4.9078  -4.9059  -4.9043  -4.9035  -4.8883  -4.8866
    -3.5911  -3.2570  -0.4951  -0.4122  -0.3546  -0.1401   0.1996   0.4435
     0.8249   0.9391   0.9734   1.0010   1.3473   1.3524   1.3797   1.3866
     1.4054   1.4105   1.4612   1.8335   6.0989   7.0550   7.1157   7.1758
     7.2417   7.3902   7.7694   7.8627   8.1575

          k = 0.3333 0.4000 0.8000 ( 21972 PWs)   bands (ev):

   -18.1155 -18.1135 -18.1134 -18.1118 -18.1096 -18.1095 -18.0983 -18.0982
   -18.0981 -18.0980 -18.0952 -18.0951 -11.1501 -11.1028 -10.9940 -10.9917
   -10.9451 -10.8991  -4.9147  -4.9117  -4.9056  -4.9035  -4.8954  -4.8897
    -3.9201  -3.6088  -0.4203  -0.1901  -0.1462   0.3890   0.4583   0.4951
     0.7189   0.8041   0.8466   0.9925   1.2858   1.3624   1.3656   1.4136
     1.4491   1.5929   2.0840   2.4282   5.4295   5.6384   5.9305   6.9573
     7.1170   7.3652   7.9878   8.1701   8.5260

          k = 0.3333 0.8000 0.0000 ( 21976 PWs)   bands (ev):

   -18.1163 -18.1144 -18.1138 -18.1121 -18.1104 -18.1101 -18.0982 -18.0982
   -18.0981 -18.0979 -18.0952 -18.0951 -11.1767 -11.1212 -10.9944 -10.9914
   -10.9288 -10.8724  -4.9091  -4.9030  -4.9001  -4.8939  -4.8902  -4.8858
    -3.6696  -3.3310  -0.7749  -0.7092  -0.3772   0.3554   0.4261   0.5238
     0.9115   0.9546   1.0496   1.0835   1.0958   1.1722   1.2155   1.2383
     1.3762   1.5885   1.9783   2.3593   5.5800   5.7822   6.0817   7.5146
     7.8343   8.0016   8.1685   8.2309   8.3813

          k = 0.3333 0.8000 0.4000 ( 21971 PWs)   bands (ev):

   -18.1155 -18.1135 -18.1134 -18.1118 -18.1096 -18.1095 -18.0983 -18.0982
   -18.0981 -18.0980 -18.0952 -18.0951 -11.1501 -11.1028 -10.9940 -10.9916
   -10.9451 -10.8992  -4.9147  -4.9119  -4.9055  -4.9034  -4.8954  -4.8897
    -3.9201  -3.6088  -0.4203  -0.1900  -0.1463   0.3890   0.4582   0.4952
     0.7190   0.8040   0.8466   0.9926   1.2858   1.3619   1.3662   1.4137
     1.4491   1.5929   2.0841   2.4282   5.4295   5.6384   5.9304   6.9572
     7.1170   7.3653   7.9878   8.1701   8.5258

          k = 0.3333 0.8000 0.8000 ( 22003 PWs)   bands (ev):

   -18.1147 -18.1132 -18.1124 -18.1114 -18.1079 -18.1079 -18.0984 -18.0983
   -18.0982 -18.0982 -18.0952 -18.0950 -11.0827 -11.0561 -11.0021 -10.9999
   -10.9805 -10.9581  -4.9242  -4.9238  -4.9150  -4.9138  -4.9115  -4.8942
    -4.2320  -3.9389  -0.2968   0.4251   0.4391   0.4899   0.5604   0.5621
     0.6210   0.7351   0.7468   0.8656   1.3051   1.3511   1.5679   1.5711
     1.6359   1.6451   2.6440   2.9051   5.1356   5.2668   5.3584   5.5045
     5.8087   7.1674   8.0964   8.3291   8.6726

          k = 0.0000-0.4000 0.4000 ( 21957 PWs)   bands (ev):

   -18.1171 -18.1139 -18.1125 -18.1121 -18.1117 -18.1117 -18.0982 -18.0982
   -18.0981 -18.0981 -18.0951 -18.0951 -11.2460 -11.1238 -11.0072 -10.9137
   -10.9113 -10.8727  -4.9066  -4.9059  -4.9040  -4.8949  -4.8933  -4.8917
    -3.7243  -3.0279  -0.8189  -0.4381  -0.3245  -0.0472   0.1061   0.5048
     0.7521   0.9778   1.0026   1.1629   1.2569   1.2632   1.2960   1.3773
     1.4142   1.4250   1.4781   2.3618   5.2452   6.9884   7.0350   7.1587
     7.3759   7.5884   8.0271   8.1345   8.2052

          k = 0.0000-0.4000 0.8000 ( 21981 PWs)   bands (ev):

   -18.1166 -18.1136 -18.1124 -18.1118 -18.1096 -18.1093 -18.0982 -18.0982
   -18.0981 -18.0980 -18.0952 -18.0951 -11.1678 -11.0581 -11.0071 -10.9919
   -10.9766 -10.8814  -4.9173  -4.9169  -4.9028  -4.8992  -4.8949  -4.8895
    -4.0478  -3.4062  -0.7582  -0.2315  -0.1388   0.4297   0.5037   0.6370
     0.6990   0.8648   0.9405   1.0771   1.1867   1.2337   1.3597   1.3859
     1.4228   1.6670   2.0255   2.9013   4.9982   5.3588   5.7437   6.8791
     7.2572   7.8925   8.1316   8.3802   8.4158

          k = 0.0000-0.8000 0.4000 ( 21981 PWs)   bands (ev):

   -18.1166 -18.1136 -18.1124 -18.1118 -18.1096 -18.1093 -18.0982 -18.0982
   -18.0981 -18.0980 -18.0952 -18.0951 -11.1678 -11.0581 -11.0072 -10.9919
   -10.9766 -10.8814  -4.9173  -4.9170  -4.9026  -4.8992  -4.8950  -4.8895
    -4.0478  -3.4062  -0.7582  -0.2314  -0.1388   0.4297   0.5037   0.6370
     0.6990   0.8648   0.9405   1.0771   1.1867   1.2337   1.3597   1.3859
     1.4228   1.6670   2.0255   2.9013   4.9982   5.3588   5.7436   6.8791
     7.2571   7.8925   8.1316   8.3802   8.4158

          k = 0.0000-0.8000 0.8000 ( 21986 PWs)   bands (ev):

   -18.1158 -18.1132 -18.1113 -18.1113 -18.1079 -18.1079 -18.0983 -18.0983
   -18.0982 -18.0981 -18.0953 -18.0949 -11.0929 -11.0302 -11.0050 -11.0025
   -10.9990 -10.9498  -4.9289  -4.9287  -4.9238  -4.9103  -4.9058  -4.8847
    -4.3553  -3.7559  -0.6814   0.3912   0.5121   0.5510   0.5579   0.5654
     0.6967   0.8514   0.9289   1.0351   1.0564   1.1386   1.6296   1.6331
     1.6401   1.6840   2.5963   3.3527   4.7285   5.0249   5.2950   5.4717
     5.6097   7.9629   8.0195   8.3948   8.5699

          k =-0.3333-0.0000 0.4000 ( 21977 PWs)   bands (ev):

   -18.1165 -18.1144 -18.1141 -18.1128 -18.1126 -18.1124 -18.0982 -18.0981
   -18.0981 -18.0981 -18.0951 -18.0951 -11.2559 -11.1970 -10.9564 -10.9037
   -10.8856 -10.8712  -4.9046  -4.9040  -4.8960  -4.8935  -4.8930  -4.8905
    -3.3144  -2.9431  -0.8330  -0.7807  -0.5144  -0.2676   0.0252   0.4419
     0.9317   1.0360   1.1099   1.1763   1.2025   1.2382   1.2613   1.2752
     1.3828   1.4097   1.4312   1.7670   6.2431   6.9664   7.2653   7.4887
     7.6738   7.7271   7.9661   8.0080   8.1530

          k =-0.3333-0.0000 0.8000 ( 21976 PWs)   bands (ev):

   -18.1163 -18.1144 -18.1138 -18.1121 -18.1104 -18.1101 -18.0982 -18.0982
   -18.0981 -18.0979 -18.0952 -18.0951 -11.1767 -11.1212 -10.9943 -10.9914
   -10.9289 -10.8724  -4.9091  -4.9026  -4.9006  -4.8939  -4.8904  -4.8856
    -3.6696  -3.3310  -0.7749  -0.7093  -0.3772   0.3554   0.4262   0.5238
     0.9115   0.9546   1.0495   1.0835   1.0958   1.1722   1.2156   1.2383
     1.3762   1.5885   1.9783   2.3593   5.5801   5.7822   6.0817   7.5146
     7.8343   8.0018   8.1686   8.2308   8.3813

          k =-0.3333 0.4000-0.0000 ( 21977 PWs)   bands (ev):

   -18.1165 -18.1144 -18.1141 -18.1128 -18.1126 -18.1124 -18.0982 -18.0981
   -18.0981 -18.0981 -18.0951 -18.0951 -11.2559 -11.1970 -10.9564 -10.9037
   -10.8855 -10.8712  -4.9046  -4.9041  -4.8958  -4.8934  -4.8929  -4.8907
    -3.3144  -2.9431  -0.8329  -0.7807  -0.5144  -0.2676   0.0252   0.4419
     0.9317   1.0360   1.1099   1.1763   1.2025   1.2381   1.2613   1.2752
     1.3827   1.4098   1.4311   1.7670   6.2431   6.9664   7.2654   7.4888
     7.6740   7.7269   7.9961   8.1521   8.2167

          k =-0.3333-0.4000 0.4000 ( 21966 PWs)   bands (ev):

   -18.1160 -18.1139 -18.1137 -18.1122 -18.1117 -18.1117 -18.0982 -18.0981
   -18.0981 -18.0981 -18.0951 -18.0951 -11.2252 -11.1702 -10.9577 -10.9131
   -10.9119 -10.8965  -4.9078  -4.9059  -4.9042  -4.9035  -4.8883  -4.8867
    -3.5911  -3.2570  -0.4943  -0.4123  -0.3556  -0.1400   0.1996   0.4435
     0.8249   0.9389   0.9731   1.0011   1.3386   1.3620   1.3794   1.3866
     1.4054   1.4130   1.4582   1.8336   6.0989   7.0577   7.1150   7.1735
     7.2422   7.3904   7.7689   7.8626   8.1583

          k =-0.3333 0.4000-0.4000 ( 21966 PWs)   bands (ev):

   -18.1160 -18.1139 -18.1137 -18.1122 -18.1117 -18.1117 -18.0982 -18.0981
   -18.0981 -18.0981 -18.0951 -18.0951 -11.2252 -11.1702 -10.9577 -10.9131
   -10.9119 -10.8965  -4.9078  -4.9058  -4.9041  -4.9036  -4.8884  -4.8866
    -3.5911  -3.2570  -0.4941  -0.4123  -0.3558  -0.1399   0.1996   0.4435
     0.8249   0.9390   0.9731   1.0011   1.3387   1.3622   1.3792   1.3866
     1.4055   1.4129   1.4582   1.8336   6.0989   7.0574   7.1154   7.1743
     7.2414   7.3902   7.7691   7.8626   8.1583

          k = 0.3333-0.4000-0.4000 ( 21966 PWs)   bands (ev):

   -18.1160 -18.1139 -18.1137 -18.1122 -18.1117 -18.1117 -18.0983 -18.0982
   -18.0980 -18.0980 -18.0951 -18.0951 -11.2252 -11.1702 -10.9579 -10.9130
   -10.9120 -10.8964  -4.9078  -4.9059  -4.9043  -4.9035  -4.8883  -4.8866
    -3.5911  -3.2570  -0.4950  -0.4122  -0.3547  -0.1400   0.1996   0.4435
     0.8249   0.9391   0.9734   1.0010   1.3473   1.3524   1.3796   1.3866
     1.4054   1.4104   1.4613   1.8335   6.0989   7.0549   7.1158   7.1762
     7.2413   7.3900   7.7694   7.8627   8.1585

          k =-0.3333-0.4000 0.8000 ( 21972 PWs)   bands (ev):

   -18.1155 -18.1135 -18.1134 -18.1118 -18.1096 -18.1095 -18.0982 -18.0982
   -18.0981 -18.0981 -18.0952 -18.0951 -11.1501 -11.1028 -10.9936 -10.9919
   -10.9452 -10.8992  -4.9147  -4.9117  -4.9056  -4.9036  -4.8954  -4.8897
    -3.9201  -3.6088  -0.4202  -0.1899  -0.1466   0.3889   0.4581   0.4952
     0.7188   0.8042   0.8465   0.9925   1.2855   1.3625   1.3658   1.4139
     1.4489   1.5931   2.0839   2.4282   5.4295   5.6385   5.9304   6.9572
     7.1171   7.3651   7.9878   8.1701   8.5265

          k =-0.3333 0.4000-0.8000 ( 21972 PWs)   bands (ev):

   -18.1155 -18.1135 -18.1134 -18.1118 -18.1096 -18.1095 -18.0982 -18.0982
   -18.0981 -18.0981 -18.0952 -18.0951 -11.1501 -11.1028 -10.9936 -10.9919
   -10.9452 -10.8992  -4.9147  -4.9118  -4.9056  -4.9035  -4.8955  -4.8897
    -3.9201  -3.6088  -0.4202  -0.1899  -0.1466   0.3889   0.4581   0.4952
     0.7189   0.8041   0.8465   0.9924   1.2855   1.3630   1.3654   1.4139
     1.4489   1.5931   2.0839   2.4282   5.4295   5.6385   5.9305   6.9572
     7.1171   7.3651   7.9878   8.1701   8.5267

          k = 0.3333-0.4000-0.8000 ( 21972 PWs)   bands (ev):

   -18.1155 -18.1135 -18.1134 -18.1118 -18.1096 -18.1095 -18.0983 -18.0982
   -18.0981 -18.0980 -18.0952 -18.0951 -11.1501 -11.1028 -10.9940 -10.9917
   -10.9451 -10.8991  -4.9147  -4.9118  -4.9056  -4.9035  -4.8955  -4.8896
    -3.9201  -3.6088  -0.4203  -0.1901  -0.1463   0.3890   0.4582   0.4951
     0.7189   0.8041   0.8466   0.9925   1.2858   1.3622   1.3658   1.4137
     1.4491   1.5929   2.0841   2.4282   5.4295   5.6385   5.9305   6.9572
     7.1170   7.3653   7.9878   8.1701   8.5259

          k =-0.3333 0.8000-0.0000 ( 21976 PWs)   bands (ev):

   -18.1163 -18.1144 -18.1138 -18.1121 -18.1104 -18.1101 -18.0982 -18.0982
   -18.0981 -18.0979 -18.0952 -18.0951 -11.1767 -11.1212 -10.9944 -10.9914
   -10.9288 -10.8724  -4.9092  -4.9027  -4.9004  -4.8939  -4.8902  -4.8858
    -3.6696  -3.3310  -0.7749  -0.7092  -0.3772   0.3554   0.4261   0.5238
     0.9115   0.9546   1.0495   1.0835   1.0959   1.1722   1.2155   1.2383
     1.3762   1.5885   1.9783   2.3593   5.5800   5.7822   6.0817   7.5146
     7.8343   8.0016   8.1685   8.2308   8.3812

          k =-0.3333-0.8000 0.4000 ( 21970 PWs)   bands (ev):

   -18.1155 -18.1135 -18.1134 -18.1118 -18.1096 -18.1095 -18.0982 -18.0982
   -18.0981 -18.0981 -18.0952 -18.0951 -11.1501 -11.1028 -10.9937 -10.9919
   -10.9452 -10.8992  -4.9147  -4.9119  -4.9054  -4.9034  -4.8955  -4.8897
    -3.9201  -3.6088  -0.4202  -0.1899  -0.1466   0.3889   0.4580   0.4953
     0.7189   0.8041   0.8465   0.9925   1.2855   1.3623   1.3660   1.4139
     1.4489   1.5931   2.0839   2.4282   5.4295   5.6385   5.9304   6.9572
     7.1171   7.3651   7.9878   8.1701   8.5266

          k =-0.3333 0.8000-0.4000 ( 21971 PWs)   bands (ev):

   -18.1155 -18.1135 -18.1134 -18.1118 -18.1096 -18.1095 -18.0982 -18.0982
   -18.0981 -18.0981 -18.0952 -18.0951 -11.1501 -11.1028 -10.9937 -10.9918
   -10.9452 -10.8992  -4.9148  -4.9118  -4.9054  -4.9034  -4.8955  -4.8897
    -3.9201  -3.6088  -0.4202  -0.1899  -0.1466   0.3889   0.4580   0.4953
     0.7189   0.8041   0.8465   0.9924   1.2855   1.3630   1.3654   1.4139
     1.4489   1.5931   2.0839   2.4282   5.4295   5.6385   5.9305   6.9572
     7.1171   7.3651   7.9878   8.1701   8.5265

          k = 0.3333-0.8000-0.4000 ( 21970 PWs)   bands (ev):

   -18.1155 -18.1135 -18.1134 -18.1118 -18.1096 -18.1095 -18.0983 -18.0982
   -18.0981 -18.0980 -18.0952 -18.0951 -11.1501 -11.1028 -10.9940 -10.9916
   -10.9451 -10.8992  -4.9148  -4.9118  -4.9055  -4.9034  -4.8955  -4.8897
    -3.9201  -3.6088  -0.4203  -0.1900  -0.1463   0.3890   0.4582   0.4952
     0.7189   0.8041   0.8466   0.9925   1.2858   1.3626   1.3655   1.4137
     1.4491   1.5929   2.0841   2.4282   5.4295   5.6384   5.9305   6.9572
     7.1170   7.3652   7.9878   8.1701   8.5259

          k =-0.3333-0.8000 0.8000 ( 22003 PWs)   bands (ev):

   -18.1147 -18.1132 -18.1124 -18.1114 -18.1079 -18.1079 -18.0983 -18.0983
   -18.0983 -18.0982 -18.0952 -18.0950 -11.0828 -11.0561 -11.0017 -10.9999
   -10.9810 -10.9580  -4.9242  -4.9238  -4.9151  -4.9137  -4.9116  -4.8942
    -4.2320  -3.9389  -0.2968   0.4249   0.4392   0.4902   0.5576   0.5643
     0.6210   0.7360   0.7465   0.8652   1.3047   1.3516   1.5671   1.5718
     1.6358   1.6454   2.6439   2.9051   5.1358   5.2666   5.3588   5.5041
     5.8087   7.1674   8.0966   8.3289   8.6854

          k =-0.3333 0.8000-0.8000 ( 22003 PWs)   bands (ev):

   -18.1147 -18.1132 -18.1124 -18.1114 -18.1079 -18.1079 -18.0983 -18.0983
   -18.0983 -18.0982 -18.0952 -18.0950 -11.0828 -11.0561 -11.0017 -10.9999
   -10.9809 -10.9580  -4.9242  -4.9238  -4.9149  -4.9137  -4.9117  -4.8942
    -4.2320  -3.9389  -0.2968   0.4249   0.4390   0.4902   0.5576   0.5644
     0.6211   0.7357   0.7468   0.8652   1.3047   1.3516   1.5671   1.5719
     1.6358   1.6453   2.6439   2.9051   5.1358   5.2662   5.3592   5.5041
     5.8086   7.1674   8.0966   8.3289   8.7690

          k = 0.3333-0.8000-0.8000 ( 22003 PWs)   bands (ev):

   -18.1147 -18.1132 -18.1124 -18.1114 -18.1079 -18.1079 -18.0984 -18.0983
   -18.0982 -18.0982 -18.0952 -18.0950 -11.0827 -11.0561 -11.0021 -10.9999
   -10.9805 -10.9581  -4.9242  -4.9238  -4.9149  -4.9136  -4.9118  -4.8942
    -4.2320  -3.9389  -0.2968   0.4251   0.4390   0.4900   0.5604   0.5622
     0.6211   0.7349   0.7469   0.8656   1.3051   1.3511   1.5679   1.5711
     1.6359   1.6451   2.6440   2.9051   5.1356   5.2667   5.3586   5.5044
     5.8086   7.1674   8.0964   8.3291   8.6807

     the Fermi energy is     4.1529 ev

!    total energy              =    -734.61098691 Ry
     estimated scf accuracy    <          2.6E-10 Ry
     smearing contrib. (-TS)   =      -0.00000000 Ry
     internal energy E=F+TS    =    -734.61098691 Ry

     The total energy is F=E-TS. E is the sum of the following terms:
     one-electron contribution =    -256.29659780 Ry
     hartree contribution      =     165.28230424 Ry
     xc contribution           =    -312.36704371 Ry
     ewald contribution        =    -331.22964965 Ry

     convergence has been achieved in  10 iterations

     Forces acting on atoms (cartesian axes, Ry/au):

     atom    1 type  1   force =     0.00000025   -0.00000876    0.00000820
     atom    2 type  1   force =     0.00000068    0.00000643   -0.00000886
     atom    3 type  2   force =     0.00003628    0.00005423   -0.00000723
     atom    4 type  2   force =    -0.00003940   -0.00005958   -0.00000067
     atom    5 type  3   force =     0.00000073    0.00028838   -0.00029663
     atom    6 type  3   force =     0.00000120   -0.00029743    0.00028641
     atom    7 type  3   force =    -0.00008265    0.00003723   -0.00002091
     atom    8 type  3   force =     0.00008780   -0.00002558    0.00002454
     atom    9 type  3   force =     0.00011618   -0.00007243    0.00001679
     atom   10 type  3   force =    -0.00012108    0.00007749   -0.00000164

     Total force =     0.000639     Total SCF correction =     0.000011
     Message from routine punch:
     Nothing written, as per user request (disk_io='none')

     init_run     :     48.39s CPU     53.63s WALL (       1 calls)
     electrons    :   2003.13s CPU   2051.08s WALL (       1 calls)
     forces       :     30.20s CPU     31.54s WALL (       1 calls)

     Called by init_run:
     wfcinit      :     19.76s CPU     20.32s WALL (       1 calls)
     potinit      :     12.12s CPU     13.86s WALL (       1 calls)
     hinit0       :      4.06s CPU      4.40s WALL (       1 calls)

     Called by electrons:
     c_bands      :   1497.64s CPU   1514.94s WALL (      11 calls)
     sum_band     :    345.60s CPU    361.94s WALL (      11 calls)
     v_of_rho     :     23.47s CPU     27.42s WALL (      11 calls)
     newd         :    145.17s CPU    159.49s WALL (      11 calls)
     mix_rho      :      3.95s CPU      4.00s WALL (      11 calls)

     Called by c_bands:
     init_us_2    :     22.58s CPU     22.84s WALL (     120 calls)
     cegterg      :    501.36s CPU    516.65s WALL (      55 calls)

     Called by *egterg:
     cdiaghg      :      1.65s CPU      1.66s WALL (     307 calls)
     h_psi        :    370.83s CPU    378.04s WALL (     317 calls)
     s_psi        :     38.14s CPU     38.16s WALL (     317 calls)
     g_psi        :      2.01s CPU      2.02s WALL (     257 calls)

     Called by h_psi:
     h_psi:calbec :     43.03s CPU     43.05s WALL (     317 calls)
     vloc_psi     :    283.54s CPU    283.95s WALL (     317 calls)
                                        0.00s GPU  (     317 calls)
     add_vuspsi   :     40.63s CPU     40.70s WALL (     317 calls)

     General routines
     calbec       :     54.09s CPU     54.12s WALL (     392 calls)
     fft          :     13.98s CPU     14.03s WALL (     153 calls)
     ffts         :      1.52s CPU      1.52s WALL (      22 calls)
     fftw         :    219.73s CPU    220.06s WALL (   19095 calls)
     interpolate  :      2.61s CPU      2.61s WALL (      11 calls)

     Parallel routines

     PWSCF        :  35m28.14s CPU  36m22.92s WALL


   This run was terminated on:  22:34:31   4Oct2026            

=------------------------------------------------------------------------------=
   JOB DONE.
=------------------------------------------------------------------------------=
