
     Program PWSCF v.7.5 starts on  4Oct2026 at 23: 7: 3 

     This program is part of the open-source Quantum ESPRESSO suite
     for quantum simulation of materials; please cite
         "P. Giannozzi et al., J. Phys.:Condens. Matter 21 395502 (2009);
         "P. Giannozzi et al., J. Phys.:Condens. Matter 29 465901 (2017);
         "P. Giannozzi et al., J. Chem. Phys. 152 154105 (2020);
          URL http://www.quantum-espresso.org", 
     in publications or presentations arising from this work. More details at
     http://www.quantum-espresso.org/quote

     Parallel version (MPI & OpenMP), running on       8 processor cores
     Number of MPI processes:                 8
     Threads/MPI process:                     1

     MPI processes distributed on     1 nodes
     105394 MiB available memory on the printing compute node when the environment starts

     Reading input from pw.in

     Current dimensions of program PWSCF are:
     Max number of different atomic species (ntypx) = 10
     Max number of k-points (npk) =  40000
     Max angular momentum in pseudopotentials (lmaxx) =  4
     file Ba.pbe-spn-kjpaw_psl.1.0.0.UPF: wavefunction(s)  5S 6S renormalized
     file O.pbe-n-kjpaw_psl.0.1.UPF: wavefunction(s)  2P renormalized
     Message from routine setup:
     using ibrav=0 with symmetry is DISCOURAGED, use correct ibrav instead

     K-points division:     npool     =       8
     Subspace diagonalization in iterative solution of the eigenvalue problem:
     a serial algorithm will be used


     G-vector sticks info
     --------------------
     sticks:   dense  smooth     PW     G-vecs:    dense   smooth      PW
     Sum        3717    1855    547               120005    42425    6649

     Using Slab Decomposition



     bravais-lattice index     =            0
     lattice parameter (alat)  =      15.2544  a.u.
     unit-cell volume          =     887.4155 (a.u.)^3
     number of atoms/cell      =           10
     number of atomic types    =            3
     number of electrons       =        80.00
     number of Kohn-Sham states=           48
     kinetic-energy cutoff     =      50.0000  Ry
     charge density cutoff     =     400.0000  Ry
     scf convergence threshold =      1.0E-09
     mixing beta               =       0.4000
     number of iterations used =            8  plain     mixing
     Exchange-correlation= SLA  PW   PBX  PBC
                           (   1   4   3   4   0   0   0)

     celldm(1)=  15.254415  celldm(2)=   0.000000  celldm(3)=   0.000000
     celldm(4)=   0.000000  celldm(5)=   0.000000  celldm(6)=   0.000000

     crystal axes: (cart. coord. in units of alat)
               a(1) = (  -0.000000   0.000000   1.000000 )  
               a(2) = (   0.000000  -0.500000  -0.000000 )  
               a(3) = (   0.500000  -0.000000  -0.000000 )  

     reciprocal axes: (cart. coord. in units 2 pi/alat)
               b(1) = (  0.000000 -0.000000  1.000000 )  
               b(2) = ( -0.000000 -1.999999  0.000000 )  
               b(3) = (  1.999999  0.000000  0.000000 )  


     PseudoPot. # 1 for Ba read from file:
     /root/sssp/Ba.pbe-spn-kjpaw_psl.1.0.0.UPF
     MD5 check sum: c432291d3e53af55f19d5e8866385beb
     Pseudo is Projector augmented-wave + core cor, Zval = 10.0
     Generated using "atomic" code by A. Dal Corso  v.5.1
     Shape of augmentation charge: PSQ
     Using radial grid of 1251 points,  7 beta functions with: 
                l(1) =   0
                l(2) =   0
                l(3) =   0
                l(4) =   1
                l(5) =   1
                l(6) =   2
                l(7) =   2
     Q(r) pseudized with 0 coefficients 


     PseudoPot. # 2 for Ti read from file:
     /root/sssp/ti_pbe_v1.4.uspp.F.UPF
     MD5 check sum: 88a00a6731bd790ddea75d31a80cb452
     Pseudo is Ultrasoft + core correction, Zval = 12.0
     Generated by new atomic code, or converted to UPF format
     Using radial grid of  851 points,  6 beta functions with: 
                l(1) =   0
                l(2) =   0
                l(3) =   1
                l(4) =   1
                l(5) =   2
                l(6) =   2
     Q(r) pseudized with  6 coefficients,  rinner =    1.000   1.000   1.000
                                                       1.000   1.000

     PseudoPot. # 3 for O  read from file:
     /root/sssp/O.pbe-n-kjpaw_psl.0.1.UPF
     MD5 check sum: 0234752ac141de4415c5fc33072bef88
     Pseudo is Projector augmented-wave + core cor, Zval =  6.0
     Generated using "atomic" code by A. Dal Corso  v.5.0.99 svn rev. 10869
     Shape of augmentation charge: BESSEL
     Using radial grid of 1095 points,  4 beta functions with: 
                l(1) =   0
                l(2) =   0
                l(3) =   1
                l(4) =   1
     Q(r) pseudized with 0 coefficients 


     atomic species   valence    mass     pseudopotential
     Ba               10.00   137.32700     Ba( 1.00)
     Ti               12.00    47.86700     Ti( 1.00)
     O                 6.00    15.99900     O ( 1.00)

      2 Sym. Ops., with inversion, found



   Cartesian axes

     site n.     atom                  positions (alat units)
         1        Ba     tau(   1) = (   0.0000005   0.0000003   0.0000029  )
         2        Ba     tau(   2) = (   0.0000003  -0.0000003   0.4999984  )
         3        Ti     tau(   3) = (   0.2494270  -0.2505540   0.2500023  )
         4        Ti     tau(   4) = (   0.2505736  -0.2494445   0.7499987  )
         5        O      tau(   5) = (   0.5006880  -0.2497876   0.2499982  )
         6        O      tau(   6) = (   0.4993115  -0.2502160   0.7500019  )
         7        O      tau(   7) = (   0.2502153  -0.4993214   0.2500077  )
         8        O      tau(   8) = (   0.2497843  -0.5006807   0.7499919  )
         9        O      tau(   9) = (   0.2499999  -0.2499996   0.4999995  )
        10        O      tau(  10) = (   0.2499998  -0.2500005   0.9999974  )

     number of k points=    99  Marzari-Vanderbilt smearing, width (Ry)=  0.0050
                       cart. coord. in units 2pi/alat
        k(    1) = (   0.0000000   0.0000000   0.0000000), wk =   0.0102041
        k(    2) = (   0.2857142   0.0000000   0.0000001), wk =   0.0204082
        k(    3) = (   0.5714283   0.0000000   0.0000001), wk =   0.0204082
        k(    4) = (   0.8571425   0.0000001   0.0000002), wk =   0.0204082
        k(    5) = (   0.2857141  -0.2857141   0.0000001), wk =   0.0204082
        k(    6) = (   0.5714283  -0.2857141   0.0000002), wk =   0.0204082
        k(    7) = (   0.8571425  -0.2857141   0.0000002), wk =   0.0204082
        k(    8) = (   0.5714283  -0.5714283   0.0000002), wk =   0.0204082
        k(    9) = (   0.8571425  -0.5714282   0.0000003), wk =   0.0204082
        k(   10) = (   0.8571424  -0.8571424   0.0000004), wk =   0.0204082
        k(   11) = (   0.0000001  -0.0000001   0.2500000), wk =   0.0204082
        k(   12) = (   0.2857142  -0.0000000   0.2500001), wk =   0.0204082
        k(   13) = (   0.5714284  -0.0000000   0.2500001), wk =   0.0204082
        k(   14) = (   0.8571426   0.0000000   0.2500002), wk =   0.0204082
        k(   15) = (   0.2857142  -0.2857142   0.2500001), wk =   0.0204082
        k(   16) = (   0.5714284  -0.2857142   0.2500002), wk =   0.0204082
        k(   17) = (   0.8571425  -0.2857141   0.2500002), wk =   0.0204082
        k(   18) = (   0.5714283  -0.5714283   0.2500002), wk =   0.0204082
        k(   19) = (   0.8571425  -0.5714283   0.2500003), wk =   0.0204082
        k(   20) = (   0.8571425  -0.8571424   0.2500004), wk =   0.0204082
        k(   21) = (  -0.0000001   0.0000001  -0.5000000), wk =   0.0102041
        k(   22) = (   0.2857141   0.0000001  -0.4999999), wk =   0.0204082
        k(   23) = (   0.5714282   0.0000002  -0.4999999), wk =   0.0204082
        k(   24) = (   0.8571424   0.0000002  -0.4999998), wk =   0.0204082
        k(   25) = (   0.2857140  -0.2857140  -0.4999999), wk =   0.0204082
        k(   26) = (   0.5714282  -0.2857140  -0.4999998), wk =   0.0204082
        k(   27) = (   0.8571424  -0.2857140  -0.4999998), wk =   0.0204082
        k(   28) = (   0.5714282  -0.5714281  -0.4999998), wk =   0.0204082
        k(   29) = (   0.8571424  -0.5714281  -0.4999997), wk =   0.0204082
        k(   30) = (   0.8571423  -0.8571423  -0.4999996), wk =   0.0204082
        k(   31) = (   0.0000000   0.2857142  -0.0000001), wk =   0.0204082
        k(   32) = (   0.0000000   0.5714283  -0.0000001), wk =   0.0204082
        k(   33) = (   0.0000001   0.8571425  -0.0000002), wk =   0.0204082
        k(   34) = (  -0.2857142  -0.2857142   0.0000000), wk =   0.0204082
        k(   35) = (  -0.5714284  -0.2857142  -0.0000001), wk =   0.0204082
        k(   36) = (  -0.2857141   0.5714283  -0.0000002), wk =   0.0204082
        k(   37) = (  -0.2857142  -0.5714283   0.0000001), wk =   0.0204082
        k(   38) = (  -0.8571425  -0.2857142  -0.0000001), wk =   0.0204082
        k(   39) = (  -0.2857141   0.8571424  -0.0000002), wk =   0.0204082
        k(   40) = (  -0.2857142  -0.8571425   0.0000001), wk =   0.0204082
        k(   41) = (  -0.5714284  -0.5714283   0.0000000), wk =   0.0204082
        k(   42) = (  -0.8571426  -0.5714284  -0.0000000), wk =   0.0204082
        k(   43) = (  -0.5714283   0.8571424  -0.0000003), wk =   0.0204082
        k(   44) = (  -0.5714284  -0.8571425   0.0000001), wk =   0.0204082
        k(   45) = (  -0.8571426  -0.8571425   0.0000000), wk =   0.0204082
        k(   46) = (   0.2857141   0.0000001  -0.2499999), wk =   0.0204082
        k(   47) = (  -0.0000000   0.2857142  -0.2500001), wk =   0.0204082
        k(   48) = (  -0.0000001  -0.2857141  -0.2499999), wk =   0.0204082
        k(   49) = (   0.5714283   0.0000001  -0.2499999), wk =   0.0204082
        k(   50) = (  -0.0000000   0.5714284  -0.2500001), wk =   0.0204082
        k(   51) = (  -0.0000001  -0.5714282  -0.2499999), wk =   0.0204082
        k(   52) = (   0.8571425   0.0000001  -0.2499998), wk =   0.0204082
        k(   53) = (   0.0000000   0.8571425  -0.2500002), wk =   0.0204082
        k(   54) = (  -0.0000001  -0.8571424  -0.2499998), wk =   0.0204082
        k(   55) = (  -0.2857142  -0.2857141  -0.2500000), wk =   0.0204082
        k(   56) = (   0.2857141   0.2857142  -0.2500000), wk =   0.0204082
        k(   57) = (   0.2857141  -0.2857141  -0.2499999), wk =   0.0204082
        k(   58) = (  -0.5714284  -0.2857141  -0.2500001), wk =   0.0204082
        k(   59) = (   0.5714283   0.2857143  -0.2499999), wk =   0.0204082
        k(   60) = (  -0.2857142   0.5714283  -0.2500002), wk =   0.0204082
        k(   61) = (   0.2857141  -0.5714282  -0.2499998), wk =   0.0204082
        k(   62) = (  -0.2857142  -0.5714284   0.2500001), wk =   0.0204082
        k(   63) = (   0.2857143   0.5714283   0.2499999), wk =   0.0204082
        k(   64) = (  -0.5714283   0.2857141   0.2499998), wk =   0.0204082
        k(   65) = (  -0.8571426  -0.2857142  -0.2500001), wk =   0.0204082
        k(   66) = (   0.8571425   0.2857143  -0.2499999), wk =   0.0204082
        k(   67) = (  -0.2857141   0.8571425  -0.2500002), wk =   0.0204082
        k(   68) = (   0.2857140  -0.8571424  -0.2499998), wk =   0.0204082
        k(   69) = (  -0.2857142  -0.8571425   0.2500001), wk =   0.0204082
        k(   70) = (   0.2857143   0.8571424   0.2499999), wk =   0.0204082
        k(   71) = (  -0.8571424   0.2857140   0.2499998), wk =   0.0204082
        k(   72) = (  -0.5714284  -0.5714283  -0.2500000), wk =   0.0204082
        k(   73) = (   0.5714283   0.5714284  -0.2500000), wk =   0.0204082
        k(   74) = (   0.5714282  -0.5714282  -0.2499998), wk =   0.0204082
        k(   75) = (  -0.8571426  -0.5714283  -0.2500000), wk =   0.0204082
        k(   76) = (   0.8571425   0.5714284  -0.2500000), wk =   0.0204082
        k(   77) = (  -0.5714283   0.8571425  -0.2500003), wk =   0.0204082
        k(   78) = (   0.5714282  -0.8571424  -0.2499997), wk =   0.0204082
        k(   79) = (  -0.5714284  -0.8571426   0.2500001), wk =   0.0204082
        k(   80) = (   0.5714285   0.8571424   0.2499999), wk =   0.0204082
        k(   81) = (  -0.8571424   0.5714282   0.2499997), wk =   0.0204082
        k(   82) = (  -0.8571426  -0.8571425  -0.2500000), wk =   0.0204082
        k(   83) = (   0.8571425   0.8571426  -0.2500000), wk =   0.0204082
        k(   84) = (   0.8571424  -0.8571423  -0.2499996), wk =   0.0204082
        k(   85) = (   0.0000001   0.2857140   0.4999999), wk =   0.0204082
        k(   86) = (   0.0000001   0.5714282   0.4999999), wk =   0.0204082
        k(   87) = (   0.0000002   0.8571423   0.4999998), wk =   0.0204082
        k(   88) = (  -0.2857141  -0.2857143   0.5000000), wk =   0.0204082
        k(   89) = (  -0.5714283  -0.2857143   0.4999999), wk =   0.0204082
        k(   90) = (  -0.2857140   0.5714282   0.4999998), wk =   0.0204082
        k(   91) = (  -0.2857143  -0.5714282  -0.4999999), wk =   0.0204082
        k(   92) = (  -0.8571424  -0.2857143   0.4999999), wk =   0.0204082
        k(   93) = (  -0.2857140   0.8571423   0.4999998), wk =   0.0204082
        k(   94) = (  -0.2857143  -0.8571424  -0.4999999), wk =   0.0204082
        k(   95) = (  -0.5714283  -0.5714285   0.5000000), wk =   0.0204082
        k(   96) = (  -0.8571425  -0.5714285   0.5000000), wk =   0.0204082
        k(   97) = (  -0.5714282   0.8571423   0.4999997), wk =   0.0204082
        k(   98) = (  -0.5714285  -0.8571424  -0.4999999), wk =   0.0204082
        k(   99) = (  -0.8571425  -0.8571426   0.5000000), wk =   0.0204082

     Dense  grid:   120005 G-vectors     FFT dimensions: ( 100,  50,  50)

     Smooth grid:    42425 G-vectors     FFT dimensions: (  72,  36,  36)

     Estimated max dynamical RAM per process >     195.93 MB

     Estimated total dynamical RAM >       1.33 GB

     Check: negative core charge=   -0.000004

     Initial potential from superposition of free atoms

     starting charge      77.9659, renormalised to      80.0000

     negative rho (up, down):  2.027E-03 0.000E+00
     Starting wfcs are   54 randomized atomic wfcs
     Checking if some PAW data can be deallocated... 

     total cpu time spent up to now is       20.2 secs

     per-process dynamical memory:   145.1 Mb

     Self-consistent Calculation

     iteration #  1     ecut=    50.00 Ry     beta= 0.40
     Davidson diagonalization with overlap
     ethr =  1.00E-02,  avg # of iterations =  2.0

     negative rho (up, down):  2.873E-03 0.000E+00

     total cpu time spent up to now is       54.1 secs

     total energy              =   -1361.62132533 Ry
     estimated scf accuracy    <       1.74735589 Ry

     iteration #  2     ecut=    50.00 Ry     beta= 0.40
     Davidson diagonalization with overlap
     ethr =  2.18E-03,  avg # of iterations =  4.0

     negative rho (up, down):  1.794E-03 0.000E+00

     total cpu time spent up to now is       95.5 secs

     total energy              =   -1361.68550002 Ry
     estimated scf accuracy    <       3.16829885 Ry

     iteration #  3     ecut=    50.00 Ry     beta= 0.40
     Davidson diagonalization with overlap
     ethr =  2.18E-03,  avg # of iterations =  3.6

     negative rho (up, down):  1.892E-03 0.000E+00

     total cpu time spent up to now is      128.9 secs

     total energy              =   -1362.25717671 Ry
     estimated scf accuracy    <       0.15033654 Ry

     iteration #  4     ecut=    50.00 Ry     beta= 0.40
     Davidson diagonalization with overlap
     ethr =  1.88E-04,  avg # of iterations =  2.9

     negative rho (up, down):  2.025E-03 0.000E+00

     total cpu time spent up to now is      160.3 secs

     total energy              =   -1362.25156405 Ry
     estimated scf accuracy    <       0.04384124 Ry

     iteration #  5     ecut=    50.00 Ry     beta= 0.40
     Davidson diagonalization with overlap
     ethr =  5.48E-05,  avg # of iterations =  4.2

     negative rho (up, down):  1.963E-03 0.000E+00

     total cpu time spent up to now is      201.4 secs

     total energy              =   -1362.26274909 Ry
     estimated scf accuracy    <       0.01044724 Ry

     iteration #  6     ecut=    50.00 Ry     beta= 0.40
     Davidson diagonalization with overlap
     ethr =  1.31E-05,  avg # of iterations =  2.3

     negative rho (up, down):  1.890E-03 0.000E+00

     total cpu time spent up to now is      221.6 secs

     total energy              =   -1362.26304004 Ry
     estimated scf accuracy    <       0.00172003 Ry

     iteration #  7     ecut=    50.00 Ry     beta= 0.40
     Davidson diagonalization with overlap
     ethr =  2.15E-06,  avg # of iterations =  4.9

     negative rho (up, down):  1.897E-03 0.000E+00

     total cpu time spent up to now is      245.9 secs

     total energy              =   -1362.26360788 Ry
     estimated scf accuracy    <       0.00199974 Ry

     iteration #  8     ecut=    50.00 Ry     beta= 0.40
     Davidson diagonalization with overlap
     ethr =  2.15E-06,  avg # of iterations =  1.6

     negative rho (up, down):  1.923E-03 0.000E+00

     total cpu time spent up to now is      273.6 secs

     total energy              =   -1362.26352756 Ry
     estimated scf accuracy    <       0.00037854 Ry

     iteration #  9     ecut=    50.00 Ry     beta= 0.40
     Davidson diagonalization with overlap
     ethr =  4.73E-07,  avg # of iterations =  3.8

     negative rho (up, down):  1.918E-03 0.000E+00

     total cpu time spent up to now is      308.7 secs

     total energy              =   -1362.26366487 Ry
     estimated scf accuracy    <       0.00022123 Ry

     iteration # 10     ecut=    50.00 Ry     beta= 0.40
     Davidson diagonalization with overlap
     ethr =  2.77E-07,  avg # of iterations =  1.5

     negative rho (up, down):  1.916E-03 0.000E+00

     total cpu time spent up to now is      337.5 secs

     total energy              =   -1362.26366680 Ry
     estimated scf accuracy    <       0.00005167 Ry

     iteration # 11     ecut=    50.00 Ry     beta= 0.40
     Davidson diagonalization with overlap
     ethr =  6.46E-08,  avg # of iterations =  3.1

     negative rho (up, down):  1.914E-03 0.000E+00

     total cpu time spent up to now is      371.9 secs

     total energy              =   -1362.26366699 Ry
     estimated scf accuracy    <       0.00000972 Ry

     iteration # 12     ecut=    50.00 Ry     beta= 0.40
     Davidson diagonalization with overlap
     ethr =  1.22E-08,  avg # of iterations =  3.9

     negative rho (up, down):  1.914E-03 0.000E+00

     total cpu time spent up to now is      406.8 secs

     total energy              =   -1362.26366892 Ry
     estimated scf accuracy    <       0.00000011 Ry

     iteration # 13     ecut=    50.00 Ry     beta= 0.40
     Davidson diagonalization with overlap
     ethr =  1.36E-10,  avg # of iterations =  5.4

     negative rho (up, down):  1.914E-03 0.000E+00

     total cpu time spent up to now is      460.3 secs

     total energy              =   -1362.26366902 Ry
     estimated scf accuracy    <       0.00000005 Ry

     iteration # 14     ecut=    50.00 Ry     beta= 0.40
     Davidson diagonalization with overlap
     ethr =  5.74E-11,  avg # of iterations =  1.4

     negative rho (up, down):  1.914E-03 0.000E+00

     total cpu time spent up to now is      490.4 secs

     total energy              =   -1362.26366901 Ry
     estimated scf accuracy    <       0.00000002 Ry

     iteration # 15     ecut=    50.00 Ry     beta= 0.40
     Davidson diagonalization with overlap
     ethr =  2.77E-11,  avg # of iterations =  4.0

     negative rho (up, down):  1.914E-03 0.000E+00

     total cpu time spent up to now is      526.3 secs

     End of self-consistent calculation

          k = 0.0000 0.0000 0.0000 (  5267 PWs)   bands (ev):

   -46.6597 -46.6586 -22.9133 -22.8677 -22.8676 -22.8673 -22.8657 -22.8657
   -14.7942 -14.6899  -6.9732  -6.7871  -6.1082  -6.1077  -6.0767  -5.8492
     0.0389   0.0390   0.0390   0.1938   0.1938   0.4079   6.1173   7.3234
     7.3235   7.7311   7.7312   7.7312   8.1263   8.2049   8.2377   8.2383
     8.9694   8.9701   8.9703   9.3279   9.3287   9.8725   9.8729   9.8739
    11.7557  11.7561  11.7577  11.8970  13.4179  13.4179  13.8033  13.8056

          k = 0.2857 0.0000 0.0000 (  5307 PWs)   bands (ev):

   -46.6595 -46.6584 -22.9128 -22.8763 -22.8742 -22.8673 -22.8670 -22.8654
   -14.7750 -14.6772  -6.8842  -6.7939  -6.1019  -6.0948  -6.0626  -5.8890
     0.0669   0.0670   0.1099   0.1499   0.2274   0.3245   6.0835   7.2283
     7.2918   7.3398   7.4168   7.6819   7.6820   8.0805   8.3746   8.7539
     8.7539   8.8032   9.0512   9.0585   9.0822   9.3959   9.7353   9.7359
    11.7812  12.1402  12.1411  12.2373  13.4191  13.4460  13.8045  14.1500

          k = 0.5714 0.0000 0.0000 (  5327 PWs)   bands (ev):

   -46.6591 -46.6580 -22.9116 -22.8958 -22.8933 -22.8666 -22.8662 -22.8647
   -14.7311 -14.6484  -6.8658  -6.6662  -6.0886  -6.0431  -5.9965  -5.9793
     0.0636   0.1317   0.1318   0.1475   0.2666   0.3054   6.0044   6.5665
     6.7261   6.7288   7.3855   7.5242   7.5247   7.7431   8.4176   8.4183
     8.4717   8.6297   8.6599   8.7908   8.9618   9.5039   9.5040   9.6623
    11.8397  12.8486  12.8490  12.8896  13.4229  13.5930  13.8067  14.5081

          k = 0.8571 0.0000 0.0000 (  5310 PWs)   bands (ev):

   -46.6589 -46.6578 -22.9113 -22.9107 -22.9085 -22.8660 -22.8656 -22.8641
   -14.6952 -14.6249  -6.9580  -6.4560  -6.0779  -6.0566  -6.0527  -5.8707
     0.0055   0.0159   0.1857   0.1858   0.3708   0.3901   5.8509   6.1633
     6.1932   6.3135   7.3506   7.3516   7.4376   7.4859   8.1866   8.2380
     8.2549   8.2557   8.3541   9.1107   9.1258   9.3508   9.3509   9.9285
    11.8880  13.3476  13.3480  13.3607  13.4267  13.7980  13.8084  14.6129

          k = 0.2857-0.2857 0.0000 (  5292 PWs)   bands (ev):

   -46.6593 -46.6582 -22.9123 -22.8761 -22.8758 -22.8740 -22.8738 -22.8667
   -14.7569 -14.6648  -6.7950  -6.7801  -6.1012  -6.0865  -6.0459  -5.9150
     0.0248   0.0332   0.0960   0.2026   0.2339   0.2843   6.0577   7.1015
     7.2062   7.2327   7.3114   7.5169   7.6499   7.7409   8.3121   8.5590
     8.6097   8.9896   9.0109   9.0495   9.0541   9.1094   9.5682   9.5969
    12.1099  12.2035  12.3633  12.4954  13.4633  13.4646  14.0580  14.5908

          k = 0.5714-0.2857 0.0000 (  5312 PWs)   bands (ev):

   -46.6590 -46.6579 -22.9112 -22.8954 -22.8929 -22.8751 -22.8732 -22.8659
   -14.7158 -14.6367  -6.8069  -6.5766  -6.0813  -6.0198  -6.0177  -5.9760
    -0.0956   0.0409   0.0668   0.1631   0.2588   0.2965   5.9963   6.6538
     6.6799   6.7441   7.3105   7.3423   7.5272   7.6605   7.7772   8.1729
     8.2408   8.6102   8.9657   9.0633   9.0955   9.2905   9.4104   9.6461
    12.1929  12.8589  12.9153  13.0445  13.5016  13.6293  14.1398  15.0866

          k = 0.8571-0.2857 0.0000 (  5300 PWs)   bands (ev):

   -46.6587 -46.6576 -22.9108 -22.9102 -22.9081 -22.8745 -22.8726 -22.8653
   -14.6822 -14.6138  -6.8723  -6.3652  -6.0646  -6.0280  -6.0271  -5.9086
    -0.1249  -0.1033   0.1358   0.1772   0.2190   0.3249   5.8530   6.1562
     6.3163   6.4573   7.2165   7.3668   7.3707   7.4737   7.5397   7.8626
     8.0949   8.4020   8.9803   9.1077   9.1613   9.2423   9.2486   9.9381
    12.2309  13.3497  13.3772  13.4712  13.5299  13.8392  14.1491  15.2001

          k = 0.5714-0.5714 0.0000 (  5288 PWs)   bands (ev):

   -46.6586 -46.6575 -22.9101 -22.8946 -22.8941 -22.8922 -22.8920 -22.8652
   -14.6809 -14.6101  -6.7031  -6.3601  -6.0832  -6.0115  -5.9738  -5.9703
    -0.3248  -0.1873   0.0161   0.0474   0.2357   0.2675   5.9654   6.4242
     6.7339   6.8562   6.8798   6.9028   7.1032   7.5102   7.6120   7.7711
     7.9027   8.5677   8.9250   9.0664   9.2983   9.5483   9.6014   9.6967
    12.8153  12.9282  13.2015  13.4160  13.7091  13.7156  14.4279  16.0517

          k = 0.8571-0.5714 0.0000 (  5280 PWs)   bands (ev):

   -46.6583 -46.6572 -22.9097 -22.9093 -22.9072 -22.8935 -22.8914 -22.8646
   -14.6526 -14.5886  -6.6668  -6.1520  -6.0517  -5.9845  -5.9678  -5.9619
    -0.3990  -0.3607  -0.2116   0.0448   0.1754   0.2963   5.8296   6.0680
     6.3227   6.6159   6.7498   6.8584   7.0650   7.4105   7.6093   7.6290
     7.7517   8.6830   8.7278   9.0092   9.5744   9.6146   9.6600   9.9632
    12.8858  13.3557  13.5370  13.7390  13.7797  13.9344  14.5012  16.2848

          k = 0.8571-0.8571 0.0000 (  5288 PWs)   bands (ev):

   -46.6581 -46.6570 -22.9088 -22.9087 -22.9086 -22.9065 -22.9065 -22.8641
   -14.6285 -14.5682  -6.4838  -6.0667  -6.0328  -5.9655  -5.9184  -5.9126
    -0.5803  -0.5588  -0.5136   0.0000   0.0455   0.3610   5.6985   5.8965
     6.2181   6.3156   6.3481   6.3611   7.4500   7.4998   7.5127   7.6319
     7.6372   8.3946   9.0265   9.1435   9.9017   9.9174   9.9455   9.9982
    13.3499  13.3693  13.7585  13.9849  14.0126  14.0141  14.6038  16.7664

          k = 0.0000-0.0000 0.2500 (  5290 PWs)   bands (ev):

   -46.6596 -46.6587 -22.9066 -22.8741 -22.8674 -22.8674 -22.8660 -22.8659
   -14.7793 -14.7055  -6.9300  -6.7909  -6.1036  -6.0991  -6.0813  -5.9090
     0.0608   0.0608   0.0941   0.1702   0.1702   0.3549   6.3440   7.4042
     7.4043   7.4865   7.6938   7.6939   8.2947   8.2953   8.3016   8.3068
     8.7984   8.7991   8.8398   9.3907   9.3915   9.4905   9.7617   9.7623
    11.7773  11.8758  12.0604  12.0606  13.2088  13.2089  13.8052  13.8092

          k = 0.2857-0.0000 0.2500 (  5297 PWs)   bands (ev):

   -46.6594 -46.6585 -22.9061 -22.8761 -22.8745 -22.8737 -22.8671 -22.8656
   -14.7609 -14.6918  -6.8512  -6.7818  -6.1013  -6.0899  -6.0695  -5.9431
     0.0346   0.0895   0.1119   0.1881   0.2029   0.3213   6.2995   7.2311
     7.2812   7.4180   7.4927   7.5464   7.6580   8.1282   8.3776   8.4532
     8.6008   8.9530   8.9819   9.1510   9.1768   9.2546   9.6009   9.6155
    12.0588  12.1736  12.2209  12.3114  13.2129  13.2438  14.0300  14.1492

          k = 0.5714-0.0000 0.2500 (  5313 PWs)   bands (ev):

   -46.6591 -46.6581 -22.9050 -22.8955 -22.8936 -22.8729 -22.8663 -22.8649
   -14.7192 -14.6607  -6.8196  -6.6725  -6.0821  -6.0658  -6.0144  -5.9926
     0.0263   0.0773   0.1561   0.2118   0.2788   0.2938   6.1863   6.6701
     6.7054   6.8126   7.3584   7.4519   7.5272   7.7790   7.8637   8.2783
     8.6069   8.6522   8.7508   8.9422   9.0501   9.3336   9.4022   9.6525
    12.1190  12.8569  12.8783  12.8965  13.2243  13.4326  14.0829  14.4871

          k = 0.8571 0.0000 0.2500 (  5301 PWs)   bands (ev):

   -46.6588 -46.6578 -22.9110 -22.9089 -22.9041 -22.8723 -22.8657 -22.8643
   -14.6851 -14.6354  -6.8916  -6.5386  -6.0673  -6.0632  -6.0162  -5.9003
     0.0078   0.0859   0.1463   0.2116   0.3394   0.3423   5.9676   6.1640
     6.3297   6.4367   7.2585   7.3638   7.4420   7.4671   7.5661   8.1296
     8.3638   8.4749   8.9240   8.9338   9.1115   9.1579   9.1598   9.8448
    12.1588  13.2253  13.3496  13.3605  13.3682  13.6865  14.0875  14.5833

          k = 0.2857-0.2857 0.2500 (  5300 PWs)   bands (ev):

   -46.6593 -46.6583 -22.9057 -22.8759 -22.8756 -22.8743 -22.8741 -22.8734
   -14.7437 -14.6786  -6.7708  -6.7569  -6.0932  -6.0910  -6.0541  -5.9667
     0.0264   0.0325   0.0387   0.1230   0.2957   0.3669   6.2605   7.0753
     7.0904   7.3479   7.4676   7.4984   7.5239   7.7919   8.2571   8.2868
     8.5150   8.8085   9.0625   9.1336   9.1380   9.1895   9.5039   9.5137
    12.3012  12.3646  12.3946  12.4769  13.2610  13.2716  14.5007  14.5990

          k = 0.5714-0.2857 0.2500 (  5306 PWs)   bands (ev):

   -46.6589 -46.6580 -22.9046 -22.8951 -22.8932 -22.8749 -22.8734 -22.8726
   -14.7044 -14.6485  -6.7574  -6.5880  -6.0699  -6.0430  -6.0329  -5.9936
    -0.0747  -0.0026   0.0398   0.0653   0.3310   0.3769   6.1701   6.5914
     6.7073   6.8740   7.2178   7.4139   7.4269   7.6991   7.8154   7.9329
     8.1390   8.5207   9.0062   9.0966   9.2167   9.2701   9.3381   9.6234
    12.3891  12.9204  12.9396  13.0248  13.3136  13.4727  14.5194  15.0758

          k = 0.8571-0.2857 0.2500 (  5305 PWs)   bands (ev):

   -46.6586 -46.6577 -22.9105 -22.9085 -22.9037 -22.8743 -22.8728 -22.8719
   -14.6723 -14.6240  -6.8054  -6.4494  -6.0518  -6.0370  -5.9986  -5.9284
    -0.1111  -0.0682   0.0437   0.1912   0.2291   0.3313   5.9706   6.1329
     6.4367   6.5485   7.1084   7.3215   7.3509   7.4294   7.5867   7.7795
     7.9908   8.6316   8.9656   9.0796   9.0986   9.1106   9.2498   9.8430
    12.4326  13.3426  13.3843  13.3930  13.4601  13.7272  14.5081  15.1774

          k = 0.5714-0.5714 0.2500 (  5301 PWs)   bands (ev):

   -46.6585 -46.6576 -22.9036 -22.8943 -22.8938 -22.8925 -22.8922 -22.8718
   -14.6707 -14.6207  -6.6440  -6.3936  -6.0677  -6.0167  -5.9957  -5.9903
    -0.2751  -0.2183  -0.0341   0.0230   0.1716   0.3864   6.1414   6.3792
     6.6864   6.8580   6.8746   7.0803   7.0871   7.5175   7.6274   7.7051
     7.8155   8.2074   9.0368   9.2193   9.3275   9.4960   9.5598   9.6664
    12.9258  13.0117  13.2345  13.3863  13.5562  13.5674  14.8996  16.0720

          k = 0.8571-0.5714 0.2500 (  5281 PWs)   bands (ev):

   -46.6583 -46.6573 -22.9094 -22.9075 -22.9028 -22.8933 -22.8917 -22.8712
   -14.6433 -14.5981  -6.5987  -6.2390  -6.0334  -5.9833  -5.9779  -5.9593
    -0.3746  -0.3221  -0.0692  -0.0598   0.0474   0.2986   5.9532   6.0605
     6.4432   6.6647   6.7830   6.8242   7.0433   7.3881   7.6136   7.6611
     7.6845   8.2469   8.9750   9.1278   9.4760   9.5861   9.6431   9.8573
    13.0034  13.4184  13.5664  13.6328  13.7096  13.8209  14.9627  16.2850

          k = 0.8571-0.8571 0.2500 (  5273 PWs)   bands (ev):

   -46.6580 -46.6570 -22.9085 -22.9084 -22.9068 -22.9067 -22.9021 -22.8706
   -14.6197 -14.5771  -6.4139  -6.0528  -6.0452  -6.0147  -5.9363  -5.9290
    -0.5157  -0.4986  -0.3616  -0.0888  -0.0684   0.2324   5.8052   5.8995
     6.3495   6.3580   6.4281   6.4708   7.3517   7.4684   7.5388   7.6276
     7.6294   8.0030   9.1382   9.2407   9.7887   9.8150   9.9060   9.9491
    13.4338  13.4513  13.7904  13.8979  13.8994  13.9505  15.0702  16.7711

          k =-0.0000 0.0000-0.5000 (  5338 PWs)   bands (ev):

   -46.6595 -46.6588 -22.8907 -22.8901 -22.8671 -22.8670 -22.8663 -22.8663
   -14.7428 -14.7427  -6.8417  -6.8405  -6.0932  -6.0918  -6.0295  -6.0293
     0.1145   0.1145   0.1146   0.1146   0.2255   0.2257   6.9058   6.9060
     7.5720   7.5720   7.5731   7.5732   8.4855   8.4857   8.4899   8.4902
     8.5585   8.5597   8.8117   8.8126   9.5570   9.5577   9.5581   9.5589
    11.8254  11.8263  12.6746  12.6747  12.6752  12.6753  13.8068  13.8077

          k = 0.2857 0.0000-0.5000 (  5332 PWs)   bands (ev):

   -46.6593 -46.6586 -22.8903 -22.8897 -22.8757 -22.8749 -22.8667 -22.8660
   -14.7267 -14.7266  -6.7936  -6.7925  -6.0878  -6.0866  -6.0435  -6.0432
     0.0519   0.0519   0.1452   0.1453   0.2783   0.2784   6.8141   6.8142
     7.3559   7.3569   7.5672   7.5683   7.9098   7.9102   8.3085   8.3089
     8.7030   8.7037   8.9806   8.9808   9.3536   9.3546   9.4664   9.4666
    12.1806  12.1815  12.6888  12.6894  12.7665  12.7671  14.1324  14.1333

          k = 0.5714 0.0000-0.5000 (  5308 PWs)   bands (ev):

   -46.6589 -46.6582 -22.8950 -22.8942 -22.8893 -22.8887 -22.8660 -22.8652
   -14.6902 -14.6901  -6.7260  -6.7250  -6.0838  -6.0832  -6.0188  -6.0178
     0.0213   0.0213   0.2163   0.2164   0.2831   0.2832   6.5021   6.5027
     6.9756   6.9760   7.2636   7.2640   7.5206   7.5214   7.9801   7.9809
     8.5615   8.5619   9.0070   9.0078   9.0540   9.0541   9.5608   9.5613
    12.6851  12.6855  12.8866  12.8874  13.1104  13.1111  14.3850  14.3858

          k = 0.8571 0.0000-0.5000 (  5306 PWs)   bands (ev):

   -46.6587 -46.6580 -22.9103 -22.9095 -22.8885 -22.8880 -22.8654 -22.8647
   -14.6604 -14.6603  -6.7235  -6.7227  -6.0516  -6.0511  -5.9675  -5.9662
     0.0658   0.0659   0.2150   0.2151   0.2756   0.2757   6.0948   6.0958
     6.7644   6.7648   6.9073   6.9074   7.3980   7.3984   7.8385   7.8398
     8.6457   8.6467   8.7840   8.7848   8.9724   8.9731   9.5508   9.5513
    12.7229  12.7235  13.3539  13.3548  13.4822  13.4829  14.4427  14.4435

          k = 0.2857-0.2857-0.5000 (  5326 PWs)   bands (ev):

   -46.6591 -46.6584 -22.8898 -22.8893 -22.8754 -22.8752 -22.8747 -22.8744
   -14.7114 -14.7113  -6.7392  -6.7381  -6.0745  -6.0731  -6.0585  -6.0583
     0.0297   0.0298   0.0358   0.0359   0.3802   0.3802   6.7064   6.7065
     7.2610   7.2617   7.4326   7.4337   7.9337   7.9339   7.9657   7.9661
     8.4671   8.4679   9.1592   9.1593   9.3196   9.3204   9.3859   9.3861
    12.4286  12.4295  12.7934  12.7940  12.8022  12.8028  14.6087  14.6096

          k = 0.5714-0.2857-0.5000 (  5304 PWs)   bands (ev):

   -46.6588 -46.6581 -22.8946 -22.8938 -22.8889 -22.8883 -22.8745 -22.8738
   -14.6767 -14.6766  -6.6537  -6.6528  -6.0650  -6.0644  -6.0283  -6.0272
    -0.0364  -0.0364   0.0026   0.0026   0.4041   0.4042   6.4305   6.4311
     6.9592   6.9597   7.1845   7.1848   7.5554   7.5556   7.8340   7.8348
     8.1460   8.1463   9.1168   9.1172   9.2488   9.2491   9.4979   9.4984
    12.8438  12.8443  12.9947  12.9956  13.1518  13.1524  14.9726  14.9734

          k = 0.8571-0.2857-0.5000 (  5292 PWs)   bands (ev):

   -46.6585 -46.6578 -22.9098 -22.9091 -22.8882 -22.8876 -22.8739 -22.8731
   -14.6483 -14.6482  -6.6360  -6.6353  -6.0299  -6.0294  -5.9730  -5.9717
    -0.0682  -0.0681   0.0625   0.0626   0.3072   0.3073   6.0796   6.0807
     6.7718   6.7719   6.9502   6.9503   7.3490   7.3496   7.6957   7.6966
     8.2419   8.2422   9.0103   9.0105   9.1265   9.1271   9.5224   9.5230
    12.8965  12.8971  13.4266  13.4275  13.5173  13.5180  15.0058  15.0066

          k = 0.5714-0.5714-0.5000 (  5290 PWs)   bands (ev):

   -46.6584 -46.6577 -22.8938 -22.8934 -22.8931 -22.8926 -22.8880 -22.8875
   -14.6459 -14.6458  -6.5074  -6.5067  -6.0303  -6.0290  -6.0205  -6.0200
    -0.1627  -0.1626  -0.1544  -0.1543   0.3432   0.3432   6.3067   6.3074
     6.8644   6.8656   6.9652   6.9655   7.3430   7.3436   7.6867   7.6870
     7.7023   7.7024   9.3035   9.3041   9.3854   9.3858   9.5509   9.5515
    13.2304  13.2311  13.2497  13.2505  13.3115  13.3124  15.8400  15.8405

          k = 0.8571-0.5714-0.5000 (  5278 PWs)   bands (ev):

   -46.6581 -46.6574 -22.9088 -22.9080 -22.8929 -22.8921 -22.8873 -22.8868
   -14.6209 -14.6208  -6.4272  -6.4266  -5.9919  -5.9909  -5.9814  -5.9804
    -0.2621  -0.2620  -0.1491  -0.1489   0.1588   0.1588   6.0423   6.0434
     6.7133   6.7141   6.9005   6.9012   7.0379   7.0381   7.6215   7.6215
     7.8033   7.8037   9.2344   9.2349   9.4655   9.4657   9.6460   9.6471
    13.3061  13.3068  13.5944  13.5951  13.6378  13.6387  15.8534  15.8540

          k = 0.8571-0.8571-0.5000 (  5276 PWs)   bands (ev):

   -46.6579 -46.6572 -22.9080 -22.9080 -22.9073 -22.9072 -22.8867 -22.8861
   -14.5986 -14.5985  -6.2392  -6.2389  -5.9926  -5.9913  -5.9714  -5.9703
    -0.3165  -0.3164  -0.2972  -0.2971  -0.0637  -0.0636   5.8914   5.8926
     6.3531   6.3542   6.8924   6.8933   7.0717   7.0719   7.5996   7.6003
     7.6459   7.6463   9.4378   9.4382   9.5092   9.5096   9.9206   9.9220
    13.6520  13.6528  13.6606  13.6613  13.8687  13.8696  16.0294  16.0299

          k = 0.0000 0.2857-0.0000 (  5307 PWs)   bands (ev):

   -46.6595 -46.6584 -22.9128 -22.8763 -22.8742 -22.8673 -22.8670 -22.8654
   -14.7750 -14.6772  -6.8842  -6.7939  -6.1019  -6.0948  -6.0626  -5.8890
     0.0669   0.0670   0.1099   0.1499   0.2274   0.3245   6.0835   7.2283
     7.2918   7.3398   7.4168   7.6819   7.6820   8.0805   8.3746   8.7539
     8.7540   8.8032   9.0512   9.0585   9.0822   9.3959   9.7354   9.7359
    11.7813  12.1402  12.1411  12.2373  13.4191  13.4460  13.8046  14.1501

          k = 0.0000 0.5714-0.0000 (  5327 PWs)   bands (ev):

   -46.6591 -46.6580 -22.9116 -22.8958 -22.8933 -22.8666 -22.8662 -22.8647
   -14.7311 -14.6484  -6.8658  -6.6662  -6.0886  -6.0431  -5.9965  -5.9793
     0.0636   0.1317   0.1318   0.1475   0.2666   0.3054   6.0044   6.5665
     6.7262   6.7288   7.3855   7.5242   7.5247   7.7430   8.4176   8.4183
     8.4717   8.6294   8.6602   8.7907   8.9618   9.5039   9.5040   9.6623
    11.8397  12.8486  12.8490  12.8896  13.4229  13.5929  13.8068  14.5081

          k = 0.0000 0.8571-0.0000 (  5310 PWs)   bands (ev):

   -46.6589 -46.6578 -22.9113 -22.9107 -22.9085 -22.8660 -22.8656 -22.8641
   -14.6952 -14.6249  -6.9580  -6.4560  -6.0779  -6.0566  -6.0527  -5.8707
     0.0054   0.0159   0.1857   0.1858   0.3708   0.3901   5.8509   6.1633
     6.1932   6.3135   7.3506   7.3517   7.4376   7.4859   8.1866   8.2379
     8.2549   8.2557   8.3541   9.1106   9.1258   9.3508   9.3509   9.9285
    11.8881  13.3476  13.3480  13.3607  13.4267  13.7979  13.8084  14.6129

          k =-0.2857-0.2857 0.0000 (  5292 PWs)   bands (ev):

   -46.6593 -46.6582 -22.9123 -22.8762 -22.8757 -22.8740 -22.8738 -22.8667
   -14.7569 -14.6648  -6.7950  -6.7801  -6.1012  -6.0865  -6.0459  -5.9150
     0.0248   0.0332   0.0960   0.2025   0.2340   0.2843   6.0577   7.1016
     7.2056   7.2337   7.3113   7.5169   7.6499   7.7407   8.3123   8.5585
     8.6098   8.9893   9.0127   9.0482   9.0591   9.1039   9.5682   9.5962
    12.1095  12.2039  12.3638  12.4960  13.4634  13.4645  14.0581  14.5896

          k =-0.5714-0.2857-0.0000 (  5312 PWs)   bands (ev):

   -46.6590 -46.6579 -22.9112 -22.8954 -22.8929 -22.8751 -22.8732 -22.8659
   -14.7158 -14.6367  -6.8069  -6.5766  -6.0813  -6.0199  -6.0176  -5.9760
    -0.0955   0.0410   0.0668   0.1631   0.2588   0.2965   5.9963   6.6539
     6.6800   6.7444   7.3107   7.3424   7.5272   7.6605   7.7773   8.1721
     8.2405   8.6103   8.9658   9.0632   9.0956   9.2907   9.4098   9.6461
    12.1928  12.8589  12.9156  13.0449  13.5017  13.6294  14.1398  15.0865

          k =-0.2857 0.5714-0.0000 (  5312 PWs)   bands (ev):

   -46.6590 -46.6579 -22.9112 -22.8954 -22.8929 -22.8752 -22.8732 -22.8659
   -14.7158 -14.6367  -6.8069  -6.5766  -6.0813  -6.0198  -6.0176  -5.9760
    -0.0956   0.0409   0.0668   0.1631   0.2588   0.2965   5.9963   6.6538
     6.6799   6.7441   7.3105   7.3423   7.5272   7.6605   7.7772   8.1728
     8.2408   8.6102   8.9657   9.0633   9.0954   9.2906   9.4104   9.6461
    12.1929  12.8589  12.9153  13.0445  13.5016  13.6293  14.1398  15.0867

          k =-0.2857-0.5714 0.0000 (  5312 PWs)   bands (ev):

   -46.6590 -46.6579 -22.9112 -22.8954 -22.8929 -22.8752 -22.8732 -22.8659
   -14.7158 -14.6367  -6.8069  -6.5766  -6.0813  -6.0199  -6.0176  -5.9760
    -0.0955   0.0410   0.0668   0.1631   0.2588   0.2965   5.9963   6.6539
     6.6800   6.7444   7.3107   7.3424   7.5272   7.6605   7.7773   8.1721
     8.2405   8.6103   8.9658   9.0632   9.0955   9.2907   9.4098   9.6461
    12.1928  12.8589  12.9156  13.0449  13.5017  13.6293  14.1398  15.0865

          k =-0.8571-0.2857-0.0000 (  5300 PWs)   bands (ev):

   -46.6587 -46.6576 -22.9108 -22.9102 -22.9081 -22.8745 -22.8726 -22.8653
   -14.6822 -14.6138  -6.8723  -6.3652  -6.0646  -6.0280  -6.0271  -5.9086
    -0.1249  -0.1033   0.1358   0.1772   0.2190   0.3248   5.8530   6.1563
     6.3163   6.4573   7.2169   7.3668   7.3695   7.4749   7.5398   7.8620
     8.0948   8.4020   8.9805   9.1077   9.1619   9.2414   9.2487   9.9381
    12.2308  13.3497  13.3773  13.4714  13.5299  13.8392  14.1491  15.2000

          k =-0.2857 0.8571-0.0000 (  5300 PWs)   bands (ev):

   -46.6587 -46.6576 -22.9108 -22.9102 -22.9081 -22.8745 -22.8726 -22.8653
   -14.6822 -14.6138  -6.8723  -6.3652  -6.0646  -6.0279  -6.0271  -5.9086
    -0.1249  -0.1033   0.1358   0.1772   0.2190   0.3248   5.8530   6.1562
     6.3163   6.4573   7.2166   7.3667   7.3707   7.4737   7.5397   7.8626
     8.0949   8.4020   8.9803   9.1077   9.1613   9.2423   9.2486   9.9381
    12.2309  13.3497  13.3772  13.4712  13.5299  13.8391  14.1491  15.2001

          k =-0.2857-0.8571 0.0000 (  5300 PWs)   bands (ev):

   -46.6587 -46.6576 -22.9108 -22.9102 -22.9081 -22.8745 -22.8726 -22.8653
   -14.6822 -14.6138  -6.8723  -6.3652  -6.0646  -6.0280  -6.0271  -5.9086
    -0.1249  -0.1033   0.1358   0.1772   0.2190   0.3248   5.8530   6.1563
     6.3163   6.4573   7.2169   7.3667   7.3695   7.4749   7.5398   7.8620
     8.0948   8.4020   8.9805   9.1077   9.1619   9.2414   9.2487   9.9381
    12.2308  13.3497  13.3773  13.4713  13.5299  13.8392  14.1491  15.2000

          k =-0.5714-0.5714 0.0000 (  5288 PWs)   bands (ev):

   -46.6586 -46.6575 -22.9101 -22.8947 -22.8940 -22.8923 -22.8919 -22.8652
   -14.6809 -14.6101  -6.7031  -6.3601  -6.0832  -6.0115  -5.9738  -5.9703
    -0.3248  -0.1873   0.0161   0.0474   0.2357   0.2675   5.9654   6.4245
     6.7343   6.8573   6.8796   6.9029   7.1017   7.5103   7.6118   7.7707
     7.9025   8.5678   8.9250   9.0665   9.2981   9.5484   9.6011   9.6967
    12.8148  12.9286  13.2016  13.4163  13.7093  13.7155  14.4280  16.0514

          k =-0.8571-0.5714-0.0000 (  5280 PWs)   bands (ev):

   -46.6583 -46.6572 -22.9097 -22.9093 -22.9072 -22.8935 -22.8914 -22.8646
   -14.6526 -14.5886  -6.6668  -6.1520  -6.0517  -5.9845  -5.9678  -5.9619
    -0.3990  -0.3607  -0.2116   0.0448   0.1754   0.2963   5.8296   6.0681
     6.3228   6.6162   6.7495   6.8581   7.0651   7.4105   7.6093   7.6289
     7.7515   8.6830   8.7277   9.0093   9.5744   9.6146   9.6598   9.9632
    12.8857  13.3557  13.5370  13.7391  13.7797  13.9344  14.5012  16.2848

          k =-0.5714 0.8571-0.0000 (  5280 PWs)   bands (ev):

   -46.6583 -46.6572 -22.9097 -22.9093 -22.9072 -22.8935 -22.8914 -22.8646
   -14.6526 -14.5886  -6.6668  -6.1521  -6.0518  -5.9845  -5.9678  -5.9619
    -0.3990  -0.3607  -0.2116   0.0448   0.1754   0.2963   5.8296   6.0680
     6.3227   6.6159   6.7498   6.8584   7.0650   7.4105   7.6093   7.6290
     7.7517   8.6830   8.7278   9.0092   9.5744   9.6146   9.6600   9.9632
    12.8858  13.3557  13.5370  13.7390  13.7797  13.9343  14.5012  16.2848

          k =-0.5714-0.8571 0.0000 (  5280 PWs)   bands (ev):

   -46.6583 -46.6572 -22.9097 -22.9093 -22.9072 -22.8935 -22.8914 -22.8646
   -14.6526 -14.5886  -6.6668  -6.1521  -6.0517  -5.9845  -5.9678  -5.9619
    -0.3990  -0.3607  -0.2116   0.0448   0.1754   0.2963   5.8296   6.0681
     6.3228   6.6162   6.7495   6.8581   7.0651   7.4104   7.6093   7.6289
     7.7515   8.6830   8.7277   9.0093   9.5744   9.6146   9.6598   9.9632
    12.8857  13.3557  13.5370  13.7391  13.7797  13.9344  14.5012  16.2848

          k =-0.8571-0.8571 0.0000 (  5288 PWs)   bands (ev):

   -46.6581 -46.6570 -22.9088 -22.9087 -22.9086 -22.9065 -22.9064 -22.8641
   -14.6285 -14.5682  -6.4838  -6.0667  -6.0328  -5.9654  -5.9184  -5.9126
    -0.5803  -0.5588  -0.5136   0.0000   0.0455   0.3610   5.6986   5.8966
     6.2184   6.3156   6.3480   6.3607   7.4501   7.5005   7.5120   7.6318
     7.6372   8.3946   9.0265   9.1435   9.9016   9.9174   9.9454   9.9982
    13.3494  13.3697  13.7584  13.9849  14.0124  14.0143  14.6038  16.7647

          k = 0.2857 0.0000-0.2500 (  5297 PWs)   bands (ev):

   -46.6594 -46.6585 -22.9061 -22.8761 -22.8745 -22.8737 -22.8671 -22.8656
   -14.7609 -14.6918  -6.8512  -6.7818  -6.1013  -6.0899  -6.0695  -5.9431
     0.0346   0.0895   0.1119   0.1881   0.2029   0.3213   6.2995   7.2311
     7.2812   7.4180   7.4927   7.5464   7.6580   8.1282   8.3776   8.4532
     8.6008   8.9531   8.9819   9.1510   9.1768   9.2546   9.6009   9.6155
    12.0588  12.1736  12.2209  12.3114  13.2129  13.2438  14.0300  14.1492

          k =-0.0000 0.2857-0.2500 (  5297 PWs)   bands (ev):

   -46.6594 -46.6585 -22.9061 -22.8761 -22.8745 -22.8737 -22.8671 -22.8656
   -14.7609 -14.6918  -6.8512  -6.7818  -6.1013  -6.0899  -6.0695  -5.9431
     0.0346   0.0895   0.1119   0.1881   0.2029   0.3213   6.2995   7.2311
     7.2812   7.4180   7.4928   7.5464   7.6580   8.1282   8.3776   8.4531
     8.6008   8.9531   8.9819   9.1508   9.1770   9.2545   9.6009   9.6155
    12.0589  12.1736  12.2209  12.3114  13.2130  13.2438  14.0300  14.1492

          k =-0.0000-0.2857-0.2500 (  5297 PWs)   bands (ev):

   -46.6594 -46.6585 -22.9061 -22.8761 -22.8745 -22.8737 -22.8671 -22.8656
   -14.7609 -14.6918  -6.8512  -6.7818  -6.1013  -6.0899  -6.0695  -5.9431
     0.0346   0.0895   0.1119   0.1881   0.2029   0.3213   6.2995   7.2311
     7.2812   7.4180   7.4927   7.5464   7.6580   8.1282   8.3776   8.4531
     8.6008   8.9531   8.9819   9.1508   9.1770   9.2546   9.6009   9.6155
    12.0589  12.1736  12.2209  12.3114  13.2130  13.2438  14.0300  14.1492

          k = 0.5714 0.0000-0.2500 (  5313 PWs)   bands (ev):

   -46.6591 -46.6581 -22.9050 -22.8955 -22.8936 -22.8729 -22.8663 -22.8649
   -14.7192 -14.6607  -6.8196  -6.6725  -6.0821  -6.0658  -6.0144  -5.9926
     0.0263   0.0773   0.1561   0.2118   0.2788   0.2938   6.1863   6.6701
     6.7054   6.8126   7.3584   7.4519   7.5272   7.7790   7.8637   8.2783
     8.6069   8.6522   8.7508   8.9422   9.0501   9.3336   9.4022   9.6525
    12.1190  12.8569  12.8783  12.8965  13.2243  13.4326  14.0829  14.4871

          k =-0.0000 0.5714-0.2500 (  5313 PWs)   bands (ev):

   -46.6591 -46.6581 -22.9050 -22.8955 -22.8936 -22.8729 -22.8663 -22.8649
   -14.7192 -14.6607  -6.8196  -6.6725  -6.0821  -6.0658  -6.0144  -5.9926
     0.0263   0.0773   0.1561   0.2118   0.2788   0.2938   6.1863   6.6702
     6.7054   6.8126   7.3584   7.4519   7.5272   7.7790   7.8638   8.2783
     8.6068   8.6522   8.7509   8.9422   9.0501   9.3336   9.4022   9.6525
    12.1191  12.8569  12.8783  12.8965  13.2243  13.4326  14.0829  14.4871

          k =-0.0000-0.5714-0.2500 (  5313 PWs)   bands (ev):

   -46.6591 -46.6581 -22.9050 -22.8955 -22.8936 -22.8729 -22.8663 -22.8649
   -14.7192 -14.6607  -6.8196  -6.6725  -6.0821  -6.0658  -6.0144  -5.9926
     0.0263   0.0773   0.1561   0.2118   0.2788   0.2938   6.1863   6.6702
     6.7054   6.8126   7.3584   7.4519   7.5272   7.7790   7.8638   8.2783
     8.6068   8.6522   8.7509   8.9422   9.0501   9.3336   9.4022   9.6525
    12.1191  12.8569  12.8783  12.8965  13.2243  13.4326  14.0829  14.4871

          k = 0.8571 0.0000-0.2500 (  5301 PWs)   bands (ev):

   -46.6588 -46.6578 -22.9110 -22.9089 -22.9041 -22.8723 -22.8657 -22.8643
   -14.6851 -14.6354  -6.8916  -6.5386  -6.0673  -6.0632  -6.0162  -5.9003
     0.0078   0.0859   0.1463   0.2116   0.3394   0.3423   5.9676   6.1640
     6.3297   6.4367   7.2585   7.3638   7.4420   7.4671   7.5661   8.1296
     8.3638   8.4749   8.9240   8.9338   9.1115   9.1579   9.1598   9.8448
    12.1588  13.2253  13.3496  13.3605  13.3682  13.6865  14.0875  14.5833

          k = 0.0000 0.8571-0.2500 (  5301 PWs)   bands (ev):

   -46.6588 -46.6578 -22.9110 -22.9089 -22.9041 -22.8723 -22.8658 -22.8643
   -14.6851 -14.6354  -6.8916  -6.5387  -6.0673  -6.0632  -6.0162  -5.9003
     0.0078   0.0859   0.1463   0.2116   0.3394   0.3423   5.9676   6.1640
     6.3297   6.4367   7.2585   7.3638   7.4419   7.4671   7.5661   8.1296
     8.3638   8.4749   8.9240   8.9338   9.1114   9.1579   9.1599   9.8448
    12.1588  13.2254  13.3496  13.3605  13.3682  13.6865  14.0875  14.5833

          k =-0.0000-0.8571-0.2500 (  5301 PWs)   bands (ev):

   -46.6588 -46.6578 -22.9110 -22.9089 -22.9041 -22.8723 -22.8658 -22.8643
   -14.6851 -14.6354  -6.8916  -6.5387  -6.0673  -6.0632  -6.0162  -5.9003
     0.0078   0.0859   0.1463   0.2116   0.3394   0.3423   5.9676   6.1640
     6.3297   6.4367   7.2585   7.3638   7.4419   7.4671   7.5661   8.1296
     8.3638   8.4749   8.9240   8.9338   9.1114   9.1579   9.1599   9.8448
    12.1588  13.2254  13.3496  13.3605  13.3682  13.6865  14.0875  14.5833

          k =-0.2857-0.2857-0.2500 (  5300 PWs)   bands (ev):

   -46.6593 -46.6583 -22.9057 -22.8759 -22.8755 -22.8743 -22.8740 -22.8734
   -14.7437 -14.6786  -6.7708  -6.7569  -6.0932  -6.0910  -6.0541  -5.9667
     0.0266   0.0326   0.0385   0.1230   0.2957   0.3668   6.2605   7.0754
     7.0906   7.3480   7.4678   7.4976   7.5247   7.7918   8.2569   8.2870
     8.5140   8.8102   9.0614   9.1355   9.1384   9.1871   9.5036   9.5128
    12.3011  12.3650  12.3950  12.4775  13.2611  13.2715  14.5009  14.5976

          k = 0.2857 0.2857-0.2500 (  5300 PWs)   bands (ev):

   -46.6593 -46.6583 -22.9057 -22.8759 -22.8755 -22.8743 -22.8740 -22.8734
   -14.7437 -14.6786  -6.7708  -6.7569  -6.0932  -6.0910  -6.0541  -5.9667
     0.0266   0.0326   0.0385   0.1230   0.2957   0.3668   6.2605   7.0754
     7.0906   7.3480   7.4678   7.4976   7.5247   7.7918   8.2569   8.2870
     8.5140   8.8102   9.0614   9.1356   9.1384   9.1871   9.5036   9.5128
    12.3011  12.3650  12.3950  12.4775  13.2611  13.2715  14.5009  14.6013

          k = 0.2857-0.2857-0.2500 (  5300 PWs)   bands (ev):

   -46.6593 -46.6583 -22.9057 -22.8759 -22.8756 -22.8743 -22.8741 -22.8734
   -14.7437 -14.6786  -6.7708  -6.7569  -6.0932  -6.0910  -6.0541  -5.9667
     0.0264   0.0325   0.0387   0.1230   0.2957   0.3669   6.2605   7.0753
     7.0904   7.3479   7.4676   7.4984   7.5239   7.7919   8.2571   8.2868
     8.5150   8.8085   9.0625   9.1337   9.1380   9.1894   9.5039   9.5137
    12.3012  12.3646  12.3946  12.4769  13.2610  13.2716  14.5007  14.5981

          k =-0.5714-0.2857-0.2500 (  5306 PWs)   bands (ev):

   -46.6589 -46.6580 -22.9046 -22.8951 -22.8932 -22.8749 -22.8734 -22.8726
   -14.7044 -14.6485  -6.7574  -6.5880  -6.0699  -6.0430  -6.0329  -5.9936
    -0.0747  -0.0025   0.0398   0.0653   0.3310   0.3769   6.1702   6.5916
     6.7073   6.8742   7.2179   7.4130   7.4280   7.6993   7.8153   7.9326
     8.1385   8.5208   9.0060   9.0968   9.2168   9.2701   9.3373   9.6234
    12.3891  12.9205  12.9400  13.0252  13.3136  13.4727  14.5193  15.0757

          k = 0.5714 0.2857-0.2500 (  5306 PWs)   bands (ev):

   -46.6589 -46.6580 -22.9046 -22.8951 -22.8932 -22.8749 -22.8734 -22.8726
   -14.7044 -14.6485  -6.7574  -6.5880  -6.0699  -6.0430  -6.0329  -5.9936
    -0.0747  -0.0025   0.0398   0.0653   0.3310   0.3769   6.1702   6.5916
     6.7073   6.8742   7.2180   7.4130   7.4280   7.6993   7.8153   7.9326
     8.1385   8.5208   9.0060   9.0968   9.2168   9.2701   9.3373   9.6234
    12.3891  12.9205  12.9400  13.0252  13.3136  13.4727  14.5193  15.0757

          k =-0.2857 0.5714-0.2500 (  5306 PWs)   bands (ev):

   -46.6589 -46.6580 -22.9046 -22.8950 -22.8932 -22.8749 -22.8734 -22.8726
   -14.7044 -14.6485  -6.7574  -6.5880  -6.0699  -6.0430  -6.0329  -5.9936
    -0.0747  -0.0026   0.0398   0.0653   0.3310   0.3769   6.1701   6.5914
     6.7073   6.8740   7.2178   7.4139   7.4269   7.6991   7.8155   7.9329
     8.1390   8.5207   9.0062   9.0966   9.2166   9.2701   9.3381   9.6234
    12.3892  12.9204  12.9396  13.0248  13.3136  13.4727  14.5194  15.0758

          k = 0.2857-0.5714-0.2500 (  5306 PWs)   bands (ev):

   -46.6589 -46.6580 -22.9046 -22.8950 -22.8932 -22.8749 -22.8734 -22.8726
   -14.7044 -14.6485  -6.7574  -6.5880  -6.0699  -6.0430  -6.0329  -5.9936
    -0.0747  -0.0026   0.0398   0.0653   0.3310   0.3769   6.1701   6.5914
     6.7073   6.8740   7.2178   7.4139   7.4269   7.6991   7.8154   7.9329
     8.1390   8.5207   9.0062   9.0966   9.2166   9.2701   9.3381   9.6234
    12.3892  12.9204  12.9396  13.0248  13.3136  13.4727  14.5194  15.0758

          k =-0.2857-0.5714 0.2500 (  5306 PWs)   bands (ev):

   -46.6589 -46.6580 -22.9046 -22.8950 -22.8932 -22.8749 -22.8734 -22.8726
   -14.7044 -14.6485  -6.7574  -6.5880  -6.0699  -6.0430  -6.0329  -5.9936
    -0.0747  -0.0025   0.0398   0.0653   0.3310   0.3769   6.1702   6.5916
     6.7073   6.8742   7.2180   7.4130   7.4280   7.6993   7.8153   7.9326
     8.1385   8.5208   9.0060   9.0968   9.2168   9.2701   9.3373   9.6234
    12.3891  12.9204  12.9400  13.0252  13.3136  13.4727  14.5193  15.0757

          k = 0.2857 0.5714 0.2500 (  5306 PWs)   bands (ev):

   -46.6589 -46.6580 -22.9046 -22.8950 -22.8932 -22.8749 -22.8734 -22.8726
   -14.7044 -14.6485  -6.7574  -6.5880  -6.0699  -6.0430  -6.0329  -5.9936
    -0.0747  -0.0025   0.0398   0.0653   0.3310   0.3769   6.1702   6.5916
     6.7073   6.8742   7.2180   7.4130   7.4280   7.6993   7.8153   7.9326
     8.1385   8.5208   9.0060   9.0968   9.2168   9.2701   9.3373   9.6234
    12.3891  12.9204  12.9400  13.0252  13.3136  13.4727  14.5193  15.0757

          k =-0.5714 0.2857 0.2500 (  5306 PWs)   bands (ev):

   -46.6589 -46.6580 -22.9046 -22.8951 -22.8932 -22.8749 -22.8734 -22.8726
   -14.7044 -14.6485  -6.7574  -6.5880  -6.0699  -6.0430  -6.0329  -5.9936
    -0.0747  -0.0026   0.0398   0.0653   0.3310   0.3769   6.1701   6.5914
     6.7073   6.8740   7.2178   7.4139   7.4269   7.6991   7.8155   7.9329
     8.1390   8.5207   9.0062   9.0966   9.2167   9.2701   9.3381   9.6234
    12.3891  12.9204  12.9396  13.0248  13.3136  13.4727  14.5194  15.0758

          k =-0.8571-0.2857-0.2500 (  5305 PWs)   bands (ev):

   -46.6586 -46.6577 -22.9105 -22.9085 -22.9037 -22.8743 -22.8728 -22.8719
   -14.6723 -14.6240  -6.8054  -6.4494  -6.0517  -6.0370  -5.9986  -5.9284
    -0.1111  -0.0682   0.0437   0.1912   0.2291   0.3313   5.9706   6.1330
     6.4367   6.5486   7.1086   7.3211   7.3508   7.4295   7.5869   7.7794
     7.9905   8.6316   8.9656   9.0796   9.1002   9.1089   9.2496   9.8430
    12.4325  13.3428  13.3841  13.3931  13.4603  13.7272  14.5080  15.1773

          k = 0.8571 0.2857-0.2500 (  5305 PWs)   bands (ev):

   -46.6586 -46.6577 -22.9105 -22.9085 -22.9037 -22.8743 -22.8728 -22.8719
   -14.6723 -14.6240  -6.8054  -6.4494  -6.0517  -6.0370  -5.9986  -5.9284
    -0.1111  -0.0682   0.0437   0.1912   0.2291   0.3313   5.9706   6.1330
     6.4367   6.5486   7.1086   7.3211   7.3508   7.4295   7.5869   7.7794
     7.9905   8.6316   8.9656   9.0796   9.1002   9.1089   9.2496   9.8430
    12.4325  13.3428  13.3841  13.3931  13.4603  13.7272  14.5080  15.1773

          k =-0.2857 0.8571-0.2500 (  5305 PWs)   bands (ev):

   -46.6586 -46.6577 -22.9105 -22.9084 -22.9037 -22.8743 -22.8728 -22.8719
   -14.6723 -14.6240  -6.8054  -6.4494  -6.0518  -6.0370  -5.9986  -5.9284
    -0.1111  -0.0682   0.0437   0.1912   0.2291   0.3313   5.9706   6.1329
     6.4367   6.5486   7.1084   7.3215   7.3509   7.4294   7.5867   7.7795
     7.9907   8.6316   8.9656   9.0796   9.0986   9.1106   9.2498   9.8430
    12.4326  13.3426  13.3843  13.3930  13.4601  13.7272  14.5081  15.1774

          k = 0.2857-0.8571-0.2500 (  5305 PWs)   bands (ev):

   -46.6586 -46.6577 -22.9105 -22.9084 -22.9037 -22.8743 -22.8728 -22.8719
   -14.6723 -14.6240  -6.8054  -6.4494  -6.0518  -6.0370  -5.9986  -5.9284
    -0.1111  -0.0682   0.0437   0.1912   0.2291   0.3313   5.9706   6.1329
     6.4367   6.5486   7.1084   7.3215   7.3509   7.4294   7.5867   7.7795
     7.9907   8.6316   8.9656   9.0796   9.0986   9.1106   9.2498   9.8430
    12.4326  13.3426  13.3843  13.3930  13.4601  13.7272  14.5081  15.1774

          k =-0.2857-0.8571 0.2500 (  5305 PWs)   bands (ev):

   -46.6586 -46.6577 -22.9105 -22.9084 -22.9037 -22.8743 -22.8728 -22.8719
   -14.6723 -14.6240  -6.8054  -6.4494  -6.0518  -6.0370  -5.9986  -5.9284
    -0.1111  -0.0682   0.0437   0.1912   0.2291   0.3313   5.9706   6.1330
     6.4367   6.5486   7.1086   7.3211   7.3508   7.4295   7.5870   7.7795
     7.9904   8.6316   8.9656   9.0796   9.1002   9.1089   9.2496   9.8430
    12.4326  13.3428  13.3841  13.3931  13.4602  13.7272  14.5080  15.1773

          k = 0.2857 0.8571 0.2500 (  5305 PWs)   bands (ev):

   -46.6586 -46.6577 -22.9105 -22.9084 -22.9037 -22.8743 -22.8728 -22.8719
   -14.6723 -14.6240  -6.8054  -6.4494  -6.0518  -6.0370  -5.9986  -5.9284
    -0.1111  -0.0682   0.0437   0.1912   0.2291   0.3313   5.9706   6.1330
     6.4367   6.5486   7.1086   7.3211   7.3508   7.4295   7.5869   7.7795
     7.9904   8.6316   8.9656   9.0796   9.1002   9.1089   9.2496   9.8430
    12.4326  13.3428  13.3841  13.3931  13.4602  13.7272  14.5080  15.1773

          k =-0.8571 0.2857 0.2500 (  5305 PWs)   bands (ev):

   -46.6586 -46.6577 -22.9105 -22.9085 -22.9037 -22.8743 -22.8728 -22.8719
   -14.6723 -14.6240  -6.8054  -6.4494  -6.0518  -6.0370  -5.9986  -5.9284
    -0.1111  -0.0682   0.0437   0.1912   0.2291   0.3313   5.9706   6.1329
     6.4367   6.5485   7.1084   7.3215   7.3509   7.4294   7.5867   7.7795
     7.9908   8.6316   8.9656   9.0796   9.0986   9.1106   9.2498   9.8430
    12.4326  13.3426  13.3843  13.3930  13.4601  13.7272  14.5081  15.1774

          k =-0.5714-0.5714-0.2500 (  5301 PWs)   bands (ev):

   -46.6585 -46.6576 -22.9036 -22.8944 -22.8938 -22.8926 -22.8922 -22.8718
   -14.6707 -14.6207  -6.6440  -6.3936  -6.0677  -6.0167  -5.9957  -5.9904
    -0.2751  -0.2183  -0.0341   0.0230   0.1716   0.3864   6.1414   6.3795
     6.6864   6.8591   6.8752   7.0771   7.0887   7.5175   7.6272   7.7053
     7.8149   8.2076   9.0368   9.2195   9.3272   9.4963   9.5593   9.6666
    12.9254  13.0121  13.2346  13.3866  13.5564  13.5673  14.8997  16.0718

          k = 0.5714 0.5714-0.2500 (  5301 PWs)   bands (ev):

   -46.6585 -46.6576 -22.9036 -22.8944 -22.8938 -22.8926 -22.8922 -22.8718
   -14.6707 -14.6207  -6.6440  -6.3936  -6.0677  -6.0167  -5.9957  -5.9904
    -0.2751  -0.2183  -0.0341   0.0230   0.1716   0.3864   6.1414   6.3795
     6.6864   6.8591   6.8752   7.0771   7.0886   7.5175   7.6272   7.7053
     7.8149   8.2076   9.0368   9.2195   9.3272   9.4963   9.5593   9.6666
    12.9254  13.0121  13.2346  13.3866  13.5564  13.5673  14.8997  16.0718

          k = 0.5714-0.5714-0.2500 (  5301 PWs)   bands (ev):

   -46.6585 -46.6576 -22.9036 -22.8943 -22.8938 -22.8925 -22.8922 -22.8718
   -14.6707 -14.6207  -6.6440  -6.3936  -6.0677  -6.0167  -5.9957  -5.9903
    -0.2751  -0.2183  -0.0341   0.0230   0.1716   0.3864   6.1414   6.3792
     6.6864   6.8580   6.8746   7.0803   7.0871   7.5175   7.6274   7.7051
     7.8155   8.2074   9.0368   9.2193   9.3275   9.4960   9.5598   9.6664
    12.9258  13.0117  13.2345  13.3863  13.5562  13.5674  14.8996  16.0720

          k =-0.8571-0.5714-0.2500 (  5281 PWs)   bands (ev):

   -46.6583 -46.6573 -22.9094 -22.9075 -22.9028 -22.8933 -22.8917 -22.8712
   -14.6433 -14.5981  -6.5987  -6.2390  -6.0334  -5.9833  -5.9779  -5.9593
    -0.3745  -0.3221  -0.0693  -0.0597   0.0474   0.2986   5.9532   6.0607
     6.4433   6.6651   6.7831   6.8235   7.0431   7.3881   7.6139   7.6611
     7.6841   8.2470   8.9749   9.1279   9.4760   9.5861   9.6430   9.8573
    13.0034  13.4185  13.5664  13.6328  13.7096  13.8209  14.9628  16.2850

          k = 0.8571 0.5714-0.2500 (  5281 PWs)   bands (ev):

   -46.6583 -46.6573 -22.9094 -22.9075 -22.9028 -22.8933 -22.8917 -22.8712
   -14.6433 -14.5981  -6.5987  -6.2390  -6.0334  -5.9833  -5.9779  -5.9593
    -0.3745  -0.3221  -0.0693  -0.0597   0.0474   0.2986   5.9532   6.0607
     6.4433   6.6651   6.7831   6.8235   7.0431   7.3881   7.6139   7.6611
     7.6841   8.2470   8.9749   9.1279   9.4760   9.5861   9.6430   9.8573
    13.0034  13.4185  13.5664  13.6328  13.7096  13.8209  14.9628  16.2850

          k =-0.5714 0.8571-0.2500 (  5281 PWs)   bands (ev):

   -46.6583 -46.6573 -22.9093 -22.9075 -22.9028 -22.8933 -22.8917 -22.8712
   -14.6433 -14.5981  -6.5987  -6.2390  -6.0335  -5.9833  -5.9779  -5.9593
    -0.3746  -0.3221  -0.0692  -0.0598   0.0474   0.2986   5.9532   6.0605
     6.4432   6.6647   6.7830   6.8242   7.0433   7.3881   7.6136   7.6611
     7.6846   8.2469   8.9750   9.1278   9.4760   9.5861   9.6431   9.8573
    13.0034  13.4184  13.5664  13.6328  13.7096  13.8209  14.9627  16.2850

          k = 0.5714-0.8571-0.2500 (  5281 PWs)   bands (ev):

   -46.6583 -46.6573 -22.9093 -22.9075 -22.9028 -22.8933 -22.8917 -22.8712
   -14.6433 -14.5981  -6.5988  -6.2390  -6.0335  -5.9833  -5.9779  -5.9593
    -0.3746  -0.3221  -0.0692  -0.0598   0.0474   0.2986   5.9532   6.0605
     6.4432   6.6647   6.7830   6.8242   7.0433   7.3881   7.6136   7.6610
     7.6846   8.2469   8.9750   9.1278   9.4760   9.5861   9.6431   9.8573
    13.0034  13.4184  13.5664  13.6328  13.7096  13.8209  14.9627  16.2850

          k =-0.5714-0.8571 0.2500 (  5281 PWs)   bands (ev):

   -46.6583 -46.6573 -22.9093 -22.9075 -22.9028 -22.8933 -22.8917 -22.8712
   -14.6433 -14.5981  -6.5987  -6.2390  -6.0335  -5.9833  -5.9779  -5.9593
    -0.3745  -0.3221  -0.0693  -0.0596   0.0474   0.2986   5.9532   6.0607
     6.4433   6.6651   6.7832   6.8235   7.0431   7.3881   7.6139   7.6611
     7.6841   8.2470   8.9749   9.1279   9.4759   9.5861   9.6430   9.8573
    13.0034  13.4185  13.5664  13.6328  13.7096  13.8209  14.9628  16.2850

          k = 0.5714 0.8571 0.2500 (  5281 PWs)   bands (ev):

   -46.6583 -46.6573 -22.9093 -22.9075 -22.9028 -22.8933 -22.8917 -22.8712
   -14.6433 -14.5981  -6.5987  -6.2390  -6.0335  -5.9833  -5.9779  -5.9593
    -0.3745  -0.3221  -0.0693  -0.0597   0.0474   0.2986   5.9532   6.0607
     6.4433   6.6651   6.7832   6.8235   7.0431   7.3881   7.6139   7.6611
     7.6841   8.2470   8.9749   9.1279   9.4759   9.5861   9.6430   9.8573
    13.0034  13.4185  13.5664  13.6328  13.7096  13.8209  14.9628  16.2850

          k =-0.8571 0.5714 0.2500 (  5281 PWs)   bands (ev):

   -46.6583 -46.6573 -22.9094 -22.9075 -22.9028 -22.8933 -22.8917 -22.8712
   -14.6433 -14.5981  -6.5987  -6.2390  -6.0334  -5.9833  -5.9779  -5.9593
    -0.3746  -0.3221  -0.0692  -0.0598   0.0474   0.2986   5.9532   6.0605
     6.4432   6.6647   6.7829   6.8242   7.0433   7.3881   7.6136   7.6611
     7.6845   8.2469   8.9750   9.1278   9.4760   9.5861   9.6431   9.8573
    13.0034  13.4184  13.5664  13.6328  13.7096  13.8209  14.9627  16.2850

          k =-0.8571-0.8571-0.2500 (  5273 PWs)   bands (ev):

   -46.6580 -46.6570 -22.9085 -22.9084 -22.9068 -22.9067 -22.9021 -22.8706
   -14.6197 -14.5771  -6.4139  -6.0527  -6.0453  -6.0147  -5.9363  -5.9289
    -0.5157  -0.4986  -0.3617  -0.0888  -0.0684   0.2324   5.8052   5.8997
     6.3494   6.3586   6.4274   6.4708   7.3517   7.4685   7.5388   7.6275
     7.6294   8.0030   9.1382   9.2407   9.7886   9.8150   9.9060   9.9491
    13.4334  13.4517  13.7904  13.8977  13.8996  13.9505  15.0702  16.7713

          k = 0.8571 0.8571-0.2500 (  5273 PWs)   bands (ev):

   -46.6580 -46.6570 -22.9085 -22.9084 -22.9068 -22.9067 -22.9021 -22.8706
   -14.6197 -14.5771  -6.4139  -6.0527  -6.0453  -6.0147  -5.9363  -5.9289
    -0.5157  -0.4986  -0.3617  -0.0888  -0.0684   0.2324   5.8052   5.8997
     6.3494   6.3586   6.4274   6.4708   7.3517   7.4685   7.5388   7.6275
     7.6294   8.0030   9.1382   9.2407   9.7886   9.8150   9.9060   9.9491
    13.4334  13.4517  13.7904  13.8977  13.8996  13.9505  15.0702  16.7713

          k = 0.8571-0.8571-0.2500 (  5273 PWs)   bands (ev):

   -46.6580 -46.6570 -22.9085 -22.9084 -22.9068 -22.9067 -22.9021 -22.8706
   -14.6197 -14.5771  -6.4139  -6.0527  -6.0452  -6.0147  -5.9363  -5.9290
    -0.5157  -0.4986  -0.3616  -0.0888  -0.0684   0.2324   5.8052   5.8995
     6.3495   6.3580   6.4281   6.4708   7.3517   7.4684   7.5388   7.6276
     7.6294   8.0030   9.1382   9.2407   9.7887   9.8150   9.9061   9.9491
    13.4338  13.4513  13.7904  13.8979  13.8994  13.9505  15.0702  16.7712

          k = 0.0000 0.2857 0.5000 (  5332 PWs)   bands (ev):

   -46.6593 -46.6586 -22.8903 -22.8897 -22.8757 -22.8749 -22.8667 -22.8660
   -14.7267 -14.7266  -6.7936  -6.7925  -6.0878  -6.0866  -6.0435  -6.0432
     0.0519   0.0519   0.1452   0.1453   0.2783   0.2784   6.8141   6.8141
     7.3559   7.3569   7.5673   7.5683   7.9098   7.9102   8.3085   8.3089
     8.7030   8.7037   8.9806   8.9808   9.3536   9.3546   9.4665   9.4666
    12.1806  12.1815  12.6888  12.6894  12.7664  12.7671  14.1324  14.1333

          k = 0.0000 0.5714 0.5000 (  5308 PWs)   bands (ev):

   -46.6589 -46.6582 -22.8950 -22.8942 -22.8893 -22.8887 -22.8660 -22.8652
   -14.6902 -14.6901  -6.7260  -6.7250  -6.0838  -6.0832  -6.0188  -6.0178
     0.0213   0.0213   0.2163   0.2164   0.2831   0.2832   6.5021   6.5027
     6.9757   6.9760   7.2636   7.2640   7.5206   7.5214   7.9801   7.9809
     8.5615   8.5619   9.0068   9.0076   9.0541   9.0542   9.5608   9.5613
    12.6851  12.6855  12.8866  12.8874  13.1104  13.1111  14.3850  14.3858

          k = 0.0000 0.8571 0.5000 (  5306 PWs)   bands (ev):

   -46.6587 -46.6580 -22.9103 -22.9095 -22.8885 -22.8880 -22.8654 -22.8647
   -14.6604 -14.6603  -6.7235  -6.7227  -6.0516  -6.0511  -5.9675  -5.9662
     0.0658   0.0659   0.2151   0.2151   0.2756   0.2757   6.0948   6.0958
     6.7644   6.7648   6.9073   6.9073   7.3980   7.3984   7.8385   7.8398
     8.6457   8.6467   8.7839   8.7848   8.9724   8.9731   9.5508   9.5513
    12.7229  12.7235  13.3538  13.3548  13.4822  13.4829  14.4427  14.4435

          k =-0.2857-0.2857 0.5000 (  5326 PWs)   bands (ev):

   -46.6591 -46.6584 -22.8898 -22.8893 -22.8755 -22.8751 -22.8747 -22.8744
   -14.7114 -14.7113  -6.7392  -6.7381  -6.0745  -6.0731  -6.0586  -6.0583
     0.0301   0.0302   0.0355   0.0355   0.3801   0.3802   6.7065   6.7065
     7.2611   7.2617   7.4327   7.4339   7.9356   7.9358   7.9637   7.9642
     8.4670   8.4678   9.1595   9.1596   9.3213   9.3221   9.3832   9.3835
    12.4292  12.4302  12.7945  12.7951  12.8011  12.8017  14.6085  14.6094

          k =-0.5714-0.2857 0.5000 (  5304 PWs)   bands (ev):

   -46.6588 -46.6581 -22.8946 -22.8938 -22.8889 -22.8883 -22.8745 -22.8738
   -14.6767 -14.6766  -6.6537  -6.6528  -6.0650  -6.0643  -6.0283  -6.0273
    -0.0364  -0.0363   0.0025   0.0026   0.4041   0.4041   6.4306   6.4312
     6.9592   6.9597   7.1847   7.1850   7.5555   7.5557   7.8339   7.8346
     8.1458   8.1462   9.1169   9.1173   9.2485   9.2488   9.4978   9.4984
    12.8440  12.8445  12.9950  12.9959  13.1518  13.1524  14.9725  14.9733

          k =-0.2857 0.5714 0.5000 (  5304 PWs)   bands (ev):

   -46.6588 -46.6581 -22.8945 -22.8938 -22.8889 -22.8883 -22.8745 -22.8738
   -14.6767 -14.6766  -6.6537  -6.6528  -6.0650  -6.0644  -6.0283  -6.0272
    -0.0365  -0.0363   0.0026   0.0026   0.4041   0.4041   6.4305   6.4311
     6.9592   6.9597   7.1845   7.1848   7.5555   7.5556   7.8340   7.8348
     8.1460   8.1463   9.1168   9.1172   9.2488   9.2491   9.4979   9.4984
    12.8438  12.8444  12.9947  12.9956  13.1518  13.1524  14.9726  14.9734

          k =-0.2857-0.5714-0.5000 (  5304 PWs)   bands (ev):

   -46.6588 -46.6581 -22.8945 -22.8938 -22.8889 -22.8883 -22.8745 -22.8738
   -14.6767 -14.6766  -6.6537  -6.6528  -6.0649  -6.0643  -6.0284  -6.0273
    -0.0364  -0.0363   0.0025   0.0026   0.4041   0.4041   6.4306   6.4312
     6.9592   6.9597   7.1847   7.1850   7.5555   7.5557   7.8339   7.8346
     8.1458   8.1462   9.1168   9.1173   9.2485   9.2487   9.4979   9.4984
    12.8440  12.8445  12.9950  12.9958  13.1517  13.1524  14.9725  14.9733

          k =-0.8571-0.2857 0.5000 (  5292 PWs)   bands (ev):

   -46.6585 -46.6578 -22.9099 -22.9091 -22.8882 -22.8876 -22.8739 -22.8731
   -14.6483 -14.6482  -6.6360  -6.6352  -6.0299  -6.0294  -5.9730  -5.9717
    -0.0682  -0.0680   0.0625   0.0626   0.3072   0.3072   6.0797   6.0807
     6.7719   6.7720   6.9502   6.9503   7.3490   7.3496   7.6957   7.6965
     8.2419   8.2422   9.0102   9.0103   9.1266   9.1271   9.5224   9.5230
    12.8965  12.8972  13.4267  13.4276  13.5173  13.5181  15.0058  15.0065

          k =-0.2857 0.8571 0.5000 (  5292 PWs)   bands (ev):

   -46.6585 -46.6578 -22.9098 -22.9091 -22.8882 -22.8876 -22.8739 -22.8731
   -14.6483 -14.6482  -6.6360  -6.6353  -6.0299  -6.0294  -5.9730  -5.9717
    -0.0682  -0.0680   0.0625   0.0626   0.3072   0.3073   6.0796   6.0807
     6.7718   6.7719   6.9502   6.9503   7.3490   7.3496   7.6957   7.6966
     8.2419   8.2421   9.0103   9.0105   9.1265   9.1271   9.5224   9.5230
    12.8965  12.8972  13.4265  13.4275  13.5173  13.5180  15.0058  15.0066

          k =-0.2857-0.8571-0.5000 (  5292 PWs)   bands (ev):

   -46.6585 -46.6578 -22.9098 -22.9091 -22.8882 -22.8876 -22.8739 -22.8731
   -14.6483 -14.6482  -6.6360  -6.6353  -6.0299  -6.0294  -5.9730  -5.9717
    -0.0682  -0.0680   0.0625   0.0626   0.3072   0.3072   6.0797   6.0807
     6.7719   6.7720   6.9502   6.9502   7.3490   7.3496   7.6957   7.6966
     8.2419   8.2422   9.0101   9.0103   9.1265   9.1271   9.5224   9.5230
    12.8965  12.8972  13.4266  13.4276  13.5173  13.5180  15.0058  15.0065

          k =-0.5714-0.5714 0.5000 (  5290 PWs)   bands (ev):

   -46.6584 -46.6577 -22.8939 -22.8934 -22.8931 -22.8926 -22.8880 -22.8875
   -14.6459 -14.6458  -6.5074  -6.5067  -6.0302  -6.0289  -6.0206  -6.0200
    -0.1622  -0.1621  -0.1549  -0.1548   0.3432   0.3432   6.3069   6.3076
     6.8651   6.8663   6.9648   6.9652   7.3422   7.3429   7.6900   7.6905
     7.6989   7.6992   9.3035   9.3041   9.3851   9.3855   9.5510   9.5515
    13.2307  13.2313  13.2496  13.2503  13.3116  13.3126  15.8400  15.8406

          k =-0.8571-0.5714 0.5000 (  5278 PWs)   bands (ev):

   -46.6581 -46.6574 -22.9088 -22.9080 -22.8929 -22.8921 -22.8873 -22.8868
   -14.6209 -14.6208  -6.4272  -6.4266  -5.9919  -5.9909  -5.9815  -5.9804
    -0.2621  -0.2620  -0.1491  -0.1489   0.1588   0.1588   6.0424   6.0435
     6.7135   6.7144   6.9003   6.9010   7.0377   7.0379   7.6215   7.6215
     7.8034   7.8038   9.2343   9.2348   9.4655   9.4657   9.6460   9.6471
    13.3062  13.3069  13.5944  13.5951  13.6378  13.6387  15.8534  15.8540

          k =-0.5714 0.8571 0.5000 (  5278 PWs)   bands (ev):

   -46.6581 -46.6574 -22.9088 -22.9080 -22.8929 -22.8921 -22.8873 -22.8868
   -14.6209 -14.6208  -6.4272  -6.4266  -5.9919  -5.9910  -5.9814  -5.9804
    -0.2621  -0.2620  -0.1490  -0.1490   0.1588   0.1588   6.0423   6.0434
     6.7133   6.7141   6.9005   6.9012   7.0379   7.0381   7.6215   7.6216
     7.8033   7.8037   9.2344   9.2349   9.4655   9.4657   9.6460   9.6471
    13.3062  13.3069  13.5943  13.5950  13.6378  13.6387  15.8534  15.8540

          k =-0.5714-0.8571-0.5000 (  5278 PWs)   bands (ev):

   -46.6581 -46.6574 -22.9088 -22.9080 -22.8929 -22.8921 -22.8873 -22.8868
   -14.6209 -14.6208  -6.4272  -6.4266  -5.9919  -5.9909  -5.9814  -5.9804
    -0.2621  -0.2620  -0.1490  -0.1490   0.1588   0.1588   6.0424   6.0435
     6.7136   6.7144   6.9003   6.9010   7.0377   7.0379   7.6215   7.6216
     7.8033   7.8038   9.2343   9.2348   9.4655   9.4657   9.6460   9.6471
    13.3062  13.3069  13.5943  13.5950  13.6378  13.6387  15.8534  15.8540

          k =-0.8571-0.8571 0.5000 (  5276 PWs)   bands (ev):

   -46.6579 -46.6572 -22.9081 -22.9079 -22.9073 -22.9071 -22.8867 -22.8861
   -14.5986 -14.5985  -6.2392  -6.2389  -5.9926  -5.9913  -5.9714  -5.9703
    -0.3164  -0.3163  -0.2973  -0.2972  -0.0637  -0.0636   5.8915   5.8926
     6.3531   6.3542   6.8924   6.8933   7.0716   7.0718   7.5995   7.6002
     7.6460   7.6464   9.4377   9.4382   9.5093   9.5097   9.9206   9.9220
    13.6519  13.6526  13.6608  13.6615  13.8687  13.8696  16.0295  16.0299

     the Fermi energy is    11.3774 ev

!    total energy              =   -1362.26366902 Ry
     estimated scf accuracy    <          9.0E-10 Ry
     smearing contrib. (-TS)   =      -0.00000000 Ry
     internal energy E=F+TS    =   -1362.26366902 Ry

     The total energy is F=E-TS. E is the sum of the following terms:
     one-electron contribution =    -143.16972874 Ry
     hartree contribution      =     120.67750876 Ry
     xc contribution           =    -121.56137926 Ry
     ewald contribution        =    -411.19676687 Ry
     one-center paw contrib.   =    -807.01330290 Ry

     convergence has been achieved in  15 iterations

     negative rho (up, down):  1.914E-03 0.000E+00

     Forces acting on atoms (cartesian axes, Ry/au):

     atom    1 type  1   force =     0.00000000    0.00000000    0.00000000
     atom    2 type  1   force =     0.00000000    0.00000000    0.00000000
     atom    3 type  2   force =    -0.00170546   -0.00167756   -0.00000245
     atom    4 type  2   force =     0.00170546    0.00167756    0.00000245
     atom    5 type  3   force =     0.00068410    0.00043395    0.00000441
     atom    6 type  3   force =    -0.00068410   -0.00043395   -0.00000441
     atom    7 type  3   force =     0.00043918    0.00065353   -0.00001399
     atom    8 type  3   force =    -0.00043918   -0.00065353    0.00001399
     atom    9 type  3   force =     0.00000000    0.00000000    0.00000000
     atom   10 type  3   force =     0.00000000    0.00000000    0.00000000

     Total force =     0.003741     Total SCF correction =     0.000012
     Message from routine punch:
     Nothing written, as per user request (disk_io='none')

     init_run     :     18.73s CPU     19.41s WALL (       1 calls)
     electrons    :    496.25s CPU    506.18s WALL (       1 calls)
     forces       :      5.44s CPU      5.64s WALL (       1 calls)

     Called by init_run:
     wfcinit      :      3.07s CPU      3.17s WALL (       1 calls)
     potinit      :      3.33s CPU      3.61s WALL (       1 calls)
     hinit0       :      1.98s CPU      2.02s WALL (       1 calls)

     Called by electrons:
     c_bands      :    387.88s CPU    389.33s WALL (      15 calls)
     sum_band     :     65.67s CPU     68.86s WALL (      15 calls)
     v_of_rho     :      5.46s CPU      6.05s WALL (      16 calls)
     newd         :     15.30s CPU     18.35s WALL (      16 calls)
     PAW_pot      :     23.22s CPU     25.34s WALL (      16 calls)
     mix_rho      :      0.51s CPU      0.51s WALL (      15 calls)

     Called by c_bands:
     init_us_2    :      8.58s CPU      8.61s WALL (     416 calls)
     cegterg      :    126.69s CPU    127.92s WALL (     195 calls)

     Called by *egterg:
     cdiaghg      :      2.97s CPU      2.98s WALL (     838 calls)
     h_psi        :     77.54s CPU     78.34s WALL (     851 calls)
     s_psi        :     10.02s CPU     10.04s WALL (     851 calls)
     g_psi        :      0.69s CPU      0.70s WALL (     643 calls)

     Called by h_psi:
     h_psi:calbec :     12.41s CPU     12.43s WALL (     851 calls)
     vloc_psi     :     52.91s CPU     53.25s WALL (     851 calls)
                                        0.00s GPU  (     851 calls)
     add_vuspsi   :     10.62s CPU     10.65s WALL (     851 calls)

     General routines
     calbec       :     17.09s CPU     17.12s WALL (    1098 calls)
     fft          :      1.95s CPU      1.96s WALL (     217 calls)
     ffts         :      0.40s CPU      0.40s WALL (      31 calls)
     fftw         :     50.69s CPU     51.00s WALL (   54672 calls)
     interpolate  :      0.55s CPU      0.56s WALL (      16 calls)

     Parallel routines

     PWSCF        :   8m41.58s CPU   8m52.47s WALL


   This run was terminated on:  23:15:55   4Oct2026            

=------------------------------------------------------------------------------=
   JOB DONE.
=------------------------------------------------------------------------------=
