
     Program PWSCF v.7.5 starts on  3Oct2026 at 21:34:37 

     This program is part of the open-source Quantum ESPRESSO suite
     for quantum simulation of materials; please cite
         "P. Giannozzi et al., J. Phys.:Condens. Matter 21 395502 (2009);
         "P. Giannozzi et al., J. Phys.:Condens. Matter 29 465901 (2017);
         "P. Giannozzi et al., J. Chem. Phys. 152 154105 (2020);
          URL http://www.quantum-espresso.org", 
     in publications or presentations arising from this work. More details at
     http://www.quantum-espresso.org/quote

     Parallel version (MPI & OpenMP), running on       8 processor cores
     Number of MPI processes:                 8
     Threads/MPI process:                     1

     MPI processes distributed on     1 nodes
     10255 MiB available memory on the printing compute node when the environment starts

     Reading input from pw.in

     Current dimensions of program PWSCF are:
     Max number of different atomic species (ntypx) = 10
     Max number of k-points (npk) =  40000
     Max angular momentum in pseudopotentials (lmaxx) =  4
     file Ba.pbe-spn-kjpaw_psl.1.0.0.UPF: wavefunction(s)  5S 6S renormalized
     file O.pbe-n-kjpaw_psl.0.1.UPF: wavefunction(s)  2P renormalized

     K-points division:     npool     =       8
     Subspace diagonalization in iterative solution of the eigenvalue problem:
     a serial algorithm will be used


     G-vector sticks info
     --------------------
     sticks:   dense  smooth     PW     G-vecs:    dense   smooth      PW
     Sum        1861     933    277                60005    21247    3407

     Using Slab Decomposition



     bravais-lattice index     =            0
     lattice parameter (alat)  =       7.6272  a.u.
     unit-cell volume          =     443.7078 (a.u.)^3
     number of atoms/cell      =            5
     number of atomic types    =            3
     number of electrons       =        40.00
     number of Kohn-Sham states=           24
     kinetic-energy cutoff     =      50.0000  Ry
     charge density cutoff     =     400.0000  Ry
     scf convergence threshold =      5.0E-10
     mixing beta               =       0.4000
     number of iterations used =            8  plain     mixing
     Exchange-correlation= SLA  PW   PBX  PBC
                           (   1   4   3   4   0   0   0)

     celldm(1)=   7.627207  celldm(2)=   0.000000  celldm(3)=   0.000000
     celldm(4)=   0.000000  celldm(5)=   0.000000  celldm(6)=   0.000000

     crystal axes: (cart. coord. in units of alat)
               a(1) = (  -0.000000   0.000000   1.000000 )  
               a(2) = (   0.000000  -1.000000  -0.000000 )  
               a(3) = (   1.000000  -0.000000  -0.000000 )  

     reciprocal axes: (cart. coord. in units 2 pi/alat)
               b(1) = (  0.000000 -0.000000  1.000000 )  
               b(2) = ( -0.000000 -1.000000  0.000000 )  
               b(3) = (  1.000000  0.000000  0.000000 )  


     PseudoPot. # 1 for Ba read from file:
     /root/sssp/Ba.pbe-spn-kjpaw_psl.1.0.0.UPF
     MD5 check sum: c432291d3e53af55f19d5e8866385beb
     Pseudo is Projector augmented-wave + core cor, Zval = 10.0
     Generated using "atomic" code by A. Dal Corso  v.5.1
     Shape of augmentation charge: PSQ
     Using radial grid of 1251 points,  7 beta functions with: 
                l(1) =   0
                l(2) =   0
                l(3) =   0
                l(4) =   1
                l(5) =   1
                l(6) =   2
                l(7) =   2
     Q(r) pseudized with 0 coefficients 


     PseudoPot. # 2 for Ti read from file:
     /root/sssp/ti_pbe_v1.4.uspp.F.UPF
     MD5 check sum: 88a00a6731bd790ddea75d31a80cb452
     Pseudo is Ultrasoft + core correction, Zval = 12.0
     Generated by new atomic code, or converted to UPF format
     Using radial grid of  851 points,  6 beta functions with: 
                l(1) =   0
                l(2) =   0
                l(3) =   1
                l(4) =   1
                l(5) =   2
                l(6) =   2
     Q(r) pseudized with  6 coefficients,  rinner =    1.000   1.000   1.000
                                                       1.000   1.000

     PseudoPot. # 3 for O  read from file:
     /root/sssp/O.pbe-n-kjpaw_psl.0.1.UPF
     MD5 check sum: 0234752ac141de4415c5fc33072bef88
     Pseudo is Projector augmented-wave + core cor, Zval =  6.0
     Generated using "atomic" code by A. Dal Corso  v.5.0.99 svn rev. 10869
     Shape of augmentation charge: BESSEL
     Using radial grid of 1095 points,  4 beta functions with: 
                l(1) =   0
                l(2) =   0
                l(3) =   1
                l(4) =   1
     Q(r) pseudized with 0 coefficients 


     atomic species   valence    mass     pseudopotential
     Ba               10.00   137.32700     Ba( 1.00)
     Ti               12.00    47.86700     Ti( 1.00)
     O                 6.00    15.99900     O ( 1.00)

     No symmetry found



   Cartesian axes

     site n.     atom                  positions (alat units)
         1        Ba     tau(   1) = (  -0.0002632   0.0027282   0.0000016  )
         2        Ti     tau(   2) = (   0.4957682  -0.4563009   0.5000047  )
         3        O      tau(   3) = (   1.0085297  -0.5337384   0.4999961  )
         4        O      tau(   4) = (   0.5032675  -1.0880930   0.4999970  )
         5        O      tau(   5) = (   0.5031312  -0.5323257   0.9999900  )

     number of k points=   172  Marzari-Vanderbilt smearing, width (Ry)=  0.0050

     Number of k-points >= 100: set verbosity='high' to print them.

     Dense  grid:    60005 G-vectors     FFT dimensions: (  50,  50,  50)

     Smooth grid:    21247 G-vectors     FFT dimensions: (  36,  36,  36)

     Estimated max dynamical RAM per process >      92.83 MB

     Estimated total dynamical RAM >     640.11 MB

     Check: negative core charge=   -0.000004

     Initial potential from superposition of free atoms

     starting charge      38.9829, renormalised to      40.0000

     negative rho (up, down):  1.224E-03 0.000E+00
     Starting wfcs are   27 randomized atomic wfcs
     Checking if some PAW data can be deallocated... 

     total cpu time spent up to now is        3.1 secs

     per-process dynamical memory:    72.5 Mb

     Self-consistent Calculation

     iteration #  1     ecut=    50.00 Ry     beta= 0.40
     Davidson diagonalization with overlap
     ethr =  1.00E-02,  avg # of iterations =  2.0

     negative rho (up, down):  4.416E-03 0.000E+00

     total cpu time spent up to now is        5.1 secs

     total energy              =    -680.79264790 Ry
     estimated scf accuracy    <       0.82382059 Ry

     iteration #  2     ecut=    50.00 Ry     beta= 0.40
     Davidson diagonalization with overlap
     ethr =  2.06E-03,  avg # of iterations =  2.8

     negative rho (up, down):  1.156E-02 0.000E+00

     total cpu time spent up to now is        7.2 secs

     total energy              =    -680.94509126 Ry
     estimated scf accuracy    <       0.35069927 Ry

     iteration #  3     ecut=    50.00 Ry     beta= 0.40
     Davidson diagonalization with overlap
     ethr =  8.77E-04,  avg # of iterations =  1.9

     negative rho (up, down):  2.074E-02 0.000E+00

     total cpu time spent up to now is        9.0 secs

     total energy              =    -681.01330912 Ry
     estimated scf accuracy    <       0.03027156 Ry

     iteration #  4     ecut=    50.00 Ry     beta= 0.40
     Davidson diagonalization with overlap
     ethr =  7.57E-05,  avg # of iterations =  7.0

     negative rho (up, down):  1.886E-02 0.000E+00

     total cpu time spent up to now is       11.6 secs

     total energy              =    -681.01646992 Ry
     estimated scf accuracy    <       0.00495830 Ry

     iteration #  5     ecut=    50.00 Ry     beta= 0.40
     Davidson diagonalization with overlap
     ethr =  1.24E-05,  avg # of iterations =  4.2

     negative rho (up, down):  2.232E-02 0.000E+00

     total cpu time spent up to now is       13.9 secs

     total energy              =    -681.01712730 Ry
     estimated scf accuracy    <       0.00679752 Ry

     iteration #  6     ecut=    50.00 Ry     beta= 0.40
     Davidson diagonalization with overlap
     ethr =  1.24E-05,  avg # of iterations =  1.0

     negative rho (up, down):  1.131E-03 0.000E+00

     total cpu time spent up to now is       15.6 secs

     total energy              =    -681.01756341 Ry
     estimated scf accuracy    <       0.00939228 Ry

     iteration #  7     ecut=    50.00 Ry     beta= 0.40
     Davidson diagonalization with overlap
     ethr =  1.24E-05,  avg # of iterations =  2.0

     negative rho (up, down):  1.131E-03 0.000E+00

     total cpu time spent up to now is       17.4 secs

     total energy              =    -681.01773984 Ry
     estimated scf accuracy    <       0.00091104 Ry

     iteration #  8     ecut=    50.00 Ry     beta= 0.40
     Davidson diagonalization with overlap
     ethr =  2.28E-06,  avg # of iterations =  3.0

     negative rho (up, down):  1.131E-03 0.000E+00

     total cpu time spent up to now is       19.4 secs

     total energy              =    -681.01776585 Ry
     estimated scf accuracy    <       0.00122422 Ry

     iteration #  9     ecut=    50.00 Ry     beta= 0.40
     Davidson diagonalization with overlap
     ethr =  2.28E-06,  avg # of iterations =  1.0

     negative rho (up, down):  1.129E-03 0.000E+00

     total cpu time spent up to now is       21.1 secs

     total energy              =    -681.01777653 Ry
     estimated scf accuracy    <       0.00187324 Ry

     iteration # 10     ecut=    50.00 Ry     beta= 0.40
     Davidson diagonalization with overlap
     ethr =  2.28E-06,  avg # of iterations =  1.0

     negative rho (up, down):  1.128E-03 0.000E+00

     total cpu time spent up to now is       22.7 secs

     total energy              =    -681.01779049 Ry
     estimated scf accuracy    <       0.00134431 Ry

     iteration # 11     ecut=    50.00 Ry     beta= 0.40
     Davidson diagonalization with overlap
     ethr =  2.28E-06,  avg # of iterations =  1.0

     negative rho (up, down):  1.128E-03 0.000E+00

     total cpu time spent up to now is       24.4 secs

     total energy              =    -681.01779494 Ry
     estimated scf accuracy    <       0.00103185 Ry

     iteration # 12     ecut=    50.00 Ry     beta= 0.40
     Davidson diagonalization with overlap
     ethr =  2.28E-06,  avg # of iterations =  1.0

     negative rho (up, down):  1.128E-03 0.000E+00

     total cpu time spent up to now is       26.0 secs

     total energy              =    -681.01779615 Ry
     estimated scf accuracy    <       0.00099442 Ry

     iteration # 13     ecut=    50.00 Ry     beta= 0.40
     Davidson diagonalization with overlap
     ethr =  2.28E-06,  avg # of iterations =  1.0

     negative rho (up, down):  1.127E-03 0.000E+00

     total cpu time spent up to now is       27.7 secs

     total energy              =    -681.01779907 Ry
     estimated scf accuracy    <       0.00106195 Ry

     iteration # 14     ecut=    50.00 Ry     beta= 0.40
     Davidson diagonalization with overlap
     ethr =  2.28E-06,  avg # of iterations =  1.0

     negative rho (up, down):  1.127E-03 0.000E+00

     total cpu time spent up to now is       29.4 secs

     total energy              =    -681.01780148 Ry
     estimated scf accuracy    <       0.00096863 Ry

     iteration # 15     ecut=    50.00 Ry     beta= 0.40
     Davidson diagonalization with overlap
     ethr =  2.28E-06,  avg # of iterations =  1.0

     negative rho (up, down):  1.127E-03 0.000E+00

     total cpu time spent up to now is       31.0 secs

     total energy              =    -681.01780337 Ry
     estimated scf accuracy    <       0.00051576 Ry

     iteration # 16     ecut=    50.00 Ry     beta= 0.40
     Davidson diagonalization with overlap
     ethr =  1.29E-06,  avg # of iterations =  1.0

     negative rho (up, down):  1.127E-03 0.000E+00

     total cpu time spent up to now is       32.6 secs

     total energy              =    -681.01780129 Ry
     estimated scf accuracy    <       0.00041850 Ry

     iteration # 17     ecut=    50.00 Ry     beta= 0.40
     Davidson diagonalization with overlap
     ethr =  1.05E-06,  avg # of iterations =  1.0

     negative rho (up, down):  1.127E-03 0.000E+00

     total cpu time spent up to now is       34.2 secs

     total energy              =    -681.01780413 Ry
     estimated scf accuracy    <       0.00059920 Ry

     iteration # 18     ecut=    50.00 Ry     beta= 0.40
     Davidson diagonalization with overlap
     ethr =  1.05E-06,  avg # of iterations =  1.0

     negative rho (up, down):  1.127E-03 0.000E+00

     total cpu time spent up to now is       35.9 secs

     total energy              =    -681.01780575 Ry
     estimated scf accuracy    <       0.00007858 Ry

     iteration # 19     ecut=    50.00 Ry     beta= 0.40
     Davidson diagonalization with overlap
     ethr =  1.96E-07,  avg # of iterations =  2.0

     negative rho (up, down):  1.127E-03 0.000E+00

     total cpu time spent up to now is       37.7 secs

     total energy              =    -681.01780776 Ry
     estimated scf accuracy    <       0.00001586 Ry

     iteration # 20     ecut=    50.00 Ry     beta= 0.40
     Davidson diagonalization with overlap
     ethr =  3.96E-08,  avg # of iterations =  1.0

     negative rho (up, down):  1.127E-03 0.000E+00

     total cpu time spent up to now is       39.4 secs

     total energy              =    -681.01780788 Ry
     estimated scf accuracy    <       0.00000018 Ry

     iteration # 21     ecut=    50.00 Ry     beta= 0.40
     Davidson diagonalization with overlap
     ethr =  4.47E-10,  avg # of iterations =  5.0

     negative rho (up, down):  1.127E-03 0.000E+00

     total cpu time spent up to now is       41.7 secs

     total energy              =    -681.01780806 Ry
     estimated scf accuracy    <       0.00000030 Ry

     iteration # 22     ecut=    50.00 Ry     beta= 0.40
     Davidson diagonalization with overlap
     ethr =  4.47E-10,  avg # of iterations =  2.2

     negative rho (up, down):  1.127E-03 0.000E+00

     total cpu time spent up to now is       43.6 secs

     total energy              =    -681.01780807 Ry
     estimated scf accuracy    <       0.00000043 Ry

     iteration # 23     ecut=    50.00 Ry     beta= 0.40
     Davidson diagonalization with overlap
     ethr =  4.47E-10,  avg # of iterations =  2.0

     negative rho (up, down):  1.127E-03 0.000E+00

     total cpu time spent up to now is       45.3 secs

     total energy              =    -681.01780807 Ry
     estimated scf accuracy    <          2.6E-09 Ry

     iteration # 24     ecut=    50.00 Ry     beta= 0.40
     Davidson diagonalization with overlap
     ethr =  6.45E-12,  avg # of iterations =  3.5

     negative rho (up, down):  1.127E-03 0.000E+00

     total cpu time spent up to now is       47.0 secs

     total energy              =    -681.01780807 Ry
     estimated scf accuracy    <       0.00000002 Ry

     iteration # 25     ecut=    50.00 Ry     beta= 0.40
     Davidson diagonalization with overlap
     ethr =  6.45E-12,  avg # of iterations =  3.8

     negative rho (up, down):  1.127E-03 0.000E+00

     total cpu time spent up to now is       49.0 secs

     total energy              =    -681.01780807 Ry
     estimated scf accuracy    <       0.00000004 Ry

     iteration # 26     ecut=    50.00 Ry     beta= 0.40
     Davidson diagonalization with overlap
     ethr =  6.45E-12,  avg # of iterations =  2.0

     negative rho (up, down):  1.127E-03 0.000E+00

     total cpu time spent up to now is       50.9 secs

     total energy              =    -681.01780807 Ry
     estimated scf accuracy    <          7.3E-10 Ry

     iteration # 27     ecut=    50.00 Ry     beta= 0.40
     Davidson diagonalization with overlap
     ethr =  1.82E-12,  avg # of iterations =  1.0

     negative rho (up, down):  1.127E-03 0.000E+00

     total cpu time spent up to now is       52.5 secs

     End of self-consistent calculation

     Number of k-points >= 100: set verbosity='high' to print the bands.

     the Fermi energy is    11.6417 ev

!    total energy              =    -681.01780807 Ry
     estimated scf accuracy    <          1.0E-11 Ry
     smearing contrib. (-TS)   =       0.00000000 Ry
     internal energy E=F+TS    =    -681.01780807 Ry

     The total energy is F=E-TS. E is the sum of the following terms:
     one-electron contribution =     -81.49997909 Ry
     hartree contribution      =      65.63325078 Ry
     xc contribution           =     -61.15166477 Ry
     ewald contribution        =    -200.49158240 Ry
     one-center paw contrib.   =    -403.50783259 Ry

     convergence has been achieved in  27 iterations

     negative rho (up, down):  1.127E-03 0.000E+00

     Forces acting on atoms (cartesian axes, Ry/au):

     atom    1 type  1   force =     0.00050196    0.01115766   -0.00000101
     atom    2 type  2   force =    -0.00323987   -0.53166203    0.00000367
     atom    3 type  3   force =    -0.00876210    0.00223292   -0.00000281
     atom    4 type  3   force =     0.00918616    0.51705418   -0.00001021
     atom    5 type  3   force =     0.00231385    0.00121727    0.00001036

     Total force =     0.741834     Total SCF correction =     0.000002
     Message from routine punch:
     Nothing written, as per user request (disk_io='none')

     init_run     :      2.62s CPU      2.69s WALL (       1 calls)
     electrons    :     48.96s CPU     49.45s WALL (       1 calls)
     forces       :      0.35s CPU      0.35s WALL (       1 calls)

     Called by init_run:
     wfcinit      :      0.85s CPU      0.86s WALL (       1 calls)
     potinit      :      0.47s CPU      0.51s WALL (       1 calls)
     hinit0       :      1.22s CPU      1.23s WALL (       1 calls)

     Called by electrons:
     c_bands      :     34.79s CPU     35.12s WALL (      27 calls)
     sum_band     :      8.10s CPU      8.21s WALL (      27 calls)
     v_of_rho     :      1.47s CPU      1.49s WALL (      28 calls)
     newd         :      1.34s CPU      1.36s WALL (      28 calls)
     PAW_pot      :      3.16s CPU      3.21s WALL (      28 calls)
     mix_rho      :      0.15s CPU      0.15s WALL (      27 calls)

     Called by c_bands:
     init_us_2    :      1.79s CPU      1.81s WALL (    1232 calls)
     cegterg      :     30.59s CPU     30.89s WALL (     594 calls)

     Called by *egterg:
     cdiaghg      :      1.08s CPU      1.09s WALL (    1846 calls)
     h_psi        :     23.93s CPU     24.19s WALL (    1868 calls)
     s_psi        :      1.44s CPU      1.46s WALL (    1868 calls)
     g_psi        :      0.33s CPU      0.33s WALL (    1252 calls)

     Called by h_psi:
     h_psi:calbec :      1.69s CPU      1.70s WALL (    1868 calls)
     vloc_psi     :     20.56s CPU     20.80s WALL (    1868 calls)
                                        0.00s GPU  (    1868 calls)
     add_vuspsi   :      1.52s CPU      1.53s WALL (    1868 calls)

     General routines
     calbec       :      2.48s CPU      2.50s WALL (    2550 calls)
     fft          :      0.66s CPU      0.67s WALL (     373 calls)
     ffts         :      0.24s CPU      0.24s WALL (      55 calls)
     fftw         :     21.58s CPU     21.83s WALL (   77198 calls)
     interpolate  :      0.28s CPU      0.28s WALL (      28 calls)

     Parallel routines

     PWSCF        :     52.30s CPU     52.89s WALL


   This run was terminated on:  21:35:30   3Oct2026            

=------------------------------------------------------------------------------=
   JOB DONE.
=------------------------------------------------------------------------------=
