
     Program PWSCF v.7.5 starts on  3Oct2026 at 21:54:58 

     This program is part of the open-source Quantum ESPRESSO suite
     for quantum simulation of materials; please cite
         "P. Giannozzi et al., J. Phys.:Condens. Matter 21 395502 (2009);
         "P. Giannozzi et al., J. Phys.:Condens. Matter 29 465901 (2017);
         "P. Giannozzi et al., J. Chem. Phys. 152 154105 (2020);
          URL http://www.quantum-espresso.org", 
     in publications or presentations arising from this work. More details at
     http://www.quantum-espresso.org/quote

     Parallel version (MPI & OpenMP), running on       8 processor cores
     Number of MPI processes:                 8
     Threads/MPI process:                     1

     MPI processes distributed on     1 nodes
     98604 MiB available memory on the printing compute node when the environment starts

     Reading input from pw.in

     Current dimensions of program PWSCF are:
     Max number of different atomic species (ntypx) = 10
     Max number of k-points (npk) =  40000
     Max angular momentum in pseudopotentials (lmaxx) =  4
     file O.pbe-n-kjpaw_psl.0.1.UPF: wavefunction(s)  2P renormalized

     K-points division:     npool     =       8
     Subspace diagonalization in iterative solution of the eigenvalue problem:
     a serial algorithm will be used


     G-vector sticks info
     --------------------
     sticks:   dense  smooth     PW     G-vecs:    dense   smooth      PW
     Sum        1765     885    261                55803    19837    3191

     Using Slab Decomposition



     bravais-lattice index     =            0
     lattice parameter (alat)  =       7.4511  a.u.
     unit-cell volume          =     413.6798 (a.u.)^3
     number of atoms/cell      =            5
     number of atomic types    =            3
     number of electrons       =        40.00
     number of Kohn-Sham states=           24
     kinetic-energy cutoff     =      50.0000  Ry
     charge density cutoff     =     400.0000  Ry
     scf convergence threshold =      5.0E-10
     mixing beta               =       0.4000
     number of iterations used =            8  plain     mixing
     Exchange-correlation= SLA  PW   PBX  PBC
                           (   1   4   3   4   0   0   0)

     celldm(1)=   7.451118  celldm(2)=   0.000000  celldm(3)=   0.000000
     celldm(4)=   0.000000  celldm(5)=   0.000000  celldm(6)=   0.000000

     crystal axes: (cart. coord. in units of alat)
               a(1) = (   1.000000  -0.000000  -0.000000 )  
               a(2) = (  -0.000000   1.000000  -0.000000 )  
               a(3) = (   0.000000  -0.000000   1.000000 )  

     reciprocal axes: (cart. coord. in units 2 pi/alat)
               b(1) = (  1.000000  0.000000  0.000000 )  
               b(2) = (  0.000000  1.000000  0.000000 )  
               b(3) = (  0.000000  0.000000  1.000000 )  


     PseudoPot. # 1 for Sr read from file:
     /root/sssp/Sr_pbe_v1.uspp.F.UPF
     MD5 check sum: 6b418c05fbe9db5448babca5e47b7a5b
     Pseudo is Ultrasoft + core correction, Zval = 10.0
     Generated by new atomic code, or converted to UPF format
     Using radial grid of  883 points,  6 beta functions with: 
                l(1) =   0
                l(2) =   0
                l(3) =   1
                l(4) =   1
                l(5) =   2
                l(6) =   2
     Q(r) pseudized with  6 coefficients,  rinner =    1.400   1.400   1.400
                                                       1.400   1.400

     PseudoPot. # 2 for Ti read from file:
     /root/sssp/ti_pbe_v1.4.uspp.F.UPF
     MD5 check sum: 88a00a6731bd790ddea75d31a80cb452
     Pseudo is Ultrasoft + core correction, Zval = 12.0
     Generated by new atomic code, or converted to UPF format
     Using radial grid of  851 points,  6 beta functions with: 
                l(1) =   0
                l(2) =   0
                l(3) =   1
                l(4) =   1
                l(5) =   2
                l(6) =   2
     Q(r) pseudized with  6 coefficients,  rinner =    1.000   1.000   1.000
                                                       1.000   1.000

     PseudoPot. # 3 for O  read from file:
     /root/sssp/O.pbe-n-kjpaw_psl.0.1.UPF
     MD5 check sum: 0234752ac141de4415c5fc33072bef88
     Pseudo is Projector augmented-wave + core cor, Zval =  6.0
     Generated using "atomic" code by A. Dal Corso  v.5.0.99 svn rev. 10869
     Shape of augmentation charge: BESSEL
     Using radial grid of 1095 points,  4 beta functions with: 
                l(1) =   0
                l(2) =   0
                l(3) =   1
                l(4) =   1
     Q(r) pseudized with 0 coefficients 


     atomic species   valence    mass     pseudopotential
     Sr               10.00    87.62000     Sr( 1.00)
     Ti               12.00    47.86700     Ti( 1.00)
     O                 6.00    15.99900     O ( 1.00)

     No symmetry found



   Cartesian axes

     site n.     atom                  positions (alat units)
         1        Sr     tau(   1) = (  -0.0185292   0.0085986   0.0238631  )
         2        Ti     tau(   2) = (   0.4490331   0.5236516   0.5656384  )
         3        O      tau(   3) = (   0.0886176   0.4616365   0.3935325  )
         4        O      tau(   4) = (   0.5826698  -0.0411236   0.3935325  )
         5        O      tau(   5) = (   0.5826698   0.4616365  -0.1141274  )

     number of k points=   172  Marzari-Vanderbilt smearing, width (Ry)=  0.0050

     Number of k-points >= 100: set verbosity='high' to print them.

     Dense  grid:    55803 G-vectors     FFT dimensions: (  48,  48,  48)

     Smooth grid:    19837 G-vectors     FFT dimensions: (  36,  36,  36)

     Estimated max dynamical RAM per process >      82.79 MB

     Estimated total dynamical RAM >     566.94 MB

     Check: negative core charge=   -0.000005

     Initial potential from superposition of free atoms

     starting charge      38.9663, renormalised to      40.0000

     negative rho (up, down):  6.652E-02 0.000E+00
     Starting wfcs are   35 randomized atomic wfcs
     Checking if some PAW data can be deallocated... 

     total cpu time spent up to now is        9.5 secs

     per-process dynamical memory:    63.0 Mb

     Self-consistent Calculation

     iteration #  1     ecut=    50.00 Ry     beta= 0.40
     Davidson diagonalization with overlap
     ethr =  1.00E-02,  avg # of iterations =  2.0

     negative rho (up, down):  6.555E-02 0.000E+00

     total cpu time spent up to now is       20.1 secs

     total energy              =    -314.40907193 Ry
     estimated scf accuracy    <       0.99942871 Ry

     iteration #  2     ecut=    50.00 Ry     beta= 0.40
     Davidson diagonalization with overlap
     ethr =  2.50E-03,  avg # of iterations =  2.0

     negative rho (up, down):  6.567E-02 0.000E+00

     total cpu time spent up to now is       29.3 secs

     total energy              =    -314.55972419 Ry
     estimated scf accuracy    <       0.18532417 Ry

     iteration #  3     ecut=    50.00 Ry     beta= 0.40
     Davidson diagonalization with overlap
     ethr =  4.63E-04,  avg # of iterations =  5.4

     negative rho (up, down):  6.614E-02 0.000E+00

     total cpu time spent up to now is       40.5 secs

     total energy              =    -314.60046864 Ry
     estimated scf accuracy    <       0.03546702 Ry

     iteration #  4     ecut=    50.00 Ry     beta= 0.40
     Davidson diagonalization with overlap
     ethr =  8.87E-05,  avg # of iterations =  3.1

     negative rho (up, down):  6.683E-02 0.000E+00

     total cpu time spent up to now is       50.1 secs

     total energy              =    -314.60316132 Ry
     estimated scf accuracy    <       0.00574493 Ry

     iteration #  5     ecut=    50.00 Ry     beta= 0.40
     Davidson diagonalization with overlap
     ethr =  1.44E-05,  avg # of iterations =  5.6

     negative rho (up, down):  6.687E-02 0.000E+00

     total cpu time spent up to now is       61.3 secs

     total energy              =    -314.60395751 Ry
     estimated scf accuracy    <       0.00111598 Ry

     iteration #  6     ecut=    50.00 Ry     beta= 0.40
     Davidson diagonalization with overlap
     ethr =  2.79E-06,  avg # of iterations =  4.6

     negative rho (up, down):  6.685E-02 0.000E+00

     total cpu time spent up to now is       70.2 secs

     total energy              =    -314.60407290 Ry
     estimated scf accuracy    <       0.00013907 Ry

     iteration #  7     ecut=    50.00 Ry     beta= 0.40
     Davidson diagonalization with overlap
     ethr =  3.48E-07,  avg # of iterations =  4.3

     negative rho (up, down):  6.682E-02 0.000E+00

     total cpu time spent up to now is       81.0 secs

     total energy              =    -314.60409128 Ry
     estimated scf accuracy    <       0.00013155 Ry

     iteration #  8     ecut=    50.00 Ry     beta= 0.40
     Davidson diagonalization with overlap
     ethr =  3.29E-07,  avg # of iterations =  2.0

     negative rho (up, down):  6.678E-02 0.000E+00

     total cpu time spent up to now is       89.2 secs

     total energy              =    -314.60411822 Ry
     estimated scf accuracy    <       0.00000168 Ry

     iteration #  9     ecut=    50.00 Ry     beta= 0.40
     Davidson diagonalization with overlap
     ethr =  4.20E-09,  avg # of iterations =  4.9

     negative rho (up, down):  6.676E-02 0.000E+00

     total cpu time spent up to now is      101.5 secs

     total energy              =    -314.60411926 Ry
     estimated scf accuracy    <       0.00000128 Ry

     iteration # 10     ecut=    50.00 Ry     beta= 0.40
     Davidson diagonalization with overlap
     ethr =  3.20E-09,  avg # of iterations =  2.0

     negative rho (up, down):  6.675E-02 0.000E+00

     total cpu time spent up to now is      111.1 secs

     total energy              =    -314.60411941 Ry
     estimated scf accuracy    <       0.00000007 Ry

     iteration # 11     ecut=    50.00 Ry     beta= 0.40
     Davidson diagonalization with overlap
     ethr =  1.65E-10,  avg # of iterations =  5.0

     negative rho (up, down):  6.675E-02 0.000E+00

     total cpu time spent up to now is      124.1 secs

     total energy              =    -314.60411944 Ry
     estimated scf accuracy    <       0.00000005 Ry

     iteration # 12     ecut=    50.00 Ry     beta= 0.40
     Davidson diagonalization with overlap
     ethr =  1.24E-10,  avg # of iterations =  2.0

     negative rho (up, down):  6.675E-02 0.000E+00

     total cpu time spent up to now is      133.8 secs

     End of self-consistent calculation

     Number of k-points >= 100: set verbosity='high' to print the bands.

     the Fermi energy is    11.1425 ev

!    total energy              =    -314.60411945 Ry
     estimated scf accuracy    <          3.9E-10 Ry
     smearing contrib. (-TS)   =       0.00000000 Ry
     internal energy E=F+TS    =    -314.60411945 Ry

     The total energy is F=E-TS. E is the sum of the following terms:
     one-electron contribution =     -94.84228021 Ry
     hartree contribution      =      70.23764461 Ry
     xc contribution           =     -59.60489090 Ry
     ewald contribution        =    -201.84082853 Ry
     one-center paw contrib.   =     -28.55376441 Ry

     convergence has been achieved in  12 iterations

     negative rho (up, down):  6.675E-02 0.000E+00

     Forces acting on atoms (cartesian axes, Ry/au):

     atom    1 type  1   force =     0.04341265   -0.01895110   -0.02650157
     atom    2 type  2   force =     0.14629121    0.20365095   -0.96180365
     atom    3 type  3   force =    -0.39935329   -0.04781906   -0.06237836
     atom    4 type  3   force =    -0.07672152    0.03243369    0.08890660
     atom    5 type  3   force =     0.28637095   -0.16931447    0.96177697

     Total force =     1.485625     Total SCF correction =     0.000030
     Message from routine punch:
     Nothing written, as per user request (disk_io='none')

     init_run     :      8.72s CPU      8.88s WALL (       1 calls)
     electrons    :    123.49s CPU    124.28s WALL (       1 calls)
     forces       :      2.33s CPU      2.34s WALL (       1 calls)

     Called by init_run:
     wfcinit      :      2.22s CPU      2.24s WALL (       1 calls)
     potinit      :      1.97s CPU      2.01s WALL (       1 calls)
     hinit0       :      2.17s CPU      2.20s WALL (       1 calls)

     Called by electrons:
     c_bands      :     97.21s CPU     97.74s WALL (      12 calls)
     sum_band     :     17.20s CPU     17.38s WALL (      12 calls)
     v_of_rho     :      2.18s CPU      2.24s WALL (      13 calls)
     newd         :      3.65s CPU      3.74s WALL (      13 calls)
     PAW_pot      :      3.27s CPU      3.28s WALL (      13 calls)
     mix_rho      :      0.37s CPU      0.37s WALL (      12 calls)

     Called by c_bands:
     init_us_2    :      4.23s CPU      4.24s WALL (     572 calls)
     cegterg      :     57.97s CPU     58.42s WALL (     264 calls)

     Called by *egterg:
     cdiaghg      :      1.43s CPU      1.44s WALL (    1210 calls)
     h_psi        :     40.91s CPU     41.29s WALL (    1232 calls)
     s_psi        :      3.11s CPU      3.13s WALL (    1232 calls)
     g_psi        :      0.32s CPU      0.32s WALL (     946 calls)

     Called by h_psi:
     h_psi:calbec :      5.43s CPU      5.44s WALL (    1232 calls)
     vloc_psi     :     30.94s CPU     31.29s WALL (    1232 calls)
                                        0.00s GPU  (    1232 calls)
     add_vuspsi   :      3.71s CPU      3.72s WALL (    1232 calls)

     General routines
     calbec       :      7.58s CPU      7.60s WALL (    1584 calls)
     fft          :      1.29s CPU      1.31s WALL (     178 calls)
     ffts         :      0.29s CPU      0.29s WALL (      25 calls)
     fftw         :     28.36s CPU     28.66s WALL (   41924 calls)
     interpolate  :      0.43s CPU      0.43s WALL (      13 calls)

     Parallel routines

     PWSCF        :   2m15.18s CPU   2m16.17s WALL


   This run was terminated on:  21:57:14   3Oct2026            

=------------------------------------------------------------------------------=
   JOB DONE.
=------------------------------------------------------------------------------=
