
     Program PWSCF v.7.5 starts on  4Oct2026 at  4: 9:35 

     This program is part of the open-source Quantum ESPRESSO suite
     for quantum simulation of materials; please cite
         "P. Giannozzi et al., J. Phys.:Condens. Matter 21 395502 (2009);
         "P. Giannozzi et al., J. Phys.:Condens. Matter 29 465901 (2017);
         "P. Giannozzi et al., J. Chem. Phys. 152 154105 (2020);
          URL http://www.quantum-espresso.org", 
     in publications or presentations arising from this work. More details at
     http://www.quantum-espresso.org/quote

     Parallel version (MPI & OpenMP), running on       8 processor cores
     Number of MPI processes:                 8
     Threads/MPI process:                     1

     MPI processes distributed on     1 nodes
     45699 MiB available memory on the printing compute node when the environment starts

     Reading input from pw.in

     Current dimensions of program PWSCF are:
     Max number of different atomic species (ntypx) = 10
     Max number of k-points (npk) =  40000
     Max angular momentum in pseudopotentials (lmaxx) =  4

     K-points division:     npool     =       4
     R & G space division:  proc/nbgrp/npool/nimage =       2
     Subspace diagonalization in iterative solution of the eigenvalue problem:
     a serial algorithm will be used


     Parallelization info
     --------------------
     sticks:   dense  smooth     PW     G-vecs:    dense   smooth      PW
     Min        9562    4784   1245               994512   351678   46690
     Max        9563    4785   1248               994513   351681   46691
     Sum       19125    9569   2493              1989025   703359   93381

     Using Slab Decomposition



     bravais-lattice index     =            0
     lattice parameter (alat)  =      22.3764  a.u.
     unit-cell volume          =   11203.9580 (a.u.)^3
     number of atoms/cell      =           40
     number of atomic types    =            3
     number of electrons       =       352.00
     number of Kohn-Sham states=          211
     kinetic-energy cutoff     =      60.0000  Ry
     charge density cutoff     =     480.0000  Ry
     scf convergence threshold =      4.0E-09
     mixing beta               =       0.4000
     number of iterations used =            8  plain     mixing
     Exchange-correlation=  SLA  PW   PBX  PBC
                           (   1   4   3   4   0   0   0)

     celldm(1)=  22.376412  celldm(2)=   0.000000  celldm(3)=   0.000000
     celldm(4)=   0.000000  celldm(5)=   0.000000  celldm(6)=   0.000000

     crystal axes: (cart. coord. in units of alat)
               a(1) = (   1.000000  -0.000000   0.000000 )  
               a(2) = (  -0.000000   1.000001   0.000000 )  
               a(3) = (   0.000000   0.000000   0.999999 )  

     reciprocal axes: (cart. coord. in units 2 pi/alat)
               b(1) = (  1.000000  0.000000 -0.000000 )  
               b(2) = (  0.000000  0.999999 -0.000000 )  
               b(3) = ( -0.000000 -0.000000  1.000001 )  


     PseudoPot. # 1 for Cs read from file:
     /root/sssp/Cs_pbe_v1.uspp.F.UPF
     MD5 check sum: 3476d69cb178dfad3ffaa59df4e07ca4
     Pseudo is Ultrasoft + core correction, Zval =  9.0
     Generated by new atomic code, or converted to UPF format
     Using radial grid of  905 points,  6 beta functions with: 
                l(1) =   0
                l(2) =   0
                l(3) =   1
                l(4) =   1
                l(5) =   2
                l(6) =   2
     Q(r) pseudized with  6 coefficients,  rinner =    1.500   1.500   1.500
                                                       1.500   1.500

     PseudoPot. # 2 for Sn read from file:
     /root/sssp/Sn_pbe_v1.uspp.F.UPF
     MD5 check sum: 4cf58ce39ec5d5d420df3dd08604eb00
     Pseudo is Ultrasoft + core correction, Zval = 14.0
     Generated by new atomic code, or converted to UPF format
     Using radial grid of  891 points,  6 beta functions with: 
                l(1) =   0
                l(2) =   0
                l(3) =   1
                l(4) =   1
                l(5) =   2
                l(6) =   2
     Q(r) pseudized with  6 coefficients,  rinner =    1.200   1.200   1.200
                                                       1.200   1.200

     PseudoPot. # 3 for Br read from file:
     /root/sssp/br_pbe_v1.4.uspp.F.UPF
     MD5 check sum: d3ffb7b29f6225aa16fe06858fb2a80b
     Pseudo is Ultrasoft + core correction, Zval =  7.0
     Generated by new atomic code, or converted to UPF format
     Using radial grid of  879 points,  6 beta functions with: 
                l(1) =   0
                l(2) =   0
                l(3) =   1
                l(4) =   1
                l(5) =   2
                l(6) =   2
     Q(r) pseudized with  8 coefficients,  rinner =    1.100   1.100   1.100
                                                       1.100   1.100

     atomic species   valence    mass     pseudopotential
     Cs                9.00   132.90550     Cs( 1.00)
     Sn               14.00   118.71000     Sn( 1.00)
     Br                7.00    79.90400     Br( 1.00)

     No symmetry found



   Cartesian axes

     site n.     atom                  positions (alat units)
         1        Cs     tau(   1) = (   0.6293484   0.4889728   0.0137525  )
         2        Cs     tau(   2) = (   1.0627006   0.5051638  -0.0549505  )
         3        Cs     tau(   3) = (   0.4856264   1.0625305   0.0022421  )
         4        Cs     tau(   4) = (   0.9638908   1.0217147  -0.0066004  )
         5        Cs     tau(   5) = (   0.4606812   0.5194439   0.5384616  )
         6        Cs     tau(   6) = (   0.9463936   0.4981151   0.4811242  )
         7        Cs     tau(   7) = (   0.5752091   1.0697156   0.4879294  )
         8        Cs     tau(   8) = (   1.0254456   1.0262797   0.4938895  )
         9        Sn     tau(   9) = (   0.2573486   0.2163740   0.2094124  )
        10        Sn     tau(  10) = (   0.7871941   0.2379481   0.2457967  )
        11        Sn     tau(  11) = (   0.2495143   0.6722454   0.2579491  )
        12        Sn     tau(  12) = (   0.7588907   0.7200432   0.2925812  )
        13        Sn     tau(  13) = (   0.2732227   0.2260984   0.7209027  )
        14        Sn     tau(  14) = (   0.7883122   0.2269044   0.7290145  )
        15        Sn     tau(  15) = (   0.2524742   0.7586162   0.7537754  )
        16        Sn     tau(  16) = (   0.7055590   0.7219814   0.8152089  )
        17        Br     tau(  17) = (   0.4784815   0.2943927   0.2723187  )
        18        Br     tau(  18) = (   0.9972252   0.2301234   0.2413833  )
        19        Br     tau(  19) = (   0.4976010   0.7398000   0.2463891  )
        20        Br     tau(  20) = (   1.0147797   0.6998899   0.2298471  )
        21        Br     tau(  21) = (   0.4955424   0.2371380   0.8040667  )
        22        Br     tau(  22) = (   1.0206121   0.2740272   0.7875563  )
        23        Br     tau(  23) = (   0.4901465   0.8008234   0.6910861  )
        24        Br     tau(  24) = (   0.9714216   0.7256570   0.7208230  )
        25        Br     tau(  25) = (   0.2863725   0.4948633   0.1983101  )
        26        Br     tau(  26) = (   0.7568448   0.4858521   0.3400318  )
        27        Br     tau(  27) = (   0.1341385   0.9871774   0.2545117  )
        28        Br     tau(  28) = (   0.6241023   1.0086391   0.2720521  )
        29        Br     tau(  29) = (   0.2277889   0.4907174   0.7800032  )
        30        Br     tau(  30) = (   0.6338417   0.5104037   0.8008685  )
        31        Br     tau(  31) = (   0.2337808   1.0158047   0.7494256  )
        32        Br     tau(  32) = (   0.8735289   1.0124925   0.7156704  )
        33        Br     tau(  33) = (   0.2397211   0.1985332  -0.0508536  )
        34        Br     tau(  34) = (   0.8350609   0.2706776   0.0022895  )
        35        Br     tau(  35) = (   0.3230209   0.7138450  -0.0187362  )
        36        Br     tau(  36) = (   0.7462026   0.7373071   0.0145161  )
        37        Br     tau(  37) = (   0.1684588   0.3304262   0.4616384  )
        38        Br     tau(  38) = (   0.7527303   0.1893865   0.4937710  )
        39        Br     tau(  39) = (   0.1497242   0.8099799   0.4977330  )
        40        Br     tau(  40) = (   0.6928124   0.7493553   0.5321113  )

     number of k points=    14  Marzari-Vanderbilt smearing, width (Ry)=  0.0050
                       cart. coord. in units 2pi/alat
        k(    1) = (   0.0000000   0.0000000   0.0000000), wk =   0.0740741
        k(    2) = (  -0.0000000  -0.0000000   0.3333336), wk =   0.1481481
        k(    3) = (   0.0000000   0.3333330  -0.0000000), wk =   0.1481481
        k(    4) = (   0.0000000   0.3333330   0.3333336), wk =   0.1481481
        k(    5) = (   0.3333333   0.0000000   0.3333336), wk =   0.1481481
        k(    6) = (   0.3333333   0.3333330   0.3333336), wk =   0.1481481
        k(    7) = (   0.3333333   0.0000000  -0.0000000), wk =   0.1481481
        k(    8) = (  -0.0000000  -0.3333330   0.3333336), wk =   0.1481481
        k(    9) = (   0.3333333  -0.3333330   0.0000000), wk =   0.1481481
        k(   10) = (  -0.3333333  -0.3333330   0.0000000), wk =   0.1481481
        k(   11) = (  -0.3333333  -0.0000000   0.3333336), wk =   0.1481481
        k(   12) = (  -0.3333333  -0.3333330   0.3333336), wk =   0.1481481
        k(   13) = (  -0.3333333   0.3333330  -0.3333336), wk =   0.1481481
        k(   14) = (   0.3333333  -0.3333330  -0.3333336), wk =   0.1481481

     Dense  grid:  1989025 G-vectors     FFT dimensions: ( 160, 160, 160)

     Smooth grid:   703359 G-vectors     FFT dimensions: ( 120, 120, 120)

     Estimated max dynamical RAM per process >       2.72 GB

     Estimated total dynamical RAM >      20.33 GB

     Initial potential from superposition of free atoms

     starting charge     343.6841, renormalised to     352.0000
     Starting wfcs are  272 randomized atomic wfcs

     total cpu time spent up to now is       94.4 secs

     per-process dynamical memory:  1628.2 Mb

     Self-consistent Calculation

     iteration #  1     ecut=    60.00 Ry     beta= 0.40
     Davidson diagonalization with overlap
     ethr =  1.00E-02,  avg # of iterations =  3.1

     Threshold (ethr) on eigenvalues was too large:
     Diagonalizing with lowered threshold

     Davidson diagonalization with overlap
     ethr =  5.59E-04,  avg # of iterations =  2.0

     total cpu time spent up to now is      468.9 secs

     total energy              =   -2936.94758877 Ry
     estimated scf accuracy    <       1.88342807 Ry

     iteration #  2     ecut=    60.00 Ry     beta= 0.40
     Davidson diagonalization with overlap
     ethr =  5.35E-04,  avg # of iterations =  2.6

     total cpu time spent up to now is      694.5 secs

     total energy              =   -2937.21657957 Ry
     estimated scf accuracy    <       0.20696377 Ry

     iteration #  3     ecut=    60.00 Ry     beta= 0.40
     Davidson diagonalization with overlap
     ethr =  5.88E-05,  avg # of iterations = 11.5

     total cpu time spent up to now is      949.8 secs

     total energy              =   -2937.23824519 Ry
     estimated scf accuracy    <       0.04558155 Ry

     iteration #  4     ecut=    60.00 Ry     beta= 0.40
     Davidson diagonalization with overlap
     ethr =  1.29E-05,  avg # of iterations =  9.7

     total cpu time spent up to now is     1192.5 secs

     total energy              =   -2937.24456474 Ry
     estimated scf accuracy    <       0.01055102 Ry

     iteration #  5     ecut=    60.00 Ry     beta= 0.40
     Davidson diagonalization with overlap
     ethr =  3.00E-06,  avg # of iterations =  8.4

     total cpu time spent up to now is     1408.3 secs

     total energy              =   -2937.24590371 Ry
     estimated scf accuracy    <       0.00141595 Ry

     iteration #  6     ecut=    60.00 Ry     beta= 0.40
     Davidson diagonalization with overlap
     ethr =  4.02E-07,  avg # of iterations =  2.0

     total cpu time spent up to now is     1601.0 secs

     total energy              =   -2937.24610127 Ry
     estimated scf accuracy    <       0.00017128 Ry

     iteration #  7     ecut=    60.00 Ry     beta= 0.40
     Davidson diagonalization with overlap
     ethr =  4.87E-08,  avg # of iterations =  2.1

     total cpu time spent up to now is     1810.8 secs

     total energy              =   -2937.24614912 Ry
     estimated scf accuracy    <       0.00001941 Ry

     iteration #  8     ecut=    60.00 Ry     beta= 0.40
     Davidson diagonalization with overlap
     ethr =  5.51E-09,  avg # of iterations =  5.0

     total cpu time spent up to now is     2099.9 secs

     total energy              =   -2937.24616559 Ry
     estimated scf accuracy    <       0.00000342 Ry

     iteration #  9     ecut=    60.00 Ry     beta= 0.40
     Davidson diagonalization with overlap
     ethr =  9.72E-10,  avg # of iterations =  2.0

     total cpu time spent up to now is     2307.4 secs

     total energy              =   -2937.24616824 Ry
     estimated scf accuracy    <       0.00000071 Ry

     iteration # 10     ecut=    60.00 Ry     beta= 0.40
     Davidson diagonalization with overlap
     ethr =  2.02E-10,  avg # of iterations =  4.1

     total cpu time spent up to now is     2517.8 secs

     total energy              =   -2937.24616905 Ry
     estimated scf accuracy    <       0.00000010 Ry

     iteration # 11     ecut=    60.00 Ry     beta= 0.40
     Davidson diagonalization with overlap
     ethr =  2.94E-11,  avg # of iterations =  5.0

     total cpu time spent up to now is     2801.2 secs

     total energy              =   -2937.24616934 Ry
     estimated scf accuracy    <       0.00000001 Ry

     iteration # 12     ecut=    60.00 Ry     beta= 0.40
     Davidson diagonalization with overlap
     ethr =  3.83E-12,  avg # of iterations =  2.0

     total cpu time spent up to now is     3015.4 secs

     End of self-consistent calculation

          k = 0.0000 0.0000 0.0000 ( 87703 PWs)   bands (ev):

   -18.8909 -18.8859 -18.8429 -18.8193 -18.8145 -18.8129 -18.8108 -18.7626
   -18.7368 -18.7337 -18.7238 -18.7218 -18.7150 -18.6640 -18.6508 -18.5839
   -18.5737 -18.5436 -18.5156 -18.5139 -18.3881 -18.3127 -18.2870 -18.2860
   -18.2842 -18.2744 -18.2662 -18.2591 -18.2541 -18.2438 -18.2372 -18.2116
   -18.1794 -18.1220 -18.1111 -18.0845 -18.0822 -18.0712 -18.0571 -18.0480
   -18.0434 -18.0393 -18.0079 -18.0060 -17.6340 -17.6029 -17.4809 -17.0854
   -12.4790 -12.3889 -12.3708 -12.2446 -12.1523 -11.9171 -11.9101 -11.4993
   -11.3634 -11.3506 -11.2670 -11.0621 -10.9967 -10.9460 -10.9337 -10.7677
   -10.6919 -10.4573 -10.4148 -10.3175 -10.2438 -10.2319  -9.9467  -9.7265
    -5.3376  -5.1456  -5.0920  -5.0644  -5.0572  -5.0456  -5.0213  -5.0124
    -4.9886  -4.9657  -4.9245  -4.9041  -4.7836  -4.7666  -4.7160  -4.5645
    -4.5158  -4.5123  -4.4477  -4.3931  -4.3585  -4.3474  -4.2262  -4.1473
    -4.0962  -4.0801  -4.0318  -3.9892  -3.7296  -3.4969  -3.2288  -2.9239
    -1.5097  -1.2521  -1.0209  -0.8515  -0.7716  -0.7410  -0.6134  -0.5794
    -0.5089  -0.3659  -0.3498  -0.2668  -0.2286  -0.2201  -0.1142   0.0220
     0.0686   0.0834   0.1740   0.1969   0.2354   0.2808   0.3628   0.4569
     0.5129   0.5273   0.5884   0.7013   0.7382   0.7486   0.7873   0.8794
     0.9370   0.9441   0.9724   1.0003   1.0223   1.0689   1.1209   1.1737
     1.2366   1.2895   1.3344   1.3835   1.4285   1.4544   1.4802   1.5141
     1.5582   1.5784   1.6064   1.6605   1.6889   1.7300   1.7651   1.8258
     1.8494   1.8737   1.9116   1.9739   2.0390   2.0645   2.1149   2.1433
     2.2452   2.3168   2.3517   2.4125   2.5091   2.8583   2.8882   3.0449
     4.4755   4.6166   4.7689   4.8066   4.8425   4.9768   5.0866   5.2120
     5.2780   5.3871   5.4954   5.5826   5.9044   6.2034   6.2698   6.3738
     6.5423   6.7303   6.9432   6.9763   7.2715   7.3864   7.4426   7.5653
     7.7066   7.7271   7.8323   7.8811   8.0518   8.1071   8.1509   8.1717
     8.2457   8.2824   8.3447

          k =-0.0000-0.0000 0.3333 ( 87875 PWs)   bands (ev):

   -18.8909 -18.8859 -18.8429 -18.8193 -18.8145 -18.8129 -18.8108 -18.7626
   -18.7368 -18.7338 -18.7238 -18.7218 -18.7151 -18.6640 -18.6508 -18.5839
   -18.5737 -18.5436 -18.5156 -18.5139 -18.3881 -18.3127 -18.2870 -18.2860
   -18.2842 -18.2744 -18.2662 -18.2591 -18.2541 -18.2438 -18.2372 -18.2116
   -18.1794 -18.1220 -18.1111 -18.0845 -18.0822 -18.0712 -18.0571 -18.0480
   -18.0434 -18.0393 -18.0079 -18.0060 -17.6340 -17.6029 -17.4809 -17.0854
   -12.4790 -12.3889 -12.3704 -12.2446 -12.1536 -11.9156 -11.9110 -11.4954
   -11.3655 -11.3527 -11.2667 -11.0616 -10.9967 -10.9459 -10.9335 -10.7682
   -10.6921 -10.4657 -10.4033 -10.3178 -10.2467 -10.2321  -9.9467  -9.7266
    -5.3390  -5.1449  -5.0896  -5.0615  -5.0564  -5.0484  -5.0219  -5.0116
    -4.9890  -4.9663  -4.9215  -4.8965  -4.7855  -4.7585  -4.6868  -4.5668
    -4.5170  -4.5112  -4.4358  -4.3921  -4.3593  -4.3543  -4.2057  -4.1819
    -4.1105  -4.0623  -4.0391  -3.9702  -3.7689  -3.5606  -3.2775  -2.9391
    -1.3376  -1.1881  -0.9375  -0.8408  -0.7795  -0.7363  -0.6138  -0.5391
    -0.4517  -0.3828  -0.3362  -0.2999  -0.2572  -0.2131  -0.1005  -0.0582
    -0.0079   0.1178   0.1528   0.1911   0.2523   0.2863   0.3308   0.4626
     0.5111   0.5777   0.6331   0.6706   0.7147   0.7871   0.8151   0.8590
     0.9245   0.9345   0.9606   0.9803   1.0209   1.0747   1.1332   1.1710
     1.2481   1.2726   1.3079   1.3394   1.3811   1.4130   1.4524   1.4921
     1.5007   1.5345   1.6012   1.6117   1.6740   1.6998   1.7548   1.7972
     1.8452   1.8883   1.9200   1.9621   2.0256   2.0783   2.1379   2.1852
     2.2813   2.3093   2.3509   2.4047   2.4771   2.8067   2.8849   3.0557
     4.4930   4.6592   4.7573   4.8980   5.0152   5.0873   5.2215   5.2953
     5.3191   5.4425   5.5542   5.7057   5.9302   6.1014   6.2300   6.3197
     6.5159   6.6664   6.8145   6.8872   7.2411   7.3634   7.4273   7.5826
     7.6538   7.7126   7.8215   7.8833   8.0424   8.0955   8.1428   8.1830
     8.2280   8.2702   8.3174

          k = 0.0000 0.3333-0.0000 ( 87875 PWs)   bands (ev):

   -18.8909 -18.8859 -18.8429 -18.8193 -18.8145 -18.8129 -18.8108 -18.7626
   -18.7368 -18.7337 -18.7238 -18.7218 -18.7150 -18.6640 -18.6508 -18.5839
   -18.5737 -18.5436 -18.5156 -18.5139 -18.3881 -18.3127 -18.2870 -18.2860
   -18.2842 -18.2744 -18.2662 -18.2591 -18.2541 -18.2438 -18.2372 -18.2116
   -18.1794 -18.1220 -18.1111 -18.0845 -18.0822 -18.0712 -18.0571 -18.0480
   -18.0434 -18.0393 -18.0079 -18.0060 -17.6340 -17.6029 -17.4809 -17.0854
   -12.4790 -12.3889 -12.3708 -12.2445 -12.1522 -11.9174 -11.9099 -11.4993
   -11.3634 -11.3507 -11.2674 -11.0622 -10.9981 -10.9454 -10.9330 -10.7668
   -10.6916 -10.4575 -10.4149 -10.3176 -10.2439 -10.2319  -9.9469  -9.7265
    -5.3376  -5.1453  -5.0910  -5.0638  -5.0537  -5.0457  -5.0218  -5.0114
    -4.9891  -4.9648  -4.9297  -4.9039  -4.7852  -4.7648  -4.7025  -4.5724
    -4.5192  -4.5146  -4.4428  -4.3928  -4.3583  -4.3451  -4.2341  -4.1583
    -4.0709  -4.0640  -4.0193  -3.9995  -3.7496  -3.4983  -3.2016  -3.0335
    -1.5054  -1.2511  -1.0260  -0.8153  -0.7743  -0.6629  -0.5643  -0.5329
    -0.4848  -0.3584  -0.3193  -0.2734  -0.2091  -0.1788  -0.1233   0.0160
     0.0359   0.0757   0.1669   0.2208   0.2523   0.3029   0.3656   0.4163
     0.5121   0.5283   0.5475   0.6452   0.7359   0.7514   0.7887   0.8735
     0.9008   0.9257   0.9740   1.0136   1.0363   1.0542   1.0985   1.1662
     1.2087   1.2665   1.3150   1.3585   1.4164   1.4387   1.4682   1.4937
     1.5481   1.6189   1.6333   1.6639   1.6848   1.7377   1.7483   1.7996
     1.8567   1.8818   1.8982   1.9887   2.0323   2.0695   2.1292   2.1461
     2.2405   2.3164   2.3587   2.3763   2.4812   2.7953   2.8739   3.0848
     4.4745   4.6148   4.7732   4.8183   4.8477   4.9482   5.1899   5.2503
     5.3400   5.4757   5.5656   5.6894   5.7971   6.1619   6.2400   6.4690
     6.6202   6.7934   6.8979   7.0160   7.1802   7.3158   7.4697   7.5216
     7.5903   7.7193   7.8351   7.8766   7.9918   8.0531   8.1264   8.2073
     8.2592   8.3029   8.3672

          k = 0.0000 0.3333 0.3333 ( 87927 PWs)   bands (ev):

   -18.8909 -18.8859 -18.8429 -18.8193 -18.8145 -18.8129 -18.8108 -18.7626
   -18.7368 -18.7337 -18.7238 -18.7218 -18.7151 -18.6640 -18.6508 -18.5839
   -18.5737 -18.5436 -18.5156 -18.5139 -18.3881 -18.3127 -18.2870 -18.2860
   -18.2842 -18.2744 -18.2662 -18.2591 -18.2541 -18.2438 -18.2372 -18.2116
   -18.1794 -18.1220 -18.1111 -18.0845 -18.0822 -18.0712 -18.0571 -18.0480
   -18.0434 -18.0393 -18.0079 -18.0060 -17.6340 -17.6029 -17.4809 -17.0854
   -12.4790 -12.3889 -12.3705 -12.2445 -12.1535 -11.9158 -11.9109 -11.4954
   -11.3655 -11.3528 -11.2670 -11.0616 -10.9979 -10.9454 -10.9329 -10.7671
   -10.6919 -10.4661 -10.4033 -10.3179 -10.2469 -10.2320  -9.9469  -9.7266
    -5.3390  -5.1449  -5.0899  -5.0609  -5.0549  -5.0453  -5.0218  -5.0109
    -4.9888  -4.9655  -4.9275  -4.8964  -4.7865  -4.7584  -4.6730  -4.5754
    -4.5199  -4.5138  -4.4313  -4.3910  -4.3602  -4.3472  -4.2007  -4.1904
    -4.0972  -4.0616  -4.0235  -3.9840  -3.7672  -3.5714  -3.2620  -3.0389
    -1.3306  -1.1899  -0.9253  -0.7908  -0.7772  -0.6594  -0.6158  -0.5158
    -0.4412  -0.3356  -0.3161  -0.2909  -0.2562  -0.1720  -0.1045  -0.0549
    -0.0101   0.1021   0.1632   0.2106   0.2428   0.3188   0.3456   0.4162
     0.5029   0.5500   0.6357   0.6484   0.7222   0.7744   0.8084   0.8298
     0.8675   0.9398   0.9509   0.9970   1.0291   1.0526   1.0852   1.1796
     1.2011   1.2432   1.2922   1.3126   1.3513   1.3869   1.4600   1.4813
     1.4978   1.5721   1.5940   1.6472   1.6767   1.7023   1.7670   1.8069
     1.8565   1.8860   1.9301   1.9640   2.0243   2.0779   2.1316   2.1786
     2.2743   2.3003   2.3344   2.3794   2.4642   2.7899   2.8441   3.0750
     4.4914   4.6524   4.7971   4.9061   4.9916   5.1933   5.2256   5.2570
     5.4453   5.5599   5.6109   5.7249   5.8911   6.0546   6.1787   6.4425
     6.4675   6.6671   6.8646   7.0076   7.1716   7.3115   7.3912   7.5058
     7.6414   7.6847   7.8333   7.9000   7.9648   8.0331   8.1053   8.1401
     8.2266   8.2668   8.3227

          k = 0.3333 0.0000 0.3333 ( 87927 PWs)   bands (ev):

   -18.8909 -18.8859 -18.8429 -18.8193 -18.8145 -18.8129 -18.8108 -18.7626
   -18.7368 -18.7338 -18.7238 -18.7218 -18.7151 -18.6640 -18.6508 -18.5839
   -18.5737 -18.5436 -18.5156 -18.5139 -18.3881 -18.3127 -18.2870 -18.2860
   -18.2842 -18.2744 -18.2662 -18.2591 -18.2541 -18.2438 -18.2372 -18.2116
   -18.1794 -18.1220 -18.1111 -18.0845 -18.0822 -18.0712 -18.0571 -18.0480
   -18.0434 -18.0393 -18.0079 -18.0060 -17.6340 -17.6029 -17.4809 -17.0854
   -12.4790 -12.3886 -12.3706 -12.2446 -12.1535 -11.9161 -11.9102 -11.4981
   -11.3659 -11.3547 -11.2601 -11.0633 -10.9964 -10.9458 -10.9336 -10.7681
   -10.6927 -10.4658 -10.4031 -10.3177 -10.2471 -10.2319  -9.9463  -9.7268
    -5.3388  -5.1455  -5.0905  -5.0644  -5.0543  -5.0504  -5.0224  -5.0095
    -4.9886  -4.9654  -4.9201  -4.8962  -4.7841  -4.7565  -4.6728  -4.5631
    -4.5152  -4.5101  -4.4245  -4.3849  -4.3624  -4.3524  -4.1950  -4.1599
    -4.1210  -4.0581  -4.0370  -3.9738  -3.8201  -3.5861  -3.3285  -2.9732
    -1.3068  -1.1714  -0.8740  -0.8080  -0.7495  -0.6867  -0.6156  -0.5002
    -0.4378  -0.3821  -0.3546  -0.2854  -0.2698  -0.1907  -0.0901  -0.0487
     0.0104   0.1234   0.1675   0.1846   0.2556   0.3127   0.3961   0.4687
     0.5157   0.5553   0.5851   0.6351   0.6670   0.7739   0.8044   0.8832
     0.9075   0.9194   0.9380   1.0016   1.0153   1.0886   1.1257   1.1681
     1.2008   1.2464   1.2923   1.3336   1.3573   1.4180   1.4510   1.4877
     1.5341   1.5744   1.6073   1.6503   1.6725   1.7012   1.7652   1.7985
     1.8356   1.8599   1.9201   1.9630   1.9945   2.0535   2.1277   2.1533
     2.2345   2.2857   2.3514   2.4071   2.4194   2.6344   2.8071   2.9662
     4.5136   4.6797   4.7483   4.9449   5.0583   5.1270   5.2938   5.3692
     5.4701   5.6073   5.7105   5.9006   6.0177   6.1242   6.1957   6.3318
     6.5034   6.6376   6.7973   6.9690   7.0791   7.1812   7.3471   7.5564
     7.6226   7.7007   7.7909   7.8838   7.9854   8.0485   8.1235   8.2116
     8.2528   8.2874   8.3478

          k = 0.3333 0.3333 0.3333 ( 87860 PWs)   bands (ev):

   -18.8909 -18.8859 -18.8429 -18.8193 -18.8145 -18.8129 -18.8108 -18.7626
   -18.7368 -18.7338 -18.7238 -18.7218 -18.7151 -18.6640 -18.6508 -18.5839
   -18.5737 -18.5436 -18.5156 -18.5139 -18.3881 -18.3127 -18.2870 -18.2860
   -18.2842 -18.2744 -18.2662 -18.2591 -18.2541 -18.2438 -18.2372 -18.2116
   -18.1794 -18.1220 -18.1111 -18.0845 -18.0822 -18.0712 -18.0571 -18.0480
   -18.0434 -18.0393 -18.0079 -18.0060 -17.6340 -17.6029 -17.4809 -17.0854
   -12.4790 -12.3886 -12.3707 -12.2445 -12.1535 -11.9162 -11.9102 -11.4981
   -11.3659 -11.3548 -11.2604 -11.0632 -10.9973 -10.9457 -10.9335 -10.7669
   -10.6923 -10.4663 -10.4030 -10.3178 -10.2473 -10.2318  -9.9465  -9.7267
    -5.3388  -5.1457  -5.0905  -5.0634  -5.0525  -5.0467  -5.0229  -5.0094
    -4.9884  -4.9654  -4.9260  -4.8960  -4.7852  -4.7566  -4.6620  -4.5691
    -4.5177  -4.5124  -4.4212  -4.3846  -4.3628  -4.3443  -4.1846  -4.1717
    -4.0978  -4.0603  -4.0275  -3.9929  -3.8224  -3.5702  -3.3376  -3.0682
    -1.3028  -1.1699  -0.8129  -0.7375  -0.7322  -0.6757  -0.5992  -0.4962
    -0.4417  -0.3648  -0.3399  -0.2804  -0.2584  -0.1599  -0.0825  -0.0645
     0.0217   0.1372   0.1617   0.2152   0.2628   0.3477   0.3630   0.4375
     0.4699   0.5047   0.6021   0.6360   0.7000   0.7751   0.7989   0.8243
     0.8766   0.9068   0.9619   1.0268   1.0360   1.0800   1.0902   1.1187
     1.1840   1.2289   1.2638   1.3152   1.3593   1.3958   1.4293   1.5330
     1.5683   1.5873   1.6096   1.6404   1.6553   1.6962   1.7505   1.7927
     1.8458   1.8605   1.9155   1.9663   2.0048   2.0528   2.0793   2.1368
     2.2671   2.2858   2.3303   2.3643   2.4122   2.6459   2.7461   2.9815
     4.5181   4.6868   4.7941   4.9583   5.0515   5.2555   5.3225   5.4251
     5.4771   5.6906   5.7380   5.8676   5.9918   6.1015   6.2093   6.3742
     6.4420   6.6629   6.8352   6.9920   7.1097   7.1934   7.2685   7.4851
     7.6411   7.6824   7.8217   7.8841   7.9143   8.0003   8.1031   8.1521
     8.2165   8.2875   8.3480

          k = 0.3333 0.0000-0.0000 ( 87875 PWs)   bands (ev):

   -18.8909 -18.8859 -18.8429 -18.8193 -18.8145 -18.8129 -18.8108 -18.7626
   -18.7368 -18.7338 -18.7238 -18.7218 -18.7150 -18.6640 -18.6508 -18.5839
   -18.5737 -18.5436 -18.5156 -18.5139 -18.3881 -18.3127 -18.2870 -18.2860
   -18.2842 -18.2744 -18.2662 -18.2591 -18.2541 -18.2438 -18.2372 -18.2116
   -18.1794 -18.1220 -18.1111 -18.0845 -18.0822 -18.0712 -18.0571 -18.0480
   -18.0434 -18.0393 -18.0079 -18.0060 -17.6340 -17.6029 -17.4809 -17.0854
   -12.4790 -12.3886 -12.3709 -12.2447 -12.1522 -11.9176 -11.9092 -11.5021
   -11.3640 -11.3524 -11.2606 -11.0639 -10.9964 -10.9452 -10.9345 -10.7677
   -10.6924 -10.4570 -10.4150 -10.3175 -10.2440 -10.2319  -9.9463  -9.7267
    -5.3376  -5.1456  -5.0928  -5.0702  -5.0548  -5.0458  -5.0214  -5.0102
    -4.9883  -4.9646  -4.9231  -4.9040  -4.7821  -4.7615  -4.6937  -4.5617
    -4.5164  -4.5076  -4.4338  -4.3921  -4.3638  -4.3550  -4.2241  -4.1695
    -4.1086  -4.0678  -4.0051  -3.9819  -3.7551  -3.5238  -3.2956  -2.9520
    -1.4986  -1.2535  -0.9013  -0.8507  -0.7731  -0.6679  -0.6043  -0.4994
    -0.4909  -0.3831  -0.3510  -0.3041  -0.2291  -0.2022  -0.0883   0.0187
     0.0613   0.1018   0.1720   0.1959   0.2835   0.3162   0.3871   0.4496
     0.5015   0.5431   0.5694   0.6390   0.7245   0.7526   0.8066   0.8709
     0.9198   0.9436   0.9728   0.9857   1.0106   1.0801   1.1471   1.1762
     1.2023   1.2946   1.3149   1.3702   1.4001   1.4291   1.4685   1.5023
     1.5384   1.5732   1.6139   1.6612   1.7034   1.7405   1.7658   1.7932
     1.8393   1.8861   1.8990   1.9468   1.9816   2.0634   2.0809   2.1470
     2.2448   2.2719   2.3422   2.3930   2.5105   2.6880   2.8302   3.0126
     4.4784   4.5885   4.7271   4.8250   4.9119   5.0253   5.1311   5.1889
     5.4684   5.5887   5.6905   5.8403   6.0094   6.1819   6.2590   6.3502
     6.5350   6.7663   6.8963   7.0284   7.0735   7.3210   7.4041   7.5347
     7.6349   7.7280   7.7687   7.8779   8.0323   8.0781   8.1615   8.1887
     8.2625   8.3007   8.3646

          k =-0.0000-0.3333 0.3333 ( 87927 PWs)   bands (ev):

   -18.8909 -18.8859 -18.8429 -18.8193 -18.8145 -18.8129 -18.8108 -18.7626
   -18.7368 -18.7337 -18.7238 -18.7218 -18.7151 -18.6640 -18.6508 -18.5839
   -18.5737 -18.5436 -18.5156 -18.5139 -18.3881 -18.3127 -18.2870 -18.2860
   -18.2842 -18.2744 -18.2662 -18.2591 -18.2541 -18.2438 -18.2372 -18.2116
   -18.1794 -18.1220 -18.1111 -18.0845 -18.0822 -18.0712 -18.0571 -18.0480
   -18.0434 -18.0393 -18.0079 -18.0060 -17.6340 -17.6029 -17.4809 -17.0854
   -12.4790 -12.3889 -12.3705 -12.2445 -12.1535 -11.9157 -11.9111 -11.4954
   -11.3655 -11.3528 -11.2670 -11.0616 -10.9978 -10.9456 -10.9329 -10.7672
   -10.6919 -10.4659 -10.4034 -10.3178 -10.2469 -10.2320  -9.9469  -9.7266
    -5.3390  -5.1451  -5.0893  -5.0611  -5.0551  -5.0451  -5.0221  -5.0110
    -4.9886  -4.9649  -4.9287  -4.8962  -4.7872  -4.7580  -4.6742  -4.5726
    -4.5200  -4.5128  -4.4332  -4.3876  -4.3599  -4.3481  -4.2118  -4.1836
    -4.0970  -4.0648  -4.0213  -3.9768  -3.7650  -3.5886  -3.2439  -3.0471
    -1.3317  -1.1859  -0.9317  -0.8050  -0.7687  -0.6545  -0.5828  -0.5138
    -0.4608  -0.3636  -0.3187  -0.2690  -0.2363  -0.2015  -0.1063  -0.0517
    -0.0011   0.0974   0.1728   0.1976   0.2735   0.2828   0.3328   0.4405
     0.4990   0.5550   0.6003   0.6509   0.7246   0.7763   0.8177   0.8611
     0.8827   0.9020   0.9600   0.9938   1.0236   1.0597   1.1043   1.1753
     1.1968   1.2309   1.2961   1.3135   1.3689   1.4040   1.4410   1.4598
     1.5053   1.5689   1.6189   1.6372   1.6526   1.7327   1.7459   1.7996
     1.8667   1.8797   1.9319   1.9551   2.0354   2.0696   2.1460   2.1852
     2.2530   2.3021   2.3338   2.3888   2.4630   2.7769   2.8542   3.0740
     4.4885   4.6499   4.8082   4.9021   4.9892   5.1828   5.2294   5.2748
     5.4429   5.5549   5.6217   5.7161   5.8772   6.0841   6.1807   6.3816
     6.5211   6.6970   6.8478   6.9609   7.2050   7.2735   7.4063   7.4787
     7.6281   7.7185   7.8308   7.8946   7.9362   8.0743   8.1252   8.1478
     8.1902   8.2598   8.2982

          k = 0.3333-0.3333 0.0000 ( 87927 PWs)   bands (ev):

   -18.8909 -18.8859 -18.8429 -18.8193 -18.8145 -18.8129 -18.8108 -18.7626
   -18.7368 -18.7338 -18.7238 -18.7218 -18.7150 -18.6640 -18.6508 -18.5839
   -18.5737 -18.5436 -18.5156 -18.5139 -18.3881 -18.3127 -18.2870 -18.2860
   -18.2842 -18.2744 -18.2662 -18.2591 -18.2541 -18.2438 -18.2372 -18.2116
   -18.1794 -18.1220 -18.1111 -18.0845 -18.0822 -18.0712 -18.0571 -18.0480
   -18.0434 -18.0393 -18.0079 -18.0060 -17.6340 -17.6029 -17.4809 -17.0854
   -12.4790 -12.3885 -12.3710 -12.2446 -12.1522 -11.9176 -11.9093 -11.5021
   -11.3640 -11.3523 -11.2608 -11.0638 -10.9975 -10.9452 -10.9341 -10.7667
   -10.6918 -10.4575 -10.4151 -10.3175 -10.2441 -10.2319  -9.9465  -9.7267
    -5.3375  -5.1457  -5.0912  -5.0687  -5.0518  -5.0445  -5.0216  -5.0109
    -4.9889  -4.9652  -4.9286  -4.9038  -4.7834  -4.7617  -4.6821  -4.5675
    -4.5191  -4.5102  -4.4285  -4.3923  -4.3616  -4.3507  -4.2293  -4.1663
    -4.0862  -4.0603  -4.0159  -3.9857  -3.7586  -3.5226  -3.2812  -3.0601
    -1.4965  -1.2532  -0.8854  -0.7504  -0.7159  -0.6280  -0.5910  -0.5085
    -0.4724  -0.3792  -0.3335  -0.3057  -0.2130  -0.1874  -0.1258   0.0130
     0.0427   0.1138   0.1647   0.2061   0.2671   0.3158   0.3657   0.4553
     0.5020   0.5459   0.6024   0.6558   0.7049   0.7475   0.8059   0.8445
     0.8877   0.9319   0.9618   0.9984   1.0208   1.0737   1.1127   1.1606
     1.2005   1.2677   1.3127   1.3508   1.3763   1.4049   1.4649   1.4919
     1.5542   1.5941   1.6364   1.6668   1.6859   1.7277   1.7563   1.7722
     1.8449   1.8580   1.9200   1.9383   2.0007   2.0461   2.0747   2.1537
     2.2562   2.2871   2.3227   2.3781   2.4567   2.6696   2.7850   3.0295
     4.4779   4.6001   4.7708   4.8068   4.9835   5.0250   5.1231   5.3910
     5.5137   5.6480   5.7324   5.7636   5.9766   6.1605   6.2096   6.4788
     6.5585   6.8170   6.8645   7.0387   7.1271   7.2471   7.3642   7.4976
     7.6230   7.6577   7.8198   7.8805   7.9525   8.0301   8.1399   8.1847
     8.2590   8.3192   8.3433

          k =-0.3333-0.3333 0.0000 ( 87927 PWs)   bands (ev):

   -18.8909 -18.8859 -18.8429 -18.8193 -18.8145 -18.8129 -18.8108 -18.7626
   -18.7368 -18.7338 -18.7238 -18.7218 -18.7150 -18.6640 -18.6508 -18.5839
   -18.5737 -18.5436 -18.5156 -18.5139 -18.3881 -18.3127 -18.2870 -18.2860
   -18.2842 -18.2744 -18.2662 -18.2591 -18.2541 -18.2438 -18.2372 -18.2116
   -18.1794 -18.1220 -18.1111 -18.0845 -18.0822 -18.0712 -18.0571 -18.0480
   -18.0434 -18.0393 -18.0079 -18.0060 -17.6340 -17.6029 -17.4809 -17.0854
   -12.4790 -12.3886 -12.3710 -12.2446 -12.1522 -11.9174 -11.9095 -11.5021
   -11.3640 -11.3524 -11.2609 -11.0639 -10.9973 -10.9452 -10.9342 -10.7666
   -10.6920 -10.4573 -10.4151 -10.3175 -10.2442 -10.2318  -9.9465  -9.7267
    -5.3375  -5.1455  -5.0915  -5.0690  -5.0522  -5.0451  -5.0218  -5.0100
    -4.9888  -4.9645  -4.9285  -4.9038  -4.7832  -4.7613  -4.6819  -4.5681
    -4.5195  -4.5106  -4.4279  -4.3933  -4.3628  -4.3500  -4.2170  -4.1716
    -4.0900  -4.0644  -4.0151  -3.9849  -3.7674  -3.5110  -3.2814  -3.0609
    -1.4955  -1.2526  -0.8912  -0.7710  -0.7316  -0.6515  -0.5581  -0.5091
    -0.4298  -0.3906  -0.3554  -0.2897  -0.2191  -0.1615  -0.1287   0.0179
     0.0548   0.1073   0.1813   0.2012   0.2976   0.3178   0.3552   0.4253
     0.4839   0.5504   0.5716   0.6352   0.7129   0.7361   0.8183   0.8423
     0.8879   0.9482   0.9756   1.0018   1.0479   1.0704   1.1080   1.1567
     1.2062   1.2564   1.3098   1.3345   1.3835   1.4198   1.4648   1.4800
     1.5428   1.5759   1.6091   1.6866   1.7050   1.7287   1.7587   1.7814
     1.8469   1.8670   1.9090   1.9465   1.9844   2.0331   2.0937   2.1595
     2.2349   2.3085   2.3162   2.3773   2.4515   2.6757   2.7981   3.0291
     4.4760   4.5957   4.7749   4.8031   4.9550   5.0344   5.1312   5.3907
     5.4897   5.6542   5.7314   5.8065   5.9843   6.1560   6.2629   6.4283
     6.5301   6.7979   6.8556   7.0262   7.1390   7.2482   7.3928   7.5236
     7.6163   7.6723   7.7497   7.8848   7.9442   8.0457   8.1195   8.1861
     8.2729   8.3125   8.3893

          k =-0.3333-0.0000 0.3333 ( 87927 PWs)   bands (ev):

   -18.8909 -18.8859 -18.8429 -18.8193 -18.8145 -18.8129 -18.8108 -18.7626
   -18.7368 -18.7338 -18.7238 -18.7218 -18.7151 -18.6640 -18.6508 -18.5839
   -18.5737 -18.5436 -18.5156 -18.5139 -18.3881 -18.3127 -18.2870 -18.2860
   -18.2842 -18.2744 -18.2662 -18.2591 -18.2541 -18.2438 -18.2372 -18.2116
   -18.1794 -18.1220 -18.1111 -18.0845 -18.0822 -18.0712 -18.0571 -18.0480
   -18.0434 -18.0393 -18.0079 -18.0060 -17.6340 -17.6029 -17.4809 -17.0854
   -12.4790 -12.3886 -12.3706 -12.2446 -12.1535 -11.9157 -11.9106 -11.4981
   -11.3660 -11.3547 -11.2601 -11.0632 -10.9965 -10.9455 -10.9339 -10.7681
   -10.6927 -10.4655 -10.4032 -10.3177 -10.2474 -10.2317  -9.9463  -9.7268
    -5.3387  -5.1458  -5.0905  -5.0634  -5.0550  -5.0499  -5.0225  -5.0096
    -4.9882  -4.9658  -4.9196  -4.8962  -4.7837  -4.7567  -4.6736  -4.5632
    -4.5166  -4.5070  -4.4199  -4.3887  -4.3620  -4.3499  -4.2088  -4.1725
    -4.1141  -4.0604  -4.0262  -3.9742  -3.8110  -3.5770  -3.3468  -2.9670
    -1.3038  -1.1555  -0.8790  -0.8525  -0.7578  -0.6639  -0.6027  -0.4998
    -0.4441  -0.3809  -0.3580  -0.3004  -0.2580  -0.1746  -0.1065  -0.0462
     0.0117   0.1199   0.1726   0.2000   0.2729   0.2901   0.4269   0.4508
     0.4841   0.5743   0.6050   0.6342   0.6690   0.7404   0.8162   0.8424
     0.9280   0.9321   0.9658   0.9917   1.0032   1.0822   1.1255   1.1753
     1.2121   1.2623   1.3068   1.3400   1.3657   1.4080   1.4613   1.4898
     1.5221   1.5354   1.5981   1.6319   1.6821   1.7006   1.7429   1.7922
     1.8547   1.8924   1.9263   1.9502   1.9863   2.0486   2.1213   2.1601
     2.2370   2.2710   2.3347   2.3875   2.4504   2.6371   2.8153   2.9879
     4.5387   4.6737   4.7659   4.9357   5.0548   5.1383   5.2303   5.3162
     5.4594   5.5840   5.7425   5.9342   6.0427   6.1096   6.2624   6.3230
     6.5023   6.6673   6.8204   6.8900   7.0898   7.1614   7.3761   7.5497
     7.6552   7.7008   7.7319   7.9263   7.9783   8.1019   8.1368   8.1798
     8.2372   8.2714   8.3422

          k =-0.3333-0.3333 0.3333 ( 87860 PWs)   bands (ev):

   -18.8909 -18.8859 -18.8429 -18.8193 -18.8145 -18.8129 -18.8108 -18.7626
   -18.7368 -18.7338 -18.7238 -18.7218 -18.7151 -18.6640 -18.6508 -18.5839
   -18.5737 -18.5436 -18.5156 -18.5139 -18.3881 -18.3127 -18.2870 -18.2860
   -18.2842 -18.2744 -18.2662 -18.2591 -18.2541 -18.2438 -18.2372 -18.2116
   -18.1794 -18.1220 -18.1111 -18.0845 -18.0822 -18.0712 -18.0571 -18.0480
   -18.0434 -18.0393 -18.0079 -18.0060 -17.6340 -17.6029 -17.4809 -17.0854
   -12.4790 -12.3886 -12.3707 -12.2445 -12.1535 -11.9157 -11.9106 -11.4981
   -11.3660 -11.3547 -11.2604 -11.0631 -10.9972 -10.9455 -10.9338 -10.7669
   -10.6922 -10.4660 -10.4032 -10.3178 -10.2475 -10.2317  -9.9465  -9.7267
    -5.3387  -5.1462  -5.0900  -5.0615  -5.0548  -5.0465  -5.0226  -5.0096
    -4.9877  -4.9649  -4.9269  -4.8958  -4.7854  -4.7563  -4.6632  -4.5675
    -4.5188  -4.5095  -4.4186  -4.3873  -4.3625  -4.3428  -4.1967  -4.1715
    -4.1105  -4.0680  -4.0144  -3.9770  -3.8147  -3.5740  -3.3495  -3.0608
    -1.3017  -1.1443  -0.8734  -0.7728  -0.7131  -0.6342  -0.5911  -0.5010
    -0.4213  -0.3760  -0.3502  -0.2928  -0.2207  -0.1812  -0.1158  -0.0304
     0.0254   0.1129   0.1729   0.2314   0.2586   0.3052   0.3795   0.4463
     0.4723   0.5213   0.6117   0.6321   0.7030   0.7371   0.8140   0.8660
     0.8811   0.9258   0.9553   0.9975   1.0144   1.0528   1.0973   1.1457
     1.1806   1.2544   1.2635   1.3289   1.3540   1.4112   1.4332   1.4997
     1.5419   1.5580   1.5958   1.6380   1.6764   1.7272   1.7449   1.7904
     1.8571   1.8903   1.9281   1.9369   1.9967   2.0343   2.1136   2.1642
     2.1796   2.2809   2.3238   2.3582   2.4384   2.6463   2.7620   2.9983
     4.5385   4.6938   4.8077   4.9384   5.0663   5.1821   5.3095   5.3884
     5.4896   5.6478   5.7784   5.8833   6.0348   6.1359   6.2104   6.3613
     6.4854   6.6781   6.8405   6.9561   7.0221   7.2245   7.3016   7.4475
     7.6634   7.7183   7.7820   7.8616   7.9768   8.0356   8.0949   8.1374
     8.1908   8.2582   8.3157

          k =-0.3333 0.3333-0.3333 ( 87860 PWs)   bands (ev):

   -18.8909 -18.8859 -18.8429 -18.8193 -18.8145 -18.8129 -18.8108 -18.7626
   -18.7368 -18.7338 -18.7238 -18.7218 -18.7151 -18.6640 -18.6508 -18.5839
   -18.5737 -18.5436 -18.5156 -18.5139 -18.3881 -18.3127 -18.2870 -18.2860
   -18.2842 -18.2744 -18.2662 -18.2591 -18.2541 -18.2438 -18.2372 -18.2116
   -18.1794 -18.1220 -18.1111 -18.0845 -18.0822 -18.0712 -18.0571 -18.0480
   -18.0434 -18.0393 -18.0079 -18.0060 -17.6340 -17.6029 -17.4809 -17.0854
   -12.4790 -12.3885 -12.3708 -12.2445 -12.1534 -11.9163 -11.9100 -11.4981
   -11.3660 -11.3547 -11.2603 -11.0631 -10.9973 -10.9458 -10.9334 -10.7671
   -10.6920 -10.4665 -10.4030 -10.3178 -10.2472 -10.2319  -9.9465  -9.7267
    -5.3388  -5.1460  -5.0895  -5.0638  -5.0531  -5.0448  -5.0231  -5.0100
    -4.9883  -4.9649  -4.9279  -4.8958  -4.7860  -4.7564  -4.6637  -4.5665
    -4.5179  -4.5110  -4.4232  -4.3837  -4.3624  -4.3432  -4.1990  -4.1695
    -4.0922  -4.0641  -4.0193  -3.9789  -3.8258  -3.5903  -3.3256  -3.0714
    -1.3007  -1.1683  -0.8210  -0.7444  -0.7084  -0.6584  -0.5779  -0.5089
    -0.4517  -0.3669  -0.3393  -0.2783  -0.2472  -0.1952  -0.1276  -0.0529
     0.0189   0.1395   0.1691   0.2154   0.2593   0.2984   0.3518   0.4549
     0.4882   0.5446   0.6022   0.6517   0.7246   0.7633   0.8111   0.8438
     0.8848   0.9186   0.9420   0.9749   1.0187   1.0481   1.0876   1.1584
     1.2014   1.2351   1.2734   1.3083   1.3668   1.3942   1.4265   1.5169
     1.5455   1.5767   1.6266   1.6528   1.6877   1.7066   1.7472   1.7919
     1.8306   1.8554   1.9246   1.9520   2.0197   2.0254   2.1082   2.1503
     2.2297   2.2734   2.3257   2.3840   2.4200   2.6304   2.7439   2.9812
     4.5136   4.6937   4.8106   4.9487   5.0672   5.2524   5.3101   5.4232
     5.5163   5.6628   5.7404   5.8334   5.9903   6.1177   6.1721   6.3671
     6.5383   6.6501   6.8401   6.9998   7.0704   7.1827   7.2797   7.4719
     7.6301   7.6980   7.8318   7.8576   7.9278   8.0502   8.0930   8.1349
     8.1936   8.2726   8.3336

          k = 0.3333-0.3333-0.3333 ( 87860 PWs)   bands (ev):

   -18.8909 -18.8859 -18.8429 -18.8193 -18.8145 -18.8129 -18.8108 -18.7626
   -18.7368 -18.7338 -18.7238 -18.7218 -18.7151 -18.6640 -18.6508 -18.5839
   -18.5737 -18.5436 -18.5156 -18.5139 -18.3881 -18.3127 -18.2870 -18.2860
   -18.2842 -18.2744 -18.2662 -18.2591 -18.2541 -18.2438 -18.2372 -18.2116
   -18.1794 -18.1220 -18.1111 -18.0845 -18.0822 -18.0712 -18.0571 -18.0480
   -18.0434 -18.0393 -18.0079 -18.0060 -17.6340 -17.6029 -17.4809 -17.0854
   -12.4790 -12.3885 -12.3707 -12.2445 -12.1535 -11.9156 -11.9108 -11.4981
   -11.3660 -11.3547 -11.2604 -11.0631 -10.9975 -10.9457 -10.9335 -10.7670
   -10.6921 -10.4663 -10.4030 -10.3178 -10.2474 -10.2318  -9.9464  -9.7267
    -5.3387  -5.1461  -5.0903  -5.0611  -5.0548  -5.0446  -5.0231  -5.0100
    -4.9880  -4.9661  -4.9261  -4.8961  -4.7848  -4.7570  -4.6638  -4.5689
    -4.5194  -4.5093  -4.4161  -4.3903  -4.3613  -4.3424  -4.2029  -4.1747
    -4.0918  -4.0595  -4.0259  -3.9833  -3.8069  -3.5932  -3.3264  -3.0732
    -1.3018  -1.1457  -0.8583  -0.7560  -0.6939  -0.6451  -0.6157  -0.5062
    -0.4315  -0.3658  -0.3266  -0.2995  -0.2525  -0.1907  -0.0951  -0.0552
     0.0138   0.1199   0.1694   0.1928   0.2871   0.3145   0.3809   0.4538
     0.4810   0.5648   0.6388   0.6545   0.6890   0.7063   0.7872   0.8540
     0.8760   0.9164   0.9564   0.9803   1.0186   1.0647   1.1082   1.1285
     1.1860   1.2502   1.2774   1.3312   1.3632   1.4189   1.4531   1.4867
     1.5251   1.5654   1.6093   1.6412   1.6771   1.7066   1.7489   1.7966
     1.8492   1.8790   1.9159   1.9242   2.0109   2.0627   2.0968   2.1598
     2.2163   2.2751   2.3184   2.3520   2.4302   2.6396   2.7662   2.9922
     4.5420   4.7015   4.8243   4.9357   5.0533   5.2010   5.2844   5.3756
     5.5223   5.6324   5.8065   5.8393   6.0170   6.1269   6.1765   6.4256
     6.4740   6.6796   6.8602   6.9611   7.0745   7.1760   7.3356   7.5046
     7.6011   7.7002   7.7990   7.8845   7.9422   8.0029   8.0787   8.1233
     8.1966   8.2558   8.3519

     the Fermi energy is     3.6994 ev

!    total energy              =   -2937.24616946 Ry
     estimated scf accuracy    <          2.2E-09 Ry
     smearing contrib. (-TS)   =       0.00000000 Ry
     internal energy E=F+TS    =   -2937.24616946 Ry

     The total energy is F=E-TS. E is the sum of the following terms:
     one-electron contribution =   -1078.21365315 Ry
     hartree contribution      =     687.70130992 Ry
     xc contribution           =   -1250.68433021 Ry
     ewald contribution        =   -1296.04949602 Ry

     convergence has been achieved in  12 iterations

     Forces acting on atoms (cartesian axes, Ry/au):

     atom    1 type  1   force =    -0.03087238   -0.04909303    0.26105825
     atom    2 type  1   force =    -0.07355175    0.02030923    0.08233757
     atom    3 type  1   force =     0.00680541   -0.03582705    0.02359720
     atom    4 type  1   force =     0.01833038   -0.01762792    0.00453662
     atom    5 type  1   force =    -0.00210521    0.00390305   -0.00438690
     atom    6 type  1   force =     0.08951692    0.02089372    0.07867952
     atom    7 type  1   force =    -0.23923233   -0.11700036    0.11161255
     atom    8 type  1   force =    -0.01466347    0.04548659    0.00301870
     atom    9 type  2   force =    -0.01510945    0.00116393    0.02727532
     atom   10 type  2   force =    -0.06798480    0.00396855   -0.01080884
     atom   11 type  2   force =    -0.02384502    0.22600807    0.06003540
     atom   12 type  2   force =    -0.03631217    0.01559431    0.02656022
     atom   13 type  2   force =    -0.00736492    0.06051326   -0.01535240
     atom   14 type  2   force =     0.02986519   -0.00988644    0.01919275
     atom   15 type  2   force =    -0.00369416   -0.00865090   -0.00932061
     atom   16 type  2   force =     0.01369386    0.03902387   -0.14752341
     atom   17 type  3   force =     0.00017134   -0.01635371   -0.00241900
     atom   18 type  3   force =     0.03635886    0.00878974    0.00587655
     atom   19 type  3   force =     0.02041866   -0.01634178    0.00727929
     atom   20 type  3   force =    -0.02399425   -0.01132206   -0.00734171
     atom   21 type  3   force =     0.02726208    0.01548104   -0.03074301
     atom   22 type  3   force =    -0.02527028   -0.00544682   -0.03462065
     atom   23 type  3   force =    -0.03735636    0.00108928    0.02154277
     atom   24 type  3   force =    -0.01114331   -0.01183046    0.02645705
     atom   25 type  3   force =     0.02552791   -0.20423041   -0.06681080
     atom   26 type  3   force =    -0.09032078   -0.00618500   -0.07333166
     atom   27 type  3   force =     0.04410940    0.01178799   -0.04187611
     atom   28 type  3   force =     0.05468408   -0.02415703   -0.12686557
     atom   29 type  3   force =     0.09021986    0.00413135   -0.08959757
     atom   30 type  3   force =     0.00546679    0.00290827   -0.24233038
     atom   31 type  3   force =    -0.00803489   -0.06692433   -0.01154484
     atom   32 type  3   force =    -0.04127451    0.00838830    0.02807330
     atom   33 type  3   force =    -0.00811691    0.01834085    0.05771029
     atom   34 type  3   force =    -0.03080073    0.00728557    0.00108739
     atom   35 type  3   force =    -0.00767372    0.01410686   -0.00113708
     atom   36 type  3   force =     0.02745743    0.01951759    0.11149373
     atom   37 type  3   force =     0.02949114   -0.01962894   -0.00792509
     atom   38 type  3   force =     0.20147076    0.14601197    0.00581767
     atom   39 type  3   force =     0.04723184   -0.06421054    0.00968985
     atom   40 type  3   force =     0.03063951   -0.00998660   -0.04899640

     Total force =     0.739493     Total SCF correction =     0.000147
     Message from routine punch:
     Nothing written, as per user request (disk_io='none')

     init_run     :     86.09s CPU     91.73s WALL (       1 calls)
     electrons    :   2813.15s CPU   2921.09s WALL (       1 calls)
     forces       :     43.48s CPU     45.90s WALL (       1 calls)

     Called by init_run:
     wfcinit      :     77.98s CPU     80.89s WALL (       1 calls)
     potinit      :      2.65s CPU      3.02s WALL (       1 calls)
     hinit0       :      1.81s CPU      1.90s WALL (       1 calls)

     Called by electrons:
     c_bands      :   2336.95s CPU   2395.02s WALL (      13 calls)
     sum_band     :    405.79s CPU    433.04s WALL (      13 calls)
     v_of_rho     :     25.13s CPU     28.64s WALL (      13 calls)
     newd         :     41.93s CPU     63.32s WALL (      13 calls)
     mix_rho      :      3.75s CPU      3.88s WALL (      13 calls)

     Called by c_bands:
     init_us_2    :     32.83s CPU     33.20s WALL (     112 calls)
     cegterg      :   2203.09s CPU   2261.12s WALL (      52 calls)

     Called by *egterg:
     cdiaghg      :     25.19s CPU     25.21s WALL (     304 calls)
     h_psi        :   1515.57s CPU   1552.32s WALL (     312 calls)
     s_psi        :    219.94s CPU    220.01s WALL (     312 calls)
     g_psi        :      5.65s CPU      5.65s WALL (     256 calls)

     Called by h_psi:
     h_psi:calbec :    232.48s CPU    232.67s WALL (     312 calls)
     vloc_psi     :   1056.60s CPU   1083.61s WALL (     312 calls)
                                        0.00s GPU  (     312 calls)
     add_vuspsi   :    222.23s CPU    222.30s WALL (     312 calls)

     General routines
     calbec       :    338.01s CPU    338.28s WALL (     380 calls)
     fft          :     24.15s CPU     26.01s WALL (     179 calls)
     ffts         :      1.63s CPU      1.67s WALL (      26 calls)
     fftw         :   1067.49s CPU   1097.69s WALL (   69110 calls)
     interpolate  :      3.03s CPU      3.13s WALL (      13 calls)

     Parallel routines

     PWSCF        :  49m 5.33s CPU  51m 1.57s WALL


   This run was terminated on:   5: 0:36   4Oct2026            

=------------------------------------------------------------------------------=
   JOB DONE.
=------------------------------------------------------------------------------=
