
     Program PWSCF v.7.5 starts on  4Oct2026 at  5:49:32 

     This program is part of the open-source Quantum ESPRESSO suite
     for quantum simulation of materials; please cite
         "P. Giannozzi et al., J. Phys.:Condens. Matter 21 395502 (2009);
         "P. Giannozzi et al., J. Phys.:Condens. Matter 29 465901 (2017);
         "P. Giannozzi et al., J. Chem. Phys. 152 154105 (2020);
          URL http://www.quantum-espresso.org", 
     in publications or presentations arising from this work. More details at
     http://www.quantum-espresso.org/quote

     Parallel version (MPI & OpenMP), running on       8 processor cores
     Number of MPI processes:                 8
     Threads/MPI process:                     1

     MPI processes distributed on     1 nodes
     56173 MiB available memory on the printing compute node when the environment starts

     Reading input from pw.in

     Current dimensions of program PWSCF are:
     Max number of different atomic species (ntypx) = 10
     Max number of k-points (npk) =  40000
     Max angular momentum in pseudopotentials (lmaxx) =  4

     K-points division:     npool     =       4
     R & G space division:  proc/nbgrp/npool/nimage =       2
     Subspace diagonalization in iterative solution of the eigenvalue problem:
     a serial algorithm will be used


     Parallelization info
     --------------------
     sticks:   dense  smooth     PW     G-vecs:    dense   smooth      PW
     Min        9562    4784   1245               994512   351678   46690
     Max        9563    4785   1248               994513   351681   46691
     Sum       19125    9569   2493              1989025   703359   93381

     Using Slab Decomposition



     bravais-lattice index     =            0
     lattice parameter (alat)  =      22.3764  a.u.
     unit-cell volume          =   11203.9580 (a.u.)^3
     number of atoms/cell      =           40
     number of atomic types    =            3
     number of electrons       =       352.00
     number of Kohn-Sham states=          211
     kinetic-energy cutoff     =      60.0000  Ry
     charge density cutoff     =     480.0000  Ry
     scf convergence threshold =      4.0E-09
     mixing beta               =       0.4000
     number of iterations used =            8  plain     mixing
     Exchange-correlation=  SLA  PW   PBX  PBC
                           (   1   4   3   4   0   0   0)

     celldm(1)=  22.376412  celldm(2)=   0.000000  celldm(3)=   0.000000
     celldm(4)=   0.000000  celldm(5)=   0.000000  celldm(6)=   0.000000

     crystal axes: (cart. coord. in units of alat)
               a(1) = (   1.000000  -0.000000   0.000000 )  
               a(2) = (  -0.000000   1.000001   0.000000 )  
               a(3) = (   0.000000   0.000000   0.999999 )  

     reciprocal axes: (cart. coord. in units 2 pi/alat)
               b(1) = (  1.000000  0.000000 -0.000000 )  
               b(2) = (  0.000000  0.999999 -0.000000 )  
               b(3) = ( -0.000000 -0.000000  1.000001 )  


     PseudoPot. # 1 for Cs read from file:
     /root/sssp/Cs_pbe_v1.uspp.F.UPF
     MD5 check sum: 3476d69cb178dfad3ffaa59df4e07ca4
     Pseudo is Ultrasoft + core correction, Zval =  9.0
     Generated by new atomic code, or converted to UPF format
     Using radial grid of  905 points,  6 beta functions with: 
                l(1) =   0
                l(2) =   0
                l(3) =   1
                l(4) =   1
                l(5) =   2
                l(6) =   2
     Q(r) pseudized with  6 coefficients,  rinner =    1.500   1.500   1.500
                                                       1.500   1.500

     PseudoPot. # 2 for Sn read from file:
     /root/sssp/Sn_pbe_v1.uspp.F.UPF
     MD5 check sum: 4cf58ce39ec5d5d420df3dd08604eb00
     Pseudo is Ultrasoft + core correction, Zval = 14.0
     Generated by new atomic code, or converted to UPF format
     Using radial grid of  891 points,  6 beta functions with: 
                l(1) =   0
                l(2) =   0
                l(3) =   1
                l(4) =   1
                l(5) =   2
                l(6) =   2
     Q(r) pseudized with  6 coefficients,  rinner =    1.200   1.200   1.200
                                                       1.200   1.200

     PseudoPot. # 3 for Br read from file:
     /root/sssp/br_pbe_v1.4.uspp.F.UPF
     MD5 check sum: d3ffb7b29f6225aa16fe06858fb2a80b
     Pseudo is Ultrasoft + core correction, Zval =  7.0
     Generated by new atomic code, or converted to UPF format
     Using radial grid of  879 points,  6 beta functions with: 
                l(1) =   0
                l(2) =   0
                l(3) =   1
                l(4) =   1
                l(5) =   2
                l(6) =   2
     Q(r) pseudized with  8 coefficients,  rinner =    1.100   1.100   1.100
                                                       1.100   1.100

     atomic species   valence    mass     pseudopotential
     Cs                9.00   132.90550     Cs( 1.00)
     Sn               14.00   118.71000     Sn( 1.00)
     Br                7.00    79.90400     Br( 1.00)

     No symmetry found



   Cartesian axes

     site n.     atom                  positions (alat units)
         1        Cs     tau(   1) = (   0.5441316   0.5165206  -0.0098947  )
         2        Cs     tau(   2) = (   1.0561268   0.5028572   0.0349888  )
         3        Cs     tau(   3) = (   0.4340738   1.0251630   0.0203183  )
         4        Cs     tau(   4) = (   0.9789707   0.9715836  -0.0198392  )
         5        Cs     tau(   5) = (   0.5212817   0.4827388   0.5446327  )
         6        Cs     tau(   6) = (   1.0654923   0.4812369   0.4791455  )
         7        Cs     tau(   7) = (   0.4383408   0.9574025   0.4605446  )
         8        Cs     tau(   8) = (   0.9879332   0.9604332   0.5309855  )
         9        Sn     tau(   9) = (   0.2588396   0.2108973   0.2751973  )
        10        Sn     tau(  10) = (   0.7538893   0.2363360   0.2948400  )
        11        Sn     tau(  11) = (   0.2414992   0.7125850   0.2093556  )
        12        Sn     tau(  12) = (   0.7275269   0.7713512   0.2115641  )
        13        Sn     tau(  13) = (   0.2538065   0.2230059   0.7795997  )
        14        Sn     tau(  14) = (   0.7588172   0.2918471   0.7754618  )
        15        Sn     tau(  15) = (   0.1772696   0.7212289   0.7156086  )
        16        Sn     tau(  16) = (   0.6998814   0.7895346   0.7395708  )
        17        Br     tau(  17) = (   0.5095145   0.3221095   0.1940408  )
        18        Br     tau(  18) = (   1.0089700   0.2634537   0.2701007  )
        19        Br     tau(  19) = (   0.4801092   0.8026987   0.1731206  )
        20        Br     tau(  20) = (   1.0079490   0.7743429   0.3274347  )
        21        Br     tau(  21) = (   0.5095574   0.1654749   0.7224665  )
        22        Br     tau(  22) = (   0.9949845   0.2146045   0.7708970  )
        23        Br     tau(  23) = (   0.4677755   0.7561353   0.7147561  )
        24        Br     tau(  24) = (   0.9645368   0.7467245   0.7887988  )
        25        Br     tau(  25) = (   0.3182600   0.4944763   0.1187084  )
        26        Br     tau(  26) = (   0.8398234   0.4920886   0.3354507  )
        27        Br     tau(  27) = (   0.2049180   1.0029119   0.2350336  )
        28        Br     tau(  28) = (   0.7638101   1.0078631   0.2229551  )
        29        Br     tau(  29) = (   0.2986540   0.4927435   0.7521692  )
        30        Br     tau(  30) = (   0.7280322   0.5139975   0.7147175  )
        31        Br     tau(  31) = (   0.3550712   0.9624903   0.8045107  )
        32        Br     tau(  32) = (   0.7561303   1.0062174   0.6970004  )
        33        Br     tau(  33) = (   0.3302177   0.2701551   0.0162109  )
        34        Br     tau(  34) = (   0.7703536   0.2704675   0.0168532  )
        35        Br     tau(  35) = (   0.1471627   0.6938682   0.0025693  )
        36        Br     tau(  36) = (   0.6969358   0.7343006   0.0061211  )
        37        Br     tau(  37) = (   0.2136252   0.3305666   0.5315548  )
        38        Br     tau(  38) = (   0.7978093   0.2948063   0.5165847  )
        39        Br     tau(  39) = (   0.2331123   0.8584041   0.4835575  )
        40        Br     tau(  40) = (   0.7497197   0.7630967   0.5145929  )

     number of k points=    14  Marzari-Vanderbilt smearing, width (Ry)=  0.0050
                       cart. coord. in units 2pi/alat
        k(    1) = (   0.0000000   0.0000000   0.0000000), wk =   0.0740741
        k(    2) = (  -0.0000000  -0.0000000   0.3333336), wk =   0.1481481
        k(    3) = (   0.0000000   0.3333330  -0.0000000), wk =   0.1481481
        k(    4) = (   0.0000000   0.3333330   0.3333336), wk =   0.1481481
        k(    5) = (   0.3333333   0.0000000   0.3333336), wk =   0.1481481
        k(    6) = (   0.3333333   0.3333330   0.3333336), wk =   0.1481481
        k(    7) = (   0.3333333   0.0000000  -0.0000000), wk =   0.1481481
        k(    8) = (  -0.0000000  -0.3333330   0.3333336), wk =   0.1481481
        k(    9) = (   0.3333333  -0.3333330   0.0000000), wk =   0.1481481
        k(   10) = (  -0.3333333  -0.3333330   0.0000000), wk =   0.1481481
        k(   11) = (  -0.3333333  -0.0000000   0.3333336), wk =   0.1481481
        k(   12) = (  -0.3333333  -0.3333330   0.3333336), wk =   0.1481481
        k(   13) = (  -0.3333333   0.3333330  -0.3333336), wk =   0.1481481
        k(   14) = (   0.3333333  -0.3333330  -0.3333336), wk =   0.1481481

     Dense  grid:  1989025 G-vectors     FFT dimensions: ( 160, 160, 160)

     Smooth grid:   703359 G-vectors     FFT dimensions: ( 120, 120, 120)

     Estimated max dynamical RAM per process >       2.72 GB

     Estimated total dynamical RAM >      20.33 GB

     Initial potential from superposition of free atoms

     starting charge     343.6841, renormalised to     352.0000
     Starting wfcs are  272 randomized atomic wfcs

     total cpu time spent up to now is       85.0 secs

     per-process dynamical memory:  1661.1 Mb

     Self-consistent Calculation

     iteration #  1     ecut=    60.00 Ry     beta= 0.40
     Davidson diagonalization with overlap
     ethr =  1.00E-02,  avg # of iterations =  3.0

     Threshold (ethr) on eigenvalues was too large:
     Diagonalizing with lowered threshold

     Davidson diagonalization with overlap
     ethr =  5.59E-04,  avg # of iterations =  2.0

     total cpu time spent up to now is      459.5 secs

     total energy              =   -2937.00377119 Ry
     estimated scf accuracy    <       1.88576649 Ry

     iteration #  2     ecut=    60.00 Ry     beta= 0.40
     Davidson diagonalization with overlap
     ethr =  5.36E-04,  avg # of iterations =  2.0

     total cpu time spent up to now is      668.4 secs

     total energy              =   -2937.27594508 Ry
     estimated scf accuracy    <       0.20332485 Ry

     iteration #  3     ecut=    60.00 Ry     beta= 0.40
     Davidson diagonalization with overlap
     ethr =  5.78E-05,  avg # of iterations = 12.1

     total cpu time spent up to now is      919.5 secs

     total energy              =   -2937.29635923 Ry
     estimated scf accuracy    <       0.04190406 Ry

     iteration #  4     ecut=    60.00 Ry     beta= 0.40
     Davidson diagonalization with overlap
     ethr =  1.19E-05,  avg # of iterations = 13.1

     total cpu time spent up to now is     1158.8 secs

     total energy              =   -2937.30164875 Ry
     estimated scf accuracy    <       0.01037954 Ry

     iteration #  5     ecut=    60.00 Ry     beta= 0.40
     Davidson diagonalization with overlap
     ethr =  2.95E-06,  avg # of iterations =  7.9

     total cpu time spent up to now is     1376.0 secs

     total energy              =   -2937.30300847 Ry
     estimated scf accuracy    <       0.00200334 Ry

     iteration #  6     ecut=    60.00 Ry     beta= 0.40
     Davidson diagonalization with overlap
     ethr =  5.69E-07,  avg # of iterations =  2.0

     total cpu time spent up to now is     1568.5 secs

     total energy              =   -2937.30334311 Ry
     estimated scf accuracy    <       0.00028147 Ry

     iteration #  7     ecut=    60.00 Ry     beta= 0.40
     Davidson diagonalization with overlap
     ethr =  8.00E-08,  avg # of iterations =  2.0

     total cpu time spent up to now is     1777.1 secs

     total energy              =   -2937.30340427 Ry
     estimated scf accuracy    <       0.00002069 Ry

     iteration #  8     ecut=    60.00 Ry     beta= 0.40
     Davidson diagonalization with overlap
     ethr =  5.88E-09,  avg # of iterations =  5.0

     total cpu time spent up to now is     2067.5 secs

     total energy              =   -2937.30342161 Ry
     estimated scf accuracy    <       0.00000318 Ry

     iteration #  9     ecut=    60.00 Ry     beta= 0.40
     Davidson diagonalization with overlap
     ethr =  9.03E-10,  avg # of iterations =  2.0

     total cpu time spent up to now is     2275.9 secs

     total energy              =   -2937.30342430 Ry
     estimated scf accuracy    <       0.00000067 Ry

     iteration # 10     ecut=    60.00 Ry     beta= 0.40
     Davidson diagonalization with overlap
     ethr =  1.89E-10,  avg # of iterations =  5.0

     total cpu time spent up to now is     2530.7 secs

     total energy              =   -2937.30342521 Ry
     estimated scf accuracy    <       0.00000010 Ry

     iteration # 11     ecut=    60.00 Ry     beta= 0.40
     Davidson diagonalization with overlap
     ethr =  2.91E-11,  avg # of iterations =  2.0

     total cpu time spent up to now is     2746.1 secs

     total energy              =   -2937.30342545 Ry
     estimated scf accuracy    <       0.00000002 Ry

     iteration # 12     ecut=    60.00 Ry     beta= 0.40
     Davidson diagonalization with overlap
     ethr =  4.34E-12,  avg # of iterations =  2.0

     total cpu time spent up to now is     2964.0 secs

     End of self-consistent calculation

          k = 0.0000 0.0000 0.0000 ( 87703 PWs)   bands (ev):

   -19.1883 -19.1773 -19.1401 -19.1206 -19.1038 -18.8600 -18.8476 -18.8236
   -18.7919 -18.7656 -18.7182 -18.7026 -18.6522 -18.6322 -18.6189 -18.5485
   -18.5301 -18.5178 -18.4844 -18.4579 -18.4488 -18.4199 -18.4175 -18.4015
   -18.3842 -18.3828 -18.2585 -18.2492 -18.2211 -18.2090 -18.2047 -18.1023
   -18.0944 -18.0712 -18.0691 -18.0554 -17.9550 -17.8953 -17.8744 -17.8571
   -17.8480 -17.8353 -17.8242 -17.8104 -17.5794 -17.5749 -17.4799 -17.3452
   -12.4056 -12.2061 -11.9653 -11.9165 -11.5630 -11.5335 -11.4203 -11.2289
   -11.2244 -11.2084 -11.0446 -11.0064 -10.9522 -10.8997 -10.8412 -10.8102
   -10.7670 -10.5638 -10.5268 -10.4774 -10.3135 -10.2387 -10.1138  -9.7034
    -5.3320  -5.3063  -5.2643  -5.1665  -5.0627  -4.9524  -4.7999  -4.7578
    -4.7462  -4.7052  -4.6827  -4.6552  -4.6516  -4.5942  -4.5466  -4.4962
    -4.4618  -4.4498  -4.4345  -4.4120  -4.3961  -4.3850  -4.3380  -4.3012
    -4.2527  -4.0206  -3.9767  -3.7611  -3.5516  -3.3540  -3.2476  -2.8230
    -1.1600  -1.0661  -0.9233  -0.8914  -0.6096  -0.5877  -0.4636  -0.4055
    -0.3373  -0.2875  -0.2422  -0.1060  -0.0977   0.0042   0.0418   0.0586
     0.1537   0.1957   0.2726   0.3308   0.3532   0.4770   0.5252   0.5785
     0.6014   0.6579   0.7038   0.7076   0.7455   0.7923   0.8493   0.8669
     0.9112   0.9500   0.9878   1.0164   1.0689   1.1202   1.1535   1.1835
     1.1917   1.2282   1.2586   1.2808   1.3109   1.3492   1.3859   1.4469
     1.5133   1.5625   1.6116   1.6286   1.7318   1.7395   1.7855   1.8049
     1.8474   1.9147   1.9463   2.0002   2.0745   2.1815   2.3173   2.3609
     2.4293   2.5134   2.6080   2.6262   2.7016   2.7487   2.9673   3.0169
     4.1746   4.4612   4.5712   4.6733   4.9650   5.0743   5.1182   5.2321
     5.3227   5.4474   5.6263   5.7641   5.8219   5.9646   6.0207   6.1483
     6.2917   6.5586   6.7175   6.8750   6.9287   7.2490   7.4328   7.5834
     7.6920   7.8031   7.8479   7.8885   8.0132   8.0241   8.0471   8.1501
     8.2296   8.2760   8.3230

          k =-0.0000-0.0000 0.3333 ( 87875 PWs)   bands (ev):

   -19.1883 -19.1773 -19.1401 -19.1206 -19.1038 -18.8600 -18.8476 -18.8236
   -18.7919 -18.7656 -18.7182 -18.7026 -18.6522 -18.6322 -18.6189 -18.5485
   -18.5301 -18.5178 -18.4844 -18.4579 -18.4488 -18.4199 -18.4175 -18.4015
   -18.3842 -18.3828 -18.2585 -18.2492 -18.2211 -18.2090 -18.2047 -18.1023
   -18.0944 -18.0712 -18.0691 -18.0554 -17.9550 -17.8953 -17.8744 -17.8571
   -17.8480 -17.8353 -17.8242 -17.8104 -17.5794 -17.5749 -17.4799 -17.3452
   -12.4056 -12.2061 -11.9660 -11.9159 -11.5631 -11.5334 -11.4201 -11.2292
   -11.2241 -11.2080 -11.0450 -11.0052 -10.9558 -10.8994 -10.8410 -10.8102
   -10.7651 -10.5635 -10.5272 -10.4770 -10.3136 -10.2389 -10.1138  -9.7034
    -5.3320  -5.3059  -5.2645  -5.1670  -5.0608  -4.9512  -4.8014  -4.7560
    -4.7463  -4.7108  -4.6827  -4.6568  -4.6498  -4.5963  -4.5443  -4.4949
    -4.4633  -4.4495  -4.4349  -4.4026  -4.3941  -4.3838  -4.3373  -4.2873
    -4.2186  -4.0734  -3.9498  -3.7189  -3.5995  -3.3631  -3.2414  -2.9604
    -1.1135  -1.0090  -0.9691  -0.8795  -0.5951  -0.5704  -0.3878  -0.3538
    -0.3013  -0.2494  -0.1462  -0.0890  -0.0675   0.0055   0.0578   0.1000
     0.1781   0.2173   0.2795   0.3140   0.3910   0.4335   0.5099   0.5467
     0.5963   0.6409   0.6774   0.7051   0.7470   0.7593   0.8365   0.8786
     0.8980   0.9150   0.9728   0.9939   1.0089   1.0636   1.0908   1.1397
     1.1688   1.1885   1.2562   1.2828   1.3188   1.3685   1.4088   1.4853
     1.4916   1.5645   1.6176   1.6600   1.6936   1.7284   1.7718   1.8240
     1.8498   1.9094   1.9557   1.9864   2.0346   2.1982   2.2471   2.3529
     2.4303   2.5238   2.5540   2.6217   2.6629   2.7863   2.8521   2.9863
     4.1718   4.4706   4.5646   4.7118   5.0032   5.0726   5.1448   5.2490
     5.3166   5.6794   5.7464   5.7996   5.8487   5.9535   6.1029   6.2944
     6.4355   6.6893   6.7307   6.8156   7.0331   7.2186   7.3434   7.5238
     7.5920   7.7002   7.7846   7.8746   7.9417   7.9706   8.0843   8.1201
     8.1769   8.2605   8.3281

          k = 0.0000 0.3333-0.0000 ( 87875 PWs)   bands (ev):

   -19.1883 -19.1773 -19.1401 -19.1206 -19.1038 -18.8600 -18.8476 -18.8236
   -18.7919 -18.7656 -18.7182 -18.7026 -18.6522 -18.6322 -18.6189 -18.5485
   -18.5301 -18.5178 -18.4844 -18.4579 -18.4488 -18.4199 -18.4175 -18.4015
   -18.3842 -18.3828 -18.2585 -18.2492 -18.2211 -18.2090 -18.2047 -18.1023
   -18.0944 -18.0712 -18.0691 -18.0554 -17.9550 -17.8953 -17.8744 -17.8571
   -17.8480 -17.8353 -17.8242 -17.8104 -17.5794 -17.5749 -17.4799 -17.3452
   -12.4056 -12.2060 -11.9650 -11.9168 -11.5625 -11.5420 -11.4102 -11.2295
   -11.2222 -11.2044 -11.0620 -10.9954 -10.9529 -10.9023 -10.8409 -10.8125
   -10.7644 -10.5609 -10.5281 -10.4766 -10.3135 -10.2387 -10.1149  -9.7036
    -5.3322  -5.3068  -5.2639  -5.1660  -5.0626  -4.9540  -4.7989  -4.7563
    -4.7456  -4.7046  -4.6849  -4.6547  -4.6506  -4.5928  -4.5466  -4.4959
    -4.4635  -4.4518  -4.4273  -4.4068  -4.3923  -4.3790  -4.3387  -4.2921
    -4.2226  -4.0613  -3.9751  -3.7633  -3.5997  -3.3711  -3.1603  -2.9235
    -1.1374  -1.0791  -0.9159  -0.8481  -0.5812  -0.5311  -0.4832  -0.3544
    -0.3370  -0.2944  -0.2122  -0.1209  -0.0722  -0.0213   0.0688   0.1176
     0.1483   0.1864   0.2573   0.3364   0.4015   0.4708   0.5000   0.5826
     0.5954   0.6442   0.6945   0.7126   0.7599   0.7784   0.8238   0.8673
     0.9020   0.9377   0.9564   1.0197   1.0611   1.0919   1.1254   1.1555
     1.1873   1.2044   1.2505   1.2824   1.2994   1.3421   1.3853   1.4401
     1.4707   1.5520   1.6167   1.6380   1.6790   1.6942   1.7580   1.8030
     1.8747   1.9228   1.9372   2.0162   2.1114   2.1912   2.3115   2.4015
     2.4334   2.5428   2.5752   2.6174   2.6880   2.7871   2.9693   3.0245
     4.1696   4.4724   4.5254   4.7110   4.9420   5.0347   5.1637   5.2553
     5.3889   5.4163   5.6049   5.6998   5.9304   6.0170   6.0774   6.2037
     6.3986   6.6063   6.7018   6.7583   6.9422   7.2254   7.3818   7.4752
     7.6851   7.7877   7.8279   7.8906   7.9924   8.0087   8.0766   8.1166
     8.2355   8.2833   8.3471

          k = 0.0000 0.3333 0.3333 ( 87927 PWs)   bands (ev):

   -19.1883 -19.1773 -19.1401 -19.1206 -19.1038 -18.8600 -18.8476 -18.8236
   -18.7919 -18.7656 -18.7182 -18.7026 -18.6522 -18.6322 -18.6189 -18.5485
   -18.5301 -18.5178 -18.4844 -18.4579 -18.4488 -18.4199 -18.4175 -18.4015
   -18.3842 -18.3828 -18.2585 -18.2492 -18.2211 -18.2090 -18.2047 -18.1023
   -18.0944 -18.0712 -18.0691 -18.0554 -17.9550 -17.8953 -17.8744 -17.8571
   -17.8480 -17.8353 -17.8242 -17.8104 -17.5794 -17.5749 -17.4799 -17.3452
   -12.4056 -12.2060 -11.9656 -11.9163 -11.5624 -11.5418 -11.4101 -11.2303
   -11.2216 -11.2040 -11.0618 -10.9946 -10.9565 -10.9021 -10.8408 -10.8125
   -10.7624 -10.5612 -10.5282 -10.4761 -10.3137 -10.2389 -10.1149  -9.7036
    -5.3322  -5.3064  -5.2641  -5.1667  -5.0605  -4.9534  -4.8000  -4.7559
    -4.7452  -4.7106  -4.6849  -4.6547  -4.6497  -4.5946  -4.5449  -4.4943
    -4.4599  -4.4508  -4.4273  -4.4074  -4.3919  -4.3780  -4.3376  -4.2869
    -4.1864  -4.0781  -3.9562  -3.7424  -3.6131  -3.3814  -3.1725  -3.0704
    -1.0769  -1.0191  -0.9297  -0.8642  -0.5761  -0.4785  -0.4107  -0.3485
    -0.2843  -0.2474  -0.1729  -0.1124  -0.0555  -0.0061   0.0799   0.1391
     0.1728   0.2038   0.2813   0.3289   0.4302   0.4429   0.4839   0.5376
     0.6000   0.6537   0.6846   0.7256   0.7450   0.7803   0.8269   0.8455
     0.8784   0.9200   0.9548   0.9677   1.0335   1.0562   1.1089   1.1307
     1.1533   1.1819   1.2362   1.2656   1.2929   1.3363   1.3766   1.4099
     1.5104   1.5537   1.6060   1.6227   1.6683   1.7214   1.7442   1.7695
     1.8864   1.9160   1.9351   2.0215   2.0992   2.2051   2.2551   2.3813
     2.4162   2.4870   2.5696   2.6297   2.7102   2.7784   2.8081   3.0215
     4.1665   4.4898   4.5438   4.7262   4.9476   5.1155   5.1522   5.2462
     5.3933   5.6827   5.7365   5.8346   5.8569   6.0419   6.1161   6.2835
     6.4909   6.6121   6.6939   6.8180   6.9979   7.2683   7.3536   7.5137
     7.6311   7.7143   7.7662   7.8278   7.9181   8.0057   8.0601   8.1089
     8.2001   8.2622   8.3070

          k = 0.3333 0.0000 0.3333 ( 87927 PWs)   bands (ev):

   -19.1883 -19.1773 -19.1401 -19.1206 -19.1038 -18.8600 -18.8476 -18.8236
   -18.7919 -18.7656 -18.7182 -18.7026 -18.6522 -18.6322 -18.6189 -18.5485
   -18.5301 -18.5178 -18.4844 -18.4579 -18.4488 -18.4199 -18.4175 -18.4015
   -18.3842 -18.3828 -18.2585 -18.2492 -18.2211 -18.2090 -18.2047 -18.1023
   -18.0944 -18.0712 -18.0691 -18.0554 -17.9550 -17.8953 -17.8744 -17.8571
   -17.8480 -17.8353 -17.8242 -17.8104 -17.5795 -17.5749 -17.4799 -17.3452
   -12.4053 -12.2067 -11.9655 -11.9157 -11.5632 -11.5335 -11.4201 -11.2289
   -11.2266 -11.2056 -11.0443 -11.0056 -10.9568 -10.8999 -10.8407 -10.8095
   -10.7651 -10.5650 -10.5264 -10.4754 -10.3143 -10.2392 -10.1140  -9.7034
    -5.3323  -5.3057  -5.2645  -5.1664  -5.0606  -4.9508  -4.8022  -4.7578
    -4.7458  -4.7108  -4.6817  -4.6571  -4.6487  -4.5978  -4.5398  -4.4959
    -4.4576  -4.4444  -4.4342  -4.4040  -4.3965  -4.3810  -4.3363  -4.2826
    -4.1725  -4.0610  -4.0042  -3.6765  -3.6179  -3.3704  -3.3235  -3.0021
    -1.1200  -0.9858  -0.9390  -0.7095  -0.5971  -0.5501  -0.4274  -0.3538
    -0.2533  -0.2198  -0.1577  -0.1178  -0.0051   0.0288   0.0613   0.0880
     0.1796   0.2593   0.2719   0.3168   0.3870   0.4477   0.4739   0.5418
     0.5736   0.5942   0.6457   0.6764   0.7343   0.7565   0.8315   0.8907
     0.9134   0.9493   0.9738   1.0040   1.0108   1.0501   1.0965   1.1352
     1.1498   1.1841   1.2396   1.2592   1.2950   1.3880   1.4361   1.4617
     1.4955   1.5195   1.5829   1.6177   1.6753   1.7129   1.7558   1.8479
     1.8872   1.9200   1.9624   2.0128   2.0905   2.1595   2.2243   2.3248
     2.3749   2.4761   2.5155   2.5710   2.6342   2.7081   2.8815   2.9967
     4.1382   4.5031   4.6009   4.7268   4.9753   5.1493   5.3270   5.3893
     5.5013   5.6534   5.7568   5.8421   5.9085   5.9811   6.1128   6.2773
     6.4151   6.6222   6.6945   6.8011   7.0000   7.1722   7.2962   7.5313
     7.6099   7.6764   7.7860   7.8146   7.9282   7.9825   8.0333   8.1178
     8.2226   8.2479   8.2578

          k = 0.3333 0.3333 0.3333 ( 87860 PWs)   bands (ev):

   -19.1883 -19.1773 -19.1401 -19.1206 -19.1038 -18.8600 -18.8476 -18.8236
   -18.7919 -18.7656 -18.7182 -18.7026 -18.6522 -18.6322 -18.6189 -18.5485
   -18.5301 -18.5178 -18.4844 -18.4579 -18.4488 -18.4199 -18.4175 -18.4015
   -18.3842 -18.3828 -18.2585 -18.2492 -18.2211 -18.2090 -18.2047 -18.1023
   -18.0944 -18.0712 -18.0691 -18.0554 -17.9550 -17.8953 -17.8744 -17.8571
   -17.8480 -17.8353 -17.8242 -17.8104 -17.5795 -17.5749 -17.4799 -17.3452
   -12.4053 -12.2066 -11.9653 -11.9160 -11.5628 -11.5418 -11.4100 -11.2302
   -11.2223 -11.2044 -11.0550 -11.0018 -10.9569 -10.9017 -10.8403 -10.8121
   -10.7622 -10.5618 -10.5277 -10.4749 -10.3144 -10.2392 -10.1150  -9.7036
    -5.3322  -5.3063  -5.2641  -5.1659  -5.0604  -4.9528  -4.8011  -4.7577
    -4.7446  -4.7108  -4.6835  -4.6548  -4.6490  -4.5964  -4.5401  -4.4940
    -4.4562  -4.4449  -4.4299  -4.4051  -4.3926  -4.3769  -4.3364  -4.2849
    -4.1514  -4.0501  -4.0118  -3.7027  -3.6238  -3.3909  -3.2468  -3.1276
    -1.0615  -0.9885  -0.8747  -0.7228  -0.5627  -0.5014  -0.4273  -0.3349
    -0.2679  -0.2507  -0.1419  -0.0958  -0.0582  -0.0107   0.0732   0.1016
     0.1748   0.2207   0.3040   0.3465   0.4024   0.4670   0.4897   0.5678
     0.5896   0.6056   0.6603   0.7089   0.7305   0.7774   0.7938   0.8661
     0.8776   0.9298   0.9391   0.9964   1.0495   1.0619   1.0899   1.1296
     1.1561   1.1810   1.2115   1.2370   1.2636   1.3682   1.3957   1.4509
     1.4620   1.5178   1.5779   1.6086   1.6222   1.6822   1.7414   1.8461
     1.8662   1.9529   1.9787   2.0189   2.1070   2.1630   2.2266   2.3269
     2.3740   2.4999   2.5431   2.5819   2.6391   2.6893   2.8642   2.9856
     4.1386   4.5123   4.6021   4.7236   5.0083   5.1433   5.3336   5.4337
     5.5150   5.7038   5.7756   5.8276   5.9213   6.0402   6.1173   6.2549
     6.4721   6.5749   6.6514   6.7805   7.0140   7.0544   7.3769   7.5471
     7.6498   7.7004   7.7593   7.8005   7.9334   8.0039   8.0265   8.1201
     8.1763   8.2456   8.2906

          k = 0.3333 0.0000-0.0000 ( 87875 PWs)   bands (ev):

   -19.1883 -19.1773 -19.1401 -19.1206 -19.1038 -18.8600 -18.8476 -18.8236
   -18.7919 -18.7656 -18.7182 -18.7026 -18.6522 -18.6322 -18.6189 -18.5485
   -18.5301 -18.5178 -18.4844 -18.4579 -18.4488 -18.4199 -18.4175 -18.4015
   -18.3842 -18.3828 -18.2585 -18.2492 -18.2211 -18.2090 -18.2047 -18.1023
   -18.0944 -18.0712 -18.0691 -18.0554 -17.9550 -17.8953 -17.8744 -17.8571
   -17.8480 -17.8353 -17.8242 -17.8104 -17.5795 -17.5749 -17.4799 -17.3452
   -12.4054 -12.2067 -11.9650 -11.9161 -11.5631 -11.5336 -11.4203 -11.2291
   -11.2265 -11.2059 -11.0439 -11.0070 -10.9531 -10.9001 -10.8409 -10.8093
   -10.7671 -10.5654 -10.5259 -10.4756 -10.3142 -10.2390 -10.1140  -9.7034
    -5.3322  -5.3061  -5.2644  -5.1660  -5.0622  -4.9513  -4.8007  -4.7597
    -4.7456  -4.7050  -4.6816  -4.6567  -4.6501  -4.5961  -4.5420  -4.4966
    -4.4575  -4.4431  -4.4336  -4.4125  -4.3930  -4.3868  -4.3368  -4.2853
    -4.2149  -4.0799  -3.9771  -3.6969  -3.5761  -3.4006  -3.3014  -2.8569
    -1.1519  -1.0465  -0.9324  -0.7102  -0.6130  -0.5692  -0.4750  -0.3931
    -0.3414  -0.2818  -0.1987  -0.1395  -0.0643   0.0104   0.0543   0.0773
     0.1866   0.2348   0.2810   0.3221   0.3916   0.4435   0.5015   0.5314
     0.5724   0.6139   0.6454   0.7183   0.7617   0.7947   0.8419   0.8746
     0.9367   0.9707   0.9949   1.0155   1.0788   1.1107   1.1317   1.1609
     1.1993   1.2156   1.2515   1.2784   1.2851   1.3519   1.3951   1.4371
     1.4795   1.5444   1.5652   1.6174   1.6666   1.6798   1.7685   1.8558
     1.8894   1.9374   1.9777   2.0184   2.0950   2.1956   2.2701   2.3286
     2.4142   2.4897   2.5601   2.5865   2.6452   2.6952   2.9558   3.0233
     4.1376   4.5153   4.6093   4.6849   4.9652   5.1172   5.2610   5.2945
     5.4803   5.5792   5.7213   5.7584   5.8868   5.9431   6.0911   6.1229
     6.1755   6.6045   6.6605   6.8238   6.9615   7.1317   7.3655   7.5788
     7.6573   7.7742   7.8280   7.9023   7.9537   8.0038   8.0644   8.1449
     8.2150   8.2505   8.3372

          k =-0.0000-0.3333 0.3333 ( 87927 PWs)   bands (ev):

   -19.1883 -19.1773 -19.1401 -19.1206 -19.1038 -18.8600 -18.8476 -18.8236
   -18.7919 -18.7656 -18.7182 -18.7026 -18.6522 -18.6322 -18.6189 -18.5485
   -18.5301 -18.5178 -18.4844 -18.4579 -18.4488 -18.4199 -18.4175 -18.4015
   -18.3842 -18.3828 -18.2585 -18.2492 -18.2211 -18.2090 -18.2047 -18.1023
   -18.0944 -18.0712 -18.0691 -18.0554 -17.9550 -17.8953 -17.8744 -17.8571
   -17.8480 -17.8353 -17.8242 -17.8104 -17.5794 -17.5749 -17.4799 -17.3452
   -12.4056 -12.2060 -11.9657 -11.9163 -11.5624 -11.5418 -11.4102 -11.2300
   -11.2218 -11.2041 -11.0616 -10.9949 -10.9563 -10.9022 -10.8407 -10.8124
   -10.7625 -10.5609 -10.5284 -10.4761 -10.3137 -10.2389 -10.1149  -9.7036
    -5.3322  -5.3064  -5.2641  -5.1666  -5.0606  -4.9532  -4.8004  -4.7554
    -4.7456  -4.7106  -4.6850  -4.6548  -4.6504  -4.5950  -4.5428  -4.4937
    -4.4575  -4.4465  -4.4272  -4.4146  -4.3925  -4.3788  -4.3366  -4.2901
    -4.2089  -4.0347  -3.9650  -3.7609  -3.5765  -3.3767  -3.2604  -3.0159
    -1.0757  -1.0145  -0.9172  -0.8448  -0.6158  -0.5079  -0.4028  -0.3321
    -0.2763  -0.2216  -0.1807  -0.1479  -0.0345  -0.0108   0.0892   0.1283
     0.1685   0.2207   0.2671   0.3265   0.3870   0.4463   0.5237   0.5659
     0.6105   0.6430   0.6713   0.7130   0.7425   0.7623   0.8375   0.8572
     0.8907   0.9297   0.9544   0.9773   1.0162   1.0372   1.1025   1.1238
     1.1567   1.1966   1.2373   1.2707   1.2863   1.3106   1.3758   1.4195
     1.4884   1.5736   1.6044   1.6309   1.6782   1.7126   1.7532   1.8151
     1.8811   1.9028   1.9463   2.0285   2.0912   2.1878   2.2625   2.3853
     2.4185   2.4826   2.5458   2.6149   2.7009   2.7724   2.8398   3.0141
     4.1649   4.4882   4.5387   4.7352   4.9643   5.1145   5.1511   5.2481
     5.4013   5.6797   5.7543   5.8172   5.9062   5.9780   6.0830   6.3101
     6.4269   6.6684   6.7052   6.8221   7.0496   7.2895   7.3728   7.4476
     7.6085   7.7113   7.7376   7.8355   7.9321   7.9826   8.0478   8.1436
     8.1775   8.2592   8.3338

          k = 0.3333-0.3333 0.0000 ( 87927 PWs)   bands (ev):

   -19.1883 -19.1773 -19.1401 -19.1206 -19.1038 -18.8600 -18.8476 -18.8236
   -18.7919 -18.7656 -18.7182 -18.7026 -18.6522 -18.6322 -18.6189 -18.5485
   -18.5301 -18.5178 -18.4844 -18.4579 -18.4488 -18.4199 -18.4175 -18.4015
   -18.3842 -18.3828 -18.2585 -18.2492 -18.2211 -18.2090 -18.2047 -18.1023
   -18.0944 -18.0712 -18.0691 -18.0554 -17.9550 -17.8953 -17.8744 -17.8571
   -17.8480 -17.8353 -17.8242 -17.8104 -17.5795 -17.5749 -17.4799 -17.3452
   -12.4054 -12.2066 -11.9648 -11.9164 -11.5631 -11.5415 -11.4103 -11.2304
   -11.2230 -11.2033 -11.0553 -11.0037 -10.9530 -10.9005 -10.8410 -10.8123
   -10.7642 -10.5620 -10.5272 -10.4752 -10.3143 -10.2391 -10.1150  -9.7036
    -5.3322  -5.3067  -5.2641  -5.1654  -5.0622  -4.9520  -4.7996  -4.7580
    -4.7451  -4.7045  -4.6833  -4.6542  -4.6497  -4.5955  -4.5426  -4.4935
    -4.4584  -4.4475  -4.4330  -4.4057  -4.3917  -4.3796  -4.3372  -4.2873
    -4.1893  -4.0690  -3.9960  -3.7161  -3.6317  -3.3809  -3.2361  -2.9627
    -1.1273  -1.0407  -0.8812  -0.7335  -0.5806  -0.5353  -0.4433  -0.3748
    -0.3249  -0.2800  -0.1752  -0.1340  -0.0689   0.0041   0.0544   0.1219
     0.1528   0.2158   0.2711   0.3409   0.4171   0.4701   0.4760   0.5586
     0.5977   0.6176   0.6551   0.6853   0.7477   0.7687   0.8222   0.8556
     0.9056   0.9302   0.9914   1.0186   1.0850   1.1152   1.1276   1.1458
     1.1929   1.2109   1.2397   1.2674   1.3012   1.3139   1.3843   1.4218
     1.4618   1.4808   1.5609   1.6040   1.6455   1.7093   1.7799   1.8449
     1.8809   1.9119   1.9926   2.0263   2.1217   2.1963   2.2832   2.3278
     2.4185   2.4932   2.5203   2.6330   2.6623   2.7217   2.9337   3.0048
     4.1409   4.4805   4.5982   4.7384   4.9664   5.1584   5.2369   5.3135
     5.4744   5.5666   5.7096   5.8074   5.9455   5.9833   6.1120   6.1914
     6.2493   6.5679   6.6860   6.7114   6.9577   7.1544   7.3110   7.5585
     7.6551   7.7146   7.7977   7.8349   7.9591   7.9933   8.0907   8.1739
     8.2228   8.2777   8.3234

          k =-0.3333-0.3333 0.0000 ( 87927 PWs)   bands (ev):

   -19.1883 -19.1773 -19.1401 -19.1206 -19.1038 -18.8600 -18.8476 -18.8236
   -18.7919 -18.7656 -18.7182 -18.7026 -18.6522 -18.6322 -18.6189 -18.5485
   -18.5301 -18.5178 -18.4844 -18.4579 -18.4488 -18.4199 -18.4175 -18.4015
   -18.3842 -18.3828 -18.2585 -18.2492 -18.2211 -18.2090 -18.2047 -18.1023
   -18.0944 -18.0712 -18.0691 -18.0554 -17.9550 -17.8953 -17.8744 -17.8571
   -17.8480 -17.8353 -17.8242 -17.8104 -17.5795 -17.5749 -17.4799 -17.3452
   -12.4054 -12.2067 -11.9648 -11.9163 -11.5627 -11.5420 -11.4102 -11.2295
   -11.2229 -11.2047 -11.0549 -11.0028 -10.9533 -10.9018 -10.8405 -10.8119
   -10.7643 -10.5617 -10.5274 -10.4753 -10.3143 -10.2390 -10.1150  -9.7036
    -5.3322  -5.3066  -5.2641  -5.1654  -5.0623  -4.9529  -4.7998  -4.7580
    -4.7451  -4.7045  -4.6831  -4.6556  -4.6498  -4.5950  -4.5421  -4.4949
    -4.4585  -4.4485  -4.4272  -4.4078  -4.3922  -4.3788  -4.3378  -4.2846
    -4.1753  -4.0828  -4.0037  -3.7127  -3.6298  -3.3745  -3.2421  -2.9644
    -1.1273  -1.0446  -0.8685  -0.7032  -0.5818  -0.5177  -0.4885  -0.3776
    -0.3396  -0.2952  -0.1874  -0.1006  -0.0657  -0.0204   0.0644   0.0976
     0.1617   0.2098   0.2726   0.3500   0.4227   0.4671   0.5160   0.5442
     0.6018   0.6251   0.6539   0.7073   0.7353   0.7524   0.8135   0.8614
     0.8905   0.9519   0.9833   1.0247   1.0801   1.1195   1.1374   1.1554
     1.1989   1.2047   1.2443   1.2566   1.2958   1.3321   1.3735   1.4019
     1.4492   1.4888   1.5568   1.6039   1.6459   1.7313   1.7832   1.8121
     1.8673   1.9292   1.9887   2.0520   2.1064   2.1849   2.2885   2.3107
     2.4533   2.4928   2.5271   2.6105   2.6446   2.7655   2.9041   3.0141
     4.1388   4.4899   4.5932   4.7261   4.9735   5.1427   5.2328   5.3461
     5.4435   5.6433   5.6882   5.7908   5.8817   6.0189   6.1350   6.1482
     6.2988   6.6158   6.6563   6.6825   6.9639   7.1093   7.3463   7.5434
     7.6288   7.7953   7.8055   7.8910   7.9107   8.0431   8.0641   8.1252
     8.2027   8.2579   8.2983

          k =-0.3333-0.0000 0.3333 ( 87927 PWs)   bands (ev):

   -19.1883 -19.1773 -19.1401 -19.1206 -19.1038 -18.8600 -18.8476 -18.8236
   -18.7919 -18.7656 -18.7182 -18.7026 -18.6522 -18.6322 -18.6189 -18.5485
   -18.5301 -18.5178 -18.4844 -18.4579 -18.4488 -18.4199 -18.4175 -18.4015
   -18.3842 -18.3828 -18.2585 -18.2492 -18.2211 -18.2090 -18.2047 -18.1023
   -18.0944 -18.0712 -18.0691 -18.0554 -17.9550 -17.8953 -17.8744 -17.8571
   -17.8480 -17.8353 -17.8242 -17.8104 -17.5795 -17.5749 -17.4799 -17.3452
   -12.4053 -12.2067 -11.9656 -11.9156 -11.5632 -11.5335 -11.4201 -11.2292
   -11.2264 -11.2056 -11.0443 -11.0056 -10.9568 -10.8999 -10.8408 -10.8094
   -10.7653 -10.5652 -10.5263 -10.4753 -10.3143 -10.2392 -10.1140  -9.7034
    -5.3322  -5.3057  -5.2645  -5.1665  -5.0603  -4.9512  -4.8020  -4.7577
    -4.7458  -4.7108  -4.6818  -4.6574  -4.6487  -4.5971  -4.5403  -4.4953
    -4.4564  -4.4430  -4.4376  -4.4038  -4.3940  -4.3833  -4.3362  -4.2829
    -4.1701  -4.0678  -3.9988  -3.6796  -3.6214  -3.3875  -3.2885  -3.0146
    -1.1213  -0.9883  -0.9416  -0.7007  -0.6004  -0.5597  -0.4081  -0.3486
    -0.2653  -0.2077  -0.1553  -0.1250  -0.0490   0.0422   0.0853   0.1169
     0.1884   0.2248   0.2816   0.3248   0.3584   0.4564   0.4870   0.5113
     0.5645   0.5911   0.6491   0.6698   0.7388   0.7836   0.8489   0.8613
     0.8863   0.9380   0.9687   1.0145   1.0330   1.0647   1.0980   1.1369
     1.1602   1.1977   1.2349   1.2479   1.2929   1.3719   1.4312   1.4676
     1.4991   1.5326   1.6085   1.6324   1.6748   1.7048   1.7780   1.8174
     1.8649   1.9116   1.9634   2.0140   2.0623   2.1721   2.2080   2.3438
     2.4044   2.4302   2.5469   2.5793   2.6276   2.7222   2.8629   2.9970
     4.1396   4.4978   4.5926   4.7339   4.9828   5.1430   5.3071   5.3803
     5.5342   5.6466   5.7814   5.8442   5.9070   5.9951   6.1140   6.2481
     6.3722   6.6502   6.7375   6.7842   6.9736   7.2610   7.2812   7.4776
     7.6029   7.6695   7.7586   7.8369   7.9044   7.9751   8.0523   8.1282
     8.1605   8.2388   8.2623

          k =-0.3333-0.3333 0.3333 ( 87860 PWs)   bands (ev):

   -19.1883 -19.1773 -19.1401 -19.1206 -19.1038 -18.8600 -18.8476 -18.8236
   -18.7919 -18.7656 -18.7182 -18.7026 -18.6522 -18.6322 -18.6189 -18.5485
   -18.5301 -18.5178 -18.4844 -18.4579 -18.4488 -18.4199 -18.4175 -18.4015
   -18.3842 -18.3828 -18.2585 -18.2492 -18.2211 -18.2090 -18.2047 -18.1023
   -18.0944 -18.0712 -18.0691 -18.0554 -17.9550 -17.8953 -17.8744 -17.8571
   -17.8480 -17.8353 -17.8242 -17.8104 -17.5795 -17.5749 -17.4799 -17.3452
   -12.4053 -12.2066 -11.9654 -11.9158 -11.5627 -11.5419 -11.4101 -11.2300
   -11.2225 -11.2045 -11.0549 -11.0017 -10.9570 -10.9014 -10.8404 -10.8119
   -10.7624 -10.5617 -10.5278 -10.4749 -10.3144 -10.2392 -10.1150  -9.7036
    -5.3322  -5.3063  -5.2643  -5.1660  -5.0602  -4.9530  -4.8014  -4.7570
    -4.7447  -4.7109  -4.6836  -4.6555  -4.6486  -4.5959  -4.5396  -4.4936
    -4.4551  -4.4434  -4.4250  -4.4157  -4.3917  -4.3783  -4.3358  -4.2840
    -4.1628  -4.0541  -3.9929  -3.7148  -3.5626  -3.4346  -3.2984  -3.0854
    -1.0611  -0.9911  -0.8419  -0.7213  -0.5885  -0.5248  -0.4216  -0.3389
    -0.2608  -0.2089  -0.1738  -0.1369  -0.0519   0.0259   0.0452   0.1583
     0.2054   0.2225   0.2633   0.3546   0.3923   0.4272   0.4788   0.5712
     0.5991   0.6341   0.6553   0.6819   0.7268   0.7498   0.8255   0.8583
     0.8798   0.9277   0.9470   0.9697   1.0481   1.0661   1.1056   1.1228
     1.1713   1.2045   1.2231   1.2429   1.2688   1.3493   1.3660   1.4411
     1.4817   1.5385   1.5880   1.6174   1.6296   1.6831   1.7587   1.8150
     1.8756   1.9114   1.9749   2.0469   2.0871   2.1605   2.2370   2.3358
     2.4178   2.4522   2.5271   2.5741   2.6450   2.7182   2.8325   2.9941
     4.1378   4.4903   4.5977   4.7456   5.0412   5.1292   5.3295   5.4004
     5.6151   5.6610   5.7411   5.8681   5.9371   6.0305   6.0726   6.2369
     6.4542   6.5936   6.6571   6.7852   6.9957   7.1690   7.4184   7.4874
     7.6022   7.6683   7.7184   7.8528   7.9477   7.9694   8.0400   8.0963
     8.1439   8.2460   8.2911

          k =-0.3333 0.3333-0.3333 ( 87860 PWs)   bands (ev):

   -19.1883 -19.1773 -19.1401 -19.1206 -19.1038 -18.8600 -18.8476 -18.8236
   -18.7919 -18.7656 -18.7182 -18.7026 -18.6522 -18.6322 -18.6189 -18.5485
   -18.5301 -18.5178 -18.4844 -18.4579 -18.4488 -18.4199 -18.4175 -18.4015
   -18.3842 -18.3828 -18.2585 -18.2492 -18.2211 -18.2090 -18.2047 -18.1023
   -18.0944 -18.0712 -18.0691 -18.0554 -17.9550 -17.8953 -17.8744 -17.8571
   -17.8480 -17.8353 -17.8242 -17.8104 -17.5795 -17.5749 -17.4799 -17.3452
   -12.4053 -12.2066 -11.9653 -11.9160 -11.5629 -11.5414 -11.4102 -11.2309
   -11.2226 -11.2031 -11.0551 -11.0027 -10.9567 -10.9003 -10.8407 -10.8123
   -10.7622 -10.5618 -10.5277 -10.4748 -10.3144 -10.2392 -10.1150  -9.7036
    -5.3322  -5.3064  -5.2642  -5.1658  -5.0605  -4.9519  -4.8011  -4.7571
    -4.7448  -4.7108  -4.6835  -4.6547  -4.6486  -4.5969  -4.5392  -4.4933
    -4.4557  -4.4401  -4.4275  -4.4176  -4.3927  -4.3780  -4.3354  -4.2854
    -4.1717  -4.0484  -3.9844  -3.7129  -3.5569  -3.4405  -3.3192  -3.0677
    -1.0605  -0.9751  -0.8703  -0.7477  -0.5895  -0.5057  -0.4040  -0.3223
    -0.2567  -0.2235  -0.1803  -0.1160  -0.0610   0.0157   0.0656   0.1496
     0.1819   0.2342   0.2737   0.3378   0.4203   0.4344   0.4787   0.5663
     0.5977   0.6243   0.6511   0.6881   0.7157   0.7576   0.8157   0.8353
     0.8905   0.9049   0.9644   0.9919   1.0447   1.0777   1.0918   1.1340
     1.1492   1.1910   1.2169   1.2432   1.2963   1.3446   1.3927   1.4385
     1.4569   1.5329   1.5522   1.6107   1.6561   1.6937   1.7634   1.8224
     1.8667   1.9204   1.9805   2.0260   2.1187   2.1867   2.2257   2.3222
     2.3738   2.4801   2.5267   2.5924   2.6489   2.7051   2.8301   2.9941
     4.1378   4.4827   4.6160   4.7443   5.0258   5.1356   5.3447   5.4304
     5.5383   5.6844   5.7805   5.8575   5.8910   6.0114   6.0716   6.2927
     6.4259   6.5824   6.6806   6.7689   7.0226   7.1632   7.3820   7.4989
     7.5766   7.6921   7.7876   7.8283   7.8845   8.0007   8.0634   8.1147
     8.1718   8.1925   8.2648

          k = 0.3333-0.3333-0.3333 ( 87860 PWs)   bands (ev):

   -19.1883 -19.1773 -19.1401 -19.1206 -19.1038 -18.8600 -18.8476 -18.8236
   -18.7919 -18.7656 -18.7182 -18.7026 -18.6522 -18.6322 -18.6189 -18.5485
   -18.5301 -18.5178 -18.4844 -18.4579 -18.4488 -18.4199 -18.4175 -18.4015
   -18.3842 -18.3828 -18.2585 -18.2492 -18.2211 -18.2090 -18.2047 -18.1023
   -18.0944 -18.0712 -18.0691 -18.0554 -17.9550 -17.8953 -17.8744 -17.8571
   -17.8480 -17.8353 -17.8242 -17.8104 -17.5795 -17.5749 -17.4799 -17.3452
   -12.4053 -12.2066 -11.9653 -11.9160 -11.5631 -11.5414 -11.4101 -11.2311
   -11.2224 -11.2030 -11.0552 -11.0026 -10.9569 -10.9001 -10.8408 -10.8122
   -10.7623 -10.5622 -10.5274 -10.4748 -10.3144 -10.2392 -10.1150  -9.7036
    -5.3322  -5.3063  -5.2642  -5.1660  -5.0600  -4.9525  -4.8007  -4.7575
    -4.7444  -4.7108  -4.6837  -4.6548  -4.6478  -4.5959  -4.5412  -4.4931
    -4.4552  -4.4475  -4.4315  -4.4066  -4.3927  -4.3772  -4.3364  -4.2837
    -4.1429  -4.0751  -3.9923  -3.7082  -3.6249  -3.3874  -3.2330  -3.1384
    -1.0738  -0.9792  -0.8977  -0.7184  -0.5793  -0.4637  -0.4320  -0.3136
    -0.3022  -0.2044  -0.1528  -0.1192  -0.0461   0.0100   0.0668   0.1277
     0.1820   0.2433   0.2614   0.3552   0.4056   0.4345   0.4785   0.5381
     0.6025   0.6194   0.6452   0.6984   0.7233   0.7762   0.8150   0.8598
     0.8721   0.9064   0.9273   0.9889   1.0447   1.0654   1.1066   1.1427
     1.1655   1.2080   1.2229   1.2496   1.2802   1.3294   1.3689   1.4410
     1.4881   1.5223   1.5853   1.6068   1.6444   1.7027   1.7483   1.8020
     1.8965   1.9242   1.9762   2.0213   2.0929   2.1725   2.2265   2.3290
     2.4085   2.4348   2.5441   2.5976   2.6277   2.7173   2.8578   2.9878
     4.1389   4.4857   4.6160   4.7417   5.0051   5.1495   5.2978   5.4395
     5.5367   5.6705   5.7699   5.8793   5.9564   6.0181   6.1075   6.2311
     6.4380   6.5910   6.7174   6.7378   6.9663   7.1151   7.3958   7.5263
     7.6371   7.6994   7.7234   7.8620   7.8955   7.9576   8.0428   8.1372
     8.1972   8.2113   8.2741

     the Fermi energy is     3.6094 ev

!    total energy              =   -2937.30342557 Ry
     estimated scf accuracy    <          2.2E-09 Ry
     smearing contrib. (-TS)   =       0.00000000 Ry
     internal energy E=F+TS    =   -2937.30342557 Ry

     The total energy is F=E-TS. E is the sum of the following terms:
     one-electron contribution =   -1047.70250388 Ry
     hartree contribution      =     672.93057703 Ry
     xc contribution           =   -1250.34726898 Ry
     ewald contribution        =   -1312.18422974 Ry

     convergence has been achieved in  12 iterations

     Forces acting on atoms (cartesian axes, Ry/au):

     atom    1 type  1   force =     0.01055315   -0.02165686   -0.02721875
     atom    2 type  1   force =    -0.13068118   -0.23586709    0.02857106
     atom    3 type  1   force =     0.05302897    0.01797227    0.06546366
     atom    4 type  1   force =    -0.00379365    0.01302579    0.00624925
     atom    5 type  1   force =    -0.01188771   -0.00480873   -0.02026804
     atom    6 type  1   force =    -0.13402795    0.14773305   -0.03518188
     atom    7 type  1   force =     0.12755898    0.05673954   -0.00210967
     atom    8 type  1   force =    -0.02323397    0.02574255    0.00230535
     atom    9 type  2   force =    -0.01550269    0.05154941   -0.00731800
     atom   10 type  2   force =     0.00285492    0.06059616   -0.01573442
     atom   11 type  2   force =     0.01242960   -0.00304032    0.01172485
     atom   12 type  2   force =     0.01213877   -0.00184839    0.08516639
     atom   13 type  2   force =     0.03354135   -0.00187074   -0.00183224
     atom   14 type  2   force =    -0.00824183   -0.03472249   -0.00710343
     atom   15 type  2   force =     0.05616232    0.00921389    0.00131408
     atom   16 type  2   force =    -0.00202678   -0.00959144   -0.02532025
     atom   17 type  3   force =     0.04299771   -0.03171439    0.06102717
     atom   18 type  3   force =     0.03268613   -0.01351155   -0.00867257
     atom   19 type  3   force =    -0.00996893   -0.01804775    0.03013969
     atom   20 type  3   force =    -0.00344747   -0.02387276   -0.04235624
     atom   21 type  3   force =    -0.00462008    0.04259725   -0.00107221
     atom   22 type  3   force =     0.01446814    0.00134615    0.00580954
     atom   23 type  3   force =     0.02110344   -0.03608515   -0.01916984
     atom   24 type  3   force =    -0.00702234   -0.00352659   -0.01315447
     atom   25 type  3   force =    -0.04514099    0.06376159    0.06468316
     atom   26 type  3   force =    -0.04032101    0.01276571   -0.04937280
     atom   27 type  3   force =    -0.00073798   -0.01867929   -0.01463847
     atom   28 type  3   force =    -0.00131534   -0.02387659   -0.00795522
     atom   29 type  3   force =    -0.01799905    0.00929787    0.01355676
     atom   30 type  3   force =     0.01704866    0.01062057    0.02877122
     atom   31 type  3   force =    -0.10259718    0.00124392   -0.06661821
     atom   32 type  3   force =    -0.00151573    0.01284361    0.01532043
     atom   33 type  3   force =    -0.04902132   -0.02970409   -0.04943657
     atom   34 type  3   force =     0.00243822    0.00548483   -0.00338626
     atom   35 type  3   force =     0.09966951    0.24123316   -0.04242280
     atom   36 type  3   force =     0.03477786    0.01477995   -0.05795552
     atom   37 type  3   force =     0.14926965   -0.17000902    0.03157164
     atom   38 type  3   force =    -0.00874924   -0.02866661    0.02440814
     atom   39 type  3   force =    -0.08926524   -0.08369156    0.04300495
     atom   40 type  3   force =    -0.01160973   -0.00375589   -0.00078949

     Total force =     0.604900     Total SCF correction =     0.000116
     Message from routine punch:
     Nothing written, as per user request (disk_io='none')

     init_run     :     80.67s CPU     83.87s WALL (       1 calls)
     electrons    :   2759.05s CPU   2878.98s WALL (       1 calls)
     forces       :     43.39s CPU     46.53s WALL (       1 calls)

     Called by init_run:
     wfcinit      :     72.06s CPU     74.30s WALL (       1 calls)
     potinit      :      2.95s CPU      3.18s WALL (       1 calls)
     hinit0       :      1.81s CPU      1.94s WALL (       1 calls)

     Called by electrons:
     c_bands      :   2280.39s CPU   2343.57s WALL (      13 calls)
     sum_band     :    412.38s CPU    442.89s WALL (      13 calls)
     v_of_rho     :     23.83s CPU     27.66s WALL (      13 calls)
     newd         :     40.28s CPU     63.18s WALL (      13 calls)
     mix_rho      :      3.34s CPU      3.46s WALL (      13 calls)

     Called by c_bands:
     init_us_2    :     35.38s CPU     35.57s WALL (     112 calls)
     cegterg      :   2148.00s CPU   2211.15s WALL (      52 calls)

     Called by *egterg:
     cdiaghg      :     24.31s CPU     24.32s WALL (     295 calls)
     h_psi        :   1477.60s CPU   1517.07s WALL (     303 calls)
     s_psi        :    220.07s CPU    220.12s WALL (     303 calls)
     g_psi        :      5.56s CPU      5.56s WALL (     247 calls)

     Called by h_psi:
     h_psi:calbec :    224.04s CPU    224.22s WALL (     303 calls)
     vloc_psi     :   1027.15s CPU   1055.93s WALL (     303 calls)
                                        0.00s GPU  (     303 calls)
     add_vuspsi   :    221.43s CPU    221.48s WALL (     303 calls)

     General routines
     calbec       :    328.46s CPU    328.72s WALL (     371 calls)
     fft          :     21.13s CPU     23.01s WALL (     179 calls)
     ffts         :      1.44s CPU      1.48s WALL (      26 calls)
     fftw         :    999.59s CPU   1031.99s WALL (   68524 calls)
     interpolate  :      2.78s CPU      2.88s WALL (      13 calls)

     Parallel routines

     PWSCF        :  48m 4.33s CPU  50m10.64s WALL


   This run was terminated on:   6:39:43   4Oct2026            

=------------------------------------------------------------------------------=
   JOB DONE.
=------------------------------------------------------------------------------=
