
     Program PWSCF v.7.5 starts on  3Oct2026 at 21:59:27 

     This program is part of the open-source Quantum ESPRESSO suite
     for quantum simulation of materials; please cite
         "P. Giannozzi et al., J. Phys.:Condens. Matter 21 395502 (2009);
         "P. Giannozzi et al., J. Phys.:Condens. Matter 29 465901 (2017);
         "P. Giannozzi et al., J. Chem. Phys. 152 154105 (2020);
          URL http://www.quantum-espresso.org", 
     in publications or presentations arising from this work. More details at
     http://www.quantum-espresso.org/quote

     Parallel version (MPI & OpenMP), running on       8 processor cores
     Number of MPI processes:                 8
     Threads/MPI process:                     1

     MPI processes distributed on     1 nodes
     96638 MiB available memory on the printing compute node when the environment starts

     Reading input from pw.in

     Current dimensions of program PWSCF are:
     Max number of different atomic species (ntypx) = 10
     Max number of k-points (npk) =  40000
     Max angular momentum in pseudopotentials (lmaxx) =  4
     Message from routine setup:
     using ibrav=0 with symmetry is DISCOURAGED, use correct ibrav instead

     K-points division:     npool     =       8
     Subspace diagonalization in iterative solution of the eigenvalue problem:
     a serial algorithm will be used


     G-vector sticks info
     --------------------
     sticks:   dense  smooth     PW     G-vecs:    dense   smooth      PW
     Sum        1245     625    193                58675    20737    3629

     Using Slab Decomposition



     bravais-lattice index     =            0
     lattice parameter (alat)  =       5.8669  a.u.
     unit-cell volume          =     932.7184 (a.u.)^3
     number of atoms/cell      =            6
     number of atomic types    =            1
     number of electrons       =        72.00
     number of Kohn-Sham states=           43
     kinetic-energy cutoff     =      30.0000  Ry
     charge density cutoff     =     240.0000  Ry
     scf convergence threshold =      6.0E-10
     mixing beta               =       0.4000
     number of iterations used =            8  plain     mixing
     Exchange-correlation= SLA  PW   PBE  PBE
                           (   1   4   3   4   0   0   0)

     celldm(1)=   5.866878  celldm(2)=   0.000000  celldm(3)=   0.000000
     celldm(4)=   0.000000  celldm(5)=   0.000000  celldm(6)=   0.000000

     crystal axes: (cart. coord. in units of alat)
               a(1) = (   0.577350   0.577350  -0.577350 )  
               a(2) = (   1.732051  -0.577350   0.577350 )  
               a(3) = (   0.577350  -1.732051  -1.732051 )  

     reciprocal axes: (cart. coord. in units 2 pi/alat)
               b(1) = (  0.433013  0.721688 -0.577350 )  
               b(2) = (  0.433013 -0.144338  0.288675 )  
               b(3) = (  0.000000 -0.288675 -0.288675 )  


     PseudoPot. # 1 for Zr read from file:
     /root/sssp/Zr_pbe_v1.uspp.F.UPF
     MD5 check sum: 5db81b1e868ab7776c4564c113de050b
     Pseudo is Ultrasoft + core correction, Zval = 12.0
     Generated by new atomic code, or converted to UPF format
     Using radial grid of  887 points,  6 beta functions with: 
                l(1) =   0
                l(2) =   0
                l(3) =   1
                l(4) =   1
                l(5) =   2
                l(6) =   2
     Q(r) pseudized with  6 coefficients,  rinner =    1.200   1.200   1.200
                                                       1.200   1.200

     atomic species   valence    mass     pseudopotential
     Zr               12.00    91.22400     Zr( 1.00)

      2 Sym. Ops., with inversion, found ( 1 have fractional translation)



   Cartesian axes

     site n.     atom                  positions (alat units)
         1        Zr     tau(   1) = (   0.0035789   0.0011413  -0.0028979  )
         2        Zr     tau(   2) = (   2.3058222  -1.1558418  -1.1518027  )
         3        Zr     tau(   3) = (   1.7248931  -0.5796328  -0.5715546  )
         4        Zr     tau(   4) = (   1.7284719  -1.7331921  -1.7291529  )
         5        Zr     tau(   5) = (   1.1582795  -1.1535593  -1.1575984  )
         6        Zr     tau(   6) = (   0.5845081  -0.5750677  -0.5831460  )

     number of k points=   340  Marzari-Vanderbilt smearing, width (Ry)=  0.0200

     Number of k-points >= 100: set verbosity='high' to print them.

     Dense  grid:    58675 G-vectors     FFT dimensions: (  30,  60,  75)

     Smooth grid:    20737 G-vectors     FFT dimensions: (  24,  48,  54)

     Estimated max dynamical RAM per process >     136.68 MB

     Estimated total dynamical RAM >     993.15 MB

     Check: negative core charge=   -0.000004

     Initial potential from superposition of free atoms

     starting charge      71.9871, renormalised to      72.0000

     negative rho (up, down):  3.549E-01 0.000E+00
     Starting wfcs are   78 randomized atomic wfcs

     total cpu time spent up to now is       24.6 secs

     per-process dynamical memory:   123.5 Mb

     Self-consistent Calculation

     iteration #  1     ecut=    30.00 Ry     beta= 0.40
     Davidson diagonalization with overlap
     ethr =  1.00E-02,  avg # of iterations =  2.0

     Threshold (ethr) on eigenvalues was too large:
     Diagonalizing with lowered threshold

     Davidson diagonalization with overlap
     ethr =  8.06E-05,  avg # of iterations =  2.9

     negative rho (up, down):  3.567E-01 0.000E+00

     total cpu time spent up to now is      103.2 secs

     total energy              =    -594.87575276 Ry
     estimated scf accuracy    <       0.07493068 Ry

     iteration #  2     ecut=    30.00 Ry     beta= 0.40
     Davidson diagonalization with overlap
     ethr =  1.04E-04,  avg # of iterations =  2.0

     negative rho (up, down):  3.590E-01 0.000E+00

     total cpu time spent up to now is      143.5 secs

     total energy              =    -594.87431391 Ry
     estimated scf accuracy    <       0.01851741 Ry

     iteration #  3     ecut=    30.00 Ry     beta= 0.40
     Davidson diagonalization with overlap
     ethr =  2.57E-05,  avg # of iterations =  4.5

     negative rho (up, down):  3.601E-01 0.000E+00

     total cpu time spent up to now is      198.1 secs

     total energy              =    -594.87045626 Ry
     estimated scf accuracy    <       0.11063557 Ry

     iteration #  4     ecut=    30.00 Ry     beta= 0.40
     Davidson diagonalization with overlap
     ethr =  2.57E-05,  avg # of iterations =  4.0

     negative rho (up, down):  3.604E-01 0.000E+00

     total cpu time spent up to now is      244.8 secs

     total energy              =    -594.87967686 Ry
     estimated scf accuracy    <       0.00325812 Ry

     iteration #  5     ecut=    30.00 Ry     beta= 0.40
     Davidson diagonalization with overlap
     ethr =  4.53E-06,  avg # of iterations =  2.9

     negative rho (up, down):  3.615E-01 0.000E+00

     total cpu time spent up to now is      287.6 secs

     total energy              =    -594.88003945 Ry
     estimated scf accuracy    <       0.00172885 Ry

     iteration #  6     ecut=    30.00 Ry     beta= 0.40
     Davidson diagonalization with overlap
     ethr =  2.40E-06,  avg # of iterations =  1.0

     negative rho (up, down):  3.620E-01 0.000E+00

     total cpu time spent up to now is      320.6 secs

     total energy              =    -594.88015135 Ry
     estimated scf accuracy    <       0.00007824 Ry

     iteration #  7     ecut=    30.00 Ry     beta= 0.40
     Davidson diagonalization with overlap
     ethr =  1.09E-07,  avg # of iterations =  4.1

     negative rho (up, down):  3.621E-01 0.000E+00

     total cpu time spent up to now is      371.2 secs

     total energy              =    -594.88015958 Ry
     estimated scf accuracy    <       0.00002487 Ry

     iteration #  8     ecut=    30.00 Ry     beta= 0.40
     Davidson diagonalization with overlap
     ethr =  3.45E-08,  avg # of iterations =  2.6

     negative rho (up, down):  3.620E-01 0.000E+00

     total cpu time spent up to now is      412.7 secs

     total energy              =    -594.88016175 Ry
     estimated scf accuracy    <       0.00000110 Ry

     iteration #  9     ecut=    30.00 Ry     beta= 0.40
     Davidson diagonalization with overlap
     ethr =  1.52E-09,  avg # of iterations =  4.9

     negative rho (up, down):  3.620E-01 0.000E+00

     total cpu time spent up to now is      470.0 secs

     total energy              =    -594.88016228 Ry
     estimated scf accuracy    <       0.00000095 Ry

     iteration # 10     ecut=    30.00 Ry     beta= 0.40
     Davidson diagonalization with overlap
     ethr =  1.33E-09,  avg # of iterations =  1.0

     negative rho (up, down):  3.620E-01 0.000E+00

     total cpu time spent up to now is      500.2 secs

     total energy              =    -594.88016225 Ry
     estimated scf accuracy    <       0.00000020 Ry

     iteration # 11     ecut=    30.00 Ry     beta= 0.40
     Davidson diagonalization with overlap
     ethr =  2.74E-10,  avg # of iterations =  4.2

     negative rho (up, down):  3.620E-01 0.000E+00

     total cpu time spent up to now is      545.9 secs

     total energy              =    -594.88016230 Ry
     estimated scf accuracy    <       0.00000014 Ry

     iteration # 12     ecut=    30.00 Ry     beta= 0.40
     Davidson diagonalization with overlap
     ethr =  1.91E-10,  avg # of iterations =  1.0

     negative rho (up, down):  3.620E-01 0.000E+00

     total cpu time spent up to now is      580.2 secs

     total energy              =    -594.88016230 Ry
     estimated scf accuracy    <       0.00000004 Ry

     iteration # 13     ecut=    30.00 Ry     beta= 0.40
     Davidson diagonalization with overlap
     ethr =  5.53E-11,  avg # of iterations =  2.8

     negative rho (up, down):  3.620E-01 0.000E+00

     total cpu time spent up to now is      626.8 secs

     total energy              =    -594.88016230 Ry
     estimated scf accuracy    <          6.9E-10 Ry

     iteration # 14     ecut=    30.00 Ry     beta= 0.40
     Davidson diagonalization with overlap
     ethr =  9.61E-13,  avg # of iterations =  5.0

     negative rho (up, down):  3.620E-01 0.000E+00

     total cpu time spent up to now is      695.1 secs

     End of self-consistent calculation

     Number of k-points >= 100: set verbosity='high' to print the bands.

     the Fermi energy is    14.0380 ev

!    total energy              =    -594.88016230 Ry
     estimated scf accuracy    <          5.4E-10 Ry
     smearing contrib. (-TS)   =       0.00077080 Ry
     internal energy E=F+TS    =    -594.88093311 Ry

     The total energy is F=E-TS. E is the sum of the following terms:
     one-electron contribution =    -105.14921376 Ry
     hartree contribution      =      81.11595792 Ry
     xc contribution           =    -106.71670719 Ry
     ewald contribution        =    -464.13097008 Ry

     convergence has been achieved in  14 iterations

     negative rho (up, down):  3.620E-01 0.000E+00

     Forces acting on atoms (cartesian axes, Ry/au):

     atom    1 type  1   force =     0.00037060   -0.00011775   -0.00040000
     atom    2 type  1   force =    -0.00037060    0.00011775    0.00040000
     atom    3 type  1   force =    -0.00087161    0.00017840    0.00081990
     atom    4 type  1   force =    -0.00054138    0.00006631    0.00042137
     atom    5 type  1   force =     0.00054138   -0.00006631   -0.00042137
     atom    6 type  1   force =     0.00087161   -0.00017840   -0.00081990

     Total force =     0.002121     Total SCF correction =     0.000053
     Message from routine punch:
     Nothing written, as per user request (disk_io='none')

     init_run     :     10.13s CPU     10.34s WALL (       1 calls)
     electrons    :    662.56s CPU    670.45s WALL (       1 calls)
     forces       :     14.12s CPU     14.81s WALL (       1 calls)

     Called by init_run:
     wfcinit      :      7.76s CPU      7.89s WALL (       1 calls)
     potinit      :      0.75s CPU      0.77s WALL (       1 calls)
     hinit0       :      0.70s CPU      0.72s WALL (       1 calls)

     Called by electrons:
     c_bands      :    564.49s CPU    570.80s WALL (      15 calls)
     sum_band     :     89.49s CPU     90.91s WALL (      15 calls)
     v_of_rho     :      2.09s CPU      2.16s WALL (      15 calls)
     newd         :      6.56s CPU      6.67s WALL (      15 calls)
     mix_rho      :      0.22s CPU      0.22s WALL (      15 calls)

     Called by c_bands:
     init_us_2    :      8.83s CPU      9.02s WALL (    1376 calls)
     cegterg      :    183.34s CPU    186.37s WALL (     645 calls)

     Called by *egterg:
     cdiaghg      :      6.85s CPU      6.95s WALL (    2416 calls)
     h_psi        :    130.61s CPU    132.90s WALL (    2502 calls)
     s_psi        :     11.37s CPU     11.53s WALL (    2502 calls)
     g_psi        :      0.93s CPU      0.95s WALL (    1814 calls)

     Called by h_psi:
     h_psi:calbec :     15.33s CPU     15.55s WALL (    2502 calls)
     vloc_psi     :    101.32s CPU    103.12s WALL (    2502 calls)
                                        0.00s GPU  (    2502 calls)
     add_vuspsi   :     12.21s CPU     12.37s WALL (    2502 calls)

     General routines
     calbec       :     22.91s CPU     23.29s WALL (    3319 calls)
     fft          :      0.86s CPU      0.88s WALL (     205 calls)
     ffts         :      0.31s CPU      0.31s WALL (      30 calls)
     fftw         :    102.14s CPU    104.02s WALL (  162259 calls)
     interpolate  :      0.37s CPU      0.37s WALL (      15 calls)

     Parallel routines

     PWSCF        :  11m41.91s CPU  11m50.78s WALL


   This run was terminated on:  22:11:18   3Oct2026            

=------------------------------------------------------------------------------=
   JOB DONE.
=------------------------------------------------------------------------------=
