
     Program PWSCF v.7.5 starts on  5Oct2026 at  1:56:38 

     This program is part of the open-source Quantum ESPRESSO suite
     for quantum simulation of materials; please cite
         "P. Giannozzi et al., J. Phys.:Condens. Matter 21 395502 (2009);
         "P. Giannozzi et al., J. Phys.:Condens. Matter 29 465901 (2017);
         "P. Giannozzi et al., J. Chem. Phys. 152 154105 (2020);
          URL http://www.quantum-espresso.org", 
     in publications or presentations arising from this work. More details at
     http://www.quantum-espresso.org/quote

     Parallel version (MPI & OpenMP), running on       8 processor cores
     Number of MPI processes:                 8
     Threads/MPI process:                     1

     MPI processes distributed on     1 nodes
     117234 MiB available memory on the printing compute node when the environment starts

     Reading input from pw.in

     Current dimensions of program PWSCF are:
     Max number of different atomic species (ntypx) = 10
     Max number of k-points (npk) =  40000
     Max angular momentum in pseudopotentials (lmaxx) =  4
     Found identity + ( -0.5000  0.5000 -0.5000) symmetry
     This is a supercell, fractional translations are disabled
     Message from routine setup:
     using ibrav=0 with symmetry is DISCOURAGED, use correct ibrav instead

     K-points division:     npool     =       2
     R & G space division:  proc/nbgrp/npool/nimage =       4
     Subspace diagonalization in iterative solution of the eigenvalue problem:
     a serial algorithm will be used


     Parallelization info
     --------------------
     sticks:   dense  smooth     PW     G-vecs:    dense   smooth      PW
     Min        2665    1335    354               181967    64251    8936
     Max        2666    1336    355               181973    64254    8940
     Sum       10663    5341   1417               727885   257011   35749

     Using Slab Decomposition



     bravais-lattice index     =            0
     lattice parameter (alat)  =      15.7535  a.u.
     unit-cell volume          =    2764.4861 (a.u.)^3
     number of atoms/cell      =           10
     number of atomic types    =            3
     number of electrons       =        88.00
     number of Kohn-Sham states=           53
     kinetic-energy cutoff     =      78.0000  Ry
     charge density cutoff     =     624.0000  Ry
     scf convergence threshold =      1.0E-09
     mixing beta               =       0.4000
     number of iterations used =            8  plain     mixing
     Exchange-correlation=  SLA  PW   PBX  PBC
                           (   1   4   3   4   0   0   0)

     celldm(1)=  15.753479  celldm(2)=   0.000000  celldm(3)=   0.000000
     celldm(4)=   0.000000  celldm(5)=   0.000000  celldm(6)=   0.000000

     crystal axes: (cart. coord. in units of alat)
               a(1) = (   0.707107   0.000000   0.707107 )  
               a(2) = (  -0.000000  -0.707107   0.707107 )  
               a(3) = (   0.707107  -0.707107  -0.000000 )  

     reciprocal axes: (cart. coord. in units 2 pi/alat)
               b(1) = (  0.707107  0.707107  0.707107 )  
               b(2) = ( -0.707107 -0.707107  0.707107 )  
               b(3) = (  0.707107 -0.707107 -0.707107 )  


     PseudoPot. # 1 for Cs read from file:
     /root/sssp/Cs_pbe_v1.uspp.F.UPF
     MD5 check sum: 3476d69cb178dfad3ffaa59df4e07ca4
     Pseudo is Ultrasoft + core correction, Zval =  9.0
     Generated by new atomic code, or converted to UPF format
     Using radial grid of  905 points,  6 beta functions with: 
                l(1) =   0
                l(2) =   0
                l(3) =   1
                l(4) =   1
                l(5) =   2
                l(6) =   2
     Q(r) pseudized with  6 coefficients,  rinner =    1.500   1.500   1.500
                                                       1.500   1.500

     PseudoPot. # 2 for Sn read from file:
     /root/sssp/Sn_pbe_v1.uspp.F.UPF
     MD5 check sum: 4cf58ce39ec5d5d420df3dd08604eb00
     Pseudo is Ultrasoft + core correction, Zval = 14.0
     Generated by new atomic code, or converted to UPF format
     Using radial grid of  891 points,  6 beta functions with: 
                l(1) =   0
                l(2) =   0
                l(3) =   1
                l(4) =   1
                l(5) =   2
                l(6) =   2
     Q(r) pseudized with  6 coefficients,  rinner =    1.200   1.200   1.200
                                                       1.200   1.200

     PseudoPot. # 3 for Br read from file:
     /root/sssp/br_pbe_v1.4.uspp.F.UPF
     MD5 check sum: d3ffb7b29f6225aa16fe06858fb2a80b
     Pseudo is Ultrasoft + core correction, Zval =  7.0
     Generated by new atomic code, or converted to UPF format
     Using radial grid of  879 points,  6 beta functions with: 
                l(1) =   0
                l(2) =   0
                l(3) =   1
                l(4) =   1
                l(5) =   2
                l(6) =   2
     Q(r) pseudized with  8 coefficients,  rinner =    1.100   1.100   1.100
                                                       1.100   1.100

     atomic species   valence    mass     pseudopotential
     Cs                9.00   132.90550     Cs( 1.00)
     Sn               14.00   118.71000     Sn( 1.00)
     Br                7.00    79.90400     Br( 1.00)

     48 Sym. Ops., with inversion, found



   Cartesian axes

     site n.     atom                  positions (alat units)
         1        Cs     tau(   1) = (   0.7071068  -0.7071068   0.7071068  )
         2        Cs     tau(   2) = (   0.0000000   0.0000000   0.0000000  )
         3        Sn     tau(   3) = (   1.0606602  -1.0606602   1.0606602  )
         4        Sn     tau(   4) = (   0.3535534  -0.3535534   0.3535534  )
         5        Br     tau(   5) = (   0.7071068  -1.0606602   0.3535534  )
         6        Br     tau(   6) = (   0.7071068  -1.0606602   1.0606602  )
         7        Br     tau(   7) = (   0.3535534  -0.7071068   1.0606602  )
         8        Br     tau(   8) = (   0.3535534  -0.7071068   0.3535534  )
         9        Br     tau(   9) = (   0.3535534  -0.3535534   0.7071068  )
        10        Br     tau(  10) = (   0.3535534  -1.0606602   0.7071068  )

     number of k points=     8  Marzari-Vanderbilt smearing, width (Ry)=  0.0050
                       cart. coord. in units 2pi/alat
        k(    1) = (   0.0000000   0.0000000   0.0000000), wk =   0.0312500
        k(    2) = (   0.1767767  -0.1767767  -0.1767767), wk =   0.2500000
        k(    3) = (  -0.3535534   0.3535534   0.3535534), wk =   0.1250000
        k(    4) = (   0.0000000  -0.3535534   0.0000000), wk =   0.1875000
        k(    5) = (  -0.5303301   0.1767767   0.5303301), wk =   0.7500000
        k(    6) = (  -0.3535534   0.0000000   0.3535534), wk =   0.3750000
        k(    7) = (   0.0000000   0.7071068   0.0000000), wk =   0.0937500
        k(    8) = (   0.3535534   0.7071068   0.0000000), wk =   0.1875000

     Dense  grid:   727885 G-vectors     FFT dimensions: ( 125, 125, 125)

     Smooth grid:   257011 G-vectors     FFT dimensions: (  90,  90,  90)

     Estimated max dynamical RAM per process >     462.66 MB

     Estimated total dynamical RAM >       3.44 GB

     Initial potential from superposition of free atoms

     starting charge      85.9210, renormalised to      88.0000
     Starting wfcs are   68 randomized atomic wfcs

     total cpu time spent up to now is        7.2 secs

     per-process dynamical memory:   171.5 Mb

     Self-consistent Calculation

     iteration #  1     ecut=    78.00 Ry     beta= 0.40
     Davidson diagonalization with overlap
     ethr =  1.00E-02,  avg # of iterations =  2.8

     Threshold (ethr) on eigenvalues was too large:
     Diagonalizing with lowered threshold

     Davidson diagonalization with overlap
     ethr =  4.86E-04,  avg # of iterations =  2.9

     total cpu time spent up to now is       36.8 secs

     total energy              =    -734.55804213 Ry
     estimated scf accuracy    <       0.40993266 Ry

     iteration #  2     ecut=    78.00 Ry     beta= 0.40
     Davidson diagonalization with overlap
     ethr =  4.66E-04,  avg # of iterations =  2.0

     total cpu time spent up to now is       56.3 secs

     total energy              =    -734.60605352 Ry
     estimated scf accuracy    <       0.03742920 Ry

     iteration #  3     ecut=    78.00 Ry     beta= 0.40
     Davidson diagonalization with overlap
     ethr =  4.25E-05,  avg # of iterations =  4.9

     total cpu time spent up to now is       82.9 secs

     total energy              =    -734.61001271 Ry
     estimated scf accuracy    <       0.00570222 Ry

     iteration #  4     ecut=    78.00 Ry     beta= 0.40
     Davidson diagonalization with overlap
     ethr =  6.48E-06,  avg # of iterations =  6.4

     total cpu time spent up to now is      109.9 secs

     total energy              =    -734.61078094 Ry
     estimated scf accuracy    <       0.00047513 Ry

     iteration #  5     ecut=    78.00 Ry     beta= 0.40
     Davidson diagonalization with overlap
     c_bands:  2 eigenvalues not converged
     ethr =  5.40E-07,  avg # of iterations =  9.6

     total cpu time spent up to now is      143.7 secs

     total energy              =    -734.61092544 Ry
     estimated scf accuracy    <       0.00001284 Ry

     iteration #  6     ecut=    78.00 Ry     beta= 0.40
     Davidson diagonalization with overlap
     ethr =  1.46E-08,  avg # of iterations =  6.6

     total cpu time spent up to now is      173.9 secs

     total energy              =    -734.61096454 Ry
     estimated scf accuracy    <       0.00000124 Ry

     iteration #  7     ecut=    78.00 Ry     beta= 0.40
     Davidson diagonalization with overlap
     ethr =  1.41E-09,  avg # of iterations =  2.2

     total cpu time spent up to now is      199.4 secs

     total energy              =    -734.61097602 Ry
     estimated scf accuracy    <       0.00000025 Ry

     iteration #  8     ecut=    78.00 Ry     beta= 0.40
     Davidson diagonalization with overlap
     ethr =  2.83E-10,  avg # of iterations =  2.8

     total cpu time spent up to now is      227.6 secs

     total energy              =    -734.61098005 Ry
     estimated scf accuracy    <       0.00000006 Ry

     iteration #  9     ecut=    78.00 Ry     beta= 0.40
     Davidson diagonalization with overlap
     ethr =  6.26E-11,  avg # of iterations =  2.0

     total cpu time spent up to now is      251.1 secs

     End of self-consistent calculation

          k = 0.0000 0.0000 0.0000 ( 32311 PWs)   bands (ev):

   -17.9912 -17.9887 -17.9779 -17.9779 -17.9704 -17.9704 -17.9572 -17.9572
   -17.9572 -17.9569 -17.9569 -17.9569 -11.2391 -10.9253 -10.9253 -10.9253
   -10.7609 -10.7609  -4.8147  -4.8147  -4.8147  -4.7819  -4.7819  -4.7819
    -4.3822  -2.0406  -0.8246  -0.8246  -0.8246   0.6091   0.6091   0.6091
     1.0278   1.0278   1.3418   1.3418   1.3418   1.4574   1.4574   1.4574
     1.8115   1.8115   1.8115   4.1087   4.7596   4.7596   4.7596   6.5269
     7.6224   7.6224   8.0176   8.2684   8.2686

          k = 0.1768-0.1768-0.1768 ( 32130 PWs)   bands (ev):

   -17.9908 -17.9891 -17.9768 -17.9768 -17.9715 -17.9715 -17.9572 -17.9572
   -17.9571 -17.9569 -17.9569 -17.9569 -11.1980 -10.9767 -10.9023 -10.9023
   -10.7861 -10.7861  -4.8056  -4.8056  -4.7942  -4.7821  -4.7821  -4.7713
    -4.1648  -2.7025  -0.6256  -0.6256  -0.1300   0.5725   0.6002   0.6002
     0.7469   0.7469   1.2130   1.2130   1.3917   1.4048   1.4661   1.4661
     1.6849   1.6849   1.7362   3.0135   5.4219   5.4219   5.8331   6.9406
     7.8712   7.8712   8.2220   8.2378   8.2381

          k =-0.3536 0.3536 0.3536 ( 32112 PWs)   bands (ev):

   -17.9899 -17.9899 -17.9742 -17.9742 -17.9742 -17.9742 -17.9571 -17.9571
   -17.9571 -17.9571 -17.9570 -17.9570 -11.0925 -11.0925 -10.8453 -10.8453
   -10.8453 -10.8453  -4.7894  -4.7894  -4.7894  -4.7894  -4.7670  -4.7669
    -3.5619  -3.5619  -0.0747  -0.0747  -0.0747  -0.0747   0.4770   0.4770
     0.9323   0.9323   0.9323   0.9323   1.5417   1.5417   1.5417   1.5417
     1.5644   1.5644   1.8175   1.8175   6.7914   6.7914   6.7914   6.7914
     7.0565   7.0565   7.9477   7.9477   8.5396

          k = 0.0000-0.3536 0.0000 ( 32135 PWs)   bands (ev):

   -17.9907 -17.9892 -17.9779 -17.9754 -17.9729 -17.9704 -17.9571 -17.9571
   -17.9571 -17.9570 -17.9570 -17.9569 -11.1858 -10.9291 -10.9273 -10.9273
   -10.8272 -10.7600  -4.8033  -4.8033  -4.7884  -4.7769  -4.7762  -4.7762
    -4.1166  -2.6975  -0.7801  -0.7801   0.2055   0.2232   0.5156   0.7276
     0.7276   1.0247   1.2657   1.2657   1.2787   1.3976   1.3976   1.5400
     1.5482   1.5482   1.8059   3.3718   5.0150   5.0150   6.5895   7.0573
     7.3894   7.9928   8.0559   8.4649   8.4649

          k =-0.5303 0.1768 0.5303 ( 32165 PWs)   bands (ev):

   -17.9902 -17.9897 -17.9768 -17.9751 -17.9733 -17.9715 -17.9571 -17.9571
   -17.9571 -17.9570 -17.9570 -17.9569 -11.1074 -11.0264 -10.9050 -10.8916
   -10.8565 -10.7846  -4.7927  -4.7873  -4.7805  -4.7778  -4.7689  -4.7676
    -3.7320  -3.2528  -0.5538  -0.4033  -0.3953   0.5005   0.5338   0.5838
     0.8790   0.9916   1.0067   1.1742   1.3261   1.3288   1.3997   1.4097
     1.4492   1.7097   2.0094   2.5848   5.7349   5.9214   6.0927   7.6482
     7.7462   7.9056   8.0902   8.4076   8.5695

          k =-0.3536 0.0000 0.3536 ( 32156 PWs)   bands (ev):

   -17.9903 -17.9896 -17.9767 -17.9742 -17.9742 -17.9717 -17.9571 -17.9571
   -17.9570 -17.9570 -17.9570 -17.9570 -11.1360 -11.0140 -10.9281 -10.8468
   -10.8439 -10.7977  -4.7927  -4.7926  -4.7862  -4.7770  -4.7719  -4.7711
    -3.8436  -3.1690  -0.7253  -0.1331  -0.0045   0.2983   0.4102   0.5620
     0.7646   0.9675   1.0084   1.2170   1.3001   1.3396   1.4784   1.5348
     1.5612   1.6450   1.7128   2.6720   5.2475   6.6174   6.8745   7.0193
     7.1373   7.6625   8.3089   8.3100   8.3177

          k = 0.0000 0.7071 0.0000 ( 32084 PWs)   bands (ev):

   -17.9902 -17.9897 -17.9779 -17.9754 -17.9729 -17.9704 -17.9571 -17.9571
   -17.9571 -17.9571 -17.9569 -17.9569 -11.0975 -10.9329 -10.9293 -10.9293
   -10.9284 -10.7591  -4.7919  -4.7919  -4.7720  -4.7705  -4.7705  -4.7615
    -3.7725  -3.0515  -0.7321  -0.7321  -0.5900   0.4239   0.6968   1.0217
     1.0473   1.0473   1.1017   1.1017   1.1734   1.1734   1.2185   1.3533
     1.3533   1.8004   2.2364   3.1960   5.2594   5.2594   5.6940   7.9344
     8.0910   8.4855   8.4855   8.5732   8.6175

          k = 0.3536 0.7071 0.0000 ( 32160 PWs)   bands (ev):

   -17.9899 -17.9899 -17.9763 -17.9763 -17.9720 -17.9720 -17.9571 -17.9571
   -17.9570 -17.9570 -17.9570 -17.9570 -11.0496 -11.0496 -10.9289 -10.9289
   -10.8098 -10.8098  -4.7820  -4.7820  -4.7813  -4.7813  -4.7660  -4.7660
    -3.4773  -3.4773  -0.6652  -0.6652   0.1140   0.1140   0.5515   0.5515
     1.0306   1.0306   1.1372   1.1372   1.2309   1.2309   1.2966   1.2966
     1.5939   1.5939   2.4923   2.4923   5.4764   5.4764   6.9684   6.9684
     8.2349   8.2349   8.3783   8.3783   8.6825

     the Fermi energy is     4.4349 ev

!    total energy              =    -734.61098228 Ry
     estimated scf accuracy    <          4.3E-10 Ry
     smearing contrib. (-TS)   =       0.00000000 Ry
     internal energy E=F+TS    =    -734.61098228 Ry

     The total energy is F=E-TS. E is the sum of the following terms:
     one-electron contribution =    -254.04847522 Ry
     hartree contribution      =     164.52952205 Ry
     xc contribution           =    -312.40516033 Ry
     ewald contribution        =    -332.68686879 Ry

     convergence has been achieved in   9 iterations

     Forces acting on atoms (cartesian axes, Ry/au):

     atom    1 type  1   force =    -0.00000000   -0.00000000    0.00000000
     atom    2 type  1   force =    -0.00000000   -0.00000000    0.00000000
     atom    3 type  2   force =    -0.00000000    0.00000000    0.00000000
     atom    4 type  2   force =     0.00000000   -0.00000000    0.00000000
     atom    5 type  3   force =     0.00000000    0.00000000    0.00000000
     atom    6 type  3   force =     0.00000000   -0.00000000   -0.00000000
     atom    7 type  3   force =     0.00000000    0.00000000   -0.00000000
     atom    8 type  3   force =     0.00000000    0.00000000   -0.00000000
     atom    9 type  3   force =     0.00000000    0.00000000   -0.00000000
     atom   10 type  3   force =    -0.00000000    0.00000000   -0.00000000

     Total force =     0.000000     Total SCF correction =     0.000000
     Message from routine punch:
     Nothing written, as per user request (disk_io='none')

     init_run     :      5.36s CPU      6.47s WALL (       1 calls)
     electrons    :    211.61s CPU    243.95s WALL (       1 calls)
     forces       :     10.36s CPU     12.04s WALL (       1 calls)

     Called by init_run:
     wfcinit      :      1.93s CPU      2.07s WALL (       1 calls)
     potinit      :      0.93s CPU      1.06s WALL (       1 calls)
     hinit0       :      0.52s CPU      0.57s WALL (       1 calls)

     Called by electrons:
     c_bands      :    111.01s CPU    115.31s WALL (      10 calls)
     sum_band     :     55.19s CPU     69.72s WALL (      10 calls)
     v_of_rho     :     12.05s CPU     13.46s WALL (      10 calls)
     newd         :     31.43s CPU     44.23s WALL (      10 calls)
     mix_rho      :      1.35s CPU      1.41s WALL (      10 calls)

     Called by c_bands:
     init_us_2    :      4.93s CPU      4.95s WALL (      88 calls)
     cegterg      :     92.26s CPU     96.55s WALL (      40 calls)

     Called by *egterg:
     cdiaghg      :      0.68s CPU      0.69s WALL (     196 calls)
     h_psi        :     54.65s CPU     58.53s WALL (     204 calls)
     s_psi        :      5.95s CPU      5.95s WALL (     204 calls)
     g_psi        :      0.29s CPU      0.29s WALL (     160 calls)

     Called by h_psi:
     h_psi:calbec :      9.65s CPU      9.69s WALL (     204 calls)
     vloc_psi     :     37.62s CPU     41.25s WALL (     204 calls)
                                        0.00s GPU  (     204 calls)
     add_vuspsi   :      6.38s CPU      6.38s WALL (     204 calls)

     General routines
     calbec       :     13.54s CPU     13.60s WALL (     260 calls)
     fft          :     11.02s CPU     12.12s WALL (     140 calls)
     ffts         :      0.73s CPU      0.77s WALL (      20 calls)
     fftw         :     37.61s CPU     41.67s WALL (   13516 calls)
     interpolate  :      1.62s CPU      1.71s WALL (      10 calls)

     Parallel routines

     PWSCF        :   3m48.04s CPU   4m23.25s WALL


   This run was terminated on:   2: 1: 1   5Oct2026            

=------------------------------------------------------------------------------=
   JOB DONE.
=------------------------------------------------------------------------------=
