
     Program PWSCF v.7.5 starts on  4Oct2026 at 21:27:45 

     This program is part of the open-source Quantum ESPRESSO suite
     for quantum simulation of materials; please cite
         "P. Giannozzi et al., J. Phys.:Condens. Matter 21 395502 (2009);
         "P. Giannozzi et al., J. Phys.:Condens. Matter 29 465901 (2017);
         "P. Giannozzi et al., J. Chem. Phys. 152 154105 (2020);
          URL http://www.quantum-espresso.org", 
     in publications or presentations arising from this work. More details at
     http://www.quantum-espresso.org/quote

     Parallel version (MPI & OpenMP), running on       8 processor cores
     Number of MPI processes:                 8
     Threads/MPI process:                     1

     MPI processes distributed on     1 nodes
     118295 MiB available memory on the printing compute node when the environment starts

     Reading input from pw.in

     Current dimensions of program PWSCF are:
     Max number of different atomic species (ntypx) = 10
     Max number of k-points (npk) =  40000
     Max angular momentum in pseudopotentials (lmaxx) =  4
     Message from routine setup:
     using ibrav=0 with symmetry is DISCOURAGED, use correct ibrav instead

     K-points division:     npool     =       8
     Subspace diagonalization in iterative solution of the eigenvalue problem:
     a serial algorithm will be used


     G-vector sticks info
     --------------------
     sticks:   dense  smooth     PW     G-vecs:    dense   smooth      PW
     Sum        4777    2385    657               496805   175711   25001

     Using Slab Decomposition



     bravais-lattice index     =            0
     lattice parameter (alat)  =      11.1882  a.u.
     unit-cell volume          =    2800.9888 (a.u.)^3
     number of atoms/cell      =           10
     number of atomic types    =            3
     number of electrons       =        88.00
     number of Kohn-Sham states=           53
     kinetic-energy cutoff     =      60.0000  Ry
     charge density cutoff     =     480.0000  Ry
     scf convergence threshold =      1.0E-09
     mixing beta               =       0.4000
     number of iterations used =            8  plain     mixing
     Exchange-correlation=  SLA  PW   PBX  PBC
                           (   1   4   3   4   0   0   0)

     celldm(1)=  11.188210  celldm(2)=   0.000000  celldm(3)=   0.000000
     celldm(4)=   0.000000  celldm(5)=   0.000000  celldm(6)=   0.000000

     crystal axes: (cart. coord. in units of alat)
               a(1) = (   1.000000  -0.000000  -0.000000 )  
               a(2) = (  -0.000000   1.000001   0.000000 )  
               a(3) = (  -0.000000   0.000000   1.999997 )  

     reciprocal axes: (cart. coord. in units 2 pi/alat)
               b(1) = (  1.000000  0.000000  0.000000 )  
               b(2) = (  0.000000  0.999999 -0.000000 )  
               b(3) = (  0.000000 -0.000000  0.500001 )  


     PseudoPot. # 1 for Cs read from file:
     /root/sssp/Cs_pbe_v1.uspp.F.UPF
     MD5 check sum: 3476d69cb178dfad3ffaa59df4e07ca4
     Pseudo is Ultrasoft + core correction, Zval =  9.0
     Generated by new atomic code, or converted to UPF format
     Using radial grid of  905 points,  6 beta functions with: 
                l(1) =   0
                l(2) =   0
                l(3) =   1
                l(4) =   1
                l(5) =   2
                l(6) =   2
     Q(r) pseudized with  6 coefficients,  rinner =    1.500   1.500   1.500
                                                       1.500   1.500

     PseudoPot. # 2 for Sn read from file:
     /root/sssp/Sn_pbe_v1.uspp.F.UPF
     MD5 check sum: 4cf58ce39ec5d5d420df3dd08604eb00
     Pseudo is Ultrasoft + core correction, Zval = 14.0
     Generated by new atomic code, or converted to UPF format
     Using radial grid of  891 points,  6 beta functions with: 
                l(1) =   0
                l(2) =   0
                l(3) =   1
                l(4) =   1
                l(5) =   2
                l(6) =   2
     Q(r) pseudized with  6 coefficients,  rinner =    1.200   1.200   1.200
                                                       1.200   1.200

     PseudoPot. # 3 for Br read from file:
     /root/sssp/br_pbe_v1.4.uspp.F.UPF
     MD5 check sum: d3ffb7b29f6225aa16fe06858fb2a80b
     Pseudo is Ultrasoft + core correction, Zval =  7.0
     Generated by new atomic code, or converted to UPF format
     Using radial grid of  879 points,  6 beta functions with: 
                l(1) =   0
                l(2) =   0
                l(3) =   1
                l(4) =   1
                l(5) =   2
                l(6) =   2
     Q(r) pseudized with  8 coefficients,  rinner =    1.100   1.100   1.100
                                                       1.100   1.100

     atomic species   valence    mass     pseudopotential
     Cs                9.00   132.90550     Cs( 1.00)
     Sn               14.00   118.71000     Sn( 1.00)
     Br                7.00    79.90400     Br( 1.00)

      8 Sym. Ops., with inversion, found ( 4 have fractional translation)



   Cartesian axes

     site n.     atom                  positions (alat units)
         1        Cs     tau(   1) = (   0.0000000   1.0000005   0.0000000  )
         2        Cs     tau(   2) = (  -0.0000000   1.0000005   0.9999986  )
         3        Sn     tau(   3) = (   0.5004690   0.4999999   0.4999992  )
         4        Sn     tau(   4) = (   0.4995308   0.4999999   1.4999977  )
         5        Br     tau(   5) = (   0.0007267   0.5000002   0.4999993  )
         6        Br     tau(   6) = (  -0.0007267   0.5000004   1.4999978  )
         7        Br     tau(   7) = (   0.5037534   0.0000003   0.4999992  )
         8        Br     tau(   8) = (   0.4962465   0.0000003   1.4999978  )
         9        Br     tau(   9) = (   0.4999999   0.5000003   0.9999985  )
        10        Br     tau(  10) = (   0.4999999   0.5000003   1.9999970  )

     number of k points=    18  Marzari-Vanderbilt smearing, width (Ry)=  0.0050
                       cart. coord. in units 2pi/alat
        k(    1) = (   0.0000000   0.0000000   0.0000000), wk =   0.0266667
        k(    2) = (   0.0000000  -0.0000000   0.1666669), wk =   0.0533333
        k(    3) = (   0.0000000   0.1999999  -0.0000000), wk =   0.0533333
        k(    4) = (   0.0000000   0.1999999   0.1666669), wk =   0.1066667
        k(    5) = (   0.0000000   0.3999998  -0.0000000), wk =   0.0533333
        k(    6) = (   0.0000000   0.3999998   0.1666669), wk =   0.1066667
        k(    7) = (   0.2000000   0.1999999   0.0000000), wk =   0.1066667
        k(    8) = (   0.2000000   0.1999999   0.1666669), wk =   0.2133333
        k(    9) = (   0.2000000   0.3999998   0.0000000), wk =   0.1066667
        k(   10) = (   0.2000000   0.3999998   0.1666669), wk =   0.2133333
        k(   11) = (   0.4000000   0.3999998   0.0000000), wk =   0.1066667
        k(   12) = (   0.4000000   0.3999998   0.1666669), wk =   0.2133333
        k(   13) = (   0.2000000   0.0000000   0.0000000), wk =   0.0533333
        k(   14) = (   0.2000000   0.0000000  -0.1666669), wk =   0.1066667
        k(   15) = (   0.4000000   0.0000000   0.0000000), wk =   0.0533333
        k(   16) = (   0.4000000   0.0000000  -0.1666669), wk =   0.1066667
        k(   17) = (   0.4000000   0.1999999   0.0000000), wk =   0.1066667
        k(   18) = (   0.4000000   0.1999999  -0.1666669), wk =   0.2133333

     Dense  grid:   496805 G-vectors     FFT dimensions: (  80,  80, 160)

     Smooth grid:   175711 G-vectors     FFT dimensions: (  60,  60, 120)

     Estimated max dynamical RAM per process >     636.74 MB

     Estimated total dynamical RAM >       4.15 GB

     Initial potential from superposition of free atoms

     starting charge      85.9210, renormalised to      88.0000
     Starting wfcs are   68 randomized atomic wfcs

     total cpu time spent up to now is       90.4 secs

     per-process dynamical memory:   345.7 Mb

     Self-consistent Calculation

     iteration #  1     ecut=    60.00 Ry     beta= 0.40
     Davidson diagonalization with overlap
     ethr =  1.00E-02,  avg # of iterations =  2.7

     Threshold (ethr) on eigenvalues was too large:
     Diagonalizing with lowered threshold

     Davidson diagonalization with overlap
     ethr =  4.89E-04,  avg # of iterations =  2.9

     total cpu time spent up to now is      282.0 secs

     total energy              =    -734.55979303 Ry
     estimated scf accuracy    <       0.41361477 Ry

     iteration #  2     ecut=    60.00 Ry     beta= 0.40
     Davidson diagonalization with overlap
     ethr =  4.70E-04,  avg # of iterations =  2.0

     total cpu time spent up to now is      380.8 secs

     total energy              =    -734.60686640 Ry
     estimated scf accuracy    <       0.03807418 Ry

     iteration #  3     ecut=    60.00 Ry     beta= 0.40
     Davidson diagonalization with overlap
     ethr =  4.33E-05,  avg # of iterations =  8.5

     total cpu time spent up to now is      479.5 secs

     total energy              =    -734.61031980 Ry
     estimated scf accuracy    <       0.00585407 Ry

     iteration #  4     ecut=    60.00 Ry     beta= 0.40
     Davidson diagonalization with overlap
     c_bands:  1 eigenvalues not converged
     c_bands:  2 eigenvalues not converged
     ethr =  6.65E-06,  avg # of iterations =  9.8

     total cpu time spent up to now is      608.6 secs

     total energy              =    -734.61091254 Ry
     estimated scf accuracy    <       0.00049646 Ry

     iteration #  5     ecut=    60.00 Ry     beta= 0.40
     Davidson diagonalization with overlap
     ethr =  5.64E-07,  avg # of iterations =  5.2

     total cpu time spent up to now is      655.0 secs

     total energy              =    -734.61098813 Ry
     estimated scf accuracy    <       0.00001284 Ry

     iteration #  6     ecut=    60.00 Ry     beta= 0.40
     Davidson diagonalization with overlap
     ethr =  1.46E-08,  avg # of iterations =  5.6

     total cpu time spent up to now is      699.5 secs

     total energy              =    -734.61100192 Ry
     estimated scf accuracy    <       0.00000131 Ry

     iteration #  7     ecut=    60.00 Ry     beta= 0.40
     Davidson diagonalization with overlap
     ethr =  1.49E-09,  avg # of iterations =  3.4

     total cpu time spent up to now is      776.4 secs

     total energy              =    -734.61100445 Ry
     estimated scf accuracy    <       0.00000025 Ry

     iteration #  8     ecut=    60.00 Ry     beta= 0.40
     Davidson diagonalization with overlap
     ethr =  2.84E-10,  avg # of iterations =  2.4

     total cpu time spent up to now is      877.0 secs

     total energy              =    -734.61100520 Ry
     estimated scf accuracy    <       0.00000007 Ry

     iteration #  9     ecut=    60.00 Ry     beta= 0.40
     Davidson diagonalization with overlap
     ethr =  7.86E-11,  avg # of iterations =  2.1

     total cpu time spent up to now is      972.6 secs

     End of self-consistent calculation

          k = 0.0000 0.0000 0.0000 ( 21959 PWs)   bands (ev):

   -18.1177 -18.1145 -18.1139 -18.1139 -18.1136 -18.1131 -18.0980 -18.0979
   -18.0978 -18.0978 -18.0949 -18.0949 -11.3120 -11.1786 -11.0071 -10.8567
   -10.8550 -10.8504  -4.9026  -4.9024  -4.9023  -4.8938  -4.8917  -4.8917
    -3.1539  -2.1827  -0.8876  -0.8875  -0.8837  -0.7964  -0.7963   0.6157
     1.0895   1.0896   1.1291   1.2480   1.2516   1.2516   1.2585   1.2586
     1.3583   1.3603   1.3603   2.1000   5.5436   6.4076   7.5256   7.5263
     7.8025   8.1639   8.1704   8.2993   8.3051

          k = 0.0000-0.0000 0.1667 ( 21971 PWs)   bands (ev):

   -18.1165 -18.1143 -18.1143 -18.1139 -18.1139 -18.1138 -18.0979 -18.0979
   -18.0978 -18.0978 -18.0949 -18.0949 -11.2885 -11.2272 -10.9527 -10.8796
   -10.8563 -10.8554  -4.9004  -4.8998  -4.8996  -4.8958  -4.8944  -4.8943
    -2.9969  -2.5633  -0.8661  -0.8659  -0.8206  -0.8204  -0.2985   0.4465
     1.1358   1.1359   1.1578   1.2174   1.2183   1.2183   1.2783   1.2785
     1.3278   1.3279   1.3640   1.6422   6.3838   6.6677   7.3539   7.6711
     7.7281   7.9692   8.1093   8.2017   8.2655

          k = 0.0000 0.2000-0.0000 ( 21957 PWs)   bands (ev):

   -18.1174 -18.1142 -18.1135 -18.1134 -18.1126 -18.1120 -18.0979 -18.0979
   -18.0978 -18.0978 -18.0949 -18.0949 -11.2781 -11.1487 -11.0073 -10.8972
   -10.8865 -10.8512  -4.9007  -4.8992  -4.8989  -4.8988  -4.8982  -4.8888
    -3.4572  -2.6666  -0.8577  -0.8535  -0.7523  -0.2109  -0.1219   0.5195
     0.9494   1.0657   1.1756   1.1988   1.1998   1.2107   1.2233   1.3165
     1.3202   1.3806   1.4228   2.2511   5.3966   6.7716   7.2440   7.6128
     7.8012   7.8100   8.0875   8.1191   8.2905

          k = 0.0000 0.2000 0.1667 ( 21977 PWs)   bands (ev):

   -18.1163 -18.1142 -18.1140 -18.1137 -18.1126 -18.1124 -18.0979 -18.0978
   -18.0978 -18.0978 -18.0949 -18.0949 -11.2558 -11.1969 -10.9562 -10.9036
   -10.8854 -10.8711  -4.9049  -4.9046  -4.8963  -4.8938  -4.8938  -4.8912
    -3.3145  -2.9429  -0.8330  -0.7805  -0.5145  -0.2675   0.0255   0.4422
     0.9323   1.0364   1.1104   1.1767   1.2023   1.2390   1.2615   1.2751
     1.3828   1.4121   1.4284   1.7667   6.2440   6.9663   7.2656   7.4880
     7.6743   7.7275   7.9652   8.0095   8.1524

          k = 0.0000 0.4000-0.0000 ( 21988 PWs)   bands (ev):

   -18.1171 -18.1137 -18.1134 -18.1133 -18.1103 -18.1095 -18.0979 -18.0979
   -18.0978 -18.0976 -18.0950 -18.0950 -11.1971 -11.0691 -11.0078 -10.9911
   -10.9686 -10.8504  -4.9106  -4.9101  -4.8945  -4.8930  -4.8927  -4.8842
    -3.8045  -3.0978  -0.8055  -0.8012  -0.6730   0.3763   0.5694   0.6784
     0.9529   1.0278   1.0380   1.0884   1.1008   1.1032   1.1448   1.2664
     1.2719   1.6630   1.8827   2.8136   5.1599   5.5101   5.8853   7.6127
     7.9398   8.2911   8.3068   8.3086   8.3797

          k = 0.0000 0.4000 0.1667 ( 21976 PWs)   bands (ev):

   -18.1161 -18.1142 -18.1136 -18.1135 -18.1102 -18.1098 -18.0979 -18.0979
   -18.0978 -18.0977 -18.0950 -18.0950 -11.1765 -11.1211 -10.9939 -10.9915
   -10.9288 -10.8723  -4.9096  -4.9029  -4.9013  -4.8945  -4.8906  -4.8863
    -3.6695  -3.3307  -0.7750  -0.7090  -0.3775   0.3557   0.4264   0.5238
     0.9118   0.9542   1.0495   1.0837   1.0960   1.1741   1.2144   1.2382
     1.3762   1.5888   1.9781   2.3594   5.5803   5.7827   6.0824   7.5171
     7.8346   8.0011   8.1698   8.2303   8.3817

          k = 0.2000 0.2000 0.0000 ( 21957 PWs)   bands (ev):

   -18.1169 -18.1139 -18.1133 -18.1123 -18.1115 -18.1115 -18.0980 -18.0979
   -18.0978 -18.0978 -18.0950 -18.0949 -11.2459 -11.1237 -11.0071 -10.9136
   -10.9112 -10.8726  -4.9073  -4.9060  -4.9048  -4.8956  -4.8930  -4.8929
    -3.7244  -3.0275  -0.8189  -0.4380  -0.3245  -0.0474   0.1064   0.5048
     0.7524   0.9776   1.0031   1.1631   1.2566   1.2644   1.2962   1.3770
     1.4144   1.4265   1.4767   2.3626   5.2448   6.9878   7.0350   7.1585
     7.3770   7.5890   8.0272   8.1346   8.2061

          k = 0.2000 0.2000 0.1667 ( 21966 PWs)   bands (ev):

   -18.1157 -18.1138 -18.1135 -18.1135 -18.1115 -18.1115 -18.0980 -18.0979
   -18.0978 -18.0978 -18.0950 -18.0950 -11.2251 -11.1701 -10.9576 -10.9129
   -10.9118 -10.8964  -4.9083  -4.9058  -4.9052  -4.9040  -4.8888  -4.8873
    -3.5912  -3.2569  -0.4942  -0.4122  -0.3555  -0.1400   0.1999   0.4437
     0.8253   0.9391   0.9731   1.0015   1.3472   1.3535   1.3793   1.3866
     1.4056   1.4148   1.4572   1.8333   6.0997   7.0568   7.1154   7.1739
     7.2437   7.3893   7.7698   7.8627   8.1584

          k = 0.2000 0.4000 0.0000 ( 21981 PWs)   bands (ev):

   -18.1164 -18.1136 -18.1130 -18.1121 -18.1094 -18.1091 -18.0980 -18.0979
   -18.0978 -18.0977 -18.0951 -18.0949 -11.1676 -11.0579 -11.0067 -10.9921
   -10.9764 -10.8813  -4.9178  -4.9174  -4.9031  -4.8997  -4.8956  -4.8900
    -4.0478  -3.4058  -0.7583  -0.2314  -0.1389   0.4302   0.5035   0.6369
     0.6992   0.8651   0.9408   1.0769   1.1864   1.2344   1.3597   1.3860
     1.4230   1.6672   2.0253   2.9021   4.9980   5.3590   5.7441   6.8800
     7.2580   7.8927   8.1326   8.3808   8.4157

          k = 0.2000 0.4000 0.1667 ( 21973 PWs)   bands (ev):

   -18.1153 -18.1134 -18.1132 -18.1131 -18.1094 -18.1092 -18.0980 -18.0979
   -18.0979 -18.0978 -18.0950 -18.0950 -11.1499 -11.1027 -10.9932 -10.9920
   -10.9451 -10.8991  -4.9152  -4.9122  -4.9061  -4.9040  -4.8960  -4.8902
    -3.9200  -3.6085  -0.4201  -0.1899  -0.1466   0.3893   0.4584   0.4951
     0.7190   0.8040   0.8467   0.9927   1.2857   1.3639   1.3646   1.4141
     1.4490   1.5934   2.0837   2.4283   5.4297   5.6389   5.9311   6.9589
     7.1172   7.3653   7.9879   8.1700   8.5268

          k = 0.4000 0.4000 0.0000 ( 21986 PWs)   bands (ev):

   -18.1156 -18.1133 -18.1124 -18.1110 -18.1077 -18.1077 -18.0981 -18.0980
   -18.0979 -18.0979 -18.0952 -18.0948 -11.0926 -11.0301 -11.0048 -11.0024
   -10.9988 -10.9498  -4.9295  -4.9292  -4.9243  -4.9109  -4.9064  -4.8852
    -4.3553  -3.7556  -0.6817   0.3915   0.5117   0.5558   0.5559   0.5628
     0.6968   0.8526   0.9295   1.0353   1.0550   1.1389   1.6297   1.6333
     1.6408   1.6837   2.5960   3.3535   4.7283   5.0249   5.2947   5.4729
     5.6106   7.9641   8.0195   8.3958   8.5687

          k = 0.4000 0.4000 0.1667 ( 22003 PWs)   bands (ev):

   -18.1145 -18.1131 -18.1126 -18.1122 -18.1077 -18.1077 -18.0980 -18.0980
   -18.0980 -18.0979 -18.0951 -18.0949 -11.0826 -11.0559 -11.0015 -10.9997
   -10.9809 -10.9580  -4.9246  -4.9243  -4.9156  -4.9141  -4.9123  -4.8948
    -4.2319  -3.9387  -0.2969   0.4251   0.4395   0.4900   0.5604   0.5622
     0.6209   0.7355   0.7465   0.8654   1.3050   1.3516   1.5677   1.5717
     1.6359   1.6454   2.6437   2.9053   5.1357   5.2657   5.3604   5.5051
     5.8092   7.1683   8.0964   8.3290   8.7680

          k = 0.2000 0.0000 0.0000 ( 21957 PWs)   bands (ev):

   -18.1174 -18.1142 -18.1135 -18.1134 -18.1126 -18.1120 -18.0980 -18.0978
   -18.0978 -18.0978 -18.0949 -18.0949 -11.2781 -11.1487 -11.0073 -10.8972
   -10.8865 -10.8512  -4.9009  -4.8994  -4.8987  -4.8986  -4.8983  -4.8888
    -3.4573  -2.6668  -0.8573  -0.8535  -0.7520  -0.2111  -0.1220   0.5195
     0.9494   1.0658   1.1770   1.1987   1.2008   1.2093   1.2224   1.3164
     1.3203   1.3806   1.4230   2.2510   5.3966   6.7716   7.2449   7.6137
     7.8021   7.8103   8.0878   8.1144   8.2907

          k = 0.2000 0.0000-0.1667 ( 21977 PWs)   bands (ev):

   -18.1163 -18.1142 -18.1140 -18.1137 -18.1126 -18.1124 -18.0979 -18.0978
   -18.0978 -18.0978 -18.0949 -18.0949 -11.2558 -11.1969 -10.9562 -10.9037
   -10.8854 -10.8711  -4.9050  -4.9046  -4.8962  -4.8939  -4.8936  -4.8913
    -3.3146  -2.9430  -0.8327  -0.7801  -0.5146  -0.2677   0.0255   0.4422
     0.9322   1.0364   1.1105   1.1769   1.2029   1.2386   1.2611   1.2751
     1.3825   1.4121   1.4285   1.7665   6.2439   6.9663   7.2664   7.4889
     7.6744   7.7279   7.9958   8.1481   8.2160

          k = 0.4000 0.0000 0.0000 ( 21988 PWs)   bands (ev):

   -18.1171 -18.1137 -18.1134 -18.1133 -18.1103 -18.1095 -18.0980 -18.0979
   -18.0978 -18.0976 -18.0950 -18.0950 -11.1971 -11.0691 -11.0078 -10.9912
   -10.9686 -10.8503  -4.9106  -4.9102  -4.8944  -4.8930  -4.8927  -4.8842
    -3.8047  -3.0980  -0.8052  -0.8012  -0.6726   0.3762   0.5695   0.6783
     0.9529   1.0278   1.0392   1.0904   1.1008   1.1011   1.1437   1.2663
     1.2720   1.6632   1.8828   2.8137   5.1598   5.5099   5.8850   7.6128
     7.9384   8.2910   8.3054   8.3085   8.3795

          k = 0.4000 0.0000-0.1667 ( 21976 PWs)   bands (ev):

   -18.1161 -18.1142 -18.1136 -18.1135 -18.1102 -18.1098 -18.0979 -18.0978
   -18.0978 -18.0977 -18.0950 -18.0950 -11.1765 -11.1211 -10.9940 -10.9916
   -10.9287 -10.8723  -4.9096  -4.9032  -4.9010  -4.8944  -4.8906  -4.8863
    -3.6697  -3.3309  -0.7746  -0.7086  -0.3775   0.3557   0.4263   0.5238
     0.9118   0.9544   1.0496   1.0835   1.0965   1.1740   1.2145   1.2381
     1.3760   1.5888   1.9782   2.3595   5.5801   5.7824   6.0824   7.5170
     7.8348   7.9997   8.1686   8.2302   8.3817

          k = 0.4000 0.2000 0.0000 ( 21981 PWs)   bands (ev):

   -18.1164 -18.1136 -18.1130 -18.1122 -18.1094 -18.1091 -18.0980 -18.0979
   -18.0979 -18.0977 -18.0951 -18.0949 -11.1676 -11.0580 -11.0067 -10.9922
   -10.9764 -10.8813  -4.9178  -4.9174  -4.9031  -4.8996  -4.8956  -4.8900
    -4.0479  -3.4059  -0.7583  -0.2312  -0.1388   0.4301   0.5035   0.6370
     0.6992   0.8653   0.9407   1.0769   1.1863   1.2344   1.3596   1.3859
     1.4230   1.6673   2.0255   2.9022   4.9980   5.3589   5.7439   6.8794
     7.2574   7.8927   8.1325   8.3809   8.4157

          k = 0.4000 0.2000-0.1667 ( 21973 PWs)   bands (ev):

   -18.1153 -18.1134 -18.1132 -18.1131 -18.1094 -18.1092 -18.0980 -18.0979
   -18.0979 -18.0978 -18.0950 -18.0950 -11.1499 -11.1027 -10.9933 -10.9920
   -10.9451 -10.8990  -4.9152  -4.9122  -4.9061  -4.9039  -4.8960  -4.8902
    -3.9201  -3.6086  -0.4200  -0.1896  -0.1467   0.3892   0.4584   0.4951
     0.7190   0.8039   0.8467   0.9928   1.2859   1.3628   1.3657   1.4139
     1.4489   1.5934   2.0839   2.4284   5.4295   5.6387   5.9311   6.9583
     7.1167   7.3652   7.9879   8.1700   8.5269

     the Fermi energy is     4.1521 ev

!    total energy              =    -734.61100558 Ry
     estimated scf accuracy    <          3.1E-10 Ry
     smearing contrib. (-TS)   =      -0.00000000 Ry
     internal energy E=F+TS    =    -734.61100558 Ry

     The total energy is F=E-TS. E is the sum of the following terms:
     one-electron contribution =    -256.28441487 Ry
     hartree contribution      =     165.27630640 Ry
     xc contribution           =    -312.36692816 Ry
     ewald contribution        =    -331.23596896 Ry

     convergence has been achieved in   9 iterations

     Forces acting on atoms (cartesian axes, Ry/au):

     atom    1 type  1   force =     0.00000000   -0.00000000    0.00000000
     atom    2 type  1   force =     0.00000000   -0.00000000    0.00000000
     atom    3 type  2   force =     0.00014776    0.00000000    0.00000000
     atom    4 type  2   force =    -0.00014776   -0.00000000   -0.00000000
     atom    5 type  3   force =     0.00012611    0.00000000    0.00000000
     atom    6 type  3   force =    -0.00012611   -0.00000000   -0.00000000
     atom    7 type  3   force =    -0.00026815   -0.00000000   -0.00000000
     atom    8 type  3   force =     0.00026815    0.00000000    0.00000000
     atom    9 type  3   force =     0.00000000    0.00000000    0.00000000
     atom   10 type  3   force =     0.00000000    0.00000000    0.00000000

     Total force =     0.000468     Total SCF correction =     0.000002
     Message from routine punch:
     Nothing written, as per user request (disk_io='none')

     init_run     :     36.94s CPU     45.82s WALL (       1 calls)
     electrons    :    848.05s CPU    882.27s WALL (       1 calls)
     forces       :     31.10s CPU     33.15s WALL (       1 calls)

     Called by init_run:
     wfcinit      :      6.02s CPU      7.00s WALL (       1 calls)
     potinit      :     12.85s CPU     16.20s WALL (       1 calls)
     hinit0       :     11.33s CPU     12.25s WALL (       1 calls)

     Called by electrons:
     c_bands      :    558.93s CPU    565.39s WALL (      10 calls)
     sum_band     :    178.53s CPU    190.75s WALL (      10 calls)
     v_of_rho     :     33.16s CPU     39.62s WALL (      10 calls)
     newd         :     81.80s CPU     96.85s WALL (      10 calls)
     mix_rho      :      3.92s CPU      4.04s WALL (      10 calls)

     Called by c_bands:
     init_us_2    :     13.28s CPU     13.92s WALL (      66 calls)
     cegterg      :    198.76s CPU    204.50s WALL (      30 calls)

     Called by *egterg:
     cdiaghg      :      0.97s CPU      0.97s WALL (     203 calls)
     h_psi        :    144.51s CPU    147.39s WALL (     209 calls)
     s_psi        :     14.84s CPU     14.86s WALL (     209 calls)
     g_psi        :      0.86s CPU      0.86s WALL (     176 calls)

     Called by h_psi:
     h_psi:calbec :     16.84s CPU     16.85s WALL (     209 calls)
     vloc_psi     :    110.69s CPU    110.92s WALL (     209 calls)
                                        0.00s GPU  (     209 calls)
     add_vuspsi   :     15.47s CPU     15.51s WALL (     209 calls)

     General routines
     calbec       :     25.10s CPU     25.12s WALL (     251 calls)
     fft          :     24.16s CPU     24.33s WALL (     140 calls)
     ffts         :      3.35s CPU      3.35s WALL (      20 calls)
     fftw         :    102.56s CPU    102.74s WALL (   10410 calls)
     interpolate  :      4.79s CPU      4.88s WALL (      10 calls)

     Parallel routines

     PWSCF        :  16m 0.67s CPU  16m46.20s WALL


   This run was terminated on:  21:44:32   4Oct2026            

=------------------------------------------------------------------------------=
   JOB DONE.
=------------------------------------------------------------------------------=
