
     Program PWSCF v.7.5 starts on  5Oct2026 at  1: 8:54 

     This program is part of the open-source Quantum ESPRESSO suite
     for quantum simulation of materials; please cite
         "P. Giannozzi et al., J. Phys.:Condens. Matter 21 395502 (2009);
         "P. Giannozzi et al., J. Phys.:Condens. Matter 29 465901 (2017);
         "P. Giannozzi et al., J. Chem. Phys. 152 154105 (2020);
          URL http://www.quantum-espresso.org", 
     in publications or presentations arising from this work. More details at
     http://www.quantum-espresso.org/quote

     Parallel version (MPI & OpenMP), running on       8 processor cores
     Number of MPI processes:                 8
     Threads/MPI process:                     1

     MPI processes distributed on     1 nodes
     99413 MiB available memory on the printing compute node when the environment starts

     Reading input from pw.in

     Current dimensions of program PWSCF are:
     Max number of different atomic species (ntypx) = 10
     Max number of k-points (npk) =  40000
     Max angular momentum in pseudopotentials (lmaxx) =  4
     file K.pbe-spn-kjpaw_psl.1.0.0.UPF: wavefunction(s)  3S renormalized
     file Nb.pbe-spn-kjpaw_psl.0.3.0.UPF: wavefunction(s)  4S 4P renormalized
     file O.pbe-n-kjpaw_psl.0.1.UPF: wavefunction(s)  2P renormalized

     K-points division:     npool     =       8
     Subspace diagonalization in iterative solution of the eigenvalue problem:
     a serial algorithm will be used


     G-vector sticks info
     --------------------
     sticks:   dense  smooth     PW     G-vecs:    dense   smooth      PW
     Sum        4491    2243    645               160281    56679    8681

     Using Slab Decomposition



     bravais-lattice index     =            0
     lattice parameter (alat)  =      15.3369  a.u.
     unit-cell volume          =     902.1575 (a.u.)^3
     number of atoms/cell      =           10
     number of atomic types    =            3
     number of electrons       =        80.00
     number of Kohn-Sham states=           48
     kinetic-energy cutoff     =      60.0000  Ry
     charge density cutoff     =     480.0000  Ry
     scf convergence threshold =      1.0E-09
     mixing beta               =       0.4000
     number of iterations used =            8  plain     mixing
     Exchange-correlation= SLA  PW   PBX  PBC
                           (   1   4   3   4   0   0   0)

     celldm(1)=  15.336869  celldm(2)=   0.000000  celldm(3)=   0.000000
     celldm(4)=   0.000000  celldm(5)=   0.000000  celldm(6)=   0.000000

     crystal axes: (cart. coord. in units of alat)
               a(1) = (  -0.000001  -1.000000  -0.000002 )  
               a(2) = (  -0.500019  -0.000000  -0.000001 )  
               a(3) = (  -0.000001  -0.000001  -0.500134 )  

     reciprocal axes: (cart. coord. in units 2 pi/alat)
               b(1) = (  0.000001 -1.000000  0.000002 )  
               b(2) = ( -1.999926  0.000001  0.000004 )  
               b(3) = (  0.000004  0.000003 -1.999465 )  


     PseudoPot. # 1 for K  read from file:
     /root/sssp/K.pbe-spn-kjpaw_psl.1.0.0.UPF
     MD5 check sum: 7d58810084cac21f60fbe77ea2b688fd
     Pseudo is Projector augmented-wave + core cor, Zval =  9.0
     Generated using "atomic" code by A. Dal Corso  v.5.1
     Shape of augmentation charge: PSQ
     Using radial grid of 1165 points,  6 beta functions with: 
                l(1) =   0
                l(2) =   0
                l(3) =   1
                l(4) =   1
                l(5) =   2
                l(6) =   2
     Q(r) pseudized with 0 coefficients 


     PseudoPot. # 2 for Nb read from file:
     /root/sssp/Nb.pbe-spn-kjpaw_psl.0.3.0.UPF
     MD5 check sum: 411d72ad547312f8017e2943ceca08cc
     Pseudo is Projector augmented-wave + core cor, Zval = 13.0
     Generated using "atomic" code by A. Dal Corso  v.5.0.99 svn rev. 10869
     Shape of augmentation charge: PSQ
     Using radial grid of 1227 points,  6 beta functions with: 
                l(1) =   0
                l(2) =   0
                l(3) =   1
                l(4) =   1
                l(5) =   2
                l(6) =   2
     Q(r) pseudized with 0 coefficients 


     PseudoPot. # 3 for O  read from file:
     /root/sssp/O.pbe-n-kjpaw_psl.0.1.UPF
     MD5 check sum: 0234752ac141de4415c5fc33072bef88
     Pseudo is Projector augmented-wave + core cor, Zval =  6.0
     Generated using "atomic" code by A. Dal Corso  v.5.0.99 svn rev. 10869
     Shape of augmentation charge: BESSEL
     Using radial grid of 1095 points,  4 beta functions with: 
                l(1) =   0
                l(2) =   0
                l(3) =   1
                l(4) =   1
     Q(r) pseudized with 0 coefficients 


     atomic species   valence    mass     pseudopotential
     K                 9.00    39.09830     K ( 1.00)
     Nb               13.00    92.90640     Nb( 1.00)
     O                 6.00    15.99900     O ( 1.00)

     No symmetry found



   Cartesian axes

     site n.     atom                  positions (alat units)
         1        K      tau(   1) = (  -0.0000012  -0.4999050   0.0000505  )
         2        K      tau(   2) = (  -0.0000019  -1.0000895  -0.0000544  )
         3        Nb     tau(   3) = (  -0.2438315  -0.2501339  -0.2609885  )
         4        Nb     tau(   4) = (  -0.2562085  -0.7498693  -0.2391175  )
         5        O      tau(   5) = (  -0.5000964  -0.2499060  -0.2500635  )
         6        O      tau(   6) = (  -0.4999401  -0.7500947  -0.2500748  )
         7        O      tau(   7) = (  -0.2500320  -0.0000118  -0.2501317  )
         8        O      tau(   8) = (  -0.2499862  -0.4999916  -0.2499956  )
         9        O      tau(   9) = (  -0.2500710  -0.2500572   0.0001678  )
        10        O      tau(  10) = (  -0.2499481  -0.7499446  -0.0001721  )

     number of k points=    99  Marzari-Vanderbilt smearing, width (Ry)=  0.0050
                       cart. coord. in units 2pi/alat
        k(    1) = (   0.0000000   0.0000000   0.0000000), wk =   0.0102041
        k(    2) = (   0.0000006   0.0000005  -0.2856379), wk =   0.0204082
        k(    3) = (   0.0000012   0.0000010  -0.5712758), wk =   0.0204082
        k(    4) = (   0.0000017   0.0000015  -0.8569137), wk =   0.0204082
        k(    5) = (  -0.2857036   0.0000002   0.0000006), wk =   0.0204082
        k(    6) = (  -0.2857031   0.0000007  -0.2856373), wk =   0.0204082
        k(    7) = (  -0.2857025   0.0000011  -0.5712752), wk =   0.0204082
        k(    8) = (  -0.2857019   0.0000016  -0.8569132), wk =   0.0204082
        k(    9) = (  -0.2857054  -0.0000013   0.8569143), wk =   0.0204082
        k(   10) = (  -0.2857048  -0.0000008   0.5712764), wk =   0.0204082
        k(   11) = (  -0.2857042  -0.0000003   0.2856385), wk =   0.0204082
        k(   12) = (  -0.5714073   0.0000003   0.0000012), wk =   0.0204082
        k(   13) = (  -0.5714067   0.0000008  -0.2856368), wk =   0.0204082
        k(   14) = (  -0.5714061   0.0000013  -0.5712747), wk =   0.0204082
        k(   15) = (  -0.5714056   0.0000018  -0.8569126), wk =   0.0204082
        k(   16) = (  -0.5714090  -0.0000012   0.8569149), wk =   0.0204082
        k(   17) = (  -0.5714085  -0.0000007   0.5712770), wk =   0.0204082
        k(   18) = (  -0.5714079  -0.0000002   0.2856391), wk =   0.0204082
        k(   19) = (  -0.8571109   0.0000005   0.0000017), wk =   0.0204082
        k(   20) = (  -0.8571104   0.0000010  -0.2856362), wk =   0.0204082
        k(   21) = (  -0.8571098   0.0000015  -0.5712741), wk =   0.0204082
        k(   22) = (  -0.8571092   0.0000020  -0.8569120), wk =   0.0204082
        k(   23) = (  -0.8571127  -0.0000010   0.8569155), wk =   0.0204082
        k(   24) = (  -0.8571121  -0.0000005   0.5712776), wk =   0.0204082
        k(   25) = (  -0.8571115  -0.0000000   0.2856397), wk =   0.0204082
        k(   26) = (   0.0000001  -0.2500000   0.0000004), wk =   0.0204082
        k(   27) = (   0.0000007  -0.2499995  -0.2856375), wk =   0.0204082
        k(   28) = (   0.0000013  -0.2499990  -0.5712754), wk =   0.0204082
        k(   29) = (   0.0000019  -0.2499985  -0.8569133), wk =   0.0204082
        k(   30) = (  -0.0000016  -0.2500015   0.8569142), wk =   0.0204082
        k(   31) = (  -0.0000010  -0.2500010   0.5712763), wk =   0.0204082
        k(   32) = (  -0.0000004  -0.2500005   0.2856383), wk =   0.0204082
        k(   33) = (  -0.2857035  -0.2499998   0.0000010), wk =   0.0204082
        k(   34) = (  -0.2857029  -0.2499993  -0.2856369), wk =   0.0204082
        k(   35) = (  -0.2857023  -0.2499989  -0.5712748), wk =   0.0204082
        k(   36) = (  -0.2857018  -0.2499984  -0.8569127), wk =   0.0204082
        k(   37) = (  -0.2857052  -0.2500013   0.8569147), wk =   0.0204082
        k(   38) = (  -0.2857047  -0.2500008   0.5712768), wk =   0.0204082
        k(   39) = (  -0.2857041  -0.2500003   0.2856389), wk =   0.0204082
        k(   40) = (  -0.5714072  -0.2499997   0.0000016), wk =   0.0204082
        k(   41) = (  -0.5714066  -0.2499992  -0.2856363), wk =   0.0204082
        k(   42) = (  -0.5714060  -0.2499987  -0.5712742), wk =   0.0204082
        k(   43) = (  -0.5714054  -0.2499982  -0.8569121), wk =   0.0204082
        k(   44) = (  -0.5714089  -0.2500012   0.8569153), wk =   0.0204082
        k(   45) = (  -0.5714083  -0.2500007   0.5712774), wk =   0.0204082
        k(   46) = (  -0.5714077  -0.2500002   0.2856395), wk =   0.0204082
        k(   47) = (  -0.8571108  -0.2499995   0.0000022), wk =   0.0204082
        k(   48) = (  -0.8571102  -0.2499990  -0.2856357), wk =   0.0204082
        k(   49) = (  -0.8571096  -0.2499985  -0.5712737), wk =   0.0204082
        k(   50) = (  -0.8571091  -0.2499980  -0.8569116), wk =   0.0204082
        k(   51) = (  -0.8571125  -0.2500010   0.8569159), wk =   0.0204082
        k(   52) = (  -0.8571120  -0.2500005   0.5712780), wk =   0.0204082
        k(   53) = (  -0.8571114  -0.2500000   0.2856401), wk =   0.0204082
        k(   54) = (   0.8571111  -0.2500005  -0.0000013), wk =   0.0204082
        k(   55) = (   0.8571117  -0.2500000  -0.2856392), wk =   0.0204082
        k(   56) = (   0.8571122  -0.2499995  -0.5712771), wk =   0.0204082
        k(   57) = (   0.8571128  -0.2499990  -0.8569150), wk =   0.0204082
        k(   58) = (   0.8571093  -0.2500020   0.8569124), wk =   0.0204082
        k(   59) = (   0.8571099  -0.2500015   0.5712745), wk =   0.0204082
        k(   60) = (   0.8571105  -0.2500010   0.2856366), wk =   0.0204082
        k(   61) = (   0.5714074  -0.2500003  -0.0000007), wk =   0.0204082
        k(   62) = (   0.5714080  -0.2499998  -0.2856386), wk =   0.0204082
        k(   63) = (   0.5714086  -0.2499993  -0.5712766), wk =   0.0204082
        k(   64) = (   0.5714092  -0.2499988  -0.8569145), wk =   0.0204082
        k(   65) = (   0.5714057  -0.2500018   0.8569130), wk =   0.0204082
        k(   66) = (   0.5714063  -0.2500013   0.5712751), wk =   0.0204082
        k(   67) = (   0.5714069  -0.2500008   0.2856372), wk =   0.0204082
        k(   68) = (   0.2857038  -0.2500002  -0.0000002), wk =   0.0204082
        k(   69) = (   0.2857044  -0.2499997  -0.2856381), wk =   0.0204082
        k(   70) = (   0.2857049  -0.2499992  -0.5712760), wk =   0.0204082
        k(   71) = (   0.2857055  -0.2499987  -0.8569139), wk =   0.0204082
        k(   72) = (   0.2857020  -0.2500016   0.8569136), wk =   0.0204082
        k(   73) = (   0.2857026  -0.2500011   0.5712757), wk =   0.0204082
        k(   74) = (   0.2857032  -0.2500007   0.2856378), wk =   0.0204082
        k(   75) = (  -0.0000003   0.5000000  -0.0000009), wk =   0.0102041
        k(   76) = (   0.0000003   0.5000005  -0.2856388), wk =   0.0204082
        k(   77) = (   0.0000009   0.5000010  -0.5712767), wk =   0.0204082
        k(   78) = (   0.0000015   0.5000015  -0.8569146), wk =   0.0204082
        k(   79) = (  -0.2857039   0.5000002  -0.0000003), wk =   0.0204082
        k(   80) = (  -0.2857033   0.5000007  -0.2856382), wk =   0.0204082
        k(   81) = (  -0.2857028   0.5000011  -0.5712761), wk =   0.0204082
        k(   82) = (  -0.2857022   0.5000016  -0.8569140), wk =   0.0204082
        k(   83) = (  -0.2857057   0.4999987   0.8569135), wk =   0.0204082
        k(   84) = (  -0.2857051   0.4999992   0.5712755), wk =   0.0204082
        k(   85) = (  -0.2857045   0.4999997   0.2856376), wk =   0.0204082
        k(   86) = (  -0.5714076   0.5000003   0.0000003), wk =   0.0204082
        k(   87) = (  -0.5714070   0.5000008  -0.2856376), wk =   0.0204082
        k(   88) = (  -0.5714064   0.5000013  -0.5712755), wk =   0.0204082
        k(   89) = (  -0.5714058   0.5000018  -0.8569134), wk =   0.0204082
        k(   90) = (  -0.5714093   0.4999988   0.8569140), wk =   0.0204082
        k(   91) = (  -0.5714087   0.4999993   0.5712761), wk =   0.0204082
        k(   92) = (  -0.5714082   0.4999998   0.2856382), wk =   0.0204082
        k(   93) = (  -0.8571112   0.5000005   0.0000009), wk =   0.0204082
        k(   94) = (  -0.8571106   0.5000010  -0.2856370), wk =   0.0204082
        k(   95) = (  -0.8571101   0.5000015  -0.5712749), wk =   0.0204082
        k(   96) = (  -0.8571095   0.5000020  -0.8569129), wk =   0.0204082
        k(   97) = (  -0.8571130   0.4999990   0.8569146), wk =   0.0204082
        k(   98) = (  -0.8571124   0.4999995   0.5712767), wk =   0.0204082
        k(   99) = (  -0.8571118   0.5000000   0.2856388), wk =   0.0204082

     Dense  grid:   160281 G-vectors     FFT dimensions: ( 108,  54,  54)

     Smooth grid:    56679 G-vectors     FFT dimensions: (  75,  40,  40)

     Estimated max dynamical RAM per process >     251.10 MB

     Estimated total dynamical RAM >       1.69 GB

     Check: negative core charge=   -0.000003

     Initial potential from superposition of free atoms

     starting charge      79.9581, renormalised to      80.0000
     Starting wfcs are   60 randomized atomic wfcs
     Checking if some PAW data can be deallocated... 

     total cpu time spent up to now is       29.1 secs

     per-process dynamical memory:   170.9 Mb

     Self-consistent Calculation

     iteration #  1     ecut=    60.00 Ry     beta= 0.40
     Davidson diagonalization with overlap
     ethr =  1.00E-02,  avg # of iterations =  2.1

     total cpu time spent up to now is       71.8 secs

     total energy              =   -1143.93557008 Ry
     estimated scf accuracy    <       5.14560277 Ry

     iteration #  2     ecut=    60.00 Ry     beta= 0.40
     Davidson diagonalization with overlap
     ethr =  6.43E-03,  avg # of iterations =  4.1

     total cpu time spent up to now is      125.5 secs

     total energy              =   -1145.17292993 Ry
     estimated scf accuracy    <       1.62794947 Ry

     iteration #  3     ecut=    60.00 Ry     beta= 0.40
     Davidson diagonalization with overlap
     ethr =  2.03E-03,  avg # of iterations =  2.5

     total cpu time spent up to now is      173.2 secs

     total energy              =   -1145.53626647 Ry
     estimated scf accuracy    <       0.10478884 Ry

     iteration #  4     ecut=    60.00 Ry     beta= 0.40
     Davidson diagonalization with overlap
     ethr =  1.31E-04,  avg # of iterations =  9.5

     total cpu time spent up to now is      238.5 secs

     total energy              =   -1145.53036187 Ry
     estimated scf accuracy    <       0.03708589 Ry

     iteration #  5     ecut=    60.00 Ry     beta= 0.40
     Davidson diagonalization with overlap
     ethr =  4.64E-05,  avg # of iterations =  5.7

     total cpu time spent up to now is      302.3 secs

     total energy              =   -1145.54177833 Ry
     estimated scf accuracy    <       0.02734237 Ry

     iteration #  6     ecut=    60.00 Ry     beta= 0.40
     Davidson diagonalization with overlap
     ethr =  3.42E-05,  avg # of iterations =  1.0

     total cpu time spent up to now is      358.5 secs

     total energy              =   -1145.54013671 Ry
     estimated scf accuracy    <       0.00953681 Ry

     iteration #  7     ecut=    60.00 Ry     beta= 0.40
     Davidson diagonalization with overlap
     ethr =  1.19E-05,  avg # of iterations =  3.1

     total cpu time spent up to now is      404.6 secs

     total energy              =   -1145.53990509 Ry
     estimated scf accuracy    <       0.00164343 Ry

     iteration #  8     ecut=    60.00 Ry     beta= 0.40
     Davidson diagonalization with overlap
     ethr =  2.05E-06,  avg # of iterations =  6.3

     total cpu time spent up to now is      483.1 secs

     total energy              =   -1145.54051294 Ry
     estimated scf accuracy    <       0.00026278 Ry

     iteration #  9     ecut=    60.00 Ry     beta= 0.40
     Davidson diagonalization with overlap
     ethr =  3.28E-07,  avg # of iterations =  1.7

     total cpu time spent up to now is      525.2 secs

     total energy              =   -1145.54049606 Ry
     estimated scf accuracy    <       0.00012817 Ry

     iteration # 10     ecut=    60.00 Ry     beta= 0.40
     Davidson diagonalization with overlap
     ethr =  1.60E-07,  avg # of iterations =  1.7

     total cpu time spent up to now is      559.3 secs

     total energy              =   -1145.54048546 Ry
     estimated scf accuracy    <       0.00004353 Ry

     iteration # 11     ecut=    60.00 Ry     beta= 0.40
     Davidson diagonalization with overlap
     ethr =  5.44E-08,  avg # of iterations =  3.0

     total cpu time spent up to now is      580.6 secs

     total energy              =   -1145.54049413 Ry
     estimated scf accuracy    <       0.00000017 Ry

     iteration # 12     ecut=    60.00 Ry     beta= 0.40
     Davidson diagonalization with overlap
     ethr =  2.07E-10,  avg # of iterations =  5.6

     total cpu time spent up to now is      625.4 secs

     total energy              =   -1145.54049450 Ry
     estimated scf accuracy    <       0.00000014 Ry

     iteration # 13     ecut=    60.00 Ry     beta= 0.40
     Davidson diagonalization with overlap
     ethr =  1.70E-10,  avg # of iterations =  2.1

     total cpu time spent up to now is      653.5 secs

     total energy              =   -1145.54049453 Ry
     estimated scf accuracy    <       0.00000001 Ry

     iteration # 14     ecut=    60.00 Ry     beta= 0.40
     Davidson diagonalization with overlap
     ethr =  1.34E-11,  avg # of iterations =  4.1

     total cpu time spent up to now is      721.0 secs

     total energy              =   -1145.54049453 Ry
     estimated scf accuracy    <          7.7E-09 Ry

     iteration # 15     ecut=    60.00 Ry     beta= 0.40
     Davidson diagonalization with overlap
     ethr =  9.68E-12,  avg # of iterations =  2.0

     total cpu time spent up to now is      768.9 secs

     End of self-consistent calculation

          k = 0.0000 0.0000 0.0000 (  7121 PWs)   bands (ev):

   -47.1067 -47.1048 -23.2441 -23.1724 -23.1689 -23.1450 -23.1414 -23.1329
   -19.4450 -19.4209  -9.1092  -9.0790  -8.6831  -8.6586  -8.6330  -7.8148
    -2.9899  -2.9802  -2.9751  -2.9439  -2.9346  -2.8650   3.0302   5.4871
     5.5244   5.6988   5.7083   5.7299   5.7966   5.8095   5.8827   6.4444
     6.8063   6.8471   6.9047   6.9430   7.0033   7.2008   7.2200   7.2611
     9.4752   9.5557   9.7184   9.8221  11.9192  11.9778  12.9099  13.0603

          k = 0.0000 0.0000-0.2856 (  7083 PWs)   bands (ev):

   -47.1064 -47.1045 -23.2429 -23.1938 -23.1899 -23.1444 -23.1408 -23.1322
   -19.4411 -19.4190  -9.0555  -8.9792  -8.6328  -8.5885  -8.5850  -7.8239
    -2.9859  -2.9742  -2.9569  -2.9405  -2.9334  -2.8868   3.0246   4.7936
     5.2070   5.3204   5.4814   5.6325   5.6854   5.7156   6.2537   6.4666
     6.4993   6.6363   6.7703   6.8349   6.8875   6.9561   7.2016   7.2061
     9.4999  10.0794  10.1808  10.2616  11.9231  12.0957  12.9358  13.5527

          k = 0.0000 0.0000-0.5713 (  7083 PWs)   bands (ev):

   -47.1056 -47.1037 -23.2416 -23.2404 -23.2367 -23.1429 -23.1393 -23.1307
   -19.4325 -19.4146  -9.0228  -8.8470  -8.6231  -8.3038  -8.2711  -7.8446
    -2.9832  -2.9655  -2.9471  -2.9415  -2.9129  -2.8998   2.9992   4.0081
     4.0904   4.0923   5.3819   5.3877   5.5540   5.5845   6.0750   6.0860
     6.2569   6.4343   6.5207   6.6013   6.7102   7.1411   7.1639   7.5427
     9.5445  11.0733  11.1262  11.1773  11.9318  12.4613  12.9440  14.0400

          k = 0.0000 0.0000-0.8569 (  7081 PWs)   bands (ev):

   -47.1050 -47.1031 -23.2793 -23.2737 -23.2384 -23.1417 -23.1381 -23.1294
   -19.4259 -19.4110  -9.0328  -8.7956  -8.6164  -7.9933  -7.9476  -7.8613
    -2.9899  -2.9843  -2.9462  -2.9425  -2.8961  -2.8644   2.8598   3.0967
     3.2725   3.7058   5.1587   5.3147   5.3922   5.4551   5.8496   5.9019
     6.0103   6.4401   6.5457   6.5712   6.5795   7.1086   7.1358   7.8463
     9.5806  11.8134  11.8555  11.8835  11.9388  12.8675  12.9470  14.1896

          k =-0.2857 0.0000 0.0000 (  7087 PWs)   bands (ev):

   -47.1064 -47.1045 -23.2429 -23.1729 -23.1694 -23.1652 -23.1614 -23.1322
   -19.4411 -19.4190  -9.0706  -8.9999  -8.6589  -8.5652  -8.5472  -7.8238
    -2.9848  -2.9719  -2.9605  -2.9481  -2.9260  -2.8868   3.0249   4.8366
     5.2174   5.3302   5.4489   5.6686   5.6941   5.7354   6.1607   6.4143
     6.5308   6.5924   6.8327   6.8729   6.9285   6.9583   7.1599   7.1909
     9.5672  10.0334  10.1397  10.2185  11.9820  12.0404  12.9474  13.5690

          k =-0.2857 0.0000-0.2856 (  7099 PWs)   bands (ev):

   -47.1060 -47.1041 -23.2419 -23.1933 -23.1894 -23.1655 -23.1616 -23.1315
   -19.4376 -19.4170  -8.9974  -8.8720  -8.5895  -8.5381  -8.5190  -7.8289
    -3.0028  -2.9840  -2.9582  -2.9309  -2.9132  -2.9084   3.0213   4.6955
     5.0281   5.1119   5.1383   5.2592   5.3034   5.6552   6.0636   6.1924
     6.3517   6.7879   6.8027   6.8725   6.8874   6.9137   7.0204   7.1310
    10.0321  10.1055  10.4537  10.5373  12.0438  12.1107  13.2779  14.2061

          k =-0.2857 0.0000-0.5713 (  7073 PWs)   bands (ev):

   -47.1052 -47.1034 -23.2407 -23.2395 -23.2360 -23.1641 -23.1603 -23.1300
   -19.4299 -19.4125  -8.9384  -8.6892  -8.5451  -8.2863  -8.2751  -7.8403
    -3.0256  -2.9902  -2.9619  -2.9464  -2.9192  -2.8957   2.9995   3.9851
     4.0650   4.1431   4.9626   4.9714   5.0423   5.5486   5.6122   5.8342
     5.9854   6.4897   6.8142   6.8476   6.9252   6.9806   7.0103   7.5473
    10.0773  11.0808  11.2636  11.3345  12.0690  12.4776  13.4177  14.8901

          k =-0.2857 0.0000-0.8569 (  7069 PWs)   bands (ev):

   -47.1046 -47.1027 -23.2783 -23.2730 -23.2375 -23.1627 -23.1590 -23.1287
   -19.4240 -19.4088  -8.9388  -8.6308  -8.5388  -7.9811  -7.9561  -7.8498
    -3.0260  -3.0216  -2.9581  -2.9454  -2.9346  -2.8831   2.8624   3.0894
     3.2657   3.8010   4.7568   4.8370   4.9666   5.4142   5.4620   5.7129
     5.7725   6.3347   6.8019   6.8226   6.9295   6.9520   7.0034   7.8509
    10.1058  11.8152  11.9514  11.9987  12.0872  12.8855  13.4504  15.0475

          k =-0.2857-0.0000 0.8569 (  7069 PWs)   bands (ev):

   -47.1046 -47.1027 -23.2782 -23.2729 -23.2375 -23.1628 -23.1590 -23.1287
   -19.4240 -19.4088  -8.9389  -8.6311  -8.5389  -7.9811  -7.9561  -7.8497
    -3.0228  -3.0200  -2.9617  -2.9535  -2.9271  -2.8835   2.8641   3.0955
     3.2719   3.8019   4.7682   4.8379   4.9682   5.4142   5.4486   5.6859
     5.7677   6.3389   6.8055   6.8225   6.9309   6.9480   7.0008   7.8521
    10.1045  11.8184  11.9614  12.0108  12.0860  12.8856  13.4512  15.0393

          k =-0.2857-0.0000 0.5713 (  7073 PWs)   bands (ev):

   -47.1052 -47.1034 -23.2406 -23.2395 -23.2359 -23.1642 -23.1603 -23.1300
   -19.4300 -19.4125  -8.9387  -8.6900  -8.5452  -8.2861  -8.2751  -7.8402
    -3.0185  -2.9809  -2.9711  -2.9598  -2.9136  -2.8945   2.9976   4.0130
     4.0977   4.1455   4.9654   5.0179   5.0401   5.5491   5.5601   5.7472
     5.9727   6.4990   6.8199   6.8459   6.9118   6.9795   7.0116   7.5501
    10.0728  11.0863  11.2934  11.3679  12.0690  12.4782  13.4234  14.8680

          k =-0.2857-0.0000 0.2856 (  7099 PWs)   bands (ev):

   -47.1060 -47.1041 -23.2419 -23.1931 -23.1893 -23.1658 -23.1617 -23.1315
   -19.4376 -19.4170  -8.9976  -8.8726  -8.5897  -8.5380  -8.5188  -7.8288
    -2.9914  -2.9766  -2.9733  -2.9435  -2.9113  -2.9011   3.0198   4.6982
     5.0307   5.1661   5.2083   5.2876   5.3050   5.6524   6.0006   6.0974
     6.3531   6.7005   6.8139   6.8379   6.8928   7.0137   7.0204   7.0711
     9.9955  10.1419  10.4998  10.5869  12.0455  12.1100  13.2871  14.1668

          k =-0.5714 0.0000 0.0000 (  7083 PWs)   bands (ev):

   -47.1056 -47.1037 -23.2404 -23.2148 -23.2098 -23.1695 -23.1661 -23.1306
   -19.4325 -19.4146  -9.0515  -8.8965  -8.6472  -8.2567  -8.2193  -7.8444
    -2.9803  -2.9687  -2.9578  -2.9316  -2.9077  -2.9047   3.0022   4.0476
     4.1178   4.1345   5.3615   5.4650   5.5988   5.6166   6.0794   6.1082
     6.1955   6.3225   6.5024   6.5796   6.6953   7.0813   7.1351   7.5835
     9.6094  11.0442  11.0817  11.1311  11.9917  12.4145  12.9529  14.0513

          k =-0.5714 0.0000-0.2856 (  7073 PWs)   bands (ev):

   -47.1052 -47.1034 -23.2395 -23.2142 -23.2094 -23.1904 -23.1869 -23.1299
   -19.4299 -19.4125  -8.9550  -8.7351  -8.5799  -8.2421  -8.2243  -7.8402
    -3.0265  -2.9924  -2.9575  -2.9488  -2.9159  -2.8984   3.0020   4.0208
     4.0871   4.1824   4.9288   5.0040   5.1014   5.5626   5.5743   5.7892
     5.9923   6.4898   6.7122   6.8378   6.9030   6.9776   7.0052   7.5891
    10.1215  11.0525  11.2457  11.3192  12.1244  12.4313  13.4183  14.8909

          k =-0.5714 0.0000-0.5713 (  7091 PWs)   bands (ev):

   -47.1045 -47.1026 -23.2389 -23.2374 -23.2346 -23.2108 -23.2066 -23.1284
   -19.4242 -19.4078  -8.8461  -8.3734  -8.3080  -8.2240  -8.1839  -7.8308
    -3.0929  -3.0510  -2.9820  -2.9740  -2.9315  -2.9040   2.9901   3.8254
     3.8337   4.1677   4.2022   4.3539   4.5040   4.7086   4.9424   5.4598
     5.7151   6.4996   6.5958   6.6921   7.2848   7.3779   7.4596   7.6379
    11.0431  11.1262  11.7827  11.8741  12.4471  12.5265  13.8177  16.2480

          k =-0.5714 0.0000-0.8569 (  7076 PWs)   bands (ev):

   -47.1039 -47.1020 -23.2759 -23.2712 -23.2357 -23.2095 -23.2055 -23.1271
   -19.4196 -19.4039  -8.8170  -8.2522  -8.2344  -7.9749  -7.9528  -7.8233
    -3.1121  -3.1040  -3.0527  -2.9757  -2.9263  -2.9179   2.8701   3.0653
     3.2102   4.0075   4.0130   4.1229   4.3947   4.5049   4.6015   5.3171
     5.5404   6.4952   6.5318   6.6551   7.4858   7.5101   7.5665   7.8643
    11.0876  11.8257  12.3275  12.4073  12.4899  12.9252  13.9424  16.4987

          k =-0.5714-0.0000 0.8569 (  7076 PWs)   bands (ev):

   -47.1039 -47.1020 -23.2758 -23.2712 -23.2357 -23.2096 -23.2055 -23.1271
   -19.4196 -19.4039  -8.8171  -8.2522  -8.2350  -7.9750  -7.9526  -7.8232
    -3.1078  -3.1032  -3.0579  -2.9753  -2.9273  -2.9169   2.8725   3.0773
     3.2266   4.0149   4.0552   4.0769   4.3898   4.5047   4.5633   5.3209
     5.5327   6.4991   6.5334   6.6524   7.4859   7.5105   7.5655   7.8658
    11.0853  11.8295  12.3324  12.4121  12.4893  12.9259  13.9488  16.4891

          k =-0.5714-0.0000 0.5713 (  7091 PWs)   bands (ev):

   -47.1045 -47.1026 -23.2385 -23.2374 -23.2344 -23.2112 -23.2068 -23.1284
   -19.4242 -19.4078  -8.8464  -8.3748  -8.3090  -8.2236  -8.1829  -7.8306
    -3.0881  -3.0479  -2.9848  -2.9832  -2.9262  -2.9045   2.9869   3.9017
     3.9230   4.1662   4.2083   4.3151   4.5018   4.6461   4.8520   5.4695
     5.6946   6.5081   6.6015   6.6867   7.2824   7.3796   7.4550   7.6437
    11.0062  11.1648  11.8004  11.8929  12.4437  12.5312  13.8323  16.1922

          k =-0.5714-0.0000 0.2856 (  7073 PWs)   bands (ev):

   -47.1052 -47.1034 -23.2395 -23.2139 -23.2091 -23.1908 -23.1870 -23.1300
   -19.4299 -19.4125  -8.9553  -8.7358  -8.5800  -8.2421  -8.2243  -7.8400
    -3.0194  -2.9859  -2.9644  -2.9606  -2.9116  -2.8969   3.0000   4.0485
     4.1211   4.1850   4.9309   5.0607   5.1044   5.5056   5.5766   5.6902
     5.9770   6.5003   6.7191   6.8357   6.8886   6.9770   7.0066   7.5915
    10.1168  11.0580  11.2755  11.3532  12.1245  12.4320  13.4238  14.8688

          k =-0.8571 0.0000 0.0000 (  7081 PWs)   bands (ev):

   -47.1050 -47.1031 -23.2524 -23.2466 -23.2384 -23.1684 -23.1650 -23.1294
   -19.4258 -19.4109  -9.0637  -8.8513  -8.6406  -7.9414  -7.8946  -7.8610
    -2.9916  -2.9855  -2.9514  -2.9367  -2.8885  -2.8709   2.8873   3.1435
     3.2941   3.7473   5.2480   5.2939   5.4790   5.5237   5.8333   5.8731
     5.9738   6.3780   6.4310   6.5232   6.5525   7.0463   7.1008   7.8890
     9.6436  11.7895  11.8265  11.8560  11.9989  12.8280  12.9491  14.1833

          k =-0.8571 0.0000-0.2856 (  7069 PWs)   bands (ev):

   -47.1046 -47.1028 -23.2514 -23.2459 -23.2376 -23.1894 -23.1859 -23.1287
   -19.4239 -19.4088  -8.9589  -8.6861  -8.5731  -7.9291  -7.9032  -7.8495
    -3.0279  -3.0237  -2.9552  -2.9485  -2.9252  -2.8892   2.8893   3.1353
     3.2865   3.8426   4.7937   4.9209   4.9344   5.3900   5.4797   5.6545
     5.7387   6.3278   6.7013   6.8091   6.9035   6.9343   6.9812   7.8943
    10.1492  11.7926  11.9402  11.9935  12.1423  12.8463  13.4477  15.0370

          k =-0.8571 0.0000-0.5713 (  7076 PWs)   bands (ev):

   -47.1039 -47.1020 -23.2496 -23.2448 -23.2357 -23.2356 -23.2319 -23.1271
   -19.4196 -19.4039  -8.8204  -8.3038  -8.2857  -7.9229  -7.9010  -7.8232
    -3.1141  -3.1043  -3.0513  -2.9710  -2.9306  -2.9176   2.8943   3.1066
     3.2257   4.0149   4.0538   4.1780   4.3035   4.4663   4.5700   5.3758
     5.4890   6.4900   6.5142   6.6571   7.4759   7.5078   7.5183   7.9074
    11.1155  11.8024  12.3279  12.4107  12.5355  12.8868  13.9417  16.4919

          k =-0.8571 0.0000-0.8569 (  7070 PWs)   bands (ev):

   -47.1033 -47.1014 -23.2741 -23.2699 -23.2463 -23.2421 -23.2342 -23.1259
   -19.4162 -19.4000  -8.7696  -7.9928  -7.9453  -7.9302  -7.8785  -7.8016
    -3.1726  -3.1692  -3.1459  -2.9835  -2.9652  -2.9015   2.8738   2.9317
     2.9409   3.3348   3.6236   3.7749   4.1794   4.2488   4.2621   5.2413
     5.3251   6.4284   6.5885   6.6337   7.7887   7.8047   7.8648   7.9176
    11.8069  11.8382  12.7578  12.8493  12.9169  12.9556  14.1009  16.7487

          k =-0.8571-0.0000 0.8569 (  7070 PWs)   bands (ev):

   -47.1033 -47.1014 -23.2740 -23.2698 -23.2464 -23.2421 -23.2342 -23.1259
   -19.4162 -19.4000  -8.7697  -7.9933  -7.9395  -7.9369  -7.8774  -7.8015
    -3.1692  -3.1686  -3.1498  -2.9827  -2.9661  -2.9013   2.8726   2.9419
     2.9555   3.3319   3.6134   3.7674   4.1843   4.2447   4.2553   5.2468
     5.3181   6.4288   6.5935   6.6291   7.7889   7.8049   7.8635   7.9191
    11.7903  11.8558  12.7586  12.8498  12.9109  12.9617  14.1040  16.7230

          k =-0.8571-0.0000 0.5713 (  7076 PWs)   bands (ev):

   -47.1039 -47.1020 -23.2493 -23.2445 -23.2360 -23.2357 -23.2321 -23.1271
   -19.4196 -19.4039  -8.8205  -8.3040  -8.2861  -7.9230  -7.9009  -7.8231
    -3.1101  -3.1035  -3.0562  -2.9704  -2.9317  -2.9166   2.8956   3.1191
     3.2443   4.0560   4.0804   4.1001   4.3140   4.4657   4.5288   5.3870
     5.4738   6.4938   6.5159   6.6545   7.4758   7.5083   7.5176   7.9086
    11.1131  11.8063  12.3327  12.4157  12.5349  12.8877  13.9482  16.4825

          k =-0.8571-0.0000 0.2856 (  7069 PWs)   bands (ev):

   -47.1046 -47.1027 -23.2513 -23.2458 -23.2376 -23.1895 -23.1859 -23.1287
   -19.4239 -19.4088  -8.9590  -8.6863  -8.5731  -7.9291  -7.9033  -7.8494
    -3.0239  -3.0232  -2.9628  -2.9486  -2.9214  -2.8896   2.8905   3.1415
     3.2936   3.8435   4.8074   4.9235   4.9355   5.3758   5.4820   5.6235
     5.7318   6.3326   6.7047   6.8088   6.9028   6.9324   6.9794   7.8953
    10.1480  11.7954  11.9502  12.0061  12.1415  12.8464  13.4483  15.0286

          k = 0.0000-0.2500 0.0000 (  7088 PWs)   bands (ev):

   -47.1065 -47.1050 -23.2281 -23.1719 -23.1695 -23.1495 -23.1445 -23.1417
   -19.4423 -19.4235  -9.0819  -9.0713  -8.6763  -8.6613  -8.5527  -7.9631
    -2.9814  -2.9740  -2.9706  -2.9477  -2.9348  -2.8805   3.4202   5.3244
     5.5581   5.5983   5.6808   5.6868   5.9005   5.9102   5.9858   6.4610
     6.6683   6.7772   6.8063   6.8627   6.8869   7.0195   7.0309   7.1230
     9.7332   9.8037   9.9249   9.9884  11.5959  11.6504  13.0469  13.0683

          k = 0.0000-0.2500-0.2856 (  7112 PWs)   bands (ev):

   -47.1061 -47.1047 -23.2271 -23.1932 -23.1905 -23.1488 -23.1439 -23.1412
   -19.4388 -19.4213  -9.0150  -8.9746  -8.6054  -8.5880  -8.5394  -7.9712
    -2.9857  -2.9740  -2.9641  -2.9409  -2.9227  -2.8908   3.4139   4.8890
     5.1877   5.3281   5.3635   5.5338   5.6291   5.8027   6.1239   6.2968
     6.4274   6.6446   6.7467   6.8388   6.8904   6.9469   7.0104   7.0464
     9.9305  10.1981  10.2479  10.3696  11.6028  11.7859  13.3110  13.5446

          k = 0.0000-0.2500-0.5713 (  7093 PWs)   bands (ev):

   -47.1054 -47.1039 -23.2411 -23.2375 -23.2244 -23.1471 -23.1424 -23.1397
   -19.4310 -19.4161  -8.9642  -8.8541  -8.5567  -8.3021  -8.2743  -7.9891
    -2.9912  -2.9720  -2.9536  -2.9206  -2.9196  -2.8945   3.3749   4.0031
     4.0551   4.2922   5.1593   5.3845   5.4631   5.5854   5.6373   6.0196
     6.4097   6.4456   6.5655   6.6049   6.8614   6.9464   6.9804   7.5032
     9.9710  11.1340  11.1641  11.2209  11.6198  12.2028  13.3655  13.9982

          k = 0.0000-0.2500-0.8569 (  7062 PWs)   bands (ev):

   -47.1047 -47.1033 -23.2786 -23.2746 -23.2226 -23.1457 -23.1412 -23.1384
   -19.4250 -19.4118  -8.9667  -8.8114  -8.5503  -8.0105  -7.9830  -7.9530
    -2.9928  -2.9688  -2.9452  -2.9382  -2.9034  -2.8782   3.0012   3.0901
     3.5246   3.8623   4.9328   5.1887   5.3237   5.4432   5.4999   5.8446
     6.2617   6.4730   6.5139   6.5738   6.8337   6.8870   6.9194   7.7482
    10.0017  11.6236  11.8598  11.8779  11.9171  12.6534  13.3738  14.1341

          k =-0.0000-0.2500 0.8569 (  7062 PWs)   bands (ev):

   -47.1047 -47.1033 -23.2786 -23.2746 -23.2226 -23.1457 -23.1412 -23.1384
   -19.4250 -19.4118  -8.9667  -8.8114  -8.5503  -8.0106  -7.9826  -7.9532
    -2.9882  -2.9773  -2.9416  -2.9373  -2.9033  -2.8790   3.0013   3.0902
     3.5249   3.8617   4.9333   5.1888   5.3232   5.4436   5.4998   5.8443
     6.2617   6.4732   6.5129   6.5747   6.8336   6.8868   6.9195   7.7483
    10.0016  11.6237  11.8598  11.8778  11.9173  12.6532  13.3738  14.1341

          k =-0.0000-0.2500 0.5713 (  7094 PWs)   bands (ev):

   -47.1054 -47.1039 -23.2411 -23.2375 -23.2244 -23.1471 -23.1424 -23.1397
   -19.4310 -19.4161  -8.9642  -8.8541  -8.5567  -8.3021  -8.2742  -7.9891
    -2.9881  -2.9772  -2.9522  -2.9233  -2.9141  -2.8966   3.3752   4.0029
     4.0563   4.2899   5.1609   5.3856   5.4604   5.5876   5.6370   6.0188
     6.4099   6.4449   6.5650   6.6059   6.8612   6.9463   6.9797   7.5039
     9.9707  11.1341  11.1643  11.2214  11.6196  12.2024  13.3655  13.9982

          k =-0.0000-0.2500 0.2856 (  7112 PWs)   bands (ev):

   -47.1061 -47.1047 -23.2271 -23.1932 -23.1905 -23.1488 -23.1439 -23.1412
   -19.4388 -19.4213  -9.0150  -8.9746  -8.6054  -8.5880  -8.5394  -7.9712
    -2.9900  -2.9710  -2.9576  -2.9427  -2.9281  -2.8889   3.4140   4.8881
     5.1871   5.3303   5.3624   5.5344   5.6278   5.8040   6.1269   6.2950
     6.4261   6.6454   6.7462   6.8396   6.8899   6.9383   7.0109   7.0538
     9.9295  10.1991  10.2478  10.3699  11.6028  11.7857  13.3110  13.5446

          k =-0.2857-0.2500 0.0000 (  7112 PWs)   bands (ev):

   -47.1061 -47.1047 -23.2271 -23.1724 -23.1699 -23.1647 -23.1621 -23.1485
   -19.4388 -19.4213  -9.0336  -8.9960  -8.6076  -8.5672  -8.5189  -7.9712
    -2.9901  -2.9720  -2.9567  -2.9461  -2.9238  -2.8899   3.4146   4.9345
     5.1995   5.3093   5.3749   5.5403   5.6519   5.8186   6.1858   6.1870
     6.4180   6.5371   6.7212   6.8057   6.9360   6.9828   7.0527   7.0871
     9.9810  10.1644  10.2004  10.3255  11.6585  11.7342  13.3273  13.5606

          k =-0.2857-0.2500-0.2856 (  7103 PWs)   bands (ev):

   -47.1058 -47.1044 -23.2261 -23.1927 -23.1900 -23.1650 -23.1623 -23.1478
   -19.4356 -19.4190  -8.9407  -8.8695  -8.5510  -8.5230  -8.5138  -7.9753
    -3.0044  -2.9877  -2.9698  -2.9521  -2.9005  -2.8834   3.4104   4.7914
     5.0513   5.1145   5.1220   5.2985   5.3433   5.3660   6.0126   6.0562
     6.1763   6.3468   6.8017   6.9075   6.9658   6.9949   7.0723   7.0925
    10.3027  10.3821  10.4881  10.5281  11.7436  11.8028  13.9243  14.2093

          k =-0.2857-0.2500-0.5713 (  7094 PWs)   bands (ev):

   -47.1050 -47.1036 -23.2402 -23.2368 -23.2235 -23.1635 -23.1609 -23.1462
   -19.4285 -19.4139  -8.8555  -8.6969  -8.5032  -8.2877  -8.2751  -7.9843
    -3.0234  -2.9997  -2.9757  -2.9687  -2.8940  -2.8780   3.3759   3.9812
     4.0372   4.3189   4.9313   4.9699   5.0998   5.2543   5.5922   5.6144
     5.8347   6.2758   6.8290   6.8887   6.9657   6.9796   7.0896   7.5051
    10.3663  11.2207  11.2829  11.3218  11.7763  12.2211  13.9873  14.8592

          k =-0.2857-0.2500-0.8569 (  7064 PWs)   bands (ev):

   -47.1044 -47.1030 -23.2776 -23.2738 -23.2218 -23.1622 -23.1596 -23.1448
   -19.4230 -19.4097  -8.8504  -8.6473  -8.4944  -8.0003  -7.9730  -7.9578
    -3.0285  -3.0136  -2.9779  -2.9357  -2.9258  -2.8894   3.0013   3.0840
     3.5194   3.9392   4.7094   4.8301   4.9852   5.1143   5.4325   5.4535
     5.7410   6.2976   6.7082   6.9017   6.9485   6.9784   7.0226   7.7516
    10.4000  11.7821  11.9147  11.9694  11.9973  12.6722  13.9882  14.9972

          k =-0.2857-0.2500 0.8569 (  7064 PWs)   bands (ev):

   -47.1044 -47.1030 -23.2775 -23.2737 -23.2218 -23.1622 -23.1596 -23.1448
   -19.4230 -19.4097  -8.8505  -8.6475  -8.4945  -8.0003  -7.9727  -7.9581
    -3.0263  -3.0073  -2.9881  -2.9374  -2.9200  -2.8916   3.0066   3.0904
     3.5224   3.9391   4.7151   4.8357   5.0095   5.0921   5.4159   5.4495
     5.7201   6.2998   6.7081   6.9113   6.9223   6.9922   7.0227   7.7529
    10.3996  11.7866  11.9180  11.9762  12.0073  12.6720  13.9873  14.9897

          k =-0.2857-0.2500 0.5713 (  7094 PWs)   bands (ev):

   -47.1050 -47.1036 -23.2401 -23.2367 -23.2235 -23.1636 -23.1609 -23.1461
   -19.4286 -19.4139  -8.8558  -8.6977  -8.5033  -8.2876  -8.2749  -7.9842
    -3.0122  -2.9962  -2.9887  -2.9710  -2.8911  -2.8799   3.3742   4.0088
     4.0684   4.3221   4.9552   4.9928   5.1205   5.2325   5.5396   5.5981
     5.7622   6.2803   6.8253   6.8865   6.9358   6.9960   7.0928   7.5104
    10.3645  11.2336  11.3079  11.3566  11.7731  12.2213  13.9883  14.8392

          k =-0.2857-0.2500 0.2856 (  7104 PWs)   bands (ev):

   -47.1058 -47.1044 -23.2261 -23.1925 -23.1899 -23.1652 -23.1624 -23.1478
   -19.4356 -19.4190  -8.9411  -8.8701  -8.5507  -8.5228  -8.5141  -7.9753
    -2.9923  -2.9867  -2.9759  -2.9596  -2.9032  -2.8797   3.4091   4.7902
     5.0999   5.1374   5.2027   5.2989   5.3410   5.3704   5.9567   6.0430
     6.0871   6.3558   6.7895   6.8651   6.9302   6.9973   7.0603   7.1203
    10.2853  10.4192  10.5218  10.5765  11.7408  11.8043  13.9343  14.1765

          k =-0.5714-0.2500 0.0000 (  7090 PWs)   bands (ev):

   -47.1054 -47.1039 -23.2248 -23.2140 -23.2105 -23.1690 -23.1668 -23.1468
   -19.4310 -19.4161  -9.0005  -8.9034  -8.5726  -8.2551  -8.2230  -7.9888
    -2.9881  -2.9811  -2.9499  -2.9226  -2.9113  -2.8994   3.3814   4.0428
     4.0893   4.3263   5.1779   5.4266   5.5152   5.6029   5.6476   5.9996
     6.3273   6.3685   6.5444   6.5834   6.7853   6.9334   7.0028   7.5468
    10.0269  11.0899  11.1145  11.1903  11.6768  12.1598  13.3730  14.0089

          k =-0.5714-0.2500-0.2856 (  7094 PWs)   bands (ev):

   -47.1050 -47.1036 -23.2239 -23.2135 -23.2101 -23.1898 -23.1874 -23.1462
   -19.4285 -19.4139  -8.8800  -8.7426  -8.5294  -8.2438  -8.2250  -7.9840
    -3.0209  -3.0061  -2.9788  -2.9616  -2.8944  -2.8784   3.3815   4.0168
     4.0646   4.3513   4.9480   4.9759   5.1451   5.2628   5.5563   5.6178
     5.7843   6.2231   6.8439   6.8598   6.9301   6.9467   7.0854   7.5480
    10.4116  11.1883  11.2638  11.3074  11.8284  12.1779  13.9879  14.8610

          k =-0.5714-0.2500-0.5713 (  7083 PWs)   bands (ev):

   -47.1042 -47.1028 -23.2385 -23.2353 -23.2216 -23.2101 -23.2072 -23.1446
   -19.4230 -19.4090  -8.7294  -8.3848  -8.2992  -8.2177  -8.1909  -7.9726
    -3.0787  -3.0625  -2.9975  -2.9851  -2.9349  -2.8769   3.3650   3.8246
     3.8307   4.1591   4.1944   4.5072   4.6092   4.7117   4.9161   5.1551
     5.4082   5.9393   6.8635   6.9610   7.2800   7.3797   7.4105   7.5918
    11.2008  11.2819  11.7967  11.8562  12.2054  12.2702  14.5003  16.2671

          k =-0.5714-0.2500-0.8569 (  7073 PWs)   bands (ev):

   -47.1036 -47.1022 -23.2753 -23.2719 -23.2201 -23.2088 -23.2061 -23.1433
   -19.4186 -19.4050  -8.6948  -8.2560  -8.2386  -7.9786  -7.9673  -7.9481
    -3.1091  -3.0888  -3.0173  -2.9997  -2.9679  -2.9072   3.0018   3.0628
     3.4493   4.0194   4.0674   4.1783   4.3928   4.5708   4.6452   5.0085
     5.2609   5.9202   6.8493   6.9338   7.4685   7.5001   7.5160   7.7647
    11.2520  11.9372  12.2353  12.3452  12.3956  12.7121  14.6138  16.5079

          k =-0.5714-0.2500 0.8569 (  7073 PWs)   bands (ev):

   -47.1036 -47.1022 -23.2752 -23.2718 -23.2201 -23.2089 -23.2061 -23.1433
   -19.4186 -19.4050  -8.6949  -8.2564  -8.2388  -7.9781  -7.9678  -7.9478
    -3.1084  -3.0829  -3.0301  -2.9974  -2.9622  -2.9088   3.0125   3.0752
     3.4576   4.0418   4.0847   4.1456   4.3801   4.5373   4.6462   5.0118
     5.2522   5.9213   6.8529   6.9306   7.4648   7.5028   7.5164   7.7670
    11.2505  11.9423  12.2341  12.3500  12.4010  12.7129  14.6199  16.5082

          k =-0.5714-0.2500 0.5713 (  7083 PWs)   bands (ev):

   -47.1042 -47.1028 -23.2381 -23.2350 -23.2216 -23.2105 -23.2074 -23.1446
   -19.4230 -19.4090  -8.7297  -8.3861  -8.3002  -8.2172  -8.1899  -7.9726
    -3.0730  -3.0589  -2.9996  -2.9972  -2.9272  -2.8791   3.3603   3.9035
     3.9183   4.1499   4.2001   4.4628   4.6128   4.6610   4.8273   5.1626
     5.3866   5.9442   6.8681   6.9551   7.2757   7.3867   7.4017   7.6010
    11.1712  11.3177  11.8140  11.8770  12.1969  12.2781  14.5145  16.2218

          k =-0.5714-0.2500 0.2856 (  7094 PWs)   bands (ev):

   -47.1050 -47.1036 -23.2239 -23.2132 -23.2098 -23.1902 -23.1877 -23.1462
   -19.4285 -19.4139  -8.8803  -8.7433  -8.5295  -8.2438  -8.2249  -7.9839
    -3.0151  -2.9943  -2.9879  -2.9715  -2.8896  -2.8812   3.3796   4.0443
     4.0967   4.3569   4.9646   5.0182   5.1553   5.2521   5.4933   5.6000
     5.7065   6.2302   6.8422   6.8516   6.9025   6.9608   7.0927   7.5516
    10.4101  11.2002  11.2900  11.3420  11.8253  12.1787  13.9886  14.8407

          k =-0.8571-0.2500 0.0000 (  7062 PWs)   bands (ev):

   -47.1047 -47.1033 -23.2516 -23.2475 -23.2227 -23.1678 -23.1656 -23.1455
   -19.4249 -19.4118  -9.0052  -8.8663  -8.5668  -8.0077  -7.9331  -7.9011
    -2.9913  -2.9749  -2.9508  -2.9299  -2.8962  -2.8848   3.0497   3.1389
     3.5268   3.9022   4.9731   5.2799   5.3642   5.4627   5.4931   5.8129
     6.2178   6.4177   6.4345   6.4915   6.7574   6.8895   6.9044   7.7896
    10.0571  11.6774  11.8305  11.8462  11.8973  12.6183  13.3703  14.1269

          k =-0.8571-0.2500-0.2856 (  7065 PWs)   bands (ev):

   -47.1044 -47.1030 -23.2506 -23.2467 -23.2219 -23.1888 -23.1865 -23.1448
   -19.4230 -19.4097  -8.8790  -8.7016  -8.5203  -7.9968  -7.9235  -7.9066
    -3.0293  -3.0134  -2.9814  -2.9313  -2.9249  -2.8914   3.0489   3.1315
     3.5204   3.9796   4.7467   4.9034   4.9971   5.1237   5.3656   5.4323
     5.6808   6.2438   6.7137   6.8657   6.9075   6.9325   7.0156   7.7930
    10.4447  11.8315  11.8917  11.9544  11.9943  12.6364  13.9837  14.9866

          k =-0.8571-0.2500-0.5713 (  7073 PWs)   bands (ev):

   -47.1036 -47.1022 -23.2489 -23.2455 -23.2353 -23.2325 -23.2198 -23.1432
   -19.4186 -19.4050  -8.6996  -8.3088  -8.2852  -7.9715  -7.9193  -7.9014
    -3.1097  -3.0893  -3.0150  -2.9984  -2.9721  -2.9058   3.0468   3.1053
     3.4427   4.0243   4.1094   4.2211   4.3193   4.5381   4.6064   5.0513
     5.2205   5.9102   6.8573   6.9181   7.4399   7.4756   7.5118   7.8037
    11.2833  11.9121  12.2786  12.3423  12.4001  12.6767  14.6136  16.5117

          k =-0.8571-0.2500-0.8569 (  7061 PWs)   bands (ev):

   -47.1030 -47.1016 -23.2735 -23.2705 -23.2458 -23.2427 -23.2185 -23.1420
   -19.4150 -19.4012  -8.6427  -7.9924  -7.9717  -7.9319  -7.9260  -7.8836
    -3.1530  -3.1455  -3.1004  -3.0098  -3.0016  -2.9305   2.9322   2.9354
     3.1159   3.3324   3.7776   3.8435   4.1718   4.3036   4.3517   4.9858
     5.0609   5.8363   6.8995   6.9346   7.7382   7.7707   7.7929   7.8308
    11.9270  11.9584  12.6965  12.7324  12.7764  12.8412  14.7813  16.9152

          k =-0.8571-0.2500 0.8569 (  7061 PWs)   bands (ev):

   -47.1030 -47.1016 -23.2734 -23.2705 -23.2458 -23.2427 -23.2185 -23.1420
   -19.4150 -19.4012  -8.6427  -7.9917  -7.9733  -7.9318  -7.9257  -7.8831
    -3.1529  -3.1408  -3.1068  -3.0104  -2.9985  -2.9313   2.9431   2.9492
     3.1125   3.3287   3.7670   3.8423   4.1609   4.3069   4.3509   4.9956
     5.0495   5.8365   6.9041   6.9302   7.7374   7.7695   7.7935   7.8331
    11.9116  11.9754  12.6865  12.7439  12.7761  12.8418  14.7843  16.9335

          k =-0.8571-0.2500 0.5713 (  7073 PWs)   bands (ev):

   -47.1036 -47.1022 -23.2486 -23.2452 -23.2357 -23.2327 -23.2198 -23.1432
   -19.4186 -19.4050  -8.6997  -8.3087  -8.2859  -7.9714  -7.9193  -7.9015
    -3.1063  -3.0867  -3.0318  -2.9895  -2.9679  -2.9078   3.0574   3.1183
     3.4521   4.0675   4.1110   4.1771   4.3127   4.5052   4.6037   5.0580
     5.2101   5.9111   6.8624   6.9131   7.4366   7.4779   7.5129   7.8052
    11.2821  11.9170  12.2773  12.3476  12.4046  12.6781  14.6196  16.5120

          k =-0.8571-0.2500 0.2856 (  7065 PWs)   bands (ev):

   -47.1044 -47.1030 -23.2505 -23.2466 -23.2219 -23.1889 -23.1865 -23.1448
   -19.4230 -19.4097  -8.8791  -8.7018  -8.5204  -7.9968  -7.9236  -7.9067
    -3.0270  -3.0067  -2.9914  -2.9358  -2.9163  -2.8944   3.0541   3.1380
     3.5236   3.9803   4.7534   4.9139   5.0164   5.1040   5.3451   5.4292
     5.6573   6.2479   6.7143   6.8647   6.8888   6.9453   7.0185   7.7939
    10.4446  11.8392  11.8920  11.9619  12.0034  12.6365  13.9825  14.9789

          k = 0.8571-0.2500-0.0000 (  7062 PWs)   bands (ev):

   -47.1047 -47.1033 -23.2516 -23.2475 -23.2227 -23.1678 -23.1656 -23.1455
   -19.4249 -19.4118  -9.0052  -8.8663  -8.5668  -8.0077  -7.9332  -7.9010
    -2.9940  -2.9673  -2.9561  -2.9298  -2.8965  -2.8842   3.0497   3.1388
     3.5267   3.9027   4.9727   5.2791   5.3660   5.4616   5.4930   5.8131
     6.2178   6.4172   6.4354   6.4911   6.7574   6.8898   6.9044   7.7895
    10.0571  11.6774  11.8307  11.8460  11.8971  12.6185  13.3703  14.1269

          k = 0.8571-0.2500-0.2856 (  7065 PWs)   bands (ev):

   -47.1044 -47.1030 -23.2505 -23.2466 -23.2219 -23.1889 -23.1865 -23.1448
   -19.4230 -19.4097  -8.8791  -8.7018  -8.5204  -7.9968  -7.9237  -7.9065
    -3.0290  -3.0069  -2.9865  -2.9370  -2.9208  -2.8913   3.0541   3.1379
     3.5234   3.9806   4.7535   4.9138   5.0174   5.1035   5.3456   5.4278
     5.6584   6.2460   6.7145   6.8715   6.8869   6.9416   7.0185   7.7939
    10.4444  11.8394  11.8914  11.9623  12.0034  12.6367  13.9826  14.9787

          k = 0.8571-0.2500-0.5713 (  7073 PWs)   bands (ev):

   -47.1036 -47.1022 -23.2486 -23.2452 -23.2357 -23.2327 -23.2198 -23.1433
   -19.4186 -19.4050  -8.6997  -8.3091  -8.2854  -7.9715  -7.9190  -7.9016
    -3.1084  -3.0867  -3.0212  -2.9962  -2.9721  -2.9054   3.0574   3.1182
     3.4518   4.0675   4.1122   4.1752   4.3130   4.5058   4.6055   5.0573
     5.2089   5.9113   6.8624   6.9133   7.4366   7.4777   7.5130   7.8052
    11.2816  11.9166  12.2777  12.3478  12.4047  12.6781  14.6197  16.5112

          k = 0.8571-0.2500-0.8569 (  7061 PWs)   bands (ev):

   -47.1030 -47.1016 -23.2734 -23.2705 -23.2458 -23.2427 -23.2185 -23.1420
   -19.4150 -19.4012  -8.6427  -7.9929  -7.9716  -7.9328  -7.9251  -7.8833
    -3.1550  -3.1410  -3.1025  -3.0106  -3.0016  -2.9300   2.9431   2.9492
     3.1123   3.3288   3.7669   3.8424   4.1602   4.3078   4.3516   4.9950
     5.0492   5.8367   6.9041   6.9303   7.7374   7.7696   7.7934   7.8331
    11.9112  11.9753  12.6872  12.7439  12.7764  12.8414  14.7844  16.9320

          k = 0.8571-0.2500 0.8569 (  7061 PWs)   bands (ev):

   -47.1030 -47.1016 -23.2735 -23.2705 -23.2458 -23.2427 -23.2185 -23.1420
   -19.4150 -19.4012  -8.6427  -7.9913  -7.9735  -7.9305  -7.9264  -7.8838
    -3.1532  -3.1445  -3.1018  -3.0109  -2.9995  -2.9310   2.9322   2.9355
     3.1159   3.3324   3.7778   3.8434   4.1720   4.3034   4.3517   4.9862
     5.0606   5.8362   6.8995   6.9346   7.7382   7.7707   7.7930   7.8308
    11.9268  11.9586  12.6964  12.7322  12.7765  12.8413  14.7813  16.9185

          k = 0.8571-0.2500 0.5713 (  7073 PWs)   bands (ev):

   -47.1036 -47.1022 -23.2489 -23.2455 -23.2353 -23.2325 -23.2198 -23.1432
   -19.4186 -19.4050  -8.6996  -8.3083  -8.2857  -7.9715  -7.9191  -7.9016
    -3.1072  -3.0915  -3.0233  -2.9883  -2.9732  -2.9069   3.0467   3.1052
     3.4430   4.0242   4.1104   4.2196   4.3213   4.5379   4.6040   5.0513
     5.2218   5.9100   6.8572   6.9180   7.4400   7.4758   7.5118   7.8035
    11.2837  11.9121  12.2783  12.3423  12.3995  12.6772  14.6135  16.5122

          k = 0.8571-0.2500 0.2856 (  7065 PWs)   bands (ev):

   -47.1044 -47.1030 -23.2506 -23.2467 -23.2219 -23.1889 -23.1865 -23.1448
   -19.4230 -19.4097  -8.8790  -8.7016  -8.5203  -7.9968  -7.9236  -7.9065
    -3.0289  -3.0133  -2.9823  -2.9349  -2.9196  -2.8928   3.0489   3.1313
     3.5204   3.9802   4.7462   4.9023   4.9975   5.1240   5.3647   5.4337
     5.6799   6.2457   6.7136   6.8597   6.9083   6.9364   7.0160   7.7929
    10.4449  11.8312  11.8923  11.9541  11.9939  12.6366  13.9837  14.9867

          k = 0.5714-0.2500-0.0000 (  7090 PWs)   bands (ev):

   -47.1054 -47.1039 -23.2248 -23.2140 -23.2105 -23.1690 -23.1668 -23.1468
   -19.4310 -19.4161  -9.0006  -8.9034  -8.5726  -8.2551  -8.2231  -7.9888
    -2.9914  -2.9758  -2.9523  -2.9192  -2.9158  -2.8977   3.3812   4.0430
     4.0877   4.3289   5.1768   5.4250   5.5197   5.5996   5.6475   5.9999
     6.3272   6.3685   6.5448   6.5830   6.7853   6.9336   7.0033   7.5464
    10.0269  11.0899  11.1145  11.1898  11.6767  12.1602  13.3731  14.0089

          k = 0.5714-0.2500-0.2856 (  7094 PWs)   bands (ev):

   -47.1050 -47.1036 -23.2239 -23.2131 -23.2098 -23.1902 -23.1876 -23.1462
   -19.4285 -19.4139  -8.8803  -8.7433  -8.5295  -8.2438  -8.2249  -7.9839
    -3.0139  -2.9996  -2.9853  -2.9689  -2.8946  -2.8774   3.3793   4.0449
     4.0952   4.3587   4.9651   5.0167   5.1572   5.2524   5.4925   5.5986
     5.7074   6.2282   6.8428   6.8573   6.9040   6.9553   7.0925   7.5514
    10.4099  11.1996  11.2901  11.3421  11.8255  12.1791  13.9886  14.8406

          k = 0.5714-0.2500-0.5713 (  7083 PWs)   bands (ev):

   -47.1042 -47.1028 -23.2381 -23.2350 -23.2216 -23.2105 -23.2074 -23.1446
   -19.4230 -19.4090  -8.7298  -8.3861  -8.3001  -8.2173  -8.1899  -7.9726
    -3.0729  -3.0610  -2.9981  -2.9926  -2.9339  -2.8766   3.3599   3.9036
     3.9181   4.1506   4.1991   4.4626   4.6125   4.6646   4.8274   5.1604
     5.3863   5.9440   6.8686   6.9553   7.2758   7.3868   7.4016   7.6006
    11.1705  11.3176  11.8140  11.8772  12.1974  12.2782  14.5145  16.2222

          k = 0.5714-0.2500-0.8569 (  7073 PWs)   bands (ev):

   -47.1036 -47.1022 -23.2752 -23.2718 -23.2201 -23.2089 -23.2061 -23.1433
   -19.4186 -19.4050  -8.6949  -8.2569  -8.2383  -7.9788  -7.9669  -7.9482
    -3.1094  -3.0841  -3.0196  -3.0036  -2.9665  -2.9066   3.0124   3.0752
     3.4573   4.0421   4.0848   4.1453   4.3799   4.5368   4.6486   5.0111
     5.2515   5.9212   6.8529   6.9307   7.4651   7.5025   7.5166   7.7669
    11.2501  11.9421  12.2346  12.3501  12.4008  12.7130  14.6200  16.5075

          k = 0.5714-0.2500 0.8569 (  7073 PWs)   bands (ev):

   -47.1036 -47.1022 -23.2753 -23.2719 -23.2201 -23.2088 -23.2060 -23.1433
   -19.4186 -19.4050  -8.6948  -8.2565  -8.2381  -7.9781  -7.9683  -7.9477
    -3.1110  -3.0860  -3.0114  -3.0097  -2.9644  -2.9076   3.0019   3.0629
     3.4491   4.0193   4.0671   4.1784   4.3922   4.5702   4.6479   5.0090
     5.2596   5.9200   6.8492   6.9341   7.4683   7.5003   7.5160   7.7649
    11.2517  11.9374  12.2353  12.3451  12.3961  12.7118  14.6139  16.5076

          k = 0.5714-0.2500 0.5713 (  7083 PWs)   bands (ev):

   -47.1042 -47.1028 -23.2385 -23.2353 -23.2216 -23.2101 -23.2072 -23.1446
   -19.4230 -19.4090  -8.7294  -8.3848  -8.2992  -8.2176  -8.1909  -7.9726
    -3.0790  -3.0616  -2.9979  -2.9870  -2.9324  -2.8777   3.3650   3.8245
     3.8307   4.1586   4.1949   4.5069   4.6104   4.7104   4.9163   5.1561
     5.4077   5.9390   6.8632   6.9612   7.2800   7.3798   7.4105   7.5919
    11.2009  11.2819  11.7966  11.8560  12.2057  12.2700  14.5003  16.2660

          k = 0.5714-0.2500 0.2856 (  7094 PWs)   bands (ev):

   -47.1050 -47.1036 -23.2239 -23.2135 -23.2100 -23.1898 -23.1874 -23.1462
   -19.4285 -19.4139  -8.8800  -8.7426  -8.5294  -8.2437  -8.2250  -7.9840
    -3.0245  -2.9996  -2.9769  -2.9676  -2.8914  -2.8801   3.3814   4.0167
     4.0635   4.3540   4.9456   4.9772   5.1442   5.2629   5.5565   5.6181
     5.7837   6.2250   6.8432   6.8533   6.9296   6.9526   7.0868   7.5475
    10.4119  11.1886  11.2632  11.3073  11.8281  12.1784  13.9879  14.8610

          k = 0.2857-0.2500-0.0000 (  7112 PWs)   bands (ev):

   -47.1061 -47.1047 -23.2271 -23.1724 -23.1699 -23.1647 -23.1621 -23.1485
   -19.4388 -19.4213  -9.0336  -8.9960  -8.6076  -8.5672  -8.5189  -7.9712
    -2.9870  -2.9755  -2.9608  -2.9417  -2.9228  -2.8907   3.4145   4.9346
     5.2002   5.3079   5.3764   5.5399   5.6528   5.8180   6.1803   6.1902
     6.4183   6.5369   6.7216   6.8056   6.9358   6.9897   7.0532   7.0809
     9.9811  10.1642  10.2004  10.3253  11.6585  11.7343  13.3273  13.5606

          k = 0.2857-0.2500-0.2856 (  7103 PWs)   bands (ev):

   -47.1058 -47.1044 -23.2261 -23.1925 -23.1899 -23.1652 -23.1624 -23.1478
   -19.4356 -19.4190  -8.9411  -8.8700  -8.5507  -8.5228  -8.5141  -7.9753
    -2.9920  -2.9831  -2.9769  -2.9650  -2.8961  -2.8843   3.4088   4.7911
     5.0991   5.1383   5.2029   5.2949   5.3422   5.3735   5.9558   6.0418
     6.0877   6.3521   6.7969   6.8654   6.9303   6.9933   7.0696   7.1111
    10.2853  10.4191  10.5216  10.5765  11.7411  11.8043  13.9343  14.1768

          k = 0.2857-0.2500-0.5713 (  7094 PWs)   bands (ev):

   -47.1050 -47.1036 -23.2401 -23.2367 -23.2235 -23.1636 -23.1609 -23.1462
   -19.4285 -19.4139  -8.8558  -8.6976  -8.5032  -8.2876  -8.2750  -7.9842
    -3.0140  -2.9969  -2.9842  -2.9722  -2.8952  -2.8767   3.3739   4.0090
     4.0674   4.3241   4.9542   4.9938   5.1187   5.2336   5.5397   5.5966
     5.7647   6.2775   6.8255   6.8880   6.9417   6.9899   7.0935   7.5098
    10.3645  11.2333  11.3079  11.3565  11.7733  12.2216  13.9883  14.8390

          k = 0.2857-0.2500-0.8569 (  7064 PWs)   bands (ev):

   -47.1044 -47.1030 -23.2775 -23.2737 -23.2218 -23.1622 -23.1596 -23.1448
   -19.4230 -19.4097  -8.8506  -8.6475  -8.4944  -8.0002  -7.9732  -7.9577
    -3.0282  -3.0077  -2.9823  -2.9404  -2.9227  -2.8892   3.0066   3.0903
     3.5220   3.9395   4.7148   4.8363   5.0086   5.0925   5.4166   5.4487
     5.7218   6.2974   6.7082   6.9101   6.9279   6.9885   7.0232   7.7528
    10.3995  11.7868  11.9178  11.9763  12.0072  12.6722  13.9873  14.9895

          k = 0.2857-0.2500 0.8569 (  7064 PWs)   bands (ev):

   -47.1044 -47.1030 -23.2776 -23.2738 -23.2218 -23.1622 -23.1596 -23.1448
   -19.4230 -19.4097  -8.8505  -8.6473  -8.4944  -8.0005  -7.9725  -7.9581
    -3.0284  -3.0128  -2.9803  -2.9324  -2.9270  -2.8900   3.0013   3.0840
     3.5195   3.9385   4.7097   4.8303   4.9859   5.1140   5.4333   5.4526
     5.7421   6.2956   6.7080   6.9046   6.9486   6.9769   7.0218   7.7518
    10.3998  11.7822  11.9146  11.9698  11.9974  12.6720  13.9882  14.9972

          k = 0.2857-0.2500 0.5713 (  7094 PWs)   bands (ev):

   -47.1050 -47.1036 -23.2402 -23.2367 -23.2235 -23.1635 -23.1608 -23.1462
   -19.4285 -19.4139  -8.8555  -8.6969  -8.5031  -8.2877  -8.2750  -7.9843
    -3.0200  -3.0046  -2.9803  -2.9622  -2.8940  -2.8785   3.3761   3.9810
     4.0381   4.3169   4.9315   4.9695   5.1032   5.2527   5.5928   5.6143
     5.8352   6.2736   6.8288   6.8923   6.9706   6.9732   7.0878   7.5060
    10.3661  11.2208  11.2833  11.3216  11.7766  12.2207  13.9873  14.8592

          k = 0.2857-0.2500 0.2856 (  7104 PWs)   bands (ev):

   -47.1058 -47.1044 -23.2261 -23.1927 -23.1901 -23.1650 -23.1623 -23.1478
   -19.4356 -19.4190  -8.9407  -8.8695  -8.5509  -8.5230  -8.5138  -7.9753
    -3.0042  -2.9886  -2.9698  -2.9502  -2.9031  -2.8818   3.4104   4.7906
     5.0515   5.1140   5.1230   5.3002   5.3446   5.3634   6.0132   6.0559
     6.1764   6.3467   6.7989   6.9073   6.9671   6.9955   7.0758   7.0896
    10.3024  10.3823  10.4885  10.5278  11.7437  11.8026  13.9243  14.2090

          k =-0.0000 0.5000-0.0000 (  7078 PWs)   bands (ev):

   -47.1061 -47.1054 -23.1899 -23.1888 -23.1707 -23.1701 -23.1435 -23.1428
   -19.4385 -19.4273  -9.0626  -9.0610  -8.6689  -8.6675  -8.2981  -8.2771
    -2.9752  -2.9652  -2.9637  -2.9535  -2.9210  -2.9107   4.3783   4.3965
     5.6273   5.6326   5.6347   5.6400   6.1745   6.1848   6.2144   6.2312
     6.3467   6.3562   6.7209   6.7232   6.9123   6.9154   7.0563   7.0578
     9.7675   9.7706  10.8018  10.8088  10.8566  10.8623  13.0588  13.0604

          k = 0.0000 0.5000-0.2856 (  7106 PWs)   bands (ev):

   -47.1057 -47.1051 -23.1933 -23.1928 -23.1874 -23.1867 -23.1430 -23.1422
   -19.4356 -19.4245  -8.9761  -8.9744  -8.5953  -8.5940  -8.3015  -8.2807
    -2.9848  -2.9791  -2.9589  -2.9488  -2.9061  -2.9010   4.3646   4.3823
     5.1019   5.1071   5.5753   5.5798   5.5925   5.5978   6.0826   6.0970
     6.5243   6.5278   6.6827   6.6866   6.8794   6.8827   7.0289   7.0379
    10.2117  10.2143  10.8159  10.8227  11.0686  11.0740  13.5029  13.5044

          k = 0.0000 0.5000-0.5713 (  7098 PWs)   bands (ev):

   -47.1050 -47.1043 -23.2396 -23.2390 -23.1865 -23.1854 -23.1415 -23.1407
   -19.4291 -19.4180  -8.8865  -8.8845  -8.3460  -8.3342  -8.2628  -8.2542
    -2.9921  -2.9879  -2.9425  -2.9321  -2.9013  -2.8969   3.9613   3.9642
     4.3746   4.3846   4.8011   4.8068   5.4333   5.4349   5.8041   5.8165
     6.4630   6.4651   6.5989   6.6053   6.7079   6.7149   7.3315   7.3424
    10.8192  10.8267  11.1618  11.1638  11.6575  11.6625  13.8267  13.8287

          k = 0.0000 0.5000-0.8569 (  7090 PWs)   bands (ev):

   -47.1043 -47.1037 -23.2769 -23.2763 -23.1849 -23.1838 -23.1402 -23.1395
   -19.4240 -19.4129  -8.8659  -8.8637  -8.3267  -8.3066  -7.9703  -7.9690
    -2.9838  -2.9754  -2.9282  -2.9210  -2.9137  -2.9076   3.0696   3.0709
     4.2484   4.2596   4.5030   4.5188   5.2601   5.2613   5.6550   5.6677
     6.4114   6.4126   6.5741   6.5827   6.6544   6.6621   7.4161   7.4270
    10.8508  10.8582  11.8687  11.8705  12.2272  12.2319  13.9088  13.9113

          k =-0.2857 0.5000-0.0000 (  7106 PWs)   bands (ev):

   -47.1057 -47.1051 -23.1891 -23.1879 -23.1712 -23.1706 -23.1635 -23.1628
   -19.4356 -19.4244  -8.9981  -8.9965  -8.5743  -8.5729  -8.3008  -8.2802
    -2.9861  -2.9825  -2.9545  -2.9466  -2.9071  -2.9021   4.3679   4.3856
     5.1228   5.1247   5.5918   5.5992   5.6176   5.6294   6.0625   6.0734
     6.4853   6.4895   6.5657   6.5675   6.9668   6.9683   7.0740   7.0829
    10.1684  10.1709  10.8644  10.8694  11.0249  11.0308  13.5192  13.5207

          k =-0.2857 0.5000-0.2856 (  7102 PWs)   bands (ev):

   -47.1054 -47.1048 -23.1927 -23.1922 -23.1867 -23.1859 -23.1639 -23.1631
   -19.4329 -19.4217  -8.8792  -8.8773  -8.5333  -8.5319  -8.3000  -8.2797
    -3.0039  -2.9959  -2.9723  -2.9676  -2.8806  -2.8776   4.3573   4.3746
     4.9857   4.9891   5.1394   5.1418   5.5740   5.5810   5.6046   5.6183
     6.1597   6.1611   6.8933   6.9005   6.9488   6.9501   7.1262   7.1336
    10.4800  10.4819  11.0086  11.0125  11.1185  11.1213  14.2142  14.2158

          k =-0.2857 0.5000-0.5713 (  7084 PWs)   bands (ev):

   -47.1046 -47.1040 -23.2388 -23.2382 -23.1858 -23.1847 -23.1625 -23.1617
   -19.4268 -19.4157  -8.7382  -8.7356  -8.3325  -8.3220  -8.2556  -8.2464
    -3.0191  -3.0123  -2.9865  -2.9783  -2.8744  -2.8694   3.9482   3.9506
     4.3572   4.3675   4.7655   4.7687   5.0312   5.0343   5.4371   5.4445
     5.8752   5.8826   6.9037   6.9061   6.9880   6.9941   7.3425   7.3529
    11.0436  11.0500  11.3111  11.3127  11.6808  11.6859  14.6808  14.6824

          k =-0.2857 0.5000-0.8569 (  7070 PWs)   bands (ev):

   -47.1040 -47.1034 -23.2760 -23.2754 -23.1842 -23.1831 -23.1612 -23.1604
   -19.4219 -19.4108  -8.7112  -8.7083  -8.3076  -8.2885  -7.9682  -7.9669
    -3.0239  -3.0196  -2.9668  -2.9574  -2.9050  -2.9001   3.0658   3.0670
     4.2604   4.2707   4.5033   4.5182   4.8417   4.8430   5.2993   5.3040
     5.8544   5.8650   6.8741   6.8756   6.9579   6.9648   7.4269   7.4377
    11.0900  11.0966  11.9738  11.9753  12.2455  12.2502  14.7298  14.7317

          k =-0.2857 0.5000 0.8569 (  7070 PWs)   bands (ev):

   -47.1040 -47.1034 -23.2760 -23.2753 -23.1842 -23.1831 -23.1612 -23.1604
   -19.4220 -19.4108  -8.7113  -8.7085  -8.3076  -8.2885  -7.9683  -7.9670
    -3.0219  -3.0182  -2.9689  -2.9582  -2.9057  -2.8997   3.0726   3.0739
     4.2592   4.2696   4.5075   4.5225   4.8524   4.8535   5.2793   5.2836
     5.8478   5.8587   6.8688   6.8703   6.9616   6.9683   7.4279   7.4387
    11.0912  11.0978  11.9853  11.9868  12.2455  12.2502  14.7240  14.7260

          k =-0.2857 0.5000 0.5713 (  7084 PWs)   bands (ev):

   -47.1046 -47.1040 -23.2387 -23.2381 -23.1858 -23.1847 -23.1625 -23.1618
   -19.4268 -19.4157  -8.7387  -8.7361  -8.3323  -8.3218  -8.2557  -8.2466
    -3.0104  -3.0058  -2.9952  -2.9838  -2.8751  -2.8694   3.9704   3.9732
     4.3631   4.3728   4.7845   4.7895   5.0480   5.0498   5.3902   5.3959
     5.8423   5.8510   6.8903   6.8928   6.9914   6.9977   7.3465   7.3571
    11.0505  11.0571  11.3416  11.3434  11.6788  11.6838  14.6660  14.6676

          k =-0.2857 0.5000 0.2856 (  7102 PWs)   bands (ev):

   -47.1054 -47.1048 -23.1925 -23.1920 -23.1866 -23.1859 -23.1640 -23.1633
   -19.4329 -19.4217  -8.8797  -8.8778  -8.5331  -8.5317  -8.3001  -8.2798
    -2.9921  -2.9886  -2.9833  -2.9758  -2.8813  -2.8765   4.3545   4.3717
     5.0231   5.0273   5.1796   5.1806   5.5726   5.5799   5.5966   5.6107
     6.0933   6.0945   6.8940   6.8984   6.9067   6.9115   7.1321   7.1411
    10.5324  10.5347  11.0231  11.0293  11.1009  11.1061  14.1911  14.1925

          k =-0.5714 0.5000 0.0000 (  7098 PWs)   bands (ev):

   -47.1050 -47.1043 -23.2128 -23.2120 -23.1869 -23.1857 -23.1678 -23.1672
   -19.4291 -19.4180  -8.9333  -8.9314  -8.3407  -8.3248  -8.2230  -8.2182
    -2.9937  -2.9904  -2.9381  -2.9303  -2.9016  -2.8996   4.0012   4.0055
     4.3870   4.3981   4.8188   4.8260   5.4910   5.4957   5.7863   5.7984
     6.4164   6.4199   6.4994   6.5012   6.7128   6.7165   7.3713   7.3841
    10.8639  10.8681  11.1223  11.1241  11.6208  11.6278  13.8359  13.8380

          k =-0.5714 0.5000-0.2856 (  7088 PWs)   bands (ev):

   -47.1046 -47.1040 -23.2122 -23.2115 -23.1902 -23.1897 -23.1841 -23.1835
   -19.4268 -19.4156  -8.7796  -8.7772  -8.3312  -8.3165  -8.2166  -8.2115
    -3.0197  -3.0129  -2.9861  -2.9783  -2.8742  -2.8694   3.9840   3.9878
     4.3676   4.3789   4.7725   4.7771   5.0755   5.0807   5.4128   5.4219
     5.8243   5.8268   6.8843   6.8885   6.9498   6.9541   7.3758   7.3882
    11.0870  11.0907  11.2961  11.2979  11.6450  11.6519  14.6828  14.6847

          k =-0.5714 0.5000-0.5713 (  7088 PWs)   bands (ev):

   -47.1039 -47.1032 -23.2372 -23.2366 -23.2092 -23.2084 -23.1837 -23.1827
   -19.4215 -19.4104  -8.4854  -8.4762  -8.2389  -8.2299  -8.1981  -8.1942
    -3.0605  -3.0533  -3.0277  -3.0205  -2.8891  -2.8847   3.8244   3.8253
     4.0780   4.0851   4.3480   4.3523   4.8442   4.8486   4.9486   4.9520
     5.0326   5.0367   7.1975   7.2052   7.2424   7.2471   7.4553   7.4629
    11.6288  11.6336  11.7196  11.7225  11.8638  11.8650  15.8669  15.8692

          k =-0.5714 0.5000-0.8569 (  7070 PWs)   bands (ev):

   -47.1032 -47.1026 -23.2739 -23.2733 -23.2080 -23.2072 -23.1823 -23.1812
   -19.4174 -19.4062  -8.4127  -8.3989  -8.1912  -8.1834  -7.9635  -7.9622
    -3.0810  -3.0777  -3.0286  -3.0203  -2.9429  -2.9411   3.0516   3.0528
     3.9730   3.9775   4.2905   4.2923   4.4998   4.5084   4.7006   4.7078
     5.0418   5.0489   7.2619   7.2741   7.3409   7.3489   7.5562   7.5599
    11.7002  11.7067  12.2588  12.2621  12.3857  12.3873  15.9168  15.9179

          k =-0.5714 0.5000 0.8569 (  7070 PWs)   bands (ev):

   -47.1032 -47.1026 -23.2739 -23.2732 -23.2080 -23.2072 -23.1823 -23.1812
   -19.4174 -19.4062  -8.4129  -8.3991  -8.1914  -8.1835  -7.9635  -7.9621
    -3.0774  -3.0761  -3.0321  -3.0223  -2.9435  -2.9398   3.0651   3.0664
     3.9824   3.9869   4.2919   4.2952   4.4796   4.4898   4.6884   4.6960
     5.0426   5.0495   7.2628   7.2753   7.3372   7.3455   7.5594   7.5632
    11.7005  11.7070  12.2627  12.2662  12.3889  12.3905  15.9212  15.9224

          k =-0.5714 0.5000 0.5713 (  7088 PWs)   bands (ev):

   -47.1039 -47.1032 -23.2369 -23.2363 -23.2095 -23.2087 -23.1837 -23.1826
   -19.4216 -19.4104  -8.4861  -8.4770  -8.2391  -8.2299  -8.1977  -8.1940
    -3.0491  -3.0453  -3.0384  -3.0283  -2.8896  -2.8846   3.9085   3.9096
     4.0526   4.0595   4.3735   4.3761   4.7501   4.7540   4.9281   4.9389
     5.0450   5.0486   7.1992   7.2080   7.2306   7.2372   7.4643   7.4720
    11.6224  11.6276  11.7458  11.7509  11.8664  11.8680  15.8810  15.8833

          k =-0.5714 0.5000 0.2856 (  7088 PWs)   bands (ev):

   -47.1046 -47.1040 -23.2119 -23.2112 -23.1905 -23.1900 -23.1841 -23.1835
   -19.4268 -19.4157  -8.7801  -8.7777  -8.3311  -8.3163  -8.2167  -8.2116
    -3.0112  -3.0072  -2.9940  -2.9836  -2.8749  -2.8693   4.0063   4.0105
     4.3741   4.3849   4.7941   4.8004   5.0987   5.1025   5.3579   5.3655
     5.7903   5.7935   6.8705   6.8742   6.9537   6.9587   7.3794   7.3920
    11.0958  11.0999  11.3252  11.3269  11.6429  11.6497  14.6675  14.6694

          k =-0.8571 0.5000 0.0000 (  7086 PWs)   bands (ev):

   -47.1043 -47.1037 -23.2499 -23.2491 -23.1853 -23.1841 -23.1666 -23.1660
   -19.4239 -19.4128  -8.9166  -8.9144  -8.3309  -8.3109  -7.9182  -7.9167
    -2.9850  -2.9765  -2.9278  -2.9233  -2.9125  -2.9058   3.1214   3.1230
     4.2981   4.3077   4.4856   4.5007   5.3533   5.3549   5.6212   5.6366
     6.3614   6.3624   6.4788   6.4818   6.6208   6.6267   7.4489   7.4631
    10.9028  10.9081  11.8395  11.8411  12.1963  12.2037  13.9012  13.9037

          k =-0.8571 0.5000-0.2856 (  7072 PWs)   bands (ev):

   -47.1040 -47.1034 -23.2490 -23.2483 -23.1891 -23.1886 -23.1828 -23.1821
   -19.4219 -19.4108  -8.7590  -8.7562  -8.3144  -8.2951  -7.9161  -7.9146
    -3.0235  -3.0180  -2.9707  -2.9608  -2.9030  -2.8977   3.1161   3.1177
     4.3115   4.3201   4.4795   4.4931   4.9097   4.9113   5.2462   5.2552
     5.8001   5.8045   6.8549   6.8565   6.9019   6.9087   7.4569   7.4710
    11.1383  11.1432  11.9625  11.9639  12.2149  12.2222  14.7200  14.7224

          k =-0.8571 0.5000-0.5713 (  7068 PWs)   bands (ev):

   -47.1032 -47.1026 -23.2476 -23.2468 -23.2342 -23.2336 -23.1823 -23.1812
   -19.4173 -19.4062  -8.4321  -8.4203  -8.2250  -8.2149  -7.9117  -7.9102
    -3.0793  -3.0748  -3.0333  -3.0244  -2.9413  -2.9386   3.0967   3.0981
     3.9856   3.9898   4.2619   4.2640   4.5383   4.5458   4.6696   4.6749
     5.0166   5.0219   7.2245   7.2356   7.3590   7.3680   7.5608   7.5668
    11.7397  11.7442  12.2274  12.2333  12.3851  12.3868  15.9179  15.9195

          k =-0.8571 0.5000-0.8569 (  7068 PWs)   bands (ev):

   -47.1026 -47.1020 -23.2724 -23.2717 -23.2446 -23.2438 -23.1810 -23.1799
   -19.4137 -19.4025  -8.3303  -8.3090  -7.9626  -7.9611  -7.9082  -7.9066
    -3.0991  -3.0947  -3.0702  -3.0675  -3.0079  -3.0045   2.9338   2.9349
     3.3031   3.3058   4.0043   4.0051   4.4682   4.4781   4.6348   4.6387
     4.7597   4.7715   7.3835   7.3952   7.4252   7.4390   7.8026   7.8043
    12.2606  12.2664  12.3024  12.3060  12.8064  12.8076  16.1558  16.1579

          k =-0.8571 0.5000 0.8569 (  7068 PWs)   bands (ev):

   -47.1026 -47.1020 -23.2723 -23.2717 -23.2447 -23.2439 -23.1810 -23.1799
   -19.4137 -19.4025  -8.3303  -8.3090  -7.9630  -7.9615  -7.9079  -7.9063
    -3.0950  -3.0898  -3.0795  -3.0689  -3.0080  -3.0025   2.9459   2.9471
     3.2981   3.3007   3.9962   3.9971   4.4732   4.4851   4.6236   4.6327
     4.7618   4.7725   7.3857   7.3982   7.4216   7.4364   7.8036   7.8053
    12.2520  12.2582  12.3114  12.3164  12.8073  12.8085  16.1591  16.1613

          k =-0.8571 0.5000 0.5713 (  7068 PWs)   bands (ev):

   -47.1032 -47.1026 -23.2473 -23.2465 -23.2345 -23.2339 -23.1823 -23.1812
   -19.4173 -19.4062  -8.4323  -8.4205  -8.2251  -8.2150  -7.9118  -7.9102
    -3.0758  -3.0725  -3.0373  -3.0268  -2.9416  -2.9375   3.1110   3.1125
     3.9982   4.0026   4.2550   4.2580   4.5197   4.5286   4.6602   4.6667
     5.0172   5.0222   7.2246   7.2357   7.3565   7.3657   7.5638   7.5699
    11.7399  11.7445  12.2310  12.2371  12.3888  12.3905  15.9223  15.9239

          k =-0.8571 0.5000 0.2856 (  7072 PWs)   bands (ev):

   -47.1040 -47.1034 -23.2490 -23.2482 -23.1892 -23.1887 -23.1827 -23.1821
   -19.4219 -19.4108  -8.7592  -8.7563  -8.3144  -8.2951  -7.9162  -7.9147
    -3.0214  -3.0165  -2.9729  -2.9617  -2.9036  -2.8974   3.1232   3.1249
     4.3093   4.3183   4.4849   4.4987   4.9269   4.9277   5.2191   5.2279
     5.7939   5.7986   6.8467   6.8489   6.9083   6.9146   7.4578   7.4719
    11.1396  11.1445  11.9740  11.9755  12.2150  12.2223  14.7140  14.7163

     the Fermi energy is     8.4168 ev

!    total energy              =   -1145.54049453 Ry
     total all-electron energy =    -18592.513225 Ry
     estimated scf accuracy    <          8.0E-10 Ry
     smearing contrib. (-TS)   =       0.00000000 Ry
     internal energy E=F+TS    =   -1145.54049453 Ry

     The total energy is F=E-TS. E is the sum of the following terms:
     one-electron contribution =    -146.32302511 Ry
     hartree contribution      =     117.99092365 Ry
     xc contribution           =    -124.96646722 Ry
     ewald contribution        =    -407.33201181 Ry
     one-center paw contrib.   =    -584.90991403 Ry

     convergence has been achieved in  15 iterations

     Forces acting on atoms (cartesian axes, Ry/au):

     atom    1 type  1   force =     0.00000276   -0.00013091   -0.00004580
     atom    2 type  1   force =    -0.00000198    0.00011185    0.00004852
     atom    3 type  2   force =     0.00755413    0.00176368   -0.00927447
     atom    4 type  2   force =    -0.00759530   -0.00173004    0.00930090
     atom    5 type  3   force =    -0.01111438   -0.00045375   -0.00059876
     atom    6 type  3   force =     0.01115585    0.00045079    0.00060452
     atom    7 type  3   force =     0.00004349    0.00000978    0.00012019
     atom    8 type  3   force =    -0.00004393   -0.00000034   -0.00012762
     atom    9 type  3   force =     0.00024177   -0.00024159    0.01624964
     atom   10 type  3   force =    -0.00024241    0.00022052   -0.01627712

     Total force =     0.032738     Total SCF correction =     0.000022
     Message from routine punch:
     Nothing written, as per user request (disk_io='none')

     init_run     :     27.75s CPU     28.38s WALL (       1 calls)
     electrons    :    728.69s CPU    739.85s WALL (       1 calls)
     forces       :     10.69s CPU     11.61s WALL (       1 calls)

     Called by init_run:
     wfcinit      :      4.78s CPU      4.91s WALL (       1 calls)
     potinit      :      4.27s CPU      4.54s WALL (       1 calls)
     hinit0       :      2.50s CPU      2.56s WALL (       1 calls)

     Called by electrons:
     c_bands      :    583.04s CPU    584.79s WALL (      15 calls)
     sum_band     :     84.06s CPU     88.21s WALL (      15 calls)
     v_of_rho     :      7.92s CPU      8.63s WALL (      16 calls)
     newd         :     18.92s CPU     23.18s WALL (      16 calls)
     PAW_pot      :     35.14s CPU     35.80s WALL (      16 calls)
     mix_rho      :      0.85s CPU      0.86s WALL (      15 calls)

     Called by c_bands:
     init_us_2    :     13.87s CPU     13.90s WALL (     416 calls)
     cegterg      :    219.72s CPU    221.16s WALL (     195 calls)

     Called by *egterg:
     cdiaghg      :      3.52s CPU      3.53s WALL (     899 calls)
     h_psi        :    136.25s CPU    137.01s WALL (     912 calls)
     s_psi        :     16.59s CPU     16.61s WALL (     912 calls)
     g_psi        :      1.20s CPU      1.20s WALL (     704 calls)

     Called by h_psi:
     h_psi:calbec :     19.72s CPU     19.76s WALL (     912 calls)
     vloc_psi     :     96.48s CPU     96.95s WALL (     912 calls)
                                        0.00s GPU  (     912 calls)
     add_vuspsi   :     17.03s CPU     17.05s WALL (     912 calls)

     General routines
     calbec       :     29.51s CPU     29.55s WALL (    1159 calls)
     fft          :      3.39s CPU      3.40s WALL (     217 calls)
     ffts         :      0.37s CPU      0.37s WALL (      31 calls)
     fftw         :     90.08s CPU     90.44s WALL (   56392 calls)
     interpolate  :      0.77s CPU      0.77s WALL (      16 calls)

     Parallel routines

     PWSCF        :  12m48.27s CPU  13m 1.18s WALL


   This run was terminated on:   1:21:55   5Oct2026            

=------------------------------------------------------------------------------=
   JOB DONE.
=------------------------------------------------------------------------------=
