
     Program PWSCF v.7.5 starts on  5Oct2026 at  1:27:27 

     This program is part of the open-source Quantum ESPRESSO suite
     for quantum simulation of materials; please cite
         "P. Giannozzi et al., J. Phys.:Condens. Matter 21 395502 (2009);
         "P. Giannozzi et al., J. Phys.:Condens. Matter 29 465901 (2017);
         "P. Giannozzi et al., J. Chem. Phys. 152 154105 (2020);
          URL http://www.quantum-espresso.org", 
     in publications or presentations arising from this work. More details at
     http://www.quantum-espresso.org/quote

     Parallel version (MPI & OpenMP), running on       8 processor cores
     Number of MPI processes:                 8
     Threads/MPI process:                     1

     MPI processes distributed on     1 nodes
     100568 MiB available memory on the printing compute node when the environment starts

     Reading input from pw.in

     Current dimensions of program PWSCF are:
     Max number of different atomic species (ntypx) = 10
     Max number of k-points (npk) =  40000
     Max angular momentum in pseudopotentials (lmaxx) =  4
     file K.pbe-spn-kjpaw_psl.1.0.0.UPF: wavefunction(s)  3S renormalized
     file Nb.pbe-spn-kjpaw_psl.0.3.0.UPF: wavefunction(s)  4S 4P renormalized
     file O.pbe-n-kjpaw_psl.0.1.UPF: wavefunction(s)  2P renormalized
     Message from routine setup:
     using ibrav=0 with symmetry is DISCOURAGED, use correct ibrav instead

     K-points division:     npool     =       8
     Subspace diagonalization in iterative solution of the eigenvalue problem:
     a serial algorithm will be used


     G-vector sticks info
     --------------------
     sticks:   dense  smooth     PW     G-vecs:    dense   smooth      PW
     Sum        2241    1117    325               160147    56679    8677

     Using Slab Decomposition



     bravais-lattice index     =            0
     lattice parameter (alat)  =       7.6682  a.u.
     unit-cell volume          =     901.7885 (a.u.)^3
     number of atoms/cell      =           10
     number of atomic types    =            3
     number of electrons       =        80.00
     number of Kohn-Sham states=           48
     kinetic-energy cutoff     =      60.0000  Ry
     charge density cutoff     =     480.0000  Ry
     scf convergence threshold =      1.0E-09
     mixing beta               =       0.4000
     number of iterations used =            8  plain     mixing
     Exchange-correlation= SLA  PW   PBX  PBC
                           (   1   4   3   4   0   0   0)

     celldm(1)=   7.668167  celldm(2)=   0.000000  celldm(3)=   0.000000
     celldm(4)=   0.000000  celldm(5)=   0.000000  celldm(6)=   0.000000

     crystal axes: (cart. coord. in units of alat)
               a(1) = (   1.000000  -0.000000  -0.000000 )  
               a(2) = (  -0.000000   1.000000  -0.000000 )  
               a(3) = (  -0.000000  -0.000000   2.000000 )  

     reciprocal axes: (cart. coord. in units 2 pi/alat)
               b(1) = (  1.000000  0.000000  0.000000 )  
               b(2) = (  0.000000  1.000000  0.000000 )  
               b(3) = (  0.000000  0.000000  0.500000 )  


     PseudoPot. # 1 for K  read from file:
     /root/sssp/K.pbe-spn-kjpaw_psl.1.0.0.UPF
     MD5 check sum: 7d58810084cac21f60fbe77ea2b688fd
     Pseudo is Projector augmented-wave + core cor, Zval =  9.0
     Generated using "atomic" code by A. Dal Corso  v.5.1
     Shape of augmentation charge: PSQ
     Using radial grid of 1165 points,  6 beta functions with: 
                l(1) =   0
                l(2) =   0
                l(3) =   1
                l(4) =   1
                l(5) =   2
                l(6) =   2
     Q(r) pseudized with 0 coefficients 


     PseudoPot. # 2 for Nb read from file:
     /root/sssp/Nb.pbe-spn-kjpaw_psl.0.3.0.UPF
     MD5 check sum: 411d72ad547312f8017e2943ceca08cc
     Pseudo is Projector augmented-wave + core cor, Zval = 13.0
     Generated using "atomic" code by A. Dal Corso  v.5.0.99 svn rev. 10869
     Shape of augmentation charge: PSQ
     Using radial grid of 1227 points,  6 beta functions with: 
                l(1) =   0
                l(2) =   0
                l(3) =   1
                l(4) =   1
                l(5) =   2
                l(6) =   2
     Q(r) pseudized with 0 coefficients 


     PseudoPot. # 3 for O  read from file:
     /root/sssp/O.pbe-n-kjpaw_psl.0.1.UPF
     MD5 check sum: 0234752ac141de4415c5fc33072bef88
     Pseudo is Projector augmented-wave + core cor, Zval =  6.0
     Generated using "atomic" code by A. Dal Corso  v.5.0.99 svn rev. 10869
     Shape of augmentation charge: BESSEL
     Using radial grid of 1095 points,  4 beta functions with: 
                l(1) =   0
                l(2) =   0
                l(3) =   1
                l(4) =   1
     Q(r) pseudized with 0 coefficients 


     atomic species   valence    mass     pseudopotential
     K                 9.00    39.09830     K ( 1.00)
     Nb               13.00    92.90640     Nb( 1.00)
     O                 6.00    15.99900     O ( 1.00)

      4 Sym. Ops., with inversion, found ( 2 have fractional translation)



   Cartesian axes

     site n.     atom                  positions (alat units)
         1        K      tau(   1) = (  -0.0000000   0.0000000   0.0000000  )
         2        K      tau(   2) = (  -0.0000000   0.0000000   1.0000000  )
         3        Nb     tau(   3) = (   0.5000196   0.4735279   0.5000000  )
         4        Nb     tau(   4) = (   0.4999804   0.5264721   1.5000000  )
         5        O      tau(   5) = (  -0.0000254   0.5283531   0.5000000  )
         6        O      tau(   6) = (   0.0000254   0.4716469   1.5000000  )
         7        O      tau(   7) = (   0.4999790   1.0342275   0.5000000  )
         8        O      tau(   8) = (   0.5000210   0.9657725   1.5000000  )
         9        O      tau(   9) = (   0.5000000   0.5000000   0.0000000  )
        10        O      tau(  10) = (   0.5000000   0.5000000   1.0000000  )

     number of k points=    75  Marzari-Vanderbilt smearing, width (Ry)=  0.0050
                       cart. coord. in units 2pi/alat
        k(    1) = (   0.0000000   0.0000000   0.0000000), wk =   0.0102041
        k(    2) = (   0.0000000   0.0000000   0.1250000), wk =   0.0204082
        k(    3) = (  -0.0000000  -0.0000000  -0.2500000), wk =   0.0102041
        k(    4) = (   0.0000000   0.1428571   0.0000000), wk =   0.0204082
        k(    5) = (   0.0000000   0.1428571   0.1250000), wk =   0.0408163
        k(    6) = (   0.0000000   0.1428571  -0.2500000), wk =   0.0204082
        k(    7) = (   0.0000000   0.2857143   0.0000000), wk =   0.0204082
        k(    8) = (   0.0000000   0.2857143   0.1250000), wk =   0.0408163
        k(    9) = (   0.0000000   0.2857143  -0.2500000), wk =   0.0204082
        k(   10) = (   0.0000000   0.4285714   0.0000000), wk =   0.0204082
        k(   11) = (   0.0000000   0.4285714   0.1250000), wk =   0.0408163
        k(   12) = (   0.0000000   0.4285714  -0.2500000), wk =   0.0204082
        k(   13) = (   0.1428571   0.1428571   0.0000000), wk =   0.0204082
        k(   14) = (   0.1428571   0.1428571   0.1250000), wk =   0.0408163
        k(   15) = (   0.1428571   0.1428571  -0.2500000), wk =   0.0204082
        k(   16) = (   0.1428571   0.2857143   0.0000000), wk =   0.0204082
        k(   17) = (   0.1428571   0.2857143   0.1250000), wk =   0.0408163
        k(   18) = (   0.1428571   0.2857143  -0.2500000), wk =   0.0204082
        k(   19) = (   0.1428571   0.4285714   0.0000000), wk =   0.0204082
        k(   20) = (   0.1428571   0.4285714   0.1250000), wk =   0.0408163
        k(   21) = (   0.1428571   0.4285714  -0.2500000), wk =   0.0204082
        k(   22) = (   0.2857143   0.2857143   0.0000000), wk =   0.0204082
        k(   23) = (   0.2857143   0.2857143   0.1250000), wk =   0.0408163
        k(   24) = (   0.2857143   0.2857143  -0.2500000), wk =   0.0204082
        k(   25) = (   0.2857143   0.4285714   0.0000000), wk =   0.0204082
        k(   26) = (   0.2857143   0.4285714   0.1250000), wk =   0.0408163
        k(   27) = (   0.2857143   0.4285714  -0.2500000), wk =   0.0204082
        k(   28) = (   0.4285714   0.4285714   0.0000000), wk =   0.0204082
        k(   29) = (   0.4285714   0.4285714   0.1250000), wk =   0.0408163
        k(   30) = (   0.4285714   0.4285714  -0.2500000), wk =   0.0204082
        k(   31) = (   0.1428571   0.0000000   0.0000000), wk =   0.0204082
        k(   32) = (   0.1428571   0.0000000  -0.1250000), wk =   0.0408163
        k(   33) = (   0.1428571   0.0000000   0.2500000), wk =   0.0204082
        k(   34) = (   0.2857143   0.0000000   0.0000000), wk =   0.0204082
        k(   35) = (   0.2857143   0.0000000  -0.1250000), wk =   0.0408163
        k(   36) = (   0.2857143   0.0000000   0.2500000), wk =   0.0204082
        k(   37) = (   0.4285714   0.0000000   0.0000000), wk =   0.0204082
        k(   38) = (   0.4285714   0.0000000  -0.1250000), wk =   0.0408163
        k(   39) = (   0.4285714   0.0000000   0.2500000), wk =   0.0204082
        k(   40) = (   0.1428571  -0.1428571   0.0000000), wk =   0.0204082
        k(   41) = (   0.1428571  -0.1428571   0.1250000), wk =   0.0408163
        k(   42) = (   0.1428571  -0.1428571  -0.2500000), wk =   0.0204082
        k(   43) = (   0.2857143   0.1428571   0.0000000), wk =   0.0204082
        k(   44) = (   0.2857143  -0.1428571   0.0000000), wk =   0.0204082
        k(   45) = (  -0.1428571   0.2857143  -0.0000000), wk =   0.0204082
        k(   46) = (   0.2857143   0.1428571  -0.1250000), wk =   0.0408163
        k(   47) = (   0.2857143  -0.1428571   0.1250000), wk =   0.0408163
        k(   48) = (  -0.1428571   0.2857143  -0.1250000), wk =   0.0408163
        k(   49) = (   0.2857143   0.1428571   0.2500000), wk =   0.0204082
        k(   50) = (   0.2857143  -0.1428571  -0.2500000), wk =   0.0204082
        k(   51) = (  -0.1428571   0.2857143   0.2500000), wk =   0.0204082
        k(   52) = (   0.4285714   0.1428571   0.0000000), wk =   0.0204082
        k(   53) = (   0.4285714  -0.1428571   0.0000000), wk =   0.0204082
        k(   54) = (  -0.1428571   0.4285714  -0.0000000), wk =   0.0204082
        k(   55) = (   0.4285714   0.1428571  -0.1250000), wk =   0.0408163
        k(   56) = (   0.4285714  -0.1428571   0.1250000), wk =   0.0408163
        k(   57) = (  -0.1428571   0.4285714  -0.1250000), wk =   0.0408163
        k(   58) = (   0.4285714   0.1428571   0.2500000), wk =   0.0204082
        k(   59) = (   0.4285714  -0.1428571  -0.2500000), wk =   0.0204082
        k(   60) = (  -0.1428571   0.4285714   0.2500000), wk =   0.0204082
        k(   61) = (   0.2857143  -0.2857143   0.0000000), wk =   0.0204082
        k(   62) = (   0.2857143  -0.2857143   0.1250000), wk =   0.0408163
        k(   63) = (   0.2857143  -0.2857143  -0.2500000), wk =   0.0204082
        k(   64) = (   0.4285714   0.2857143   0.0000000), wk =   0.0204082
        k(   65) = (   0.4285714  -0.2857143   0.0000000), wk =   0.0204082
        k(   66) = (  -0.2857143   0.4285714  -0.0000000), wk =   0.0204082
        k(   67) = (   0.4285714   0.2857143  -0.1250000), wk =   0.0408163
        k(   68) = (   0.4285714  -0.2857143   0.1250000), wk =   0.0408163
        k(   69) = (  -0.2857143   0.4285714  -0.1250000), wk =   0.0408163
        k(   70) = (   0.4285714   0.2857143   0.2500000), wk =   0.0204082
        k(   71) = (   0.4285714  -0.2857143  -0.2500000), wk =   0.0204082
        k(   72) = (  -0.2857143   0.4285714   0.2500000), wk =   0.0204082
        k(   73) = (   0.4285714  -0.4285714   0.0000000), wk =   0.0204082
        k(   74) = (   0.4285714  -0.4285714   0.1250000), wk =   0.0408163
        k(   75) = (   0.4285714  -0.4285714  -0.2500000), wk =   0.0204082

     Dense  grid:   160147 G-vectors     FFT dimensions: (  54,  54, 108)

     Smooth grid:    56679 G-vectors     FFT dimensions: (  40,  40,  80)

     Estimated max dynamical RAM per process >     235.40 MB

     Estimated total dynamical RAM >       1.57 GB

     Check: negative core charge=   -0.000003

     Initial potential from superposition of free atoms

     starting charge      79.9581, renormalised to      80.0000
     Starting wfcs are   60 randomized atomic wfcs
     Checking if some PAW data can be deallocated... 

     total cpu time spent up to now is       23.2 secs

     per-process dynamical memory:   168.2 Mb

     Self-consistent Calculation

     iteration #  1     ecut=    60.00 Ry     beta= 0.40
     Davidson diagonalization with overlap
     ethr =  1.00E-02,  avg # of iterations =  2.3

     total cpu time spent up to now is       54.6 secs

     total energy              =   -1143.96741459 Ry
     estimated scf accuracy    <       4.99796699 Ry

     iteration #  2     ecut=    60.00 Ry     beta= 0.40
     Davidson diagonalization with overlap
     ethr =  6.25E-03,  avg # of iterations =  4.0

     total cpu time spent up to now is      105.8 secs

     total energy              =   -1145.22965226 Ry
     estimated scf accuracy    <       1.38835284 Ry

     iteration #  3     ecut=    60.00 Ry     beta= 0.40
     Davidson diagonalization with overlap
     ethr =  1.74E-03,  avg # of iterations =  2.3

     total cpu time spent up to now is      151.9 secs

     total energy              =   -1145.52418391 Ry
     estimated scf accuracy    <       0.07355999 Ry

     iteration #  4     ecut=    60.00 Ry     beta= 0.40
     Davidson diagonalization with overlap
     ethr =  9.19E-05,  avg # of iterations = 10.1

     total cpu time spent up to now is      212.5 secs

     total energy              =   -1145.52653606 Ry
     estimated scf accuracy    <       0.02170088 Ry

     iteration #  5     ecut=    60.00 Ry     beta= 0.40
     Davidson diagonalization with overlap
     ethr =  2.71E-05,  avg # of iterations =  5.9

     total cpu time spent up to now is      271.4 secs

     total energy              =   -1145.53119947 Ry
     estimated scf accuracy    <       0.01143559 Ry

     iteration #  6     ecut=    60.00 Ry     beta= 0.40
     Davidson diagonalization with overlap
     ethr =  1.43E-05,  avg # of iterations =  1.6

     total cpu time spent up to now is      307.9 secs

     total energy              =   -1145.53015802 Ry
     estimated scf accuracy    <       0.00295764 Ry

     iteration #  7     ecut=    60.00 Ry     beta= 0.40
     Davidson diagonalization with overlap
     ethr =  3.70E-06,  avg # of iterations =  5.6

     total cpu time spent up to now is      363.0 secs

     total energy              =   -1145.53108197 Ry
     estimated scf accuracy    <       0.00024010 Ry

     iteration #  8     ecut=    60.00 Ry     beta= 0.40
     Davidson diagonalization with overlap
     ethr =  3.00E-07,  avg # of iterations =  2.3

     total cpu time spent up to now is      401.7 secs

     total energy              =   -1145.53106333 Ry
     estimated scf accuracy    <       0.00012134 Ry

     iteration #  9     ecut=    60.00 Ry     beta= 0.40
     Davidson diagonalization with overlap
     ethr =  1.52E-07,  avg # of iterations =  2.0

     total cpu time spent up to now is      437.8 secs

     total energy              =   -1145.53106890 Ry
     estimated scf accuracy    <       0.00001806 Ry

     iteration # 10     ecut=    60.00 Ry     beta= 0.40
     Davidson diagonalization with overlap
     ethr =  2.26E-08,  avg # of iterations =  3.4

     total cpu time spent up to now is      484.2 secs

     total energy              =   -1145.53107459 Ry
     estimated scf accuracy    <       0.00000192 Ry

     iteration # 11     ecut=    60.00 Ry     beta= 0.40
     Davidson diagonalization with overlap
     ethr =  2.41E-09,  avg # of iterations =  3.6

     total cpu time spent up to now is      523.3 secs

     total energy              =   -1145.53107483 Ry
     estimated scf accuracy    <       0.00000040 Ry

     iteration # 12     ecut=    60.00 Ry     beta= 0.40
     Davidson diagonalization with overlap
     ethr =  4.99E-10,  avg # of iterations =  2.6

     total cpu time spent up to now is      554.4 secs

     total energy              =   -1145.53107488 Ry
     estimated scf accuracy    <       0.00000005 Ry

     iteration # 13     ecut=    60.00 Ry     beta= 0.40
     Davidson diagonalization with overlap
     ethr =  5.78E-11,  avg # of iterations =  4.0

     total cpu time spent up to now is      595.1 secs

     total energy              =   -1145.53107489 Ry
     estimated scf accuracy    <          1.3E-09 Ry

     iteration # 14     ecut=    60.00 Ry     beta= 0.40
     Davidson diagonalization with overlap
     ethr =  1.66E-12,  avg # of iterations =  4.4

     total cpu time spent up to now is      641.3 secs

     End of self-consistent calculation

          k = 0.0000 0.0000 0.0000 (  7121 PWs)   bands (ev):

   -46.8768 -46.8750 -23.2384 -23.2353 -23.0105 -22.8970 -22.8856 -22.8818
   -19.4791 -19.4574  -9.1960  -9.1770  -8.6710  -8.5521  -8.4545  -7.6799
    -3.0323  -3.0252  -3.0013  -2.9929  -2.9499  -2.8974   3.1461   5.1526
     5.4011   5.5652   5.6731   5.6785   5.7985   5.7999   5.8220   6.0256
     6.2208   6.4278   6.7175   6.8559   6.9278   7.0956   7.2528   7.3893
     9.6256  10.0973  10.6694  10.7798  12.0727  12.3888  13.1221  13.6386

          k = 0.0000 0.0000 0.1250 (  7078 PWs)   bands (ev):

   -46.8766 -46.8753 -23.2380 -23.2358 -22.9942 -22.9139 -22.8850 -22.8824
   -19.4758 -19.4605  -9.1887  -9.1718  -8.6130  -8.5534  -8.4030  -7.8297
    -3.0205  -3.0204  -2.9996  -2.9977  -2.9497  -2.9114   3.5334   5.1948
     5.3906   5.4399   5.5660   5.6569   5.7770   5.8472   5.9192   6.0063
     6.2748   6.4463   6.7014   6.7976   6.8338   6.9656   6.9692   7.1035
    10.0707  10.4669  10.6850  10.7631  11.7480  12.0509  13.5262  13.6704

          k =-0.0000-0.0000-0.2500 (  7078 PWs)   bands (ev):

   -46.8759 -46.8759 -23.2369 -23.2369 -22.9543 -22.9543 -22.8837 -22.8837
   -19.4681 -19.4681  -9.1749  -9.1749  -8.5628  -8.5628  -8.1565  -8.1565
    -3.0091  -3.0091  -3.0018  -3.0018  -2.9389  -2.9389   4.4882   4.4882
     5.3251   5.3251   5.6062   5.6062   5.9324   5.9324   5.9485   5.9485
     6.4671   6.4671   6.5159   6.5159   6.7988   6.7988   6.9051   6.9051
    10.7233  10.7233  10.9541  10.9541  11.2730  11.2730  13.6403  13.6403

          k = 0.0000 0.1429 0.0000 (  7083 PWs)   bands (ev):

   -46.8765 -46.8747 -23.2602 -23.2566 -23.0093 -22.8963 -22.8848 -22.8811
   -19.4750 -19.4557  -9.0526  -9.0403  -8.6592  -8.5314  -8.4506  -7.6895
    -3.0285  -3.0199  -2.9891  -2.9838  -2.9549  -2.9136   3.1363   4.5197
     5.1017   5.2321   5.2724   5.4283   5.4497   5.6285   6.0435   6.0478
     6.3898   6.4682   6.6765   6.7097   6.9885   7.0560   7.2675   7.3677
     9.6468  10.5249  11.0040  11.0992  12.0765  12.5001  13.1475  14.0024

          k = 0.0000 0.1429 0.1250 (  7108 PWs)   bands (ev):

   -46.8762 -46.8749 -23.2597 -23.2571 -22.9930 -22.9131 -22.8843 -22.8816
   -19.4721 -19.4585  -9.0410  -9.0312  -8.6074  -8.5356  -8.3993  -7.8381
    -3.0273  -3.0146  -2.9996  -2.9891  -2.9442  -2.9153   3.5203   4.6188
     5.0531   5.2003   5.2778   5.2946   5.4153   5.7293   5.7947   6.0194
     6.4276   6.4871   6.7177   6.7217   6.9462   6.9997   7.0066   7.1141
    10.0857  10.8019  11.0184  11.0835  11.7554  12.1837  13.5646  13.9836

          k = 0.0000 0.1429-0.2500 (  7094 PWs)   bands (ev):

   -46.8756 -46.8756 -23.2584 -23.2584 -22.9533 -22.9533 -22.8830 -22.8830
   -19.4653 -19.4653  -9.0276  -9.0276  -8.5523  -8.5523  -8.1605  -8.1605
    -3.0176  -3.0176  -3.0019  -3.0019  -2.9257  -2.9257   4.4476   4.4476
     4.8671   4.8671   5.3516   5.3516   5.3862   5.3862   5.9158   5.9158
     6.6082   6.6082   6.6241   6.6241   6.7635   6.7635   7.0203   7.0203
    10.9464  10.9464  11.0685  11.0685  11.4773  11.4773  13.8919  13.8919

          k = 0.0000 0.2857 0.0000 (  7075 PWs)   bands (ev):

   -46.8757 -46.8739 -23.3086 -23.3039 -23.0065 -22.8946 -22.8831 -22.8794
   -19.4660 -19.4520  -8.8841  -8.7265  -8.4935  -8.4411  -8.4300  -7.7113
    -3.0214  -3.0079  -3.0076  -2.9630  -2.9630  -2.9030   3.0772   3.8226
     3.8575   3.9897   4.8526   5.0526   5.1838   5.5297   6.0410   6.0422
     6.3923   6.5400   6.6311   6.6961   6.8002   7.2843   7.3201   7.4531
     9.6951  11.4273  11.7600  11.8217  12.0851  12.8391  13.1672  14.3348

          k = 0.0000 0.2857 0.1250 (  7090 PWs)   bands (ev):

   -46.8754 -46.8741 -23.3079 -23.3046 -22.9904 -22.9113 -22.8826 -22.8800
   -19.4639 -19.4540  -8.8239  -8.7277  -8.4738  -8.4436  -8.3887  -7.8568
    -3.0286  -3.0206  -3.0014  -2.9696  -2.9427  -2.9046   3.4078   3.8111
     3.9080   4.1380   4.8783   4.8803   5.0201   5.6265   5.6796   5.9972
     6.5156   6.5733   6.6013   6.7422   6.9458   7.0470   7.0485   7.3978
    10.1239  11.5844  11.7488  11.7700  11.8313  12.5759  13.5955  14.2847

          k = 0.0000 0.2857-0.2500 (  7098 PWs)   bands (ev):

   -46.8748 -46.8748 -23.3062 -23.3062 -22.9511 -22.9511 -22.8813 -22.8813
   -19.4590 -19.4590  -8.7484  -8.7484  -8.4548  -8.4548  -8.1679  -8.1679
    -3.0322  -3.0322  -2.9856  -2.9856  -2.9167  -2.9167   3.7646   3.7646
     4.3118   4.3118   4.7535   4.7535   4.9483   4.9483   5.8393   5.8393
     6.5817   6.5817   6.7198   6.7198   6.8195   6.8195   7.2251   7.2251
    10.9862  10.9862  11.7933  11.7933  12.0322  12.0322  14.0876  14.0876

          k = 0.0000 0.4286 0.0000 (  7081 PWs)   bands (ev):

   -46.8750 -46.8732 -23.3467 -23.3412 -23.0043 -22.8933 -22.8818 -22.8781
   -19.4588 -19.4490  -8.8723  -8.5892  -8.4418  -8.2204  -8.1839  -7.7290
    -3.0476  -3.0181  -2.9984  -2.9657  -2.9461  -2.8682   2.7418   2.9482
     3.3496   3.4875   4.5934   4.8039   4.9831   5.4517   5.9723   6.0127
     6.1841   6.6037   6.6616   6.7067   6.7535   7.2892   7.2892   7.7075
     9.7346  12.0920  12.1490  12.3919  12.4211  13.1775  13.2112  14.4432

          k = 0.0000 0.4286 0.1250 (  7062 PWs)   bands (ev):

   -46.8748 -46.8735 -23.3459 -23.3420 -22.9883 -22.9098 -22.8812 -22.8786
   -19.4573 -19.4505  -8.7948  -8.6069  -8.3862  -8.2151  -8.1893  -7.8717
    -3.0443  -3.0187  -2.9908  -2.9559  -2.9539  -2.8839   2.8180   2.9283
     3.6187   3.6931   4.6229   4.6249   4.7708   5.5489   5.6253   5.9554
     6.3766   6.6358   6.6554   6.7688   6.8671   7.0226   7.0696   7.6092
    10.1565  11.7796  12.2541  12.3963  12.4171  12.9948  13.6101  14.3885

          k = 0.0000 0.4286-0.2500 (  7086 PWs)   bands (ev):

   -46.8741 -46.8741 -23.3440 -23.3440 -22.9493 -22.9493 -22.8799 -22.8799
   -19.4539 -19.4539  -8.6700  -8.6700  -8.2044  -8.2044  -8.1713  -8.1713
    -3.0315  -3.0315  -2.9725  -2.9725  -2.9215  -2.9215   2.8866   2.8866
     4.0428   4.0428   4.6350   4.6350   4.6952   4.6952   5.7723   5.7723
     6.5453   6.5453   6.7712   6.7712   6.8155   6.8155   7.3046   7.3046
    11.0103  11.0103  12.4067  12.4067  12.5735  12.5735  14.1595  14.1595

          k = 0.1429 0.1429 0.0000 (  7099 PWs)   bands (ev):

   -46.8761 -46.8743 -23.2594 -23.2558 -23.0082 -22.9060 -22.9018 -22.8956
   -19.4714 -19.4539  -9.0308  -9.0043  -8.6295  -8.4088  -8.3551  -7.6947
    -3.0342  -3.0240  -3.0074  -2.9877  -2.9349  -2.9204   3.1332   4.5174
     4.9653   4.9965   5.0935   5.1161   5.2317   5.4067   5.7130   5.9190
     6.0213   6.7728   6.7956   6.8660   7.0419   7.0717   7.0871   7.1885
    10.1771  10.5415  11.0149  11.0879  12.1999  12.5085  13.5435  14.6000

          k = 0.1429 0.1429 0.1250 (  7102 PWs)   bands (ev):

   -46.8759 -46.8746 -23.2589 -23.2564 -22.9920 -22.9124 -22.9053 -22.9024
   -19.4688 -19.4565  -9.0135  -9.0010  -8.5477  -8.4122  -8.3347  -7.8427
    -3.0403  -3.0302  -3.0093  -2.9956  -2.9252  -2.9083   3.5175   4.6094
     4.9453   4.9878   5.0793   5.1542   5.2456   5.2982   5.6540   5.7904
     5.9229   6.4330   6.7905   6.8632   6.9142   7.0133   7.1720   7.2495
    10.4624  10.8089  11.0323  11.0792  11.8986  12.1990  14.1652  14.6709

          k = 0.1429 0.1429-0.2500 (  7100 PWs)   bands (ev):

   -46.8752 -46.8752 -23.2577 -23.2576 -22.9524 -22.9524 -22.9039 -22.9039
   -19.4626 -19.4626  -8.9989  -8.9989  -8.4338  -8.4338  -8.1573  -8.1573
    -3.0415  -3.0415  -3.0059  -3.0059  -2.9071  -2.9071   4.4415   4.4415
     4.8277   4.8277   5.0232   5.0232   5.3300   5.3300   5.5571   5.5571
     5.9971   5.9971   6.8395   6.8395   6.9050   6.9050   7.2636   7.2636
    11.0283  11.0283  11.1696  11.1696  11.5227  11.5227  14.6363  14.6364

          k = 0.1429 0.2857 0.0000 (  7073 PWs)   bands (ev):

   -46.8753 -46.8735 -23.3076 -23.3031 -23.0056 -22.9041 -22.9001 -22.8939
   -19.4634 -19.4500  -8.8215  -8.6449  -8.4894  -8.3585  -8.3469  -7.7068
    -3.0521  -3.0409  -3.0131  -2.9984  -2.9453  -2.9044   3.0785   3.8130
     3.9188   3.9671   4.6231   4.6812   5.0938   5.1664   5.6840   5.9433
     5.9872   6.5600   6.8536   6.9811   7.0240   7.0574   7.0949   7.4570
    10.2153  11.4325  11.7293  11.7782  12.2228  12.8537  13.6694  15.1438

          k = 0.1429 0.2857 0.1250 (  7091 PWs)   bands (ev):

   -46.8751 -46.8738 -23.3069 -23.3037 -22.9895 -22.9106 -22.9035 -22.9007
   -19.4614 -19.4519  -8.7483  -8.6450  -8.4621  -8.3665  -8.3221  -7.8521
    -3.0541  -3.0509  -3.0228  -3.0042  -2.9248  -2.8980   3.4108   3.8051
     3.9197   4.1436   4.6319   4.6517   4.8882   5.2278   5.6447   5.6541
     5.9601   6.4611   6.7525   6.8967   6.9969   7.1334   7.1687   7.4075
    10.5068  11.5829  11.7365  11.7715  11.9415  12.5946  14.2198  15.1078

          k = 0.1429 0.2857-0.2500 (  7080 PWs)   bands (ev):

   -46.8744 -46.8744 -23.3053 -23.3053 -22.9503 -22.9503 -22.9021 -22.9021
   -19.4567 -19.4567  -8.6623  -8.6623  -8.3955  -8.3955  -8.1542  -8.1542
    -3.0597  -3.0597  -3.0176  -3.0176  -2.9006  -2.9006   3.7635   3.7635
     4.2948   4.2948   4.6450   4.6450   4.7838   4.7838   5.4820   5.4820
     6.0510   6.0510   6.8732   6.8732   7.0862   7.0862   7.2959   7.2959
    11.1998  11.1998  11.7632  11.7632  12.0586  12.0586  14.9066  14.9066

          k = 0.1429 0.4286 0.0000 (  7069 PWs)   bands (ev):

   -46.8747 -46.8729 -23.3456 -23.3404 -23.0035 -22.9025 -22.8987 -22.8926
   -19.4570 -19.4468  -8.7939  -8.4388  -8.3608  -8.2054  -8.1883  -7.7169
    -3.0819  -3.0443  -3.0097  -2.9965  -2.9696  -2.8870   2.7507   2.9476
     3.3438   3.5822   4.3793   4.3961   4.9340   5.1333   5.6657   5.9122
     5.9511   6.4278   6.8979   6.9108   7.0134   7.0449   7.1455   7.7112
    10.2465  12.1235  12.2622  12.3438  12.3524  13.2308  13.7167  15.2465

          k = 0.1429 0.4286 0.1250 (  7064 PWs)   bands (ev):

   -46.8744 -46.8731 -23.3448 -23.3411 -22.9875 -22.9091 -22.9020 -22.8993
   -19.4555 -19.4483  -8.6972  -8.4566  -8.3245  -8.2028  -8.1911  -7.8597
    -3.0825  -3.0481  -3.0141  -2.9852  -2.9599  -2.9014   2.8266   2.9316
     3.6440   3.7320   4.3711   4.3895   4.6560   5.2237   5.5766   5.6403
     5.9822   6.4882   6.6734   6.9305   6.9785   7.1165   7.1483   7.6150
    10.5422  11.9270  12.2654  12.3560  12.3641  13.0167  14.2328  15.2052

          k = 0.1429 0.4286-0.2500 (  7070 PWs)   bands (ev):

   -46.8738 -46.8738 -23.3430 -23.3430 -22.9486 -22.9486 -22.9006 -22.9006
   -19.4519 -19.4519  -8.5305  -8.5305  -8.1998  -8.1998  -8.1494  -8.1494
    -3.0713  -3.0713  -2.9925  -2.9925  -2.9329  -2.9329   2.8935   2.8935
     4.0475   4.0475   4.4209   4.4209   4.6476   4.6476   5.4503   5.4503
     6.0914   6.0914   6.8625   6.8625   7.1154   7.1154   7.3347   7.3347
    11.2383  11.2383  12.3585  12.3585  12.5945  12.5945  14.9538  14.9538

          k = 0.2857 0.2857 0.0000 (  7089 PWs)   bands (ev):

   -46.8746 -46.8728 -23.3053 -23.3012 -23.0035 -22.9505 -22.9460 -22.8924
   -19.4575 -19.4455  -8.7543  -8.5579  -8.4844  -8.0661  -8.0510  -7.6970
    -3.1247  -3.1053  -3.0211  -3.0128  -2.9654  -2.9192   3.0796   3.7194
     3.7649   4.0543   4.1426   4.2443   4.5852   4.8304   4.9074   5.0695
     5.8046   6.6109   6.6794   6.7945   7.1761   7.2667   7.4040   7.7426
    11.1684  11.4564  12.0674  12.1480  12.5987  12.8854  14.0772  16.1772

          k = 0.2857 0.2857 0.1250 (  7079 PWs)   bands (ev):

   -46.8743 -46.8730 -23.3047 -23.3018 -22.9874 -22.9499 -22.9466 -22.9089
   -19.4558 -19.4472  -8.6718  -8.5625  -8.4407  -8.0687  -8.0552  -7.8401
    -3.1176  -3.1045  -3.0418  -3.0241  -2.9564  -2.9045   3.4177   3.7274
     3.7691   4.0828   4.1515   4.3280   4.6746   4.8221   4.8566   4.9589
     5.4662   6.0646   6.8491   7.0704   7.1775   7.2774   7.3420   7.6930
    11.3258  11.6158  12.0757  12.1350  12.3594  12.6316  14.7482  16.2312

          k = 0.2857 0.2857-0.2500 (  7068 PWs)   bands (ev):

   -46.8736 -46.8736 -23.3033 -23.3033 -22.9488 -22.9488 -22.9479 -22.9479
   -19.4515 -19.4515  -8.5845  -8.5845  -8.2187  -8.2187  -8.0303  -8.0303
    -3.1016  -3.1016  -3.0569  -3.0569  -2.9162  -2.9162   3.7083   3.7083
     4.0400   4.0400   4.3745   4.3745   4.6846   4.6846   4.9480   4.9480
     5.2106   5.2106   7.1030   7.1030   7.2184   7.2184   7.5144   7.5144
    11.7538  11.7538  12.0584  12.0584  12.1739  12.1739  16.0613  16.0618

          k = 0.2857 0.4286 0.0000 (  7068 PWs)   bands (ev):

   -46.8739 -46.8721 -23.3429 -23.3384 -23.0016 -22.9486 -22.9445 -22.8911
   -19.4530 -19.4418  -8.6864  -8.2221  -8.2088  -8.0689  -8.0388  -7.6893
    -3.1587  -3.1392  -3.0875  -3.0319  -2.9599  -2.9298   2.7753   2.9434
     3.2928   3.7933   3.8499   3.9533   4.6626   4.7041   4.7278   4.8639
     5.7221   6.6092   6.6761   6.7739   7.3754   7.4058   7.6921   7.7568
    11.1932  12.1446  12.5791  12.6338  12.6386  13.2725  14.1808  16.3812

          k = 0.2857 0.4286 0.1250 (  7068 PWs)   bands (ev):

   -46.8736 -46.8724 -23.3423 -23.3391 -22.9857 -22.9480 -22.9451 -22.9075
   -19.4513 -19.4435  -8.5641  -8.2236  -8.2075  -8.0603  -8.0575  -7.8302
    -3.1601  -3.1136  -3.0677  -3.0484  -2.9809  -2.9379   2.8490   2.9350
     3.5617   3.8441   3.9212   3.9861   4.5577   4.6964   4.7500   4.8510
     5.4235   6.0693   6.8546   7.0695   7.3795   7.3953   7.6020   7.6811
    11.3599  12.2304  12.4032  12.5997  12.6354  13.0575  14.8317  16.4164

          k = 0.2857 0.4286-0.2500 (  7066 PWs)   bands (ev):

   -46.8730 -46.8730 -23.3407 -23.3407 -22.9470 -22.9470 -22.9464 -22.9464
   -19.4474 -19.4474  -8.2873  -8.2873  -8.1808  -8.1808  -8.0177  -8.0177
    -3.1288  -3.1288  -3.0509  -3.0509  -2.9754  -2.9754   2.9081   2.9081
     3.8263   3.8263   4.2158   4.2158   4.5398   4.5398   4.8134   4.8134
     5.2287   5.2287   7.2412   7.2412   7.3909   7.3909   7.4851   7.4851
    11.8157  11.8157  12.5748  12.5748  12.6686  12.6686  16.0441  16.0441

          k = 0.4286 0.4286 0.0000 (  7062 PWs)   bands (ev):

   -46.8733 -46.8715 -23.3408 -23.3369 -23.0001 -22.9851 -22.9807 -22.8898
   -19.4497 -19.4378  -8.6395  -8.2269  -8.1798  -7.7912  -7.7250  -7.6667
    -3.2197  -3.2134  -3.1666  -3.0451  -2.9648  -2.9439   2.8056   2.9185
     3.1475   3.4947   3.6194   3.8383   3.9642   4.1447   4.4121   4.7843
     5.5317   6.5486   6.7043   6.7460   7.6372   7.6712   7.7298   8.0703
    11.8810  12.1582  12.9512  13.0288  13.0501  13.3018  14.3256  16.3831

          k = 0.4286 0.4286 0.1250 (  7058 PWs)   bands (ev):

   -46.8730 -46.8718 -23.3402 -23.3375 -22.9844 -22.9842 -22.9813 -22.9063
   -19.4480 -19.4396  -8.5133  -8.2189  -8.1878  -7.8273  -7.7812  -7.7307
    -3.2025  -3.1796  -3.1358  -3.0714  -3.0019  -2.9653   2.8716   2.9168
     3.3083   3.4912   3.7262   3.9440   4.0415   4.1065   4.5199   4.6226
     5.2415   5.9671   6.9304   7.0579   7.6098   7.6439   7.6713   7.9476
    12.0045  12.2830  12.8015  12.9711  13.0303  13.0872  15.0000  16.5757

          k = 0.4286 0.4286-0.2500 (  7068 PWs)   bands (ev):

   -46.8724 -46.8724 -23.3389 -23.3389 -22.9829 -22.9829 -22.9455 -22.9455
   -19.4438 -19.4438  -8.2327  -8.2327  -8.1549  -8.1549  -7.7568  -7.7568
    -3.1451  -3.1451  -3.1117  -3.1117  -3.0230  -3.0230   2.9080   2.9080
     3.4601   3.4601   3.9084   3.9084   4.2858   4.2858   4.7573   4.7573
     4.8764   4.8764   7.3121   7.3121   7.5647   7.5647   7.6717   7.6717
    12.3517  12.3517  12.6396  12.6396  13.0072  13.0072  16.3386  16.3386

          k = 0.1429 0.0000 0.0000 (  7083 PWs)   bands (ev):

   -46.8765 -46.8747 -23.2377 -23.2346 -23.0094 -22.9068 -22.9026 -22.8963
   -19.4750 -19.4557  -9.1692  -9.1616  -8.6377  -8.4239  -8.3561  -7.6894
    -3.0256  -3.0051  -3.0028  -3.0009  -2.9412  -2.9122   3.1416   4.9794
     5.1099   5.2546   5.3366   5.5303   5.5820   5.5930   5.7804   5.8342
     5.8972   6.7592   6.7708   7.0150   7.0512   7.0630   7.1097   7.1745
    10.1143  10.1660  10.7028  10.7744  12.1905  12.3917  13.3318  14.1393

          k = 0.1429 0.0000-0.1250 (  7108 PWs)   bands (ev):

   -46.8762 -46.8750 -23.2372 -23.2351 -22.9931 -22.9132 -22.9062 -22.9032
   -19.4721 -19.4585  -9.1599  -9.1580  -8.5471  -8.4242  -8.3392  -7.8384
    -3.0330  -3.0174  -2.9896  -2.9891  -2.9413  -2.9178   3.5290   5.0688
     5.1553   5.2452   5.3765   5.4100   5.4853   5.5928   5.6261   5.9032
     5.9345   6.3496   6.7286   6.8160   6.9563   7.0150   7.1627   7.2587
    10.4469  10.4628  10.7255  10.7657  11.8854  12.0628  13.8361  14.1555

          k = 0.1429 0.0000 0.2500 (  7094 PWs)   bands (ev):

   -46.8756 -46.8756 -23.2362 -23.2362 -22.9534 -22.9534 -22.9047 -22.9047
   -19.4653 -19.4653  -9.1535  -9.1535  -8.4362  -8.4362  -8.1580  -8.1580
    -3.0309  -3.0309  -2.9810  -2.9810  -2.9324  -2.9324   4.4805   4.4805
     5.2013   5.2013   5.3173   5.3173   5.5919   5.5919   5.6981   5.6981
     6.0196   6.0196   6.5992   6.5992   6.9744   6.9744   7.2589   7.2589
    10.7246  10.7246  11.1113  11.1113  11.3442  11.3442  14.1090  14.1090

          k = 0.2857 0.0000 0.0000 (  7075 PWs)   bands (ev):

   -46.8757 -46.8739 -23.2360 -23.2329 -23.0067 -22.9540 -22.9486 -22.8948
   -19.4658 -19.4520  -9.1713  -9.1053  -8.6153  -8.0941  -8.0410  -7.7110
    -3.0214  -3.0173  -3.0107  -2.9598  -2.9286  -2.9214   3.1279   4.1822
     4.2194   4.2995   5.0151   5.2491   5.4077   5.6333   5.7425   5.8900
     5.9373   6.2899   6.6127   6.6622   6.7398   6.9833   7.0491   7.7162
    10.1520  11.1483  11.3376  11.3827  12.3961  12.5465  13.3667  14.4689

          k = 0.2857 0.0000-0.1250 (  7090 PWs)   bands (ev):

   -46.8754 -46.8742 -23.2356 -23.2334 -22.9906 -22.9532 -22.9494 -22.9114
   -19.4638 -19.4540  -9.1530  -9.1099  -8.5071  -8.0929  -8.0462  -7.8573
    -3.0386  -3.0239  -2.9917  -2.9567  -2.9268  -2.9229   3.5124   4.1805
     4.2009   4.4733   5.0680   5.2124   5.3885   5.4406   5.5126   5.6907
     5.9835   6.1133   6.6439   6.6827   6.7243   6.8624   7.1279   7.6886
    10.4965  11.2739  11.3468  11.3770  12.0845  12.2939  13.7962  14.4263

          k = 0.2857 0.0000 0.2500 (  7098 PWs)   bands (ev):

   -46.8748 -46.8748 -23.2345 -23.2345 -22.9520 -22.9520 -22.9506 -22.9506
   -19.4589 -19.4589  -9.1255  -9.1255  -8.2213  -8.2213  -8.0504  -8.0504
    -3.0397  -3.0397  -2.9671  -2.9671  -2.9241  -2.9241   4.1638   4.1638
     4.4784   4.4784   4.9347   4.9347   5.2964   5.2964   5.3637   5.3637
     6.0965   6.0965   6.5477   6.5477   6.7362   6.7362   7.5275   7.5275
    11.2147  11.2147  11.3905  11.3905  11.7860  11.7860  14.2585  14.2585

          k = 0.4286 0.0000 0.0000 (  7081 PWs)   bands (ev):

   -46.8751 -46.8733 -23.2347 -23.2316 -23.0047 -22.9912 -22.9851 -22.8935
   -19.4586 -19.4489  -9.1830  -9.0716  -8.6111  -7.7928  -7.7381  -7.7285
    -3.0491  -3.0291  -2.9988  -2.9266  -2.9230  -2.9051   3.0835   3.3930
     3.4410   3.9176   4.9404   5.0172   5.2875   5.7220   5.7275   5.9252
     5.9563   6.0142   6.2338   6.4704   6.5150   6.9458   7.0069   8.0363
    10.1841  11.8748  12.0678  12.0969  12.3888  12.9283  13.3297  14.4027

          k = 0.4286 0.0000-0.1250 (  7062 PWs)   bands (ev):

   -46.8748 -46.8736 -23.2342 -23.2320 -22.9903 -22.9887 -22.9860 -22.9101
   -19.4572 -19.4504  -9.1576  -9.0826  -8.5039  -7.8798  -7.7833  -7.7459
    -3.0458  -3.0106  -3.0081  -2.9374  -2.9241  -2.9090   3.3139   3.3895
     3.6045   4.0708   4.9797   5.0284   5.2535   5.2551   5.5548   5.5573
     6.0368   6.1487   6.3373   6.4297   6.6781   6.8139   7.0067   7.9382
    10.5278  11.9493  12.0468  12.0706  12.1337  12.7194  13.7170  14.3562

          k = 0.4286 0.0000 0.2500 (  7086 PWs)   bands (ev):

   -46.8742 -46.8742 -23.2332 -23.2332 -22.9882 -22.9882 -22.9496 -22.9496
   -19.4538 -19.4538  -9.1138  -9.1138  -8.2118  -8.2118  -7.7648  -7.7648
    -3.0290  -3.0290  -2.9728  -2.9728  -2.9172  -2.9172   3.3779   3.3779
     4.4561   4.4561   4.5677   4.5677   5.1825   5.1825   5.2871   5.2871
     6.1783   6.1783   6.3524   6.3524   6.5939   6.5939   7.6008   7.6008
    11.2967  11.2967  12.0732  12.0732  12.3057  12.3057  14.1729  14.1729

          k = 0.1429-0.1429 0.0000 (  7099 PWs)   bands (ev):

   -46.8761 -46.8743 -23.2594 -23.2558 -23.0082 -22.9060 -22.9018 -22.8956
   -19.4714 -19.4539  -9.0308  -9.0043  -8.6295  -8.4088  -8.3551  -7.6947
    -3.0342  -3.0240  -3.0075  -2.9878  -2.9349  -2.9203   3.1331   4.5175
     4.9659   4.9973   5.0934   5.1159   5.2316   5.4067   5.7125   5.9185
     6.0212   6.7726   6.7955   6.8656   7.0419   7.0724   7.0871   7.1883
    10.1771  10.5416  11.0152  11.0882  12.1998  12.5085  13.5435  14.6592

          k = 0.1429-0.1429 0.1250 (  7102 PWs)   bands (ev):

   -46.8759 -46.8746 -23.2589 -23.2564 -22.9920 -22.9124 -22.9053 -22.9024
   -19.4688 -19.4565  -9.0135  -9.0010  -8.5477  -8.4122  -8.3347  -7.8427
    -3.0403  -3.0301  -3.0093  -2.9956  -2.9252  -2.9083   3.5175   4.6095
     4.9460   4.9883   5.0791   5.1543   5.2455   5.2982   5.6537   5.7901
     5.9224   6.4329   6.7904   6.8629   6.9141   7.0132   7.1720   7.2496
    10.4624  10.8090  11.0326  11.0796  11.8986  12.1991  14.1651  14.6306

          k = 0.1429-0.1429-0.2500 (  7100 PWs)   bands (ev):

   -46.8752 -46.8752 -23.2577 -23.2576 -22.9524 -22.9524 -22.9039 -22.9039
   -19.4626 -19.4626  -8.9989  -8.9989  -8.4338  -8.4338  -8.1573  -8.1573
    -3.0414  -3.0414  -3.0059  -3.0059  -2.9071  -2.9071   4.4415   4.4415
     4.8280   4.8280   5.0234   5.0234   5.3301   5.3301   5.5569   5.5569
     5.9968   5.9968   6.8395   6.8395   6.9049   6.9049   7.2636   7.2636
    11.0286  11.0286  11.1697  11.1697  11.5227  11.5227  14.6361  14.6361

          k = 0.2857 0.1429 0.0000 (  7073 PWs)   bands (ev):

   -46.8753 -46.8736 -23.2575 -23.2541 -23.0057 -22.9529 -22.9478 -22.8940
   -19.4633 -19.4500  -9.0237  -8.9440  -8.6012  -8.0832  -8.0467  -7.7066
    -3.0616  -3.0463  -3.0020  -2.9857  -2.9334  -2.9197   3.1227   4.1264
     4.1412   4.3144   4.6945   4.8892   4.9998   5.3665   5.4017   5.5658
     5.8979   6.5296   6.6433   6.7797   6.8338   6.9760   7.0691   7.7258
    10.5647  11.1604  11.5418  11.6155  12.5163  12.5699  13.7525  15.1633

          k = 0.2857-0.1429 0.0000 (  7073 PWs)   bands (ev):

   -46.8753 -46.8736 -23.2575 -23.2541 -23.0057 -22.9529 -22.9478 -22.8940
   -19.4633 -19.4500  -9.0237  -8.9440  -8.6012  -8.0832  -8.0467  -7.7066
    -3.0616  -3.0463  -3.0020  -2.9857  -2.9334  -2.9197   3.1227   4.1267
     4.1416   4.3146   4.6944   4.8894   4.9999   5.3666   5.4013   5.5652
     5.8977   6.5297   6.6433   6.7796   6.8336   6.9761   7.0692   7.7258
    10.5646  11.1604  11.5420  11.6157  12.5162  12.5700  13.7526  15.1633

          k =-0.1429 0.2857-0.0000 (  7073 PWs)   bands (ev):

   -46.8753 -46.8735 -23.3076 -23.3031 -23.0056 -22.9041 -22.9001 -22.8939
   -19.4634 -19.4500  -8.8215  -8.6449  -8.4894  -8.3585  -8.3469  -7.7068
    -3.0520  -3.0408  -3.0132  -2.9984  -2.9453  -2.9044   3.0785   3.8132
     3.9188   3.9674   4.6231   4.6812   5.0938   5.1663   5.6837   5.9429
     5.9872   6.5600   6.8535   6.9811   7.0237   7.0573   7.0952   7.4570
    10.2152  11.4325  11.7295  11.7784  12.2228  12.8537  13.6695  15.1434

          k = 0.2857 0.1429-0.1250 (  7091 PWs)   bands (ev):

   -46.8751 -46.8738 -23.2571 -23.2547 -22.9896 -22.9522 -22.9486 -22.9107
   -19.4613 -19.4519  -8.9988  -8.9487  -8.4997  -8.0852  -8.0493  -7.8521
    -3.0653  -3.0450  -3.0212  -2.9955  -2.9168  -2.9056   3.5050   4.1196
     4.1345   4.4516   4.7836   4.8595   5.0042   5.2066   5.3249   5.5250
     5.6028   6.1095   6.7996   6.8036   6.8782   6.9366   7.1466   7.6903
    10.8342  11.2983  11.5536  11.6036  12.2243  12.3150  14.3367  15.1685

          k = 0.2857-0.1429 0.1250 (  7091 PWs)   bands (ev):

   -46.8751 -46.8738 -23.2571 -23.2547 -22.9896 -22.9522 -22.9486 -22.9107
   -19.4613 -19.4519  -8.9988  -8.9487  -8.4997  -8.0852  -8.0493  -7.8521
    -3.0652  -3.0450  -3.0212  -2.9955  -2.9168  -2.9056   3.5049   4.1199
     4.1349   4.4518   4.7835   4.8596   5.0042   5.2067   5.3245   5.5246
     5.6025   6.1095   6.7995   6.8035   6.8781   6.9366   7.1466   7.6903
    10.8342  11.2984  11.5539  11.6039  12.2243  12.3151  14.3367  15.1683

          k =-0.1429 0.2857-0.1250 (  7091 PWs)   bands (ev):

   -46.8751 -46.8738 -23.3069 -23.3037 -22.9895 -22.9106 -22.9035 -22.9007
   -19.4614 -19.4519  -8.7483  -8.6451  -8.4621  -8.3664  -8.3221  -7.8521
    -3.0541  -3.0509  -3.0228  -3.0043  -2.9249  -2.8980   3.4108   3.8054
     3.9199   4.1437   4.6320   4.6517   4.8883   5.2277   5.6447   5.6538
     5.9597   6.4611   6.7524   6.8967   6.9968   7.1334   7.1687   7.4076
    10.5068  11.5830  11.7367  11.7717  11.9415  12.5946  14.2198  15.1077

          k = 0.2857 0.1429 0.2500 (  7080 PWs)   bands (ev):

   -46.8745 -46.8745 -23.2559 -23.2559 -22.9510 -22.9510 -22.9498 -22.9498
   -19.4566 -19.4566  -8.9654  -8.9654  -8.2209  -8.2209  -8.0445  -8.0445
    -3.0609  -3.0609  -3.0148  -3.0148  -2.8993  -2.8993   4.1084   4.1084
     4.4381   4.4381   4.7510   4.7510   5.0594   5.0594   5.1188   5.1188
     5.6760   5.6760   6.8055   6.8055   6.8750   6.8750   7.5234   7.5234
    11.4477  11.4477  11.5685  11.5685  11.8331  11.8331  15.0326  15.0326

          k = 0.2857-0.1429-0.2500 (  7080 PWs)   bands (ev):

   -46.8745 -46.8745 -23.2559 -23.2559 -22.9510 -22.9510 -22.9498 -22.9498
   -19.4566 -19.4566  -8.9654  -8.9654  -8.2209  -8.2209  -8.0445  -8.0445
    -3.0609  -3.0609  -3.0148  -3.0148  -2.8993  -2.8993   4.1086   4.1086
     4.4381   4.4381   4.7512   4.7512   5.0592   5.0592   5.1187   5.1187
     5.6757   5.6757   6.8054   6.8054   6.8750   6.8750   7.5234   7.5234
    11.4478  11.4478  11.5687  11.5687  11.8331  11.8331  15.0325  15.0325

          k =-0.1429 0.2857 0.2500 (  7080 PWs)   bands (ev):

   -46.8744 -46.8744 -23.3053 -23.3053 -22.9503 -22.9503 -22.9021 -22.9021
   -19.4567 -19.4567  -8.6623  -8.6623  -8.3955  -8.3955  -8.1542  -8.1542
    -3.0597  -3.0597  -3.0176  -3.0176  -2.9006  -2.9006   3.7637   3.7637
     4.2948   4.2948   4.6452   4.6452   4.7837   4.7837   5.4818   5.4818
     6.0508   6.0508   6.8731   6.8731   7.0862   7.0862   7.2960   7.2960
    11.1998  11.1998  11.7635  11.7635  12.0585  12.0585  14.9065  14.9065

          k = 0.4286 0.1429 0.0000 (  7069 PWs)   bands (ev):

   -46.8747 -46.8729 -23.2560 -23.2527 -23.0038 -22.9900 -22.9842 -22.8928
   -19.4568 -19.4467  -9.0334  -8.9100  -8.5907  -7.7825  -7.7456  -7.7166
    -3.0811  -3.0691  -2.9977  -2.9564  -2.9456  -2.9275   3.0828   3.3829
     3.4272   4.0123   4.6102   4.6610   4.8374   5.2956   5.3518   5.5200
     5.7169   6.3915   6.4565   6.7220   6.7987   6.8626   7.0395   8.0440
    10.5953  11.8773  12.1909  12.2499  12.5253  12.9491  13.7926  15.1505

          k = 0.4286-0.1429 0.0000 (  7069 PWs)   bands (ev):

   -46.8747 -46.8729 -23.2560 -23.2527 -23.0038 -22.9900 -22.9842 -22.8928
   -19.4568 -19.4467  -9.0334  -8.9100  -8.5907  -7.7825  -7.7456  -7.7166
    -3.0811  -3.0691  -2.9977  -2.9564  -2.9456  -2.9275   3.0828   3.3829
     3.4273   4.0124   4.6102   4.6610   4.8375   5.2955   5.3518   5.5199
     5.7168   6.3915   6.4565   6.7220   6.7986   6.8627   7.0395   8.0440
    10.5953  11.8774  12.1909  12.2500  12.5253  12.9491  13.7926  15.1504

          k =-0.1429 0.4286-0.0000 (  7069 PWs)   bands (ev):

   -46.8747 -46.8729 -23.3456 -23.3404 -23.0035 -22.9025 -22.8987 -22.8926
   -19.4570 -19.4468  -8.7939  -8.4388  -8.3608  -8.2054  -8.1883  -7.7169
    -3.0819  -3.0443  -3.0097  -2.9965  -2.9696  -2.8870   2.7507   2.9477
     3.3439   3.5822   4.3794   4.3961   4.9340   5.1333   5.6656   5.9122
     5.9510   6.4278   6.8978   6.9108   7.0134   7.0449   7.1456   7.7113
    10.2465  12.1236  12.2621  12.3439  12.3525  13.2308  13.7167  15.2465

          k = 0.4286 0.1429-0.1250 (  7064 PWs)   bands (ev):

   -46.8745 -46.8732 -23.2556 -23.2532 -22.9892 -22.9878 -22.9850 -22.9093
   -19.4553 -19.4482  -9.0020  -8.9209  -8.4892  -7.8688  -7.7754  -7.7505
    -3.0797  -3.0523  -3.0225  -2.9718  -2.9352  -2.9181   3.3131   3.3800
     3.5861   4.1447   4.6134   4.7404   4.8297   5.1639   5.2252   5.2750
     5.5497   6.0621   6.7052   6.7861   6.7933   6.8731   7.0411   7.9423
    10.8684  11.9699  12.1928  12.2083  12.2688  12.7390  14.3182  15.1369

          k = 0.4286-0.1429 0.1250 (  7064 PWs)   bands (ev):

   -46.8745 -46.8732 -23.2556 -23.2532 -22.9892 -22.9878 -22.9850 -22.9093
   -19.4553 -19.4482  -9.0020  -8.9209  -8.4892  -7.8688  -7.7754  -7.7505
    -3.0797  -3.0523  -3.0225  -2.9718  -2.9352  -2.9181   3.3131   3.3800
     3.5861   4.1447   4.6135   4.7404   4.8297   5.1639   5.2252   5.2747
     5.5495   6.0622   6.7052   6.7861   6.7932   6.8731   7.0412   7.9423
    10.8684  11.9700  12.1929  12.2084  12.2688  12.7390  14.3182  15.1368

          k =-0.1429 0.4286-0.1250 (  7064 PWs)   bands (ev):

   -46.8744 -46.8731 -23.3448 -23.3411 -22.9875 -22.9091 -22.9020 -22.8993
   -19.4555 -19.4483  -8.6972  -8.4566  -8.3245  -8.2028  -8.1911  -7.8597
    -3.0825  -3.0481  -3.0142  -2.9852  -2.9599  -2.9014   2.8266   2.9317
     3.6440   3.7320   4.3710   4.3896   4.6560   5.2236   5.5766   5.6402
     5.9821   6.4882   6.6734   6.9305   6.9785   7.1165   7.1483   7.6151
    10.5422  11.9270  12.2654  12.3561  12.3641  13.0167  14.2328  15.2052

          k = 0.4286 0.1429 0.2500 (  7070 PWs)   bands (ev):

   -46.8738 -46.8738 -23.2544 -23.2544 -22.9871 -22.9871 -22.9488 -22.9488
   -19.4518 -19.4518  -8.9529  -8.9529  -8.2013  -8.2013  -7.7631  -7.7631
    -3.0615  -3.0615  -3.0108  -3.0108  -2.9185  -2.9185   3.3705   3.3705
     4.4310   4.4310   4.5218   4.5218   4.8426   4.8426   4.9705   4.9705
     5.6416   5.6416   6.7550   6.7550   6.7953   6.7953   7.6026   7.6026
    11.5253  11.5253  12.1934  12.1934  12.3373  12.3373  14.9612  14.9613

          k = 0.4286-0.1429-0.2500 (  7070 PWs)   bands (ev):

   -46.8738 -46.8738 -23.2544 -23.2544 -22.9871 -22.9871 -22.9488 -22.9488
   -19.4518 -19.4518  -8.9529  -8.9529  -8.2013  -8.2013  -7.7631  -7.7631
    -3.0615  -3.0615  -3.0108  -3.0108  -2.9185  -2.9185   3.3706   3.3706
     4.4309   4.4309   4.5219   4.5219   4.8426   4.8426   4.9703   4.9703
     5.6415   5.6415   6.7549   6.7549   6.7954   6.7954   7.6026   7.6026
    11.5253  11.5253  12.1935  12.1935  12.3373  12.3373  14.9612  14.9612

          k =-0.1429 0.4286 0.2500 (  7070 PWs)   bands (ev):

   -46.8738 -46.8738 -23.3430 -23.3430 -22.9486 -22.9486 -22.9006 -22.9006
   -19.4519 -19.4519  -8.5305  -8.5305  -8.1998  -8.1998  -8.1494  -8.1494
    -3.0713  -3.0713  -2.9925  -2.9925  -2.9329  -2.9329   2.8936   2.8936
     4.0475   4.0475   4.4209   4.4209   4.6476   4.6476   5.4502   5.4502
     6.0914   6.0914   6.8625   6.8625   7.1154   7.1154   7.3347   7.3347
    11.2384  11.2384  12.3586  12.3586  12.5945  12.5945  14.9537  14.9537

          k = 0.2857-0.2857 0.0000 (  7089 PWs)   bands (ev):

   -46.8746 -46.8728 -23.3053 -23.3012 -23.0035 -22.9505 -22.9460 -22.8924
   -19.4575 -19.4455  -8.7543  -8.5579  -8.4844  -8.0661  -8.0509  -7.6970
    -3.1247  -3.1053  -3.0211  -3.0129  -2.9654  -2.9192   3.0796   3.7200
     3.7653   4.0544   4.1427   4.2442   4.5851   4.8301   4.9067   5.0695
     5.8045   6.6109   6.6795   6.7945   7.1760   7.2667   7.4040   7.7427
    11.1682  11.4565  12.0675  12.1481  12.5987  12.8854  14.0773  16.1770

          k = 0.2857-0.2857 0.1250 (  7079 PWs)   bands (ev):

   -46.8743 -46.8730 -23.3047 -23.3018 -22.9874 -22.9499 -22.9466 -22.9089
   -19.4558 -19.4472  -8.6719  -8.5625  -8.4407  -8.0687  -8.0552  -7.8401
    -3.1176  -3.1045  -3.0418  -3.0241  -2.9564  -2.9045   3.4177   3.7279
     3.7695   4.0828   4.1516   4.3279   4.6745   4.8218   4.8564   4.9585
     5.4661   6.0646   6.8491   7.0703   7.1775   7.2774   7.3420   7.6931
    11.3257  11.6160  12.0758  12.1351  12.3593  12.6316  14.7483  16.2310

          k = 0.2857-0.2857-0.2500 (  7068 PWs)   bands (ev):

   -46.8736 -46.8736 -23.3033 -23.3033 -22.9488 -22.9488 -22.9479 -22.9479
   -19.4515 -19.4515  -8.5846  -8.5846  -8.2187  -8.2187  -8.0303  -8.0303
    -3.1016  -3.1016  -3.0569  -3.0569  -2.9162  -2.9162   3.7087   3.7087
     4.0399   4.0399   4.3746   4.3746   4.6843   4.6843   4.9477   4.9477
     5.2106   5.2106   7.1029   7.1029   7.2183   7.2183   7.5144   7.5144
    11.7539  11.7539  12.0586  12.0586  12.1739  12.1739  16.0613  16.0617

          k = 0.4286 0.2857 0.0000 (  7068 PWs)   bands (ev):

   -46.8739 -46.8721 -23.3034 -23.2997 -23.0018 -22.9873 -22.9823 -22.8912
   -19.4529 -19.4418  -8.7388  -8.5240  -8.4785  -7.7775  -7.7440  -7.6892
    -3.1567  -3.1543  -3.0749  -3.0069  -2.9581  -2.9488   3.0630   3.3195
     3.3262   3.9472   4.0903   4.1687   4.2831   4.2876   4.4228   5.0078
     5.6127   6.5527   6.6036   6.7517   7.3146   7.3814   7.4060   8.0599
    11.4651  11.8813  12.5565  12.6439  12.8989  12.9962  14.2069  16.2363

          k = 0.4286-0.2857 0.0000 (  7068 PWs)   bands (ev):

   -46.8739 -46.8721 -23.3034 -23.2997 -23.0018 -22.9873 -22.9823 -22.8912
   -19.4529 -19.4418  -8.7388  -8.5240  -8.4785  -7.7775  -7.7440  -7.6892
    -3.1567  -3.1543  -3.0749  -3.0069  -2.9581  -2.9488   3.0629   3.3197
     3.3264   3.9477   4.0895   4.1688   4.2836   4.2875   4.4222   5.0078
     5.6127   6.5527   6.6037   6.7517   7.3146   7.3814   7.4060   8.0599
    11.4650  11.8814  12.5566  12.6439  12.8989  12.9963  14.2069  16.2363

          k =-0.2857 0.4286-0.0000 (  7068 PWs)   bands (ev):

   -46.8739 -46.8721 -23.3429 -23.3384 -23.0016 -22.9486 -22.9445 -22.8911
   -19.4530 -19.4418  -8.6864  -8.2221  -8.2088  -8.0689  -8.0388  -7.6893
    -3.1587  -3.1392  -3.0875  -3.0319  -2.9599  -2.9298   2.7753   2.9435
     3.2929   3.7933   3.8499   3.9534   4.6627   4.7042   4.7274   4.8639
     5.7220   6.6092   6.6761   6.7739   7.3754   7.4058   7.6920   7.7569
    11.1932  12.1446  12.5792  12.6338  12.6387  13.2726  14.1808  16.3812

          k = 0.4286 0.2857-0.1250 (  7068 PWs)   bands (ev):

   -46.8737 -46.8724 -23.3029 -23.3003 -22.9865 -22.9858 -22.9830 -22.9076
   -19.4513 -19.4434  -8.6587  -8.5336  -8.4257  -7.8447  -7.7719  -7.7463
    -3.1506  -3.1337  -3.0618  -3.0285  -2.9947  -2.9320   3.2952   3.3201
     3.4344   3.9627   4.0972   4.1730   4.3318   4.4199   4.4643   4.8423
     5.2486   5.9901   6.8779   7.0184   7.3059   7.3356   7.3845   7.9498
    11.6370  11.9928  12.5636  12.6122  12.6603  12.7878  14.8810  16.3497

          k = 0.4286-0.2857 0.1250 (  7068 PWs)   bands (ev):

   -46.8737 -46.8724 -23.3029 -23.3003 -22.9865 -22.9858 -22.9830 -22.9076
   -19.4513 -19.4434  -8.6587  -8.5336  -8.4257  -7.8447  -7.7719  -7.7463
    -3.1506  -3.1337  -3.0619  -3.0285  -2.9947  -2.9320   3.2953   3.3203
     3.4345   3.9632   4.0966   4.1732   4.3315   4.4203   4.4639   4.8423
     5.2486   5.9901   6.8779   7.0184   7.3059   7.3356   7.3845   7.9499
    11.6370  11.9928  12.5637  12.6123  12.6603  12.7878  14.8811  16.3497

          k =-0.2857 0.4286-0.1250 (  7068 PWs)   bands (ev):

   -46.8736 -46.8724 -23.3423 -23.3391 -22.9857 -22.9480 -22.9451 -22.9075
   -19.4513 -19.4435  -8.5641  -8.2236  -8.2076  -8.0603  -8.0574  -7.8302
    -3.1601  -3.1136  -3.0677  -3.0484  -2.9809  -2.9379   2.8491   2.9350
     3.5618   3.8441   3.9213   3.9860   4.5577   4.6962   4.7499   4.8510
     5.4235   6.0693   6.8546   7.0695   7.3795   7.3953   7.6019   7.6812
    11.3599  12.2305  12.4032  12.5997  12.6355  13.0575  14.8317  16.4164

          k = 0.4286 0.2857 0.2500 (  7066 PWs)   bands (ev):

   -46.8730 -46.8730 -23.3016 -23.3016 -22.9848 -22.9848 -22.9470 -22.9470
   -19.4474 -19.4474  -8.5678  -8.5678  -8.1774  -8.1774  -7.7595  -7.7595
    -3.1140  -3.1140  -3.0776  -3.0775  -2.9599  -2.9599   3.3163   3.3163
     3.9142   3.9142   4.1682   4.1682   4.4824   4.4824   4.7569   4.7569
     4.9608   4.9608   7.1298   7.1298   7.3216   7.3216   7.6136   7.6136
    12.0921  12.0921  12.3298  12.3298  12.6164  12.6164  16.1840  16.1840

          k = 0.4286-0.2857-0.2500 (  7066 PWs)   bands (ev):

   -46.8730 -46.8730 -23.3016 -23.3016 -22.9848 -22.9848 -22.9470 -22.9470
   -19.4474 -19.4474  -8.5678  -8.5678  -8.1774  -8.1774  -7.7595  -7.7595
    -3.1140  -3.1140  -3.0776  -3.0776  -2.9599  -2.9599   3.3164   3.3164
     3.9144   3.9144   4.1679   4.1679   4.4823   4.4823   4.7568   4.7568
     4.9608   4.9608   7.1297   7.1297   7.3216   7.3216   7.6136   7.6136
    12.0921  12.0921  12.3298  12.3298  12.6165  12.6165  16.1840  16.1840

          k =-0.2857 0.4286 0.2500 (  7066 PWs)   bands (ev):

   -46.8730 -46.8730 -23.3407 -23.3407 -22.9470 -22.9470 -22.9464 -22.9464
   -19.4474 -19.4474  -8.2873  -8.2873  -8.1808  -8.1808  -8.0177  -8.0177
    -3.1288  -3.1288  -3.0509  -3.0509  -2.9754  -2.9754   2.9082   2.9082
     3.8263   3.8263   4.2158   4.2158   4.5397   4.5397   4.8132   4.8132
     5.2287   5.2287   7.2412   7.2412   7.3908   7.3908   7.4852   7.4852
    11.8157  11.8157  12.5749  12.5749  12.6686  12.6686  16.0441  16.0441

          k = 0.4286-0.4286 0.0000 (  7062 PWs)   bands (ev):

   -46.8733 -46.8715 -23.3408 -23.3369 -23.0001 -22.9851 -22.9807 -22.8898
   -19.4497 -19.4378  -8.6395  -8.2269  -8.1798  -7.7912  -7.7250  -7.6667
    -3.2197  -3.2134  -3.1666  -3.0451  -2.9648  -2.9439   2.8056   2.9186
     3.1476   3.4948   3.6192   3.8382   3.9642   4.1446   4.4121   4.7843
     5.5317   6.5486   6.7043   6.7461   7.6372   7.6712   7.7298   8.0703
    11.8810  12.1583  12.9512  13.0287  13.0501  13.3019  14.3256  16.3832

          k = 0.4286-0.4286 0.1250 (  7058 PWs)   bands (ev):

   -46.8730 -46.8718 -23.3402 -23.3375 -22.9844 -22.9842 -22.9813 -22.9063
   -19.4480 -19.4396  -8.5133  -8.2189  -8.1878  -7.8273  -7.7812  -7.7307
    -3.2025  -3.1796  -3.1358  -3.0714  -3.0019  -2.9653   2.8716   2.9168
     3.3083   3.4913   3.7260   3.9441   4.0413   4.1065   4.5199   4.6226
     5.2415   5.9671   6.9304   7.0579   7.6098   7.6439   7.6713   7.9476
    12.0044  12.2830  12.8015  12.9711  13.0303  13.0872  15.0000  16.5757

          k = 0.4286-0.4286-0.2500 (  7068 PWs)   bands (ev):

   -46.8724 -46.8724 -23.3389 -23.3389 -22.9829 -22.9829 -22.9455 -22.9455
   -19.4438 -19.4438  -8.2327  -8.2327  -8.1549  -8.1549  -7.7568  -7.7568
    -3.1451  -3.1451  -3.1117  -3.1117  -3.0230  -3.0230   2.9080   2.9080
     3.4602   3.4602   3.9083   3.9083   4.2858   4.2858   4.7572   4.7572
     4.8765   4.8765   7.3121   7.3121   7.5647   7.5647   7.6717   7.6717
    12.3517  12.3517  12.6396  12.6396  13.0072  13.0072  16.3386  16.3386

     the Fermi energy is     9.1543 ev

!    total energy              =   -1145.53107489 Ry
     total all-electron energy =    -18592.503805 Ry
     estimated scf accuracy    <          1.8E-10 Ry
     smearing contrib. (-TS)   =      -0.00000000 Ry
     internal energy E=F+TS    =   -1145.53107489 Ry

     The total energy is F=E-TS. E is the sum of the following terms:
     one-electron contribution =    -149.56193102 Ry
     hartree contribution      =     119.75156045 Ry
     xc contribution           =    -125.12167372 Ry
     ewald contribution        =    -405.68366278 Ry
     one-center paw contrib.   =    -584.91536782 Ry

     convergence has been achieved in  14 iterations

     Forces acting on atoms (cartesian axes, Ry/au):

     atom    1 type  1   force =     0.00000000    0.00000000    0.00000000
     atom    2 type  1   force =     0.00000000    0.00000000    0.00000000
     atom    3 type  2   force =     0.00002593    0.05652495    0.00000000
     atom    4 type  2   force =    -0.00002593   -0.05652495   -0.00000000
     atom    5 type  3   force =    -0.00000378   -0.00460290   -0.00000000
     atom    6 type  3   force =     0.00000378    0.00460290    0.00000000
     atom    7 type  3   force =    -0.00000503   -0.06600799   -0.00000000
     atom    8 type  3   force =     0.00000503    0.06600799    0.00000000
     atom    9 type  3   force =     0.00000000    0.00000000    0.00000000
     atom   10 type  3   force =     0.00000000    0.00000000    0.00000000

     Total force =     0.123072     Total SCF correction =     0.000010
     Message from routine punch:
     Nothing written, as per user request (disk_io='none')

     init_run     :     21.46s CPU     22.42s WALL (       1 calls)
     electrons    :    605.63s CPU    618.15s WALL (       1 calls)
     forces       :      7.92s CPU      8.30s WALL (       1 calls)

     Called by init_run:
     wfcinit      :      5.19s CPU      5.36s WALL (       1 calls)
     potinit      :      5.78s CPU      6.08s WALL (       1 calls)
     hinit0       :      2.80s CPU      2.87s WALL (       1 calls)

     Called by electrons:
     c_bands      :    468.69s CPU    470.57s WALL (      14 calls)
     sum_band     :     75.00s CPU     80.06s WALL (      14 calls)
     v_of_rho     :     10.59s CPU     11.43s WALL (      15 calls)
     newd         :     15.95s CPU     20.35s WALL (      15 calls)
     PAW_pot      :     33.71s CPU     34.45s WALL (      15 calls)
     mix_rho      :      1.36s CPU      1.36s WALL (      14 calls)

     Called by c_bands:
     init_us_2    :     12.85s CPU     12.88s WALL (     300 calls)
     cegterg      :    199.81s CPU    201.37s WALL (     140 calls)

     Called by *egterg:
     cdiaghg      :      3.06s CPU      3.08s WALL (     652 calls)
     h_psi        :    122.86s CPU    123.75s WALL (     662 calls)
     s_psi        :     16.01s CPU     16.04s WALL (     662 calls)
     g_psi        :      1.19s CPU      1.20s WALL (     512 calls)

     Called by h_psi:
     h_psi:calbec :     17.48s CPU     17.52s WALL (     662 calls)
     vloc_psi     :     86.10s CPU     86.56s WALL (     662 calls)
                                        0.00s GPU  (     662 calls)
     add_vuspsi   :     16.33s CPU     16.35s WALL (     662 calls)

     General routines
     calbec       :     25.03s CPU     25.07s WALL (     842 calls)
     fft          :      4.20s CPU      4.22s WALL (     204 calls)
     ffts         :      0.63s CPU      0.64s WALL (      29 calls)
     fftw         :     80.18s CPU     80.55s WALL (   41212 calls)
     interpolate  :      1.25s CPU      1.27s WALL (      15 calls)

     Parallel routines

     PWSCF        :  10m36.98s CPU  10m50.98s WALL


   This run was terminated on:   1:38:18   5Oct2026            

=------------------------------------------------------------------------------=
   JOB DONE.
=------------------------------------------------------------------------------=
