
     Program PWSCF v.7.5 starts on 27Sep2026 at 10: 0:33 

     This program is part of the open-source Quantum ESPRESSO suite
     for quantum simulation of materials; please cite
         "P. Giannozzi et al., J. Phys.:Condens. Matter 21 395502 (2009);
         "P. Giannozzi et al., J. Phys.:Condens. Matter 29 465901 (2017);
         "P. Giannozzi et al., J. Chem. Phys. 152 154105 (2020);
          URL http://www.quantum-espresso.org", 
     in publications or presentations arising from this work. More details at
     http://www.quantum-espresso.org/quote

     Parallel version (MPI & OpenMP), running on       8 processor cores
     Number of MPI processes:                 8
     Threads/MPI process:                     1

     MPI processes distributed on     1 nodes
     75374 MiB available memory on the printing compute node when the environment starts

     Reading input from pw.in

     Current dimensions of program PWSCF are:
     Max number of different atomic species (ntypx) = 10
     Max number of k-points (npk) =  40000
     Max angular momentum in pseudopotentials (lmaxx) =  4
     file O.pbe-n-kjpaw_psl.0.1.UPF: wavefunction(s)  2P renormalized
     Message from routine setup:
     using ibrav=0 with symmetry is DISCOURAGED, use correct ibrav instead

     K-points division:     npool     =       8
     Subspace diagonalization in iterative solution of the eigenvalue problem:
     a serial algorithm will be used


     G-vector sticks info
     --------------------
     sticks:   dense  smooth     PW     G-vecs:    dense   smooth      PW
     Sum        3067    1531    439               111811    39597    6183

     Using Slab Decomposition



     bravais-lattice index     =            0
     lattice parameter (alat)  =      10.5406  a.u.
     unit-cell volume          =     828.0973 (a.u.)^3
     number of atoms/cell      =           10
     number of atomic types    =            3
     number of electrons       =        80.00
     number of Kohn-Sham states=           48
     kinetic-energy cutoff     =      50.0000  Ry
     charge density cutoff     =     400.0000  Ry
     scf convergence threshold =      1.0E-09
     mixing beta               =       0.4000
     number of iterations used =            8  plain     mixing
     Exchange-correlation= SLA  PW   PBX  PBC
                           (   1   4   3   4   0   0   0)

     celldm(1)=  10.540603  celldm(2)=   0.000000  celldm(3)=   0.000000
     celldm(4)=   0.000000  celldm(5)=   0.000000  celldm(6)=   0.000000

     crystal axes: (cart. coord. in units of alat)
               a(1) = (  -0.707107  -0.707107  -0.000000 )  
               a(2) = (  -0.000000  -0.707107   0.707107 )  
               a(3) = (  -0.707107  -0.000000   0.707107 )  

     reciprocal axes: (cart. coord. in units 2 pi/alat)
               b(1) = ( -0.707107 -0.707107 -0.707107 )  
               b(2) = (  0.707107 -0.707107  0.707107 )  
               b(3) = ( -0.707107  0.707107  0.707107 )  


     PseudoPot. # 1 for Sr read from file:
     /root/sssp/upf/Sr_pbe_v1.uspp.F.UPF
     MD5 check sum: 6b418c05fbe9db5448babca5e47b7a5b
     Pseudo is Ultrasoft + core correction, Zval = 10.0
     Generated by new atomic code, or converted to UPF format
     Using radial grid of  883 points,  6 beta functions with: 
                l(1) =   0
                l(2) =   0
                l(3) =   1
                l(4) =   1
                l(5) =   2
                l(6) =   2
     Q(r) pseudized with  6 coefficients,  rinner =    1.400   1.400   1.400
                                                       1.400   1.400

     PseudoPot. # 2 for Ti read from file:
     /root/sssp/upf/ti_pbe_v1.4.uspp.F.UPF
     MD5 check sum: 88a00a6731bd790ddea75d31a80cb452
     Pseudo is Ultrasoft + core correction, Zval = 12.0
     Generated by new atomic code, or converted to UPF format
     Using radial grid of  851 points,  6 beta functions with: 
                l(1) =   0
                l(2) =   0
                l(3) =   1
                l(4) =   1
                l(5) =   2
                l(6) =   2
     Q(r) pseudized with  6 coefficients,  rinner =    1.000   1.000   1.000
                                                       1.000   1.000

     PseudoPot. # 3 for O  read from file:
     /root/sssp/upf/O.pbe-n-kjpaw_psl.0.1.UPF
     MD5 check sum: 0234752ac141de4415c5fc33072bef88
     Pseudo is Projector augmented-wave + core cor, Zval =  6.0
     Generated using "atomic" code by A. Dal Corso  v.5.0.99 svn rev. 10869
     Shape of augmentation charge: BESSEL
     Using radial grid of 1095 points,  4 beta functions with: 
                l(1) =   0
                l(2) =   0
                l(3) =   1
                l(4) =   1
     Q(r) pseudized with 0 coefficients 


     atomic species   valence    mass     pseudopotential
     Sr               10.00    87.62000     Sr( 1.00)
     Ti               12.00    47.86700     Ti( 1.00)
     O                 6.00    15.99900     O ( 1.00)

      2 Sym. Ops., with inversion, found ( 1 have fractional translation)



   Cartesian axes

     site n.     atom                  positions (alat units)
         1        Sr     tau(   1) = (  -0.0000000  -0.7071068   0.7071068  )
         2        Sr     tau(   2) = (  -0.7071068  -0.7071068   0.7071068  )
         3        Ti     tau(   3) = (  -0.3535534  -0.3535534   0.3535534  )
         4        Ti     tau(   4) = (  -1.0606602  -1.0606602   1.0606602  )
         5        O      tau(   5) = (  -0.7071068  -0.3694895   0.3541356  )
         6        O      tau(   6) = (  -0.7071068  -1.0447241   0.3529712  )
         7        O      tau(   7) = (  -0.3694894  -0.7071068   1.0614830  )
         8        O      tau(   8) = (  -1.0447241  -0.7071068   1.0598374  )
         9        O      tau(   9) = (  -0.3529711  -0.3543762   0.7071068  )
        10        O      tau(  10) = (  -0.3541356  -1.0598374   0.7071068  )

     number of k points=   112  Marzari-Vanderbilt smearing, width (Ry)=  0.0050

     Number of k-points >= 100: set verbosity='high' to print them.

     Dense  grid:   111811 G-vectors     FFT dimensions: (  72,  72,  72)

     Smooth grid:    39597 G-vectors     FFT dimensions: (  48,  48,  48)

     Estimated max dynamical RAM per process >     190.53 MB

     Estimated total dynamical RAM >       1.30 GB

     Check: negative core charge=   -0.000005

     Initial potential from superposition of free atoms

     starting charge      77.9326, renormalised to      80.0000

     negative rho (up, down):  1.328E-01 0.000E+00
     Starting wfcs are   70 randomized atomic wfcs
     Checking if some PAW data can be deallocated... 

     total cpu time spent up to now is        5.3 secs

     per-process dynamical memory:   148.2 Mb

     Self-consistent Calculation

     iteration #  1     ecut=    50.00 Ry     beta= 0.40
     Davidson diagonalization with overlap
     ethr =  1.00E-02,  avg # of iterations =  2.0

     negative rho (up, down):  1.319E-01 0.000E+00

     total cpu time spent up to now is       11.6 secs

     total energy              =    -629.67610296 Ry
     estimated scf accuracy    <       1.94086939 Ry

     iteration #  2     ecut=    50.00 Ry     beta= 0.40
     Davidson diagonalization with overlap
     ethr =  2.43E-03,  avg # of iterations =  4.0

     negative rho (up, down):  1.306E-01 0.000E+00

     total cpu time spent up to now is       18.7 secs

     total energy              =    -629.84168250 Ry
     estimated scf accuracy    <       2.00648465 Ry

     iteration #  3     ecut=    50.00 Ry     beta= 0.40
     Davidson diagonalization with overlap
     ethr =  2.43E-03,  avg # of iterations =  3.2

     negative rho (up, down):  1.321E-01 0.000E+00

     total cpu time spent up to now is       25.0 secs

     total energy              =    -630.23212548 Ry
     estimated scf accuracy    <       0.12764904 Ry

     iteration #  4     ecut=    50.00 Ry     beta= 0.40
     Davidson diagonalization with overlap
     ethr =  1.60E-04,  avg # of iterations =  2.2

     negative rho (up, down):  1.342E-01 0.000E+00

     total cpu time spent up to now is       31.1 secs

     total energy              =    -630.23357833 Ry
     estimated scf accuracy    <       0.02581022 Ry

     iteration #  5     ecut=    50.00 Ry     beta= 0.40
     Davidson diagonalization with overlap
     ethr =  3.23E-05,  avg # of iterations =  3.6

     negative rho (up, down):  1.346E-01 0.000E+00

     total cpu time spent up to now is       38.8 secs

     total energy              =    -630.23934674 Ry
     estimated scf accuracy    <       0.00481193 Ry

     iteration #  6     ecut=    50.00 Ry     beta= 0.40
     Davidson diagonalization with overlap
     ethr =  6.01E-06,  avg # of iterations =  4.7

     negative rho (up, down):  1.346E-01 0.000E+00

     total cpu time spent up to now is       46.0 secs

     total energy              =    -630.24053521 Ry
     estimated scf accuracy    <       0.00034704 Ry

     iteration #  7     ecut=    50.00 Ry     beta= 0.40
     Davidson diagonalization with overlap
     ethr =  4.34E-07,  avg # of iterations =  4.9

     negative rho (up, down):  1.346E-01 0.000E+00

     total cpu time spent up to now is       54.1 secs

     total energy              =    -630.24055214 Ry
     estimated scf accuracy    <       0.00033036 Ry

     iteration #  8     ecut=    50.00 Ry     beta= 0.40
     Davidson diagonalization with overlap
     ethr =  4.13E-07,  avg # of iterations =  1.7

     negative rho (up, down):  1.344E-01 0.000E+00

     total cpu time spent up to now is       60.0 secs

     total energy              =    -630.24053899 Ry
     estimated scf accuracy    <       0.00007167 Ry

     iteration #  9     ecut=    50.00 Ry     beta= 0.40
     Davidson diagonalization with overlap
     ethr =  8.96E-08,  avg # of iterations =  3.8

     negative rho (up, down):  1.343E-01 0.000E+00

     total cpu time spent up to now is       67.1 secs

     total energy              =    -630.24056822 Ry
     estimated scf accuracy    <       0.00003502 Ry

     iteration # 10     ecut=    50.00 Ry     beta= 0.40
     Davidson diagonalization with overlap
     ethr =  4.38E-08,  avg # of iterations =  1.0

     negative rho (up, down):  1.343E-01 0.000E+00

     total cpu time spent up to now is       72.7 secs

     total energy              =    -630.24056441 Ry
     estimated scf accuracy    <       0.00001584 Ry

     iteration # 11     ecut=    50.00 Ry     beta= 0.40
     Davidson diagonalization with overlap
     ethr =  1.98E-08,  avg # of iterations =  2.0

     negative rho (up, down):  1.343E-01 0.000E+00

     total cpu time spent up to now is       78.8 secs

     total energy              =    -630.24056653 Ry
     estimated scf accuracy    <       0.00000026 Ry

     iteration # 12     ecut=    50.00 Ry     beta= 0.40
     Davidson diagonalization with overlap
     ethr =  3.26E-10,  avg # of iterations =  4.2

     negative rho (up, down):  1.343E-01 0.000E+00

     total cpu time spent up to now is       87.0 secs

     total energy              =    -630.24056663 Ry
     estimated scf accuracy    <       0.00000009 Ry

     iteration # 13     ecut=    50.00 Ry     beta= 0.40
     Davidson diagonalization with overlap
     ethr =  1.14E-10,  avg # of iterations =  3.1

     negative rho (up, down):  1.343E-01 0.000E+00

     total cpu time spent up to now is       93.1 secs

     total energy              =    -630.24056664 Ry
     estimated scf accuracy    <          2.2E-09 Ry

     iteration # 14     ecut=    50.00 Ry     beta= 0.40
     Davidson diagonalization with overlap
     ethr =  2.75E-12,  avg # of iterations =  4.0

     negative rho (up, down):  1.343E-01 0.000E+00

     total cpu time spent up to now is      101.4 secs

     End of self-consistent calculation

     Number of k-points >= 100: set verbosity='high' to print the bands.

     the Fermi energy is    10.5256 ev

!    total energy              =    -630.24056664 Ry
     estimated scf accuracy    <          7.2E-10 Ry
     smearing contrib. (-TS)   =       0.00000000 Ry
     internal energy E=F+TS    =    -630.24056664 Ry

     The total energy is F=E-TS. E is the sum of the following terms:
     one-electron contribution =    -157.33048616 Ry
     hartree contribution      =     122.72274596 Ry
     xc contribution           =    -117.61504127 Ry
     ewald contribution        =    -420.93105626 Ry
     one-center paw contrib.   =     -57.08672891 Ry

     convergence has been achieved in  14 iterations

     negative rho (up, down):  1.343E-01 0.000E+00

     Forces acting on atoms (cartesian axes, Ry/au):

     atom    1 type  1   force =    -0.00001437    0.00001015    0.00000028
     atom    2 type  1   force =     0.00001437   -0.00001015   -0.00000028
     atom    3 type  2   force =     0.00000000    0.00000000    0.00000000
     atom    4 type  2   force =     0.00000000    0.00000000    0.00000000
     atom    5 type  3   force =     0.00000001   -0.00065133    0.00001938
     atom    6 type  3   force =    -0.00000001    0.00065133   -0.00001938
     atom    7 type  3   force =    -0.00065097   -0.00000003    0.00002738
     atom    8 type  3   force =     0.00065097    0.00000003   -0.00002738
     atom    9 type  3   force =     0.00002974   -0.00004204    0.00000000
     atom   10 type  3   force =    -0.00002974    0.00004204   -0.00000000

     Total force =     0.001305     Total SCF correction =     0.000005
     Message from routine punch:
     Nothing written, as per user request (disk_io='none')

     init_run     :      4.79s CPU      5.00s WALL (       1 calls)
     electrons    :     93.01s CPU     96.10s WALL (       1 calls)
     forces       :      1.11s CPU      1.23s WALL (       1 calls)

     Called by init_run:
     wfcinit      :      2.89s CPU      2.94s WALL (       1 calls)
     potinit      :      0.55s CPU      0.61s WALL (       1 calls)
     hinit0       :      1.18s CPU      1.20s WALL (       1 calls)

     Called by electrons:
     c_bands      :     75.19s CPU     75.72s WALL (      14 calls)
     sum_band     :     12.94s CPU     14.00s WALL (      14 calls)
     v_of_rho     :      2.58s CPU      3.12s WALL (      15 calls)
     newd         :      1.31s CPU      2.37s WALL (      15 calls)
     PAW_pot      :      0.76s CPU      0.76s WALL (      15 calls)
     mix_rho      :      0.17s CPU      0.17s WALL (      14 calls)

     Called by c_bands:
     init_us_2    :      2.07s CPU      2.08s WALL (     420 calls)
     cegterg      :     63.42s CPU     63.93s WALL (     196 calls)

     Called by *egterg:
     cdiaghg      :      1.79s CPU      1.80s WALL (     819 calls)
     h_psi        :     48.07s CPU     48.36s WALL (     833 calls)
     s_psi        :      3.93s CPU      3.94s WALL (     833 calls)
     g_psi        :      0.40s CPU      0.41s WALL (     623 calls)

     Called by h_psi:
     h_psi:calbec :      4.35s CPU      4.35s WALL (     833 calls)
     vloc_psi     :     39.67s CPU     39.84s WALL (     833 calls)
                                        0.00s GPU  (     833 calls)
     add_vuspsi   :      3.78s CPU      3.79s WALL (     833 calls)

     General routines
     calbec       :      6.41s CPU      6.41s WALL (    1085 calls)
     fft          :      1.25s CPU      1.26s WALL (     204 calls)
     ffts         :      0.32s CPU      0.32s WALL (      29 calls)
     fftw         :     42.26s CPU     42.43s WALL (   55714 calls)
     interpolate  :      0.39s CPU      0.39s WALL (      15 calls)

     Parallel routines

     PWSCF        :   1m39.20s CPU   1m42.67s WALL


   This run was terminated on:  10: 2:15  27Sep2026            

=------------------------------------------------------------------------------=
   JOB DONE.
=------------------------------------------------------------------------------=
