
     Program PWSCF v.7.5 starts on 27Sep2026 at  8:47: 4 

     This program is part of the open-source Quantum ESPRESSO suite
     for quantum simulation of materials; please cite
         "P. Giannozzi et al., J. Phys.:Condens. Matter 21 395502 (2009);
         "P. Giannozzi et al., J. Phys.:Condens. Matter 29 465901 (2017);
         "P. Giannozzi et al., J. Chem. Phys. 152 154105 (2020);
          URL http://www.quantum-espresso.org", 
     in publications or presentations arising from this work. More details at
     http://www.quantum-espresso.org/quote

     Parallel version (MPI & OpenMP), running on       8 processor cores
     Number of MPI processes:                 8
     Threads/MPI process:                     1

     MPI processes distributed on     1 nodes
     55018 MiB available memory on the printing compute node when the environment starts

     Reading input from pw.in

     Current dimensions of program PWSCF are:
     Max number of different atomic species (ntypx) = 10
     Max number of k-points (npk) =  40000
     Max angular momentum in pseudopotentials (lmaxx) =  4
     Message from routine setup:
     using ibrav=0 with symmetry is DISCOURAGED, use correct ibrav instead

     K-points division:     npool     =       8
     Subspace diagonalization in iterative solution of the eigenvalue problem:
     a serial algorithm will be used


     G-vector sticks info
     --------------------
     sticks:   dense  smooth     PW     G-vecs:    dense   smooth      PW
     Sum        8209    4093   1111               491057   173463   24357

     Using Slab Decomposition



     bravais-lattice index     =            0
     lattice parameter (alat)  =      15.7541  a.u.
     unit-cell volume          =    2764.7912 (a.u.)^3
     number of atoms/cell      =           10
     number of atomic types    =            3
     number of electrons       =        88.00
     number of Kohn-Sham states=           53
     kinetic-energy cutoff     =      60.0000  Ry
     charge density cutoff     =     480.0000  Ry
     scf convergence threshold =      1.0E-09
     mixing beta               =       0.4000
     number of iterations used =            8  plain     mixing
     Exchange-correlation=  SLA  PW   PBX  PBC
                           (   1   4   3   4   0   0   0)

     celldm(1)=  15.754058  celldm(2)=   0.000000  celldm(3)=   0.000000
     celldm(4)=   0.000000  celldm(5)=   0.000000  celldm(6)=   0.000000

     crystal axes: (cart. coord. in units of alat)
               a(1) = (  -0.707107  -0.707107  -0.000000 )  
               a(2) = (  -0.000000  -0.707107   0.707107 )  
               a(3) = (  -0.707107  -0.000000   0.707107 )  

     reciprocal axes: (cart. coord. in units 2 pi/alat)
               b(1) = ( -0.707107 -0.707107 -0.707107 )  
               b(2) = (  0.707107 -0.707107  0.707107 )  
               b(3) = ( -0.707107  0.707107  0.707107 )  


     PseudoPot. # 1 for Cs read from file:
     /root/sssp/upf/Cs_pbe_v1.uspp.F.UPF
     MD5 check sum: 3476d69cb178dfad3ffaa59df4e07ca4
     Pseudo is Ultrasoft + core correction, Zval =  9.0
     Generated by new atomic code, or converted to UPF format
     Using radial grid of  905 points,  6 beta functions with: 
                l(1) =   0
                l(2) =   0
                l(3) =   1
                l(4) =   1
                l(5) =   2
                l(6) =   2
     Q(r) pseudized with  6 coefficients,  rinner =    1.500   1.500   1.500
                                                       1.500   1.500

     PseudoPot. # 2 for Sn read from file:
     /root/sssp/upf/Sn_pbe_v1.uspp.F.UPF
     MD5 check sum: 4cf58ce39ec5d5d420df3dd08604eb00
     Pseudo is Ultrasoft + core correction, Zval = 14.0
     Generated by new atomic code, or converted to UPF format
     Using radial grid of  891 points,  6 beta functions with: 
                l(1) =   0
                l(2) =   0
                l(3) =   1
                l(4) =   1
                l(5) =   2
                l(6) =   2
     Q(r) pseudized with  6 coefficients,  rinner =    1.200   1.200   1.200
                                                       1.200   1.200

     PseudoPot. # 3 for Br read from file:
     /root/sssp/upf/br_pbe_v1.4.uspp.F.UPF
     MD5 check sum: d3ffb7b29f6225aa16fe06858fb2a80b
     Pseudo is Ultrasoft + core correction, Zval =  7.0
     Generated by new atomic code, or converted to UPF format
     Using radial grid of  879 points,  6 beta functions with: 
                l(1) =   0
                l(2) =   0
                l(3) =   1
                l(4) =   1
                l(5) =   2
                l(6) =   2
     Q(r) pseudized with  8 coefficients,  rinner =    1.100   1.100   1.100
                                                       1.100   1.100

     atomic species   valence    mass     pseudopotential
     Cs                9.00   132.90550     Cs( 1.00)
     Sn               14.00   118.71000     Sn( 1.00)
     Br                7.00    79.90400     Br( 1.00)

      2 Sym. Ops., with inversion, found ( 1 have fractional translation)



   Cartesian axes

     site n.     atom                  positions (alat units)
         1        Cs     tau(   1) = (  -0.7071068  -0.7071068   0.7071068  )
         2        Cs     tau(   2) = (  -1.4142136  -1.4142136   1.4142136  )
         3        Sn     tau(   3) = (  -0.3535534  -0.3535534   0.3535534  )
         4        Sn     tau(   4) = (  -1.0606602  -1.0606602   1.0606602  )
         5        Br     tau(   5) = (  -0.7071068  -1.0440002   0.3533913  )
         6        Br     tau(   6) = (  -0.7071068  -0.3702133   0.3537155  )
         7        Br     tau(   7) = (  -1.0440002  -0.7071068   1.0607999  )
         8        Br     tau(   8) = (  -0.3702133  -0.7071068   1.0605204  )
         9        Br     tau(   9) = (  -0.3537155  -1.0607999   0.7071068  )
        10        Br     tau(  10) = (  -1.0604981  -1.0605204   0.7071068  )

     number of k points=    36  Marzari-Vanderbilt smearing, width (Ry)=  0.0050
                       cart. coord. in units 2pi/alat
        k(    1) = (   0.0000000   0.0000000   0.0000000), wk =   0.0312500
        k(    2) = (  -0.1767767   0.1767767   0.1767767), wk =   0.0625000
        k(    3) = (   0.3535534  -0.3535534  -0.3535534), wk =   0.0312500
        k(    4) = (  -0.0000000  -0.0000000   0.3535534), wk =   0.0625000
        k(    5) = (   0.5303301  -0.5303301  -0.1767767), wk =   0.0625000
        k(    6) = (   0.3535534  -0.3535534  -0.0000000), wk =   0.0625000
        k(    7) = (   0.0000000   0.0000000  -0.7071068), wk =   0.0312500
        k(    8) = (  -0.3535534   0.0000000  -0.7071068), wk =   0.0625000
        k(    9) = (   0.1767767   0.1767767  -0.1767767), wk =   0.0625000
        k(   10) = (  -0.1767767  -0.1767767  -0.1767767), wk =   0.0625000
        k(   11) = (  -0.1767767   0.1767767  -0.1767767), wk =   0.0625000
        k(   12) = (  -0.3535534  -0.3535534   0.3535534), wk =   0.0312500
        k(   13) = (   0.3535534   0.3535534   0.3535534), wk =   0.0312500
        k(   14) = (   0.3535534  -0.3535534   0.3535534), wk =   0.0312500
        k(   15) = (   0.3535534  -0.0000000  -0.0000000), wk =   0.0625000
        k(   16) = (  -0.0000000   0.3535534  -0.0000000), wk =   0.0625000
        k(   17) = (  -0.5303301  -0.5303301   0.1767767), wk =   0.0625000
        k(   18) = (   0.5303301   0.5303301   0.1767767), wk =   0.0625000
        k(   19) = (   0.5303301  -0.5303301   0.1767767), wk =   0.0625000
        k(   20) = (  -0.1767767   0.5303301   0.5303301), wk =   0.0625000
        k(   21) = (   0.1767767   0.5303301  -0.5303301), wk =   0.0625000
        k(   22) = (  -0.1767767  -0.5303301  -0.5303301), wk =   0.0625000
        k(   23) = (   0.1767767  -0.5303301   0.5303301), wk =   0.0625000
        k(   24) = (  -0.5303301  -0.1767767  -0.5303301), wk =   0.0625000
        k(   25) = (  -0.5303301   0.1767767   0.5303301), wk =   0.0625000
        k(   26) = (   0.5303301  -0.1767767   0.5303301), wk =   0.0625000
        k(   27) = (   0.5303301   0.1767767  -0.5303301), wk =   0.0625000
        k(   28) = (  -0.3535534  -0.3535534   0.0000000), wk =   0.0625000
        k(   29) = (  -0.0000000   0.3535534   0.3535534), wk =   0.0625000
        k(   30) = (  -0.0000000   0.3535534  -0.3535534), wk =   0.0625000
        k(   31) = (  -0.3535534   0.0000000  -0.3535534), wk =   0.0625000
        k(   32) = (  -0.3535534   0.0000000   0.3535534), wk =   0.0625000
        k(   33) = (  -0.7071068   0.0000000   0.0000000), wk =   0.0312500
        k(   34) = (   0.0000000  -0.7071068   0.0000000), wk =   0.0312500
        k(   35) = (  -0.0000000  -0.3535534   0.7071068), wk =   0.0625000
        k(   36) = (  -0.7071068   0.0000000  -0.3535534), wk =   0.0625000

     Dense  grid:   491057 G-vectors     FFT dimensions: ( 120, 120, 120)

     Smooth grid:   173463 G-vectors     FFT dimensions: (  80,  80,  80)

     Estimated max dynamical RAM per process >     713.51 MB

     Estimated total dynamical RAM >       4.75 GB

     Initial potential from superposition of free atoms

     starting charge      85.9210, renormalised to      88.0000
     Starting wfcs are   68 randomized atomic wfcs

     total cpu time spent up to now is       16.5 secs

     per-process dynamical memory:   428.0 Mb

     Self-consistent Calculation

     iteration #  1     ecut=    60.00 Ry     beta= 0.40
     Davidson diagonalization with overlap
     ethr =  1.00E-02,  avg # of iterations =  2.7

     Threshold (ethr) on eigenvalues was too large:
     Diagonalizing with lowered threshold

     Davidson diagonalization with overlap
     ethr =  4.84E-04,  avg # of iterations =  2.9

     total cpu time spent up to now is       60.6 secs

     total energy              =    -734.55933228 Ry
     estimated scf accuracy    <       0.40914057 Ry

     iteration #  2     ecut=    60.00 Ry     beta= 0.40
     Davidson diagonalization with overlap
     ethr =  4.65E-04,  avg # of iterations =  2.0

     total cpu time spent up to now is       85.0 secs

     total energy              =    -734.60589518 Ry
     estimated scf accuracy    <       0.03728172 Ry

     iteration #  3     ecut=    60.00 Ry     beta= 0.40
     Davidson diagonalization with overlap
     ethr =  4.24E-05,  avg # of iterations =  6.1

     total cpu time spent up to now is      115.2 secs

     total energy              =    -734.60949458 Ry
     estimated scf accuracy    <       0.00565823 Ry

     iteration #  4     ecut=    60.00 Ry     beta= 0.40
     Davidson diagonalization with overlap
     ethr =  6.43E-06,  avg # of iterations =  7.2

     total cpu time spent up to now is      142.2 secs

     total energy              =    -734.61007783 Ry
     estimated scf accuracy    <       0.00047860 Ry

     iteration #  5     ecut=    60.00 Ry     beta= 0.40
     Davidson diagonalization with overlap
     c_bands:  3 eigenvalues not converged
     ethr =  5.44E-07,  avg # of iterations = 10.7

     total cpu time spent up to now is      174.4 secs

     total energy              =    -734.61015156 Ry
     estimated scf accuracy    <       0.00001284 Ry

     iteration #  6     ecut=    60.00 Ry     beta= 0.40
     Davidson diagonalization with overlap
     ethr =  1.46E-08,  avg # of iterations =  5.4

     total cpu time spent up to now is      206.2 secs

     total energy              =    -734.61016499 Ry
     estimated scf accuracy    <       0.00000118 Ry

     iteration #  7     ecut=    60.00 Ry     beta= 0.40
     Davidson diagonalization with overlap
     ethr =  1.35E-09,  avg # of iterations =  3.6

     total cpu time spent up to now is      236.4 secs

     total energy              =    -734.61016746 Ry
     estimated scf accuracy    <       0.00000026 Ry

     iteration #  8     ecut=    60.00 Ry     beta= 0.40
     Davidson diagonalization with overlap
     ethr =  2.92E-10,  avg # of iterations =  2.8

     total cpu time spent up to now is      265.5 secs

     total energy              =    -734.61016822 Ry
     estimated scf accuracy    <       0.00000004 Ry

     iteration #  9     ecut=    60.00 Ry     beta= 0.40
     Davidson diagonalization with overlap
     ethr =  4.00E-11,  avg # of iterations =  2.7

     total cpu time spent up to now is      289.6 secs

     total energy              =    -734.61016845 Ry
     estimated scf accuracy    <       0.00000001 Ry

     iteration # 10     ecut=    60.00 Ry     beta= 0.40
     Davidson diagonalization with overlap
     ethr =  1.32E-11,  avg # of iterations =  3.2

     total cpu time spent up to now is      316.3 secs

     End of self-consistent calculation

          k = 0.0000 0.0000 0.0000 ( 21595 PWs)   bands (ev):

   -17.9891 -17.9891 -17.9828 -17.9818 -17.9817 -17.9802 -17.9690 -17.9688
   -17.9688 -17.9687 -17.9684 -17.9684 -11.2388 -10.9306 -10.9254 -10.9254
   -10.7653 -10.7636  -4.8084  -4.8084  -4.8059  -4.7749  -4.7749  -4.7744
    -4.3784  -2.0563  -0.8269  -0.8167  -0.8167   0.6094   0.6094   0.6130
     1.0233   1.0235   1.3339   1.3339   1.3352   1.4534   1.4549   1.4549
     1.8025   1.8033   1.8033   4.0841   4.7558   4.7597   4.7597   6.5369
     7.6248   7.6451   8.0361   8.2739   8.2758

          k =-0.1768 0.1768 0.1768 ( 21719 PWs)   bands (ev):

   -17.9881 -17.9881 -17.9829 -17.9828 -17.9824 -17.9808 -17.9689 -17.9687
   -17.9687 -17.9685 -17.9685 -17.9685 -11.1980 -10.9783 -10.9060 -10.9027
   -10.7904 -10.7884  -4.7992  -4.7978  -4.7869  -4.7751  -4.7746  -4.7640
    -4.1622  -2.7093  -0.6252  -0.6197  -0.1337   0.5727   0.5968   0.5999
     0.7442   0.7463   1.2085   1.2124   1.3832   1.3963   1.4617   1.4629
     1.6787   1.6831   1.7319   3.0035   5.4114   5.4158   5.8191   6.9496
     7.8672   7.8823   8.2038   8.2110   8.2205

          k = 0.3536-0.3536-0.3536 ( 21668 PWs)   bands (ev):

   -17.9855 -17.9855 -17.9854 -17.9854 -17.9816 -17.9816 -17.9688 -17.9688
   -17.9686 -17.9686 -17.9684 -17.9684 -11.0933 -11.0933 -10.8494 -10.8494
   -10.8465 -10.8465  -4.7838  -4.7838  -4.7807  -4.7807  -4.7597  -4.7597
    -3.5628  -3.5628  -0.0805  -0.0805  -0.0695  -0.0695   0.4748   0.4748
     0.9296   0.9296   0.9359   0.9359   1.5210   1.5210   1.5415   1.5416
     1.5492   1.5492   1.8315   1.8315   6.7530   6.7530   6.7936   6.7936
     7.0405   7.0405   7.9559   7.9559   8.5378

          k =-0.0000-0.0000 0.3536 ( 21755 PWs)   bands (ev):

   -17.9892 -17.9867 -17.9842 -17.9823 -17.9818 -17.9809 -17.9687 -17.9687
   -17.9687 -17.9686 -17.9685 -17.9685 -11.1855 -10.9344 -10.9274 -10.9274
   -10.8316 -10.7626  -4.7968  -4.7968  -4.7801  -4.7694  -4.7694  -4.7687
    -4.1122  -2.7108  -0.7726  -0.7726   0.2016   0.2207   0.5180   0.7265
     0.7265   1.0205   1.2566   1.2566   1.2757   1.3943   1.3943   1.5251
     1.5470   1.5470   1.8085   3.3486   5.0118   5.0118   6.5846   7.0603
     7.3814   8.0080   8.0354   8.4508   8.4508

          k = 0.5303-0.5303-0.1768 ( 21709 PWs)   bands (ev):

   -17.9881 -17.9863 -17.9846 -17.9829 -17.9818 -17.9815 -17.9687 -17.9687
   -17.9686 -17.9686 -17.9684 -17.9684 -11.1071 -11.0282 -10.9054 -10.8962
   -10.8599 -10.7867  -4.7861  -4.7806  -4.7723  -4.7712  -4.7612  -4.7606
    -3.7280  -3.2607  -0.5485  -0.4075  -0.3930   0.5022   0.5295   0.5832
     0.8758   0.9890   1.0039   1.1741   1.3139   1.3262   1.3966   1.4148
     1.4457   1.6885   2.0201   2.5717   5.7219   5.9063   6.0815   7.6437
     7.7415   7.8774   8.0727   8.4079   8.5654

          k = 0.3536-0.3536-0.0000 ( 21693 PWs)   bands (ev):

   -17.9879 -17.9855 -17.9855 -17.9830 -17.9819 -17.9813 -17.9689 -17.9687
   -17.9687 -17.9685 -17.9685 -17.9683 -11.1367 -11.0134 -10.9334 -10.8482
   -10.8451 -10.8017  -4.7862  -4.7842  -4.7791  -4.7706  -4.7649  -4.7635
    -3.8451  -3.1682  -0.7291  -0.1326  -0.0049   0.2972   0.4068   0.5610
     0.7640   0.9706   1.0060   1.2127   1.2970   1.3347   1.4741   1.5217
     1.5538   1.6391   1.7189   2.6702   5.2383   6.5919   6.8496   6.9959
     7.1174   7.6711   8.3140   8.3141   8.3246

          k = 0.0000 0.0000-0.7071 ( 21732 PWs)   bands (ev):

   -17.9892 -17.9867 -17.9842 -17.9818 -17.9818 -17.9816 -17.9687 -17.9686
   -17.9686 -17.9686 -17.9686 -17.9683 -11.0963 -10.9382 -10.9337 -10.9294
   -10.9294 -10.7615  -4.7850  -4.7850  -4.7641  -4.7641  -4.7634  -4.7539
    -3.7667  -3.0647  -0.7251  -0.7251  -0.5954   0.4257   0.6965   1.0176
     1.0385   1.0385   1.0940   1.0940   1.1749   1.1749   1.2180   1.3566
     1.3566   1.7831   2.2433   3.1722   5.2537   5.2537   5.6812   7.9306
     8.0881   8.4564   8.4564   8.5859   8.6007

          k =-0.3536 0.0000-0.7071 ( 21692 PWs)   bands (ev):

   -17.9877 -17.9876 -17.9834 -17.9833 -17.9817 -17.9817 -17.9688 -17.9686
   -17.9686 -17.9686 -17.9685 -17.9683 -11.0517 -11.0488 -10.9342 -10.9291
   -10.8132 -10.8115  -4.7751  -4.7748  -4.7747  -4.7730  -4.7596  -4.7584
    -3.4838  -3.4741  -0.6697  -0.6582   0.1106   0.1132   0.5504   0.5533
     1.0245   1.0293   1.1306   1.1359   1.2298   1.2356   1.2924   1.2966
     1.5844   1.5892   2.4756   2.4914   5.4650   5.4664   6.9438   6.9439
     8.2069   8.2307   8.3745   8.3929   8.6794

          k = 0.1768 0.1768-0.1768 ( 21719 PWs)   bands (ev):

   -17.9881 -17.9881 -17.9829 -17.9828 -17.9824 -17.9808 -17.9689 -17.9687
   -17.9687 -17.9685 -17.9685 -17.9685 -11.1981 -10.9783 -10.9060 -10.9027
   -10.7904 -10.7884  -4.7992  -4.7978  -4.7869  -4.7751  -4.7746  -4.7640
    -4.1622  -2.7093  -0.6251  -0.6197  -0.1337   0.5727   0.5968   0.5998
     0.7442   0.7463   1.2084   1.2124   1.3832   1.3965   1.4618   1.4628
     1.6787   1.6832   1.7317   3.0034   5.4114   5.4158   5.8191   6.9496
     7.8670   7.8823   8.2037   8.2110   8.2205

          k =-0.1768-0.1768-0.1768 ( 21719 PWs)   bands (ev):

   -17.9881 -17.9881 -17.9829 -17.9828 -17.9824 -17.9808 -17.9689 -17.9687
   -17.9687 -17.9685 -17.9685 -17.9685 -11.1981 -10.9783 -10.9060 -10.9027
   -10.7904 -10.7884  -4.7992  -4.7978  -4.7869  -4.7751  -4.7746  -4.7640
    -4.1622  -2.7093  -0.6251  -0.6197  -0.1337   0.5727   0.5968   0.5998
     0.7442   0.7463   1.2084   1.2124   1.3832   1.3965   1.4618   1.4628
     1.6787   1.6832   1.7317   3.0035   5.4114   5.4158   5.8191   6.9496
     7.8670   7.8823   8.2037   8.2110   8.2205

          k =-0.1768 0.1768-0.1768 ( 21719 PWs)   bands (ev):

   -17.9881 -17.9881 -17.9829 -17.9828 -17.9824 -17.9808 -17.9689 -17.9687
   -17.9687 -17.9685 -17.9685 -17.9685 -11.1981 -10.9783 -10.9059 -10.9027
   -10.7904 -10.7884  -4.7992  -4.7978  -4.7869  -4.7751  -4.7746  -4.7640
    -4.1622  -2.7093  -0.6251  -0.6197  -0.1337   0.5727   0.5968   0.5998
     0.7442   0.7463   1.2083   1.2124   1.3832   1.3967   1.4618   1.4628
     1.6788   1.6834   1.7316   3.0034   5.4114   5.4158   5.8190   6.9496
     7.8669   7.8823   8.2037   8.2109   8.2206

          k =-0.3536-0.3536 0.3536 ( 21668 PWs)   bands (ev):

   -17.9855 -17.9855 -17.9854 -17.9854 -17.9816 -17.9816 -17.9688 -17.9688
   -17.9686 -17.9686 -17.9684 -17.9684 -11.0933 -11.0933 -10.8494 -10.8494
   -10.8465 -10.8465  -4.7838  -4.7838  -4.7807  -4.7807  -4.7597  -4.7597
    -3.5628  -3.5628  -0.0805  -0.0805  -0.0695  -0.0695   0.4748   0.4748
     0.9296   0.9296   0.9359   0.9359   1.5209   1.5212   1.5414   1.5419
     1.5494   1.5496   1.8311   1.8312   6.7527   6.7528   6.7937   6.7938
     7.0405   7.0405   7.9558   7.9558   8.5394

          k = 0.3536 0.3536 0.3536 ( 21668 PWs)   bands (ev):

   -17.9855 -17.9855 -17.9854 -17.9854 -17.9816 -17.9816 -17.9688 -17.9688
   -17.9686 -17.9686 -17.9684 -17.9684 -11.0933 -11.0933 -10.8494 -10.8494
   -10.8465 -10.8465  -4.7838  -4.7838  -4.7807  -4.7807  -4.7597  -4.7597
    -3.5628  -3.5628  -0.0805  -0.0805  -0.0695  -0.0695   0.4748   0.4748
     0.9296   0.9296   0.9359   0.9359   1.5209   1.5212   1.5414   1.5419
     1.5494   1.5496   1.8312   1.8312   6.7528   6.7529   6.7936   6.7938
     7.0405   7.0405   7.9558   7.9558   8.5435

          k = 0.3536-0.3536 0.3536 ( 21668 PWs)   bands (ev):

   -17.9855 -17.9855 -17.9854 -17.9854 -17.9816 -17.9816 -17.9688 -17.9688
   -17.9686 -17.9686 -17.9684 -17.9684 -11.0933 -11.0933 -10.8494 -10.8494
   -10.8465 -10.8465  -4.7838  -4.7838  -4.7807  -4.7807  -4.7597  -4.7597
    -3.5628  -3.5628  -0.0806  -0.0806  -0.0694  -0.0694   0.4747   0.4747
     0.9296   0.9296   0.9359   0.9359   1.5210   1.5210   1.5418   1.5418
     1.5498   1.5498   1.8308   1.8308   6.7526   6.7526   6.7938   6.7938
     7.0406   7.0406   7.9556   7.9557   8.5415

          k = 0.3536-0.0000-0.0000 ( 21755 PWs)   bands (ev):

   -17.9891 -17.9867 -17.9842 -17.9823 -17.9817 -17.9809 -17.9689 -17.9688
   -17.9687 -17.9685 -17.9684 -17.9684 -11.1860 -10.9327 -10.9292 -10.9276
   -10.8294 -10.7639  -4.7969  -4.7946  -4.7820  -4.7698  -4.7693  -4.7686
    -4.1154  -2.7025  -0.7832  -0.7723   0.2044   0.2180   0.5151   0.7272
     0.7316   1.0195   1.2613   1.2659   1.2682   1.3934   1.3946   1.4964
     1.5423   1.5875   1.7988   3.3562   5.0081   5.0094   6.5694   7.0591
     7.3711   7.9967   8.0727   8.4255   8.4471

          k =-0.0000 0.3536-0.0000 ( 21755 PWs)   bands (ev):

   -17.9891 -17.9867 -17.9842 -17.9823 -17.9817 -17.9809 -17.9689 -17.9688
   -17.9687 -17.9685 -17.9684 -17.9684 -11.1860 -10.9327 -10.9292 -10.9276
   -10.8294 -10.7639  -4.7969  -4.7946  -4.7820  -4.7698  -4.7693  -4.7686
    -4.1154  -2.7025  -0.7832  -0.7723   0.2044   0.2180   0.5151   0.7272
     0.7316   1.0195   1.2613   1.2659   1.2682   1.3934   1.3946   1.4964
     1.5423   1.5875   1.7988   3.3562   5.0081   5.0094   6.5694   7.0591
     7.3711   7.9967   8.0727   8.4254   8.4471

          k =-0.5303-0.5303 0.1768 ( 21709 PWs)   bands (ev):

   -17.9881 -17.9863 -17.9846 -17.9829 -17.9818 -17.9815 -17.9687 -17.9687
   -17.9686 -17.9686 -17.9684 -17.9684 -11.1071 -11.0282 -10.9054 -10.8962
   -10.8599 -10.7867  -4.7861  -4.7806  -4.7723  -4.7712  -4.7612  -4.7606
    -3.7280  -3.2608  -0.5485  -0.4075  -0.3930   0.5022   0.5295   0.5832
     0.8758   0.9890   1.0039   1.1740   1.3141   1.3263   1.3966   1.4148
     1.4457   1.6886   2.0200   2.5716   5.7219   5.9063   6.0815   7.6437
     7.7416   7.8774   8.0726   8.4076   8.5654

          k = 0.5303 0.5303 0.1768 ( 21709 PWs)   bands (ev):

   -17.9881 -17.9863 -17.9846 -17.9829 -17.9818 -17.9815 -17.9687 -17.9687
   -17.9686 -17.9686 -17.9684 -17.9684 -11.1071 -11.0282 -10.9054 -10.8962
   -10.8599 -10.7867  -4.7861  -4.7806  -4.7723  -4.7712  -4.7612  -4.7606
    -3.7280  -3.2608  -0.5485  -0.4075  -0.3930   0.5022   0.5295   0.5832
     0.8758   0.9890   1.0039   1.1740   1.3141   1.3263   1.3966   1.4148
     1.4457   1.6886   2.0200   2.5716   5.7219   5.9063   6.0815   7.6437
     7.7416   7.8774   8.0726   8.4076   8.5651

          k = 0.5303-0.5303 0.1768 ( 21709 PWs)   bands (ev):

   -17.9881 -17.9863 -17.9846 -17.9829 -17.9818 -17.9815 -17.9687 -17.9687
   -17.9686 -17.9686 -17.9684 -17.9684 -11.1071 -11.0282 -10.9054 -10.8962
   -10.8599 -10.7867  -4.7861  -4.7806  -4.7723  -4.7712  -4.7612  -4.7606
    -3.7280  -3.2608  -0.5485  -0.4075  -0.3930   0.5021   0.5295   0.5832
     0.8757   0.9890   1.0039   1.1740   1.3142   1.3264   1.3966   1.4148
     1.4457   1.6887   2.0199   2.5716   5.7219   5.9063   6.0814   7.6437
     7.7416   7.8775   8.0726   8.4073   8.5654

          k =-0.1768 0.5303 0.5303 ( 21709 PWs)   bands (ev):

   -17.9881 -17.9863 -17.9846 -17.9829 -17.9818 -17.9815 -17.9689 -17.9688
   -17.9686 -17.9685 -17.9685 -17.9682 -11.1086 -11.0273 -10.9080 -10.8928
   -10.8585 -10.7882  -4.7855  -4.7799  -4.7736  -4.7705  -4.7623  -4.7602
    -3.7343  -3.2539  -0.5528  -0.4034  -0.3900   0.4987   0.5299   0.5803
     0.8776   0.9934   1.0074   1.1715   1.3157   1.3291   1.3929   1.4051
     1.4482   1.7034   2.0007   2.5759   5.7231   5.9055   6.0785   7.6227
     7.7488   7.8898   8.0850   8.4124   8.4941

          k = 0.1768 0.5303-0.5303 ( 21709 PWs)   bands (ev):

   -17.9881 -17.9863 -17.9846 -17.9829 -17.9818 -17.9815 -17.9689 -17.9688
   -17.9686 -17.9685 -17.9685 -17.9682 -11.1086 -11.0273 -10.9080 -10.8928
   -10.8585 -10.7882  -4.7855  -4.7799  -4.7736  -4.7705  -4.7623  -4.7602
    -3.7343  -3.2539  -0.5527  -0.4035  -0.3899   0.4987   0.5298   0.5802
     0.8777   0.9933   1.0074   1.1714   1.3157   1.3293   1.3929   1.4051
     1.4483   1.7035   2.0007   2.5758   5.7231   5.9053   6.0785   7.6227
     7.7488   7.8896   8.0850   8.4125   8.5765

          k =-0.1768-0.5303-0.5303 ( 21709 PWs)   bands (ev):

   -17.9881 -17.9863 -17.9846 -17.9829 -17.9818 -17.9815 -17.9689 -17.9688
   -17.9686 -17.9685 -17.9685 -17.9682 -11.1086 -11.0273 -10.9080 -10.8928
   -10.8585 -10.7882  -4.7855  -4.7799  -4.7736  -4.7705  -4.7623  -4.7602
    -3.7343  -3.2539  -0.5528  -0.4034  -0.3900   0.4986   0.5299   0.5803
     0.8776   0.9933   1.0074   1.1715   1.3158   1.3292   1.3929   1.4051
     1.4482   1.7035   2.0007   2.5758   5.7231   5.9054   6.0785   7.6226
     7.7488   7.8899   8.0850   8.4121   8.4941

          k = 0.1768-0.5303 0.5303 ( 21709 PWs)   bands (ev):

   -17.9881 -17.9863 -17.9846 -17.9829 -17.9818 -17.9815 -17.9689 -17.9688
   -17.9686 -17.9685 -17.9685 -17.9682 -11.1086 -11.0274 -10.9080 -10.8928
   -10.8585 -10.7882  -4.7855  -4.7799  -4.7736  -4.7705  -4.7623  -4.7602
    -3.7343  -3.2539  -0.5527  -0.4035  -0.3899   0.4986   0.5298   0.5802
     0.8777   0.9933   1.0074   1.1714   1.3158   1.3294   1.3929   1.4051
     1.4483   1.7035   2.0006   2.5757   5.7231   5.9053   6.0785   7.6226
     7.7488   7.8896   8.0849   8.4122   8.4941

          k =-0.5303-0.1768-0.5303 ( 21709 PWs)   bands (ev):

   -17.9881 -17.9863 -17.9846 -17.9829 -17.9818 -17.9815 -17.9689 -17.9688
   -17.9686 -17.9685 -17.9685 -17.9682 -11.1086 -11.0273 -10.9080 -10.8928
   -10.8585 -10.7882  -4.7855  -4.7799  -4.7736  -4.7705  -4.7623  -4.7602
    -3.7343  -3.2539  -0.5527  -0.4035  -0.3899   0.4987   0.5298   0.5802
     0.8777   0.9933   1.0074   1.1714   1.3156   1.3292   1.3929   1.4051
     1.4483   1.7035   2.0007   2.5758   5.7231   5.9053   6.0785   7.6227
     7.7489   7.8896   8.0850   8.4129   8.5765

          k =-0.5303 0.1768 0.5303 ( 21709 PWs)   bands (ev):

   -17.9881 -17.9863 -17.9846 -17.9829 -17.9818 -17.9815 -17.9689 -17.9688
   -17.9686 -17.9685 -17.9685 -17.9682 -11.1086 -11.0273 -10.9080 -10.8928
   -10.8585 -10.7882  -4.7855  -4.7799  -4.7736  -4.7705  -4.7623  -4.7602
    -3.7342  -3.2539  -0.5528  -0.4034  -0.3900   0.4987   0.5299   0.5803
     0.8776   0.9934   1.0074   1.1715   1.3157   1.3291   1.3929   1.4051
     1.4482   1.7034   2.0007   2.5758   5.7231   5.9055   6.0785   7.6227
     7.7488   7.8898   8.0850   8.4124   8.4941

          k = 0.5303-0.1768 0.5303 ( 21709 PWs)   bands (ev):

   -17.9881 -17.9863 -17.9846 -17.9829 -17.9818 -17.9815 -17.9689 -17.9688
   -17.9686 -17.9685 -17.9685 -17.9682 -11.1086 -11.0274 -10.9080 -10.8928
   -10.8585 -10.7882  -4.7855  -4.7799  -4.7736  -4.7705  -4.7623  -4.7602
    -3.7343  -3.2539  -0.5527  -0.4035  -0.3899   0.4986   0.5298   0.5802
     0.8777   0.9933   1.0074   1.1714   1.3158   1.3294   1.3929   1.4051
     1.4483   1.7035   2.0006   2.5757   5.7231   5.9053   6.0785   7.6226
     7.7488   7.8896   8.0849   8.4120   8.4941

          k = 0.5303 0.1768-0.5303 ( 21709 PWs)   bands (ev):

   -17.9881 -17.9863 -17.9846 -17.9829 -17.9818 -17.9815 -17.9689 -17.9688
   -17.9686 -17.9685 -17.9685 -17.9682 -11.1086 -11.0273 -10.9080 -10.8928
   -10.8585 -10.7882  -4.7855  -4.7799  -4.7736  -4.7705  -4.7623  -4.7602
    -3.7343  -3.2539  -0.5528  -0.4034  -0.3900   0.4986   0.5299   0.5803
     0.8776   0.9933   1.0074   1.1714   1.3158   1.3292   1.3929   1.4051
     1.4482   1.7035   2.0007   2.5758   5.7231   5.9054   6.0785   7.6226
     7.7488   7.8899   8.0850   8.4123   8.4941

          k =-0.3536-0.3536 0.0000 ( 21693 PWs)   bands (ev):

   -17.9879 -17.9855 -17.9855 -17.9830 -17.9819 -17.9813 -17.9689 -17.9687
   -17.9687 -17.9685 -17.9685 -17.9683 -11.1367 -11.0134 -10.9334 -10.8482
   -10.8451 -10.8017  -4.7862  -4.7842  -4.7791  -4.7706  -4.7649  -4.7635
    -3.8451  -3.1682  -0.7291  -0.1326  -0.0049   0.2972   0.4068   0.5610
     0.7640   0.9706   1.0060   1.2127   1.2970   1.3347   1.4741   1.5217
     1.5538   1.6391   1.7189   2.6702   5.2383   6.5919   6.8496   6.9959
     7.1174   7.6711   8.3140   8.3141   8.3247

          k =-0.0000 0.3536 0.3536 ( 21693 PWs)   bands (ev):

   -17.9879 -17.9855 -17.9854 -17.9830 -17.9820 -17.9813 -17.9689 -17.9688
   -17.9686 -17.9685 -17.9684 -17.9684 -11.1363 -11.0163 -10.9283 -10.8503
   -10.8471 -10.8003  -4.7862  -4.7855  -4.7786  -4.7696  -4.7643  -4.7643
    -3.8418  -3.1750  -0.7178  -0.1336  -0.0057   0.2956   0.4056   0.5615
     0.7676   0.9644   1.0045   1.2170   1.3001   1.3312   1.4682   1.5294
     1.5577   1.6152   1.7388   2.6558   5.2401   6.6044   6.8598   7.0004
     7.1229   7.6701   8.2712   8.2947   8.3524

          k =-0.0000 0.3536-0.3536 ( 21693 PWs)   bands (ev):

   -17.9879 -17.9855 -17.9854 -17.9830 -17.9820 -17.9813 -17.9689 -17.9688
   -17.9686 -17.9685 -17.9684 -17.9684 -11.1363 -11.0163 -10.9283 -10.8502
   -10.8470 -10.8003  -4.7862  -4.7855  -4.7786  -4.7696  -4.7643  -4.7643
    -3.8418  -3.1750  -0.7178  -0.1336  -0.0057   0.2957   0.4056   0.5615
     0.7676   0.9644   1.0044   1.2170   1.3001   1.3314   1.4680   1.5295
     1.5577   1.6160   1.7382   2.6558   5.2401   6.6042   6.8598   7.0003
     7.1230   7.6699   8.2704   8.2948   8.3531

          k =-0.3536 0.0000-0.3536 ( 21693 PWs)   bands (ev):

   -17.9879 -17.9855 -17.9854 -17.9830 -17.9820 -17.9813 -17.9689 -17.9688
   -17.9686 -17.9685 -17.9684 -17.9684 -11.1363 -11.0163 -10.9283 -10.8502
   -10.8470 -10.8003  -4.7862  -4.7855  -4.7786  -4.7696  -4.7643  -4.7643
    -3.8418  -3.1750  -0.7178  -0.1336  -0.0057   0.2957   0.4056   0.5615
     0.7676   0.9644   1.0044   1.2170   1.3001   1.3314   1.4680   1.5295
     1.5577   1.6159   1.7382   2.6558   5.2401   6.6042   6.8598   7.0003
     7.1230   7.6699   8.2705   8.2948   8.3531

          k =-0.3536 0.0000 0.3536 ( 21693 PWs)   bands (ev):

   -17.9879 -17.9855 -17.9854 -17.9830 -17.9820 -17.9813 -17.9689 -17.9688
   -17.9686 -17.9685 -17.9684 -17.9684 -11.1363 -11.0163 -10.9283 -10.8503
   -10.8471 -10.8003  -4.7862  -4.7855  -4.7786  -4.7696  -4.7643  -4.7643
    -3.8418  -3.1750  -0.7178  -0.1336  -0.0057   0.2956   0.4056   0.5615
     0.7676   0.9644   1.0045   1.2170   1.3001   1.3312   1.4682   1.5294
     1.5577   1.6152   1.7387   2.6558   5.2401   6.6044   6.8598   7.0004
     7.1229   7.6701   8.2712   8.2947   8.3524

          k =-0.7071 0.0000 0.0000 ( 21732 PWs)   bands (ev):

   -17.9891 -17.9867 -17.9843 -17.9818 -17.9817 -17.9817 -17.9689 -17.9689
   -17.9686 -17.9686 -17.9684 -17.9680 -11.0993 -10.9347 -10.9330 -10.9301
   -10.9284 -10.7629  -4.7854  -4.7832  -4.7651  -4.7636  -4.7629  -4.7551
    -3.7758  -3.0537  -0.7360  -0.7250  -0.5819   0.4228   0.6929   1.0144
     1.0279   1.0466   1.0972   1.1078   1.1716   1.1807   1.2239   1.3488
     1.3494   1.7940   2.2194   3.1793   5.2475   5.2496   5.6856   7.9507
     8.0584   8.4568   8.4765   8.5739   8.6332

          k = 0.0000-0.7071 0.0000 ( 21732 PWs)   bands (ev):

   -17.9891 -17.9867 -17.9843 -17.9818 -17.9817 -17.9817 -17.9689 -17.9689
   -17.9686 -17.9686 -17.9684 -17.9680 -11.0993 -10.9347 -10.9330 -10.9301
   -10.9284 -10.7629  -4.7854  -4.7832  -4.7651  -4.7636  -4.7629  -4.7551
    -3.7758  -3.0537  -0.7360  -0.7250  -0.5819   0.4228   0.6929   1.0144
     1.0279   1.0466   1.0972   1.1078   1.1716   1.1807   1.2239   1.3488
     1.3494   1.7940   2.2194   3.1793   5.2475   5.2496   5.6856   7.9507
     8.0584   8.4568   8.4765   8.5739   8.6332

          k =-0.0000-0.3536 0.7071 ( 21692 PWs)   bands (ev):

   -17.9877 -17.9876 -17.9834 -17.9833 -17.9817 -17.9817 -17.9688 -17.9686
   -17.9686 -17.9686 -17.9685 -17.9683 -11.0517 -11.0488 -10.9342 -10.9291
   -10.8132 -10.8115  -4.7751  -4.7748  -4.7747  -4.7730  -4.7596  -4.7584
    -3.4838  -3.4741  -0.6697  -0.6582   0.1106   0.1132   0.5504   0.5533
     1.0245   1.0293   1.1306   1.1359   1.2298   1.2356   1.2924   1.2966
     1.5844   1.5892   2.4756   2.4914   5.4650   5.4664   6.9438   6.9439
     8.2069   8.2307   8.3745   8.3929   8.6792

          k =-0.7071 0.0000-0.3536 ( 21692 PWs)   bands (ev):

   -17.9876 -17.9876 -17.9833 -17.9833 -17.9817 -17.9817 -17.9689 -17.9689
   -17.9685 -17.9685 -17.9683 -17.9683 -11.0516 -11.0516 -10.9293 -10.9293
   -10.8132 -10.8132  -4.7755  -4.7755  -4.7731  -4.7731  -4.7591  -4.7591
    -3.4803  -3.4803  -0.6576  -0.6576   0.1117   0.1117   0.5480   0.5480
     1.0261   1.0261   1.1428   1.1428   1.2268   1.2268   1.2924   1.2924
     1.5882   1.5882   2.4753   2.4753   5.4663   5.4663   6.9585   6.9585
     8.2042   8.2042   8.3923   8.3923   8.6754

     the Fermi energy is     4.4326 ev

!    total energy              =    -734.61016859 Ry
     estimated scf accuracy    <          1.8E-10 Ry
     smearing contrib. (-TS)   =       0.00000000 Ry
     internal energy E=F+TS    =    -734.61016859 Ry

     The total energy is F=E-TS. E is the sum of the following terms:
     one-electron contribution =    -253.72479501 Ry
     hartree contribution      =     164.35694625 Ry
     xc contribution           =    -312.40282004 Ry
     ewald contribution        =    -332.83949978 Ry

     convergence has been achieved in  10 iterations

     Forces acting on atoms (cartesian axes, Ry/au):

     atom    1 type  1   force =    -0.00000064   -0.00000077    0.00000016
     atom    2 type  1   force =     0.00000064    0.00000077   -0.00000016
     atom    3 type  2   force =     0.00000000    0.00000000    0.00000000
     atom    4 type  2   force =     0.00000000    0.00000000    0.00000000
     atom    5 type  3   force =     0.00000026    0.00071295   -0.00000647
     atom    6 type  3   force =    -0.00000026   -0.00071295    0.00000647
     atom    7 type  3   force =     0.00071303   -0.00000026    0.00000569
     atom    8 type  3   force =    -0.00071303    0.00000026   -0.00000569
     atom    9 type  3   force =    -0.00000772   -0.00000658   -0.00000028
     atom   10 type  3   force =     0.00000772    0.00000658    0.00000028

     Total force =     0.001426     Total SCF correction =     0.000009
     Message from routine punch:
     Nothing written, as per user request (disk_io='none')

     init_run     :     11.26s CPU     12.63s WALL (       1 calls)
     electrons    :    282.83s CPU    299.83s WALL (       1 calls)
     forces       :      5.48s CPU      6.52s WALL (       1 calls)

     Called by init_run:
     wfcinit      :      5.55s CPU      5.91s WALL (       1 calls)
     potinit      :      1.93s CPU      2.31s WALL (       1 calls)
     hinit0       :      2.27s CPU      2.39s WALL (       1 calls)

     Called by electrons:
     c_bands      :    213.55s CPU    217.90s WALL (      11 calls)
     sum_band     :     46.52s CPU     52.11s WALL (      11 calls)
     v_of_rho     :     10.76s CPU     13.12s WALL (      11 calls)
     newd         :     11.73s CPU     17.08s WALL (      11 calls)
     mix_rho      :      1.08s CPU      1.09s WALL (      11 calls)

     Called by c_bands:
     init_us_2    :      5.08s CPU      5.16s WALL (     120 calls)
     cegterg      :    141.25s CPU    145.41s WALL (      55 calls)

     Called by *egterg:
     cdiaghg      :      0.78s CPU      0.78s WALL (     272 calls)
     h_psi        :    110.88s CPU    112.67s WALL (     282 calls)
     s_psi        :      9.50s CPU      9.50s WALL (     282 calls)
     g_psi        :      0.67s CPU      0.67s WALL (     222 calls)

     Called by h_psi:
     h_psi:calbec :     10.36s CPU     10.36s WALL (     282 calls)
     vloc_psi     :     90.38s CPU     90.55s WALL (     282 calls)
                                        0.00s GPU  (     282 calls)
     add_vuspsi   :      9.44s CPU      9.45s WALL (     282 calls)

     General routines
     calbec       :     14.68s CPU     14.69s WALL (     357 calls)
     fft          :      6.67s CPU      6.69s WALL (     153 calls)
     ffts         :      0.66s CPU      0.66s WALL (      22 calls)
     fftw         :     84.19s CPU     84.30s WALL (   18657 calls)
     interpolate  :      1.18s CPU      1.21s WALL (      11 calls)

     Parallel routines

     PWSCF        :   5m 3.47s CPU   5m23.02s WALL


   This run was terminated on:   8:52:27  27Sep2026            

=------------------------------------------------------------------------------=
   JOB DONE.
=------------------------------------------------------------------------------=
