
     Program PWSCF v.7.5 starts on  3Oct2026 at 21:34:32 

     This program is part of the open-source Quantum ESPRESSO suite
     for quantum simulation of materials; please cite
         "P. Giannozzi et al., J. Phys.:Condens. Matter 21 395502 (2009);
         "P. Giannozzi et al., J. Phys.:Condens. Matter 29 465901 (2017);
         "P. Giannozzi et al., J. Chem. Phys. 152 154105 (2020);
          URL http://www.quantum-espresso.org", 
     in publications or presentations arising from this work. More details at
     http://www.quantum-espresso.org/quote

     Parallel version (MPI & OpenMP), running on       8 processor cores
     Number of MPI processes:                 8
     Threads/MPI process:                     1

     MPI processes distributed on     1 nodes
     10262 MiB available memory on the printing compute node when the environment starts

     Reading input from pw.in

     Current dimensions of program PWSCF are:
     Max number of different atomic species (ntypx) = 10
     Max number of k-points (npk) =  40000
     Max angular momentum in pseudopotentials (lmaxx) =  4
     file Ba.pbe-spn-kjpaw_psl.1.0.0.UPF: wavefunction(s)  5S 6S renormalized
     file O.pbe-n-kjpaw_psl.0.1.UPF: wavefunction(s)  2P renormalized

     K-points division:     npool     =       8
     Subspace diagonalization in iterative solution of the eigenvalue problem:
     a serial algorithm will be used


     G-vector sticks info
     --------------------
     sticks:   dense  smooth     PW     G-vecs:    dense   smooth      PW
     Sum        1861     933    277                60005    21247    3407

     Using Slab Decomposition



     bravais-lattice index     =            0
     lattice parameter (alat)  =       7.6272  a.u.
     unit-cell volume          =     443.7078 (a.u.)^3
     number of atoms/cell      =            5
     number of atomic types    =            3
     number of electrons       =        40.00
     number of Kohn-Sham states=           24
     kinetic-energy cutoff     =      50.0000  Ry
     charge density cutoff     =     400.0000  Ry
     scf convergence threshold =      5.0E-10
     mixing beta               =       0.4000
     number of iterations used =            8  plain     mixing
     Exchange-correlation= SLA  PW   PBX  PBC
                           (   1   4   3   4   0   0   0)

     celldm(1)=   7.627207  celldm(2)=   0.000000  celldm(3)=   0.000000
     celldm(4)=   0.000000  celldm(5)=   0.000000  celldm(6)=   0.000000

     crystal axes: (cart. coord. in units of alat)
               a(1) = (  -0.000000   0.000000   1.000000 )  
               a(2) = (   0.000000  -1.000000  -0.000000 )  
               a(3) = (   1.000000  -0.000000  -0.000000 )  

     reciprocal axes: (cart. coord. in units 2 pi/alat)
               b(1) = (  0.000000 -0.000000  1.000000 )  
               b(2) = ( -0.000000 -1.000000  0.000000 )  
               b(3) = (  1.000000  0.000000  0.000000 )  


     PseudoPot. # 1 for Ba read from file:
     /root/sssp/Ba.pbe-spn-kjpaw_psl.1.0.0.UPF
     MD5 check sum: c432291d3e53af55f19d5e8866385beb
     Pseudo is Projector augmented-wave + core cor, Zval = 10.0
     Generated using "atomic" code by A. Dal Corso  v.5.1
     Shape of augmentation charge: PSQ
     Using radial grid of 1251 points,  7 beta functions with: 
                l(1) =   0
                l(2) =   0
                l(3) =   0
                l(4) =   1
                l(5) =   1
                l(6) =   2
                l(7) =   2
     Q(r) pseudized with 0 coefficients 


     PseudoPot. # 2 for Ti read from file:
     /root/sssp/ti_pbe_v1.4.uspp.F.UPF
     MD5 check sum: 88a00a6731bd790ddea75d31a80cb452
     Pseudo is Ultrasoft + core correction, Zval = 12.0
     Generated by new atomic code, or converted to UPF format
     Using radial grid of  851 points,  6 beta functions with: 
                l(1) =   0
                l(2) =   0
                l(3) =   1
                l(4) =   1
                l(5) =   2
                l(6) =   2
     Q(r) pseudized with  6 coefficients,  rinner =    1.000   1.000   1.000
                                                       1.000   1.000

     PseudoPot. # 3 for O  read from file:
     /root/sssp/O.pbe-n-kjpaw_psl.0.1.UPF
     MD5 check sum: 0234752ac141de4415c5fc33072bef88
     Pseudo is Projector augmented-wave + core cor, Zval =  6.0
     Generated using "atomic" code by A. Dal Corso  v.5.0.99 svn rev. 10869
     Shape of augmentation charge: BESSEL
     Using radial grid of 1095 points,  4 beta functions with: 
                l(1) =   0
                l(2) =   0
                l(3) =   1
                l(4) =   1
     Q(r) pseudized with 0 coefficients 


     atomic species   valence    mass     pseudopotential
     Ba               10.00   137.32700     Ba( 1.00)
     Ti               12.00    47.86700     Ti( 1.00)
     O                 6.00    15.99900     O ( 1.00)

     No symmetry found



   Cartesian axes

     site n.     atom                  positions (alat units)
         1        Ba     tau(   1) = (  -0.0002013   0.0020888   0.0000015  )
         2        Ti     tau(   2) = (   0.4967602  -0.4665429   0.5000039  )
         3        O      tau(   3) = (   1.0065304  -0.5258310   0.4999970  )
         4        O      tau(   4) = (   0.5025016  -1.0674462   0.4999976  )
         5        O      tau(   5) = (   0.5023973  -0.5247494   0.9999916  )

     number of k points=   172  Marzari-Vanderbilt smearing, width (Ry)=  0.0050

     Number of k-points >= 100: set verbosity='high' to print them.

     Dense  grid:    60005 G-vectors     FFT dimensions: (  50,  50,  50)

     Smooth grid:    21247 G-vectors     FFT dimensions: (  36,  36,  36)

     Estimated max dynamical RAM per process >      92.83 MB

     Estimated total dynamical RAM >     640.11 MB

     Check: negative core charge=   -0.000004

     Initial potential from superposition of free atoms

     starting charge      38.9829, renormalised to      40.0000

     negative rho (up, down):  1.257E-03 0.000E+00
     Starting wfcs are   27 randomized atomic wfcs
     Checking if some PAW data can be deallocated... 

     total cpu time spent up to now is        3.1 secs

     per-process dynamical memory:    72.6 Mb

     Self-consistent Calculation

     iteration #  1     ecut=    50.00 Ry     beta= 0.40
     Davidson diagonalization with overlap
     ethr =  1.00E-02,  avg # of iterations =  2.0

     negative rho (up, down):  4.495E-03 0.000E+00

     total cpu time spent up to now is        5.0 secs

     total energy              =    -680.84274074 Ry
     estimated scf accuracy    <       0.85540204 Ry

     iteration #  2     ecut=    50.00 Ry     beta= 0.40
     Davidson diagonalization with overlap
     ethr =  2.14E-03,  avg # of iterations =  3.2

     negative rho (up, down):  9.989E-03 0.000E+00

     total cpu time spent up to now is        7.1 secs

     WARNING: integrated charge=    40.00025864, expected=    40.00000000

     total energy              =    -680.98166882 Ry
     estimated scf accuracy    <       0.58164248 Ry

     iteration #  3     ecut=    50.00 Ry     beta= 0.40
     Davidson diagonalization with overlap
     ethr =  1.45E-03,  avg # of iterations =  2.1

     negative rho (up, down):  1.953E-02 0.000E+00

     total cpu time spent up to now is        9.0 secs

     WARNING: integrated charge=    40.00019360, expected=    40.00000000

     total energy              =    -681.09546077 Ry
     estimated scf accuracy    <       0.03699456 Ry

     iteration #  4     ecut=    50.00 Ry     beta= 0.40
     Davidson diagonalization with overlap
     ethr =  9.25E-05,  avg # of iterations =  5.2

     negative rho (up, down):  1.920E-02 0.000E+00

     total cpu time spent up to now is       11.3 secs

     WARNING: integrated charge=    40.00010602, expected=    40.00000000

     total energy              =    -681.09863862 Ry
     estimated scf accuracy    <       0.00687074 Ry

     iteration #  5     ecut=    50.00 Ry     beta= 0.40
     Davidson diagonalization with overlap
     ethr =  1.72E-05,  avg # of iterations =  4.5

     negative rho (up, down):  1.707E-02 0.000E+00

     total cpu time spent up to now is       13.8 secs

     WARNING: integrated charge=    40.00010103, expected=    40.00000000

     total energy              =    -681.09987595 Ry
     estimated scf accuracy    <       0.00537301 Ry

     iteration #  6     ecut=    50.00 Ry     beta= 0.40
     Davidson diagonalization with overlap
     ethr =  1.34E-05,  avg # of iterations =  1.0

     negative rho (up, down):  4.908E-02 0.000E+00

     total cpu time spent up to now is       15.5 secs

     WARNING: integrated charge=    40.00007706, expected=    40.00000000

     total energy              =    -681.10014402 Ry
     estimated scf accuracy    <       0.00641533 Ry

     iteration #  7     ecut=    50.00 Ry     beta= 0.40
     Davidson diagonalization with overlap
     ethr =  1.34E-05,  avg # of iterations =  1.9

     negative rho (up, down):  1.710E-03 0.000E+00

     total cpu time spent up to now is       17.3 secs

     WARNING: integrated charge=    39.99997232, expected=    40.00000000

     total energy              =    -681.10010832 Ry
     estimated scf accuracy    <       0.02978645 Ry

     iteration #  8     ecut=    50.00 Ry     beta= 0.40
     Davidson diagonalization with overlap
     ethr =  1.34E-05,  avg # of iterations =  2.0

     negative rho (up, down):  1.155E-03 0.000E+00

     total cpu time spent up to now is       19.2 secs

     WARNING: integrated charge=    39.99997726, expected=    40.00000000

     total energy              =    -681.10056887 Ry
     estimated scf accuracy    <       0.01945575 Ry

     iteration #  9     ecut=    50.00 Ry     beta= 0.40
     Davidson diagonalization with overlap
     ethr =  1.34E-05,  avg # of iterations =  1.0

     negative rho (up, down):  1.155E-03 0.000E+00

     total cpu time spent up to now is       20.9 secs

     WARNING: integrated charge=    39.99998551, expected=    40.00000000

     total energy              =    -681.10053164 Ry
     estimated scf accuracy    <       0.00562474 Ry

     iteration # 10     ecut=    50.00 Ry     beta= 0.40
     Davidson diagonalization with overlap
     ethr =  1.34E-05,  avg # of iterations =  1.0

     negative rho (up, down):  1.155E-03 0.000E+00

     total cpu time spent up to now is       22.6 secs

     WARNING: integrated charge=    39.99999587, expected=    40.00000000

     total energy              =    -681.10051456 Ry
     estimated scf accuracy    <       0.00119711 Ry

     iteration # 11     ecut=    50.00 Ry     beta= 0.40
     Davidson diagonalization with overlap
     ethr =  2.99E-06,  avg # of iterations =  1.4

     negative rho (up, down):  1.156E-03 0.000E+00

     total cpu time spent up to now is       24.4 secs

     total energy              =    -681.10052864 Ry
     estimated scf accuracy    <       0.00000064 Ry

     iteration # 12     ecut=    50.00 Ry     beta= 0.40
     Davidson diagonalization with overlap
     ethr =  1.61E-09,  avg # of iterations =  7.0

     negative rho (up, down):  1.156E-03 0.000E+00

     total cpu time spent up to now is       28.0 secs

     total energy              =    -681.10053588 Ry
     estimated scf accuracy    <       0.00011764 Ry

     iteration # 13     ecut=    50.00 Ry     beta= 0.40
     Davidson diagonalization with overlap
     ethr =  1.61E-09,  avg # of iterations =  4.0

     negative rho (up, down):  1.156E-03 0.000E+00

     total cpu time spent up to now is       30.0 secs

     total energy              =    -681.10053578 Ry
     estimated scf accuracy    <       0.00014796 Ry

     iteration # 14     ecut=    50.00 Ry     beta= 0.40
     Davidson diagonalization with overlap
     ethr =  1.61E-09,  avg # of iterations =  3.0

     negative rho (up, down):  1.156E-03 0.000E+00

     total cpu time spent up to now is       32.1 secs

     total energy              =    -681.10053652 Ry
     estimated scf accuracy    <       0.00000982 Ry

     iteration # 15     ecut=    50.00 Ry     beta= 0.40
     Davidson diagonalization with overlap
     ethr =  1.61E-09,  avg # of iterations =  2.3

     negative rho (up, down):  1.156E-03 0.000E+00

     total cpu time spent up to now is       34.0 secs

     total energy              =    -681.10053665 Ry
     estimated scf accuracy    <       0.00000824 Ry

     iteration # 16     ecut=    50.00 Ry     beta= 0.40
     Davidson diagonalization with overlap
     ethr =  1.61E-09,  avg # of iterations =  3.5

     negative rho (up, down):  1.156E-03 0.000E+00

     total cpu time spent up to now is       35.9 secs

     total energy              =    -681.10053672 Ry
     estimated scf accuracy    <       0.00000405 Ry

     iteration # 17     ecut=    50.00 Ry     beta= 0.40
     Davidson diagonalization with overlap
     ethr =  1.61E-09,  avg # of iterations =  2.0

     negative rho (up, down):  1.156E-03 0.000E+00

     total cpu time spent up to now is       37.7 secs

     total energy              =    -681.10053675 Ry
     estimated scf accuracy    <       0.00000037 Ry

     iteration # 18     ecut=    50.00 Ry     beta= 0.40
     Davidson diagonalization with overlap
     ethr =  9.18E-10,  avg # of iterations =  1.2

     negative rho (up, down):  1.156E-03 0.000E+00

     total cpu time spent up to now is       39.4 secs

     total energy              =    -681.10053676 Ry
     estimated scf accuracy    <       0.00000026 Ry

     iteration # 19     ecut=    50.00 Ry     beta= 0.40
     Davidson diagonalization with overlap
     ethr =  6.49E-10,  avg # of iterations =  1.2

     negative rho (up, down):  1.156E-03 0.000E+00

     total cpu time spent up to now is       41.1 secs

     total energy              =    -681.10053676 Ry
     estimated scf accuracy    <          6.1E-09 Ry

     iteration # 20     ecut=    50.00 Ry     beta= 0.40
     Davidson diagonalization with overlap
     ethr =  1.52E-11,  avg # of iterations =  4.1

     negative rho (up, down):  1.156E-03 0.000E+00

     total cpu time spent up to now is       43.2 secs

     total energy              =    -681.10053676 Ry
     estimated scf accuracy    <       0.00000004 Ry

     iteration # 21     ecut=    50.00 Ry     beta= 0.40
     Davidson diagonalization with overlap
     ethr =  1.52E-11,  avg # of iterations =  2.0

     negative rho (up, down):  1.156E-03 0.000E+00

     total cpu time spent up to now is       45.0 secs

     total energy              =    -681.10053676 Ry
     estimated scf accuracy    <          5.7E-09 Ry

     iteration # 22     ecut=    50.00 Ry     beta= 0.40
     Davidson diagonalization with overlap
     ethr =  1.44E-11,  avg # of iterations =  1.0

     negative rho (up, down):  1.156E-03 0.000E+00

     total cpu time spent up to now is       46.7 secs

     total energy              =    -681.10053676 Ry
     estimated scf accuracy    <          2.7E-09 Ry

     iteration # 23     ecut=    50.00 Ry     beta= 0.40
     Davidson diagonalization with overlap
     ethr =  6.73E-12,  avg # of iterations =  1.0

     negative rho (up, down):  1.156E-03 0.000E+00

     total cpu time spent up to now is       48.4 secs

     total energy              =    -681.10053676 Ry
     estimated scf accuracy    <          6.0E-10 Ry

     iteration # 24     ecut=    50.00 Ry     beta= 0.40
     Davidson diagonalization with overlap
     ethr =  1.49E-12,  avg # of iterations =  2.0

     negative rho (up, down):  1.156E-03 0.000E+00

     total cpu time spent up to now is       50.1 secs

     End of self-consistent calculation

     Number of k-points >= 100: set verbosity='high' to print the bands.

     the Fermi energy is    11.3274 ev

!    total energy              =    -681.10053676 Ry
     estimated scf accuracy    <          7.4E-11 Ry
     smearing contrib. (-TS)   =       0.00000000 Ry
     internal energy E=F+TS    =    -681.10053676 Ry

     The total energy is F=E-TS. E is the sum of the following terms:
     one-electron contribution =     -77.31723566 Ry
     hartree contribution      =      63.42764128 Ry
     xc contribution           =     -60.99222851 Ry
     ewald contribution        =    -202.71170878 Ry
     one-center paw contrib.   =    -403.50700509 Ry

     convergence has been achieved in  24 iterations

     negative rho (up, down):  1.156E-03 0.000E+00

     Forces acting on atoms (cartesian axes, Ry/au):

     atom    1 type  1   force =     0.00036153    0.00477041   -0.00000169
     atom    2 type  2   force =    -0.00200511   -0.21105324    0.00000331
     atom    3 type  3   force =    -0.00345861   -0.00363876   -0.00000252
     atom    4 type  3   force =     0.00327806    0.21441034   -0.00000441
     atom    5 type  3   force =     0.00182414   -0.00448875    0.00000530

     Total force =     0.301001     Total SCF correction =     0.000002
     Message from routine punch:
     Nothing written, as per user request (disk_io='none')

     init_run     :      2.63s CPU      2.69s WALL (       1 calls)
     electrons    :     46.57s CPU     47.01s WALL (       1 calls)
     forces       :      0.33s CPU      0.33s WALL (       1 calls)

     Called by init_run:
     wfcinit      :      0.84s CPU      0.85s WALL (       1 calls)
     potinit      :      0.47s CPU      0.51s WALL (       1 calls)
     hinit0       :      1.23s CPU      1.24s WALL (       1 calls)

     Called by electrons:
     c_bands      :     33.80s CPU     34.08s WALL (      24 calls)
     sum_band     :      7.28s CPU      7.39s WALL (      24 calls)
     v_of_rho     :      1.24s CPU      1.25s WALL (      25 calls)
     newd         :      1.25s CPU      1.26s WALL (      25 calls)
     PAW_pot      :      2.98s CPU      3.03s WALL (      25 calls)
     mix_rho      :      0.13s CPU      0.13s WALL (      24 calls)

     Called by c_bands:
     init_us_2    :      1.58s CPU      1.59s WALL (    1100 calls)
     cegterg      :     28.89s CPU     29.16s WALL (     528 calls)

     Called by *egterg:
     cdiaghg      :      1.09s CPU      1.10s WALL (    1854 calls)
     h_psi        :     22.26s CPU     22.48s WALL (    1876 calls)
     s_psi        :      1.36s CPU      1.38s WALL (    1876 calls)
     g_psi        :      0.32s CPU      0.32s WALL (    1326 calls)

     Called by h_psi:
     h_psi:calbec :      1.61s CPU      1.62s WALL (    1876 calls)
     vloc_psi     :     19.06s CPU     19.26s WALL (    1876 calls)
                                        0.00s GPU  (    1876 calls)
     add_vuspsi   :      1.45s CPU      1.46s WALL (    1876 calls)

     General routines
     calbec       :      2.32s CPU      2.33s WALL (    2492 calls)
     fft          :      0.60s CPU      0.60s WALL (     334 calls)
     ffts         :      0.23s CPU      0.23s WALL (      49 calls)
     fftw         :     19.87s CPU     20.09s WALL (   71828 calls)
     interpolate  :      0.27s CPU      0.27s WALL (      25 calls)

     Parallel routines

     PWSCF        :     49.91s CPU     50.43s WALL


   This run was terminated on:  21:35:22   3Oct2026            

=------------------------------------------------------------------------------=
   JOB DONE.
=------------------------------------------------------------------------------=
