
     Program PWSCF v.7.5 starts on  5Oct2026 at  7: 5:40 

     This program is part of the open-source Quantum ESPRESSO suite
     for quantum simulation of materials; please cite
         "P. Giannozzi et al., J. Phys.:Condens. Matter 21 395502 (2009);
         "P. Giannozzi et al., J. Phys.:Condens. Matter 29 465901 (2017);
         "P. Giannozzi et al., J. Chem. Phys. 152 154105 (2020);
          URL http://www.quantum-espresso.org", 
     in publications or presentations arising from this work. More details at
     http://www.quantum-espresso.org/quote

     Parallel version (MPI & OpenMP), running on       8 processor cores
     Number of MPI processes:                 8
     Threads/MPI process:                     1

     MPI processes distributed on     1 nodes
     96679 MiB available memory on the printing compute node when the environment starts

     Reading input from pw.in

     Current dimensions of program PWSCF are:
     Max number of different atomic species (ntypx) = 10
     Max number of k-points (npk) =  40000
     Max angular momentum in pseudopotentials (lmaxx) =  4

     IMPORTANT: XC functional enforced from input :
     Exchange-correlation= PBESOL
                           (   1   4  10   8   0   0   0)
     Any further DFT definition will be discarded
     Please, verify this is what you really want


     K-points division:     npool     =       2
     R & G space division:  proc/nbgrp/npool/nimage =       4
     Subspace diagonalization in iterative solution of the eigenvalue problem:
     one sub-group per band group will be used
     ELPA distributed-memory algorithm (size of sub-group:  2*  2 procs)


     Parallelization info
     --------------------
     sticks:   dense  smooth     PW     G-vecs:    dense   smooth      PW
     Min        4741    2366    617               491441   173717   23089
     Max        4742    2367    618               491442   173720   23092
     Sum       18965    9465   2469              1965767   694875   92361

     Using Slab Decomposition



     bravais-lattice index     =            0
     lattice parameter (alat)  =      22.2827  a.u.
     unit-cell volume          =   11068.4326 (a.u.)^3
     number of atoms/cell      =           40
     number of atomic types    =            3
     number of electrons       =       352.00
     number of Kohn-Sham states=          211
     kinetic-energy cutoff     =      60.0000  Ry
     charge density cutoff     =     480.0000  Ry
     scf convergence threshold =      4.0E-09
     mixing beta               =       0.4000
     number of iterations used =            8  plain     mixing
     Exchange-correlation= PBESOL
                           (   1   4  10   8   0   0   0)

     celldm(1)=  22.282671  celldm(2)=   0.000000  celldm(3)=   0.000000
     celldm(4)=   0.000000  celldm(5)=   0.000000  celldm(6)=   0.000000

     crystal axes: (cart. coord. in units of alat)
               a(1) = (  -0.000009   0.000003   1.000000 )  
               a(2) = (  -0.000001   1.000197   0.000003 )  
               a(3) = (  -1.000227   0.000001   0.000009 )  

     reciprocal axes: (cart. coord. in units 2 pi/alat)
               b(1) = (  0.000009 -0.000003  1.000000 )  
               b(2) = (  0.000001  0.999803 -0.000003 )  
               b(3) = ( -0.999773 -0.000001 -0.000009 )  


     PseudoPot. # 1 for Cs read from file:
     /root/sssp/Cs_pbe_v1.uspp.F.UPF
     MD5 check sum: 3476d69cb178dfad3ffaa59df4e07ca4
     Pseudo is Ultrasoft + core correction, Zval =  9.0
     Generated by new atomic code, or converted to UPF format
     Using radial grid of  905 points,  6 beta functions with: 
                l(1) =   0
                l(2) =   0
                l(3) =   1
                l(4) =   1
                l(5) =   2
                l(6) =   2
     Q(r) pseudized with  6 coefficients,  rinner =    1.500   1.500   1.500
                                                       1.500   1.500

     PseudoPot. # 2 for Sn read from file:
     /root/sssp/Sn_pbe_v1.uspp.F.UPF
     MD5 check sum: 4cf58ce39ec5d5d420df3dd08604eb00
     Pseudo is Ultrasoft + core correction, Zval = 14.0
     Generated by new atomic code, or converted to UPF format
     Using radial grid of  891 points,  6 beta functions with: 
                l(1) =   0
                l(2) =   0
                l(3) =   1
                l(4) =   1
                l(5) =   2
                l(6) =   2
     Q(r) pseudized with  6 coefficients,  rinner =    1.200   1.200   1.200
                                                       1.200   1.200

     PseudoPot. # 3 for Br read from file:
     /root/sssp/br_pbe_v1.4.uspp.F.UPF
     MD5 check sum: d3ffb7b29f6225aa16fe06858fb2a80b
     Pseudo is Ultrasoft + core correction, Zval =  7.0
     Generated by new atomic code, or converted to UPF format
     Using radial grid of  879 points,  6 beta functions with: 
                l(1) =   0
                l(2) =   0
                l(3) =   1
                l(4) =   1
                l(5) =   2
                l(6) =   2
     Q(r) pseudized with  8 coefficients,  rinner =    1.100   1.100   1.100
                                                       1.100   1.100

     atomic species   valence    mass     pseudopotential
     Cs                9.00   132.90550     Cs( 1.00)
     Sn               14.00   118.71000     Sn( 1.00)
     Br                7.00    79.90400     Br( 1.00)

     No symmetry found



   Cartesian axes

     site n.     atom                  positions (alat units)
         1        Cs     tau(   1) = (  -0.0000694  -0.0003692   0.5000158  )
         2        Cs     tau(   2) = (  -0.0000162   0.0004710   0.9999353  )
         3        Cs     tau(   3) = (  -0.0000125   0.5005682   0.4999367  )
         4        Cs     tau(   4) = (  -0.0000626   0.4997438   1.0000158  )
         5        Cs     tau(   5) = (  -0.5001160   0.0004808   0.4999385  )
         6        Cs     tau(   6) = (  -0.5001757  -0.0003542   1.0000188  )
         7        Cs     tau(   7) = (  -0.5001720   0.4997430   0.5000202  )
         8        Cs     tau(   8) = (  -0.5001472   0.5005520   0.9999430  )
         9        Sn     tau(   9) = (  -0.2501219   0.2500576   0.2499543  )
        10        Sn     tau(  10) = (  -0.2501058   0.2501329   0.7499118  )
        11        Sn     tau(  11) = (  -0.2501021   0.7502301   0.2499132  )
        12        Sn     tau(  12) = (  -0.2501273   0.7501583   0.7499562  )
        13        Sn     tau(  13) = (  -0.7502152   0.2501321   0.2499161  )
        14        Sn     tau(  14) = (  -0.7502404   0.2500604   0.7499592  )
        15        Sn     tau(  15) = (  -0.7502367   0.7501576   0.2499606  )
        16        Sn     tau(  16) = (  -0.7502197   0.7502314   0.7499170  )
        17        Br     tau(  17) = (  -0.5000183   0.2495338   0.2506016  )
        18        Br     tau(  18) = (  -0.4999970   0.2504494   0.7496756  )
        19        Br     tau(  19) = (  -0.4999933   0.7505466   0.2496770  )
        20        Br     tau(  20) = (  -0.5000197   0.7495819   0.7504475  )
        21        Br     tau(  21) = (  -1.0001064   0.2504487   0.2496800  )
        22        Br     tau(  22) = (  -1.0001328   0.2494840   0.7504504  )
        23        Br     tau(  23) = (  -1.0001291   0.7495812   0.2504518  )
        24        Br     tau(  24) = (  -1.0001100   0.7505289   0.7496221  )
        25        Br     tau(  25) = (  -0.2505244   0.4999871   0.2480962  )
        26        Br     tau(  26) = (  -0.2497331   0.4999924   0.7518150  )
        27        Br     tau(  27) = (  -0.2497294   1.0000896   0.2518164  )
        28        Br     tau(  28) = (  -0.2505081   1.0000870   0.7480981  )
        29        Br     tau(  29) = (  -0.7498425   0.4999916   0.2518193  )
        30        Br     tau(  30) = (  -0.7506212   0.4999891   0.7481011  )
        31        Br     tau(  31) = (  -0.7506175   1.0000863   0.2481025  )
        32        Br     tau(  32) = (  -0.7498688   1.0000917   0.7518202  )
        33        Br     tau(  33) = (  -0.2503471   0.2482886   0.0001165  )
        34        Br     tau(  34) = (  -0.2500532   0.2520365   0.5000991  )
        35        Br     tau(  35) = (  -0.2495453   0.7521003   0.0000916  )
        36        Br     tau(  36) = (  -0.2502956   0.7483848   0.5001169  )
        37        Br     tau(  37) = (  -0.7496584   0.2520024   0.0000946  )
        38        Br     tau(  38) = (  -0.7504086   0.2482869   0.5001198  )
        39        Br     tau(  39) = (  -0.7504049   0.7483841   0.0001212  )
        40        Br     tau(  40) = (  -0.7498459   0.7521145   0.5000992  )

     number of k points=    14  Marzari-Vanderbilt smearing, width (Ry)=  0.0050
                       cart. coord. in units 2pi/alat
        k(    1) = (   0.0000000   0.0000000   0.0000000), wk =   0.0740741
        k(    2) = (  -0.3332575  -0.0000004  -0.0000029), wk =   0.1481481
        k(    3) = (   0.0000004   0.3332676  -0.0000009), wk =   0.1481481
        k(    4) = (  -0.3332571   0.3332672  -0.0000038), wk =   0.1481481
        k(    5) = (   0.3332580   0.3332680   0.0000020), wk =   0.1481481
        k(    6) = (   0.0000029  -0.0000009   0.3333333), wk =   0.1481481
        k(    7) = (  -0.3332546  -0.0000014   0.3333304), wk =   0.1481481
        k(    8) = (   0.3332604  -0.0000005   0.3333362), wk =   0.1481481
        k(    9) = (   0.0000033   0.3332667   0.3333324), wk =   0.1481481
        k(   10) = (  -0.3332542   0.3332662   0.3333295), wk =   0.1481481
        k(   11) = (   0.3332609   0.3332671   0.3333353), wk =   0.1481481
        k(   12) = (   0.0000025  -0.3332686   0.3333343), wk =   0.1481481
        k(   13) = (  -0.3332551  -0.3332690   0.3333314), wk =   0.1481481
        k(   14) = (   0.3332600  -0.3332681   0.3333372), wk =   0.1481481

     Dense  grid:  1965767 G-vectors     FFT dimensions: ( 160, 160, 160)

     Smooth grid:   694875 G-vectors     FFT dimensions: ( 120, 120, 120)

     Estimated max dynamical RAM per process >       2.02 GB

     Estimated total dynamical RAM >      15.70 GB

     Initial potential from superposition of free atoms

     starting charge     343.6841, renormalised to     352.0000
     Starting wfcs are  272 randomized atomic wfcs

     total cpu time spent up to now is      203.4 secs

     per-process dynamical memory:  1071.3 Mb

     Self-consistent Calculation

     iteration #  1     ecut=    60.00 Ry     beta= 0.40
     Davidson diagonalization with overlap
     ethr =  1.00E-02,  avg # of iterations =  3.0

     Threshold (ethr) on eigenvalues was too large:
     Diagonalizing with lowered threshold

     Davidson diagonalization with overlap
     ethr =  4.91E-04,  avg # of iterations =  4.4

     total cpu time spent up to now is     1348.9 secs

     total energy              =   -2925.34753486 Ry
     estimated scf accuracy    <       1.66050836 Ry

     iteration #  2     ecut=    60.00 Ry     beta= 0.40
     Davidson diagonalization with overlap
     ethr =  4.72E-04,  avg # of iterations =  2.0

     total cpu time spent up to now is     1987.3 secs

     total energy              =   -2925.52376247 Ry
     estimated scf accuracy    <       0.15580015 Ry

     iteration #  3     ecut=    60.00 Ry     beta= 0.40
     Davidson diagonalization with overlap
     c_bands:  4 eigenvalues not converged
     ethr =  4.43E-05,  avg # of iterations = 11.7

     total cpu time spent up to now is     2862.3 secs

     total energy              =   -2925.53960067 Ry
     estimated scf accuracy    <       0.02093698 Ry

     iteration #  4     ecut=    60.00 Ry     beta= 0.40
     Davidson diagonalization with overlap
     c_bands:  1 eigenvalues not converged
     ethr =  5.95E-06,  avg # of iterations =  9.7

     total cpu time spent up to now is     3691.6 secs

     total energy              =   -2925.54183195 Ry
     estimated scf accuracy    <       0.00201550 Ry

     iteration #  5     ecut=    60.00 Ry     beta= 0.40
     Davidson diagonalization with overlap
     c_bands:  3 eigenvalues not converged
     ethr =  5.73E-07,  avg # of iterations =  6.3

     total cpu time spent up to now is     4361.5 secs

     total energy              =   -2925.54210235 Ry
     estimated scf accuracy    <       0.00004669 Ry

     iteration #  6     ecut=    60.00 Ry     beta= 0.40
     Davidson diagonalization with overlap
     ethr =  1.33E-08,  avg # of iterations =  6.4

     total cpu time spent up to now is     5061.1 secs

     total energy              =   -2925.54214901 Ry
     estimated scf accuracy    <       0.00000471 Ry

     iteration #  7     ecut=    60.00 Ry     beta= 0.40
     Davidson diagonalization with overlap
     ethr =  1.34E-09,  avg # of iterations =  2.4

     total cpu time spent up to now is     5566.4 secs

     total energy              =   -2925.54215507 Ry
     estimated scf accuracy    <       0.00000101 Ry

     iteration #  8     ecut=    60.00 Ry     beta= 0.40
     Davidson diagonalization with overlap
     ethr =  2.86E-10,  avg # of iterations =  2.7

     total cpu time spent up to now is     6107.8 secs

     total energy              =   -2925.54215683 Ry
     estimated scf accuracy    <       0.00000015 Ry

     iteration #  9     ecut=    60.00 Ry     beta= 0.40
     Davidson diagonalization with overlap
     ethr =  4.36E-11,  avg # of iterations =  4.0

     total cpu time spent up to now is     6653.6 secs

     total energy              =   -2925.54215730 Ry
     estimated scf accuracy    <       0.00000004 Ry

     iteration # 10     ecut=    60.00 Ry     beta= 0.40
     Davidson diagonalization with overlap
     ethr =  1.12E-11,  avg # of iterations =  2.0

     total cpu time spent up to now is     7203.8 secs

     End of self-consistent calculation

          k = 0.0000 0.0000 0.0000 ( 86791 PWs)   bands (ev):

   -18.0448 -18.0440 -18.0439 -18.0436 -18.0432 -18.0428 -18.0425 -18.0417
   -17.9694 -17.9694 -17.9693 -17.9693 -17.9693 -17.9668 -17.9667 -17.9667
   -17.9641 -17.9641 -17.9641 -17.9615 -17.9615 -17.9615 -17.9614 -17.9614
   -17.9457 -17.9456 -17.9456 -17.9455 -17.9455 -17.9455 -17.9455 -17.9455
   -17.9455 -17.9455 -17.9454 -17.9454 -17.9454 -17.9454 -17.9454 -17.9454
   -17.9454 -17.9454 -17.9453 -17.9453 -17.9453 -17.9453 -17.9452 -17.9452
   -11.3652 -11.2224 -11.2224 -11.2218 -11.0568 -11.0563 -11.0557 -11.0530
   -11.0530 -11.0522 -11.0521 -11.0520 -11.0519 -11.0518 -11.0510 -11.0507
   -11.0490 -11.0480 -11.0480 -10.8821 -10.8818 -10.8802 -10.8802 -10.8799
    -4.8665  -4.8665  -4.8664  -4.8431  -4.8429  -4.8428  -4.8428  -4.8427
    -4.8425  -4.8324  -4.8324  -4.8324  -4.8223  -4.8223  -4.8223  -4.8206
    -4.8203  -4.8203  -4.8202  -4.8202  -4.8200  -4.8109  -4.8109  -4.8109
    -4.5496  -3.9405  -3.9405  -3.9392  -3.2224  -3.2209  -3.2209  -2.2223
    -0.9649  -0.9636  -0.9635  -0.8727  -0.8725  -0.8713  -0.8711  -0.8709
    -0.8708  -0.7290  -0.7271  -0.7269   0.3001   0.3001   0.3006   0.4917
     0.4917   0.4924   0.5697   0.5697   0.5704   0.9129   0.9131   0.9131
     0.9194   0.9197   0.9315   0.9319   0.9324   0.9326   0.9327   0.9328
     0.9906   0.9910   0.9911   0.9913   0.9914   0.9917   1.0645   1.0647
     1.0651   1.0653   1.0654   1.0655   1.1116   1.1119   1.1121   1.2388
     1.2389   1.2391   1.2498   1.2499   1.2499   1.2500   1.2500   1.2501
     1.3556   1.3556   1.3556   1.7048   1.7048   1.7050   1.7162   1.7163
     1.7164   2.1136   2.1140   2.1148   3.0674   3.0686   3.0687   3.9773
     4.5498   4.5501   4.5513   5.0642   5.0645   5.0648   5.0650   5.0655
     5.0657   5.5094   5.5097   5.5102   6.2994   7.4446   7.4455   7.7424
     7.7431   7.7438   7.8094   7.9073   7.9077   7.9111   8.0706   8.0712
     8.0717   8.3057   8.3060   8.3063   8.3066   8.3094   8.3098   8.3414
     8.3416   8.3416   8.4606

          k =-0.3333-0.0000-0.0000 ( 86883 PWs)   bands (ev):

   -18.0447 -18.0440 -18.0438 -18.0436 -18.0431 -18.0429 -18.0426 -18.0418
   -17.9694 -17.9693 -17.9684 -17.9684 -17.9680 -17.9671 -17.9671 -17.9654
   -17.9654 -17.9637 -17.9637 -17.9628 -17.9624 -17.9624 -17.9615 -17.9615
   -17.9456 -17.9456 -17.9456 -17.9455 -17.9455 -17.9455 -17.9455 -17.9455
   -17.9455 -17.9455 -17.9455 -17.9454 -17.9454 -17.9454 -17.9454 -17.9454
   -17.9454 -17.9454 -17.9454 -17.9453 -17.9453 -17.9453 -17.9453 -17.9452
   -11.3405 -11.2752 -11.2004 -11.1998 -11.1394 -11.1389 -11.0538 -11.0528
   -11.0524 -11.0519 -11.0519 -11.0514 -11.0511 -11.0502 -11.0498 -11.0490
   -10.9917 -10.9677 -10.9673 -10.9132 -10.9037 -10.9034 -10.8816 -10.8807
    -4.8606  -4.8606  -4.8527  -4.8487  -4.8487  -4.8378  -4.8377  -4.8372
    -4.8372  -4.8298  -4.8294  -4.8294  -4.8275  -4.8274  -4.8260  -4.8260
    -4.8250  -4.8246  -4.8234  -4.8233  -4.8180  -4.8180  -4.8132  -4.8132
    -4.4238  -4.1257  -3.8033  -3.8020  -3.4590  -3.4576  -3.0613  -2.6184
    -0.9431  -0.9417  -0.8970  -0.8956  -0.8396  -0.8379  -0.7681  -0.7663
    -0.4276  -0.4275  -0.3603  -0.3233   0.3473   0.3611   0.3615   0.3848
     0.3849   0.3975   0.4430   0.4884   0.4985   0.4986   0.5448   0.5454
     0.7033   0.7037   0.9147   0.9179   0.9194   0.9201   0.9324   0.9326
     1.0092   1.0099   1.0460   1.0467   1.0586   1.0588   1.1139   1.1141
     1.1392   1.1395   1.1423   1.1876   1.1877   1.2022   1.2024   1.2059
     1.2243   1.2245   1.2701   1.2702   1.2854   1.2855   1.3224   1.3225
     1.3589   1.3604   1.3604   1.5841   1.5842   1.6044   1.6045   1.6408
     1.7095   1.7136   2.2166   2.2178   2.6011   2.6023   3.1360   3.4164
     4.6841   4.6853   4.9403   4.9415   5.1762   5.1767   5.3984   5.3989
     5.6663   6.0152   6.0156   6.3707   6.5678   7.0829   7.2721   7.5176
     7.5180   7.5977   7.6540   7.9452   7.9458   7.9712   7.9746   7.9823
     8.0060   8.0343   8.1484   8.1540   8.1573   8.1710   8.1958   8.1971
     8.3069   8.3096   8.4359

          k = 0.0000 0.3333-0.0000 ( 86883 PWs)   bands (ev):

   -18.0446 -18.0441 -18.0438 -18.0434 -18.0433 -18.0430 -18.0424 -18.0419
   -17.9694 -17.9693 -17.9684 -17.9684 -17.9680 -17.9671 -17.9671 -17.9654
   -17.9654 -17.9637 -17.9637 -17.9628 -17.9624 -17.9624 -17.9615 -17.9615
   -17.9456 -17.9456 -17.9456 -17.9455 -17.9455 -17.9455 -17.9455 -17.9455
   -17.9455 -17.9455 -17.9454 -17.9454 -17.9454 -17.9454 -17.9454 -17.9454
   -17.9454 -17.9454 -17.9453 -17.9453 -17.9453 -17.9453 -17.9453 -17.9452
   -11.3405 -11.2752 -11.2004 -11.1998 -11.1394 -11.1388 -11.0540 -11.0529
   -11.0525 -11.0519 -11.0518 -11.0513 -11.0510 -11.0503 -11.0497 -11.0489
   -10.9917 -10.9677 -10.9673 -10.9132 -10.9037 -10.9034 -10.8816 -10.8807
    -4.8606  -4.8605  -4.8528  -4.8488  -4.8487  -4.8377  -4.8377  -4.8375
    -4.8370  -4.8299  -4.8295  -4.8294  -4.8274  -4.8273  -4.8263  -4.8259
    -4.8249  -4.8245  -4.8233  -4.8233  -4.8180  -4.8179  -4.8133  -4.8132
    -4.4238  -4.1257  -3.8033  -3.8020  -3.4590  -3.4576  -3.0613  -2.6183
    -0.9431  -0.9417  -0.8970  -0.8956  -0.8397  -0.8379  -0.7682  -0.7663
    -0.4276  -0.4274  -0.3603  -0.3234   0.3473   0.3612   0.3616   0.3846
     0.3848   0.3975   0.4431   0.4883   0.4985   0.4987   0.5448   0.5454
     0.7033   0.7037   0.9147   0.9179   0.9200   0.9207   0.9320   0.9323
     1.0090   1.0097   1.0458   1.0459   1.0590   1.0593   1.1140   1.1144
     1.1392   1.1395   1.1420   1.1876   1.1879   1.2021   1.2025   1.2059
     1.2244   1.2245   1.2709   1.2710   1.2844   1.2846   1.3224   1.3225
     1.3590   1.3602   1.3605   1.5840   1.5844   1.6044   1.6045   1.6424
     1.7079   1.7135   2.2169   2.2178   2.6013   2.6023   3.1360   3.4165
     4.6839   4.6853   4.9401   4.9415   5.1760   5.1768   5.3982   5.3989
     5.6664   6.0152   6.0158   6.3707   6.5679   7.0829   7.2724   7.5176
     7.5181   7.5975   7.6547   7.9446   7.9459   7.9712   7.9749   7.9822
     8.0058   8.0343   8.1496   8.1539   8.1576   8.1959   8.1972   8.3068
     8.3094   8.4869   8.4880

          k =-0.3333 0.3333-0.0000 ( 86885 PWs)   bands (ev):

   -18.0444 -18.0440 -18.0438 -18.0435 -18.0433 -18.0431 -18.0425 -18.0419
   -17.9687 -17.9685 -17.9685 -17.9674 -17.9674 -17.9674 -17.9658 -17.9658
   -17.9650 -17.9650 -17.9635 -17.9635 -17.9634 -17.9624 -17.9624 -17.9621
   -17.9456 -17.9456 -17.9455 -17.9455 -17.9455 -17.9455 -17.9455 -17.9455
   -17.9455 -17.9455 -17.9454 -17.9454 -17.9454 -17.9454 -17.9454 -17.9454
   -17.9454 -17.9454 -17.9454 -17.9453 -17.9453 -17.9453 -17.9453 -17.9453
   -11.3165 -11.2531 -11.2531 -11.1936 -11.1803 -11.1267 -11.1265 -11.0935
   -11.0523 -11.0521 -11.0521 -11.0507 -11.0108 -11.0073 -10.9939 -10.9938
   -10.9778 -10.9776 -10.9517 -10.9257 -10.9232 -10.9036 -10.9035 -10.8981
    -4.8549  -4.8549  -4.8435  -4.8434  -4.8434  -4.8431  -4.8426  -4.8396
    -4.8344  -4.8330  -4.8329  -4.8328  -4.8318  -4.8285  -4.8265  -4.8234
    -4.8232  -4.8231  -4.8218  -4.8217  -4.8209  -4.8207  -4.8196  -4.8158
    -4.2970  -3.9941  -3.9940  -3.6714  -3.6630  -3.3100  -3.3098  -2.9194
    -0.9188  -0.8673  -0.8671  -0.8030  -0.6371  -0.5273  -0.4710  -0.4709
    -0.3725  -0.3724  -0.2866  -0.1449   0.1794   0.3313   0.3806   0.3932
     0.3935   0.3940   0.3943   0.4060   0.4066   0.4461   0.4761   0.4918
     0.5616   0.7058   0.7063   0.7590   0.7703   0.8570   0.8798   0.8801
     0.9330   0.9331   1.0289   1.0462   1.0498   1.0948   1.0950   1.0997
     1.1734   1.1890   1.2125   1.2130   1.2220   1.2351   1.2355   1.2541
     1.2777   1.2783   1.2795   1.3379   1.3529   1.3531   1.3597   1.3769
     1.3771   1.3893   1.4165   1.5332   1.5457   1.5594   1.6087   1.6097
     1.6413   1.7256   1.7266   2.1147   2.2961   2.6536   2.6547   2.9330
     4.8116   5.0566   5.0568   5.2852   5.5496   5.8934   5.8997   5.9000
     5.9803   6.1952   6.2638   6.2639   6.7918   7.1657   7.1661   7.3150
     7.3737   7.3743   7.4227   7.6714   7.6754   7.6757   7.6965   7.8900
     7.9436   7.9557   8.0184   8.0279   8.1671   8.1674   8.1709   8.1719
     8.1733   8.2721   8.2742

          k = 0.3333 0.3333 0.0000 ( 86883 PWs)   bands (ev):

   -18.0444 -18.0440 -18.0438 -18.0435 -18.0433 -18.0431 -18.0425 -18.0419
   -17.9687 -17.9685 -17.9685 -17.9674 -17.9674 -17.9674 -17.9658 -17.9658
   -17.9650 -17.9650 -17.9635 -17.9635 -17.9634 -17.9624 -17.9624 -17.9621
   -17.9456 -17.9456 -17.9455 -17.9455 -17.9455 -17.9455 -17.9455 -17.9455
   -17.9455 -17.9455 -17.9454 -17.9454 -17.9454 -17.9454 -17.9454 -17.9454
   -17.9454 -17.9454 -17.9454 -17.9453 -17.9453 -17.9453 -17.9453 -17.9453
   -11.3165 -11.2531 -11.2530 -11.1937 -11.1803 -11.1268 -11.1264 -11.0935
   -11.0523 -11.0521 -11.0521 -11.0507 -11.0108 -11.0073 -10.9939 -10.9937
   -10.9779 -10.9775 -10.9517 -10.9257 -10.9232 -10.9036 -10.9035 -10.8981
    -4.8549  -4.8548  -4.8435  -4.8434  -4.8434  -4.8431  -4.8427  -4.8396
    -4.8344  -4.8330  -4.8329  -4.8328  -4.8318  -4.8285  -4.8265  -4.8234
    -4.8232  -4.8231  -4.8218  -4.8216  -4.8209  -4.8207  -4.8196  -4.8157
    -4.2970  -3.9941  -3.9940  -3.6715  -3.6629  -3.3100  -3.3098  -2.9194
    -0.9188  -0.8673  -0.8671  -0.8030  -0.6370  -0.5273  -0.4711  -0.4709
    -0.3726  -0.3724  -0.2866  -0.1449   0.1794   0.3313   0.3806   0.3931
     0.3935   0.3941   0.3944   0.4059   0.4066   0.4461   0.4761   0.4918
     0.5616   0.7058   0.7063   0.7590   0.7704   0.8569   0.8797   0.8801
     0.9330   0.9332   1.0289   1.0461   1.0499   1.0948   1.0950   1.0997
     1.1734   1.1891   1.2125   1.2131   1.2220   1.2349   1.2354   1.2542
     1.2778   1.2785   1.2795   1.3379   1.3528   1.3532   1.3596   1.3768
     1.3772   1.3894   1.4166   1.5334   1.5458   1.5594   1.6085   1.6095
     1.6411   1.7257   1.7268   2.1146   2.2961   2.6535   2.6548   2.9330
     4.8116   5.0566   5.0568   5.2852   5.5496   5.8934   5.8997   5.9000
     5.9804   6.1952   6.2638   6.2639   6.7918   7.1657   7.1661   7.3149
     7.3736   7.3743   7.4227   7.6713   7.6754   7.6757   7.6964   7.8900
     7.9436   7.9556   8.0184   8.0279   8.1671   8.1674   8.1708   8.1718
     8.1734   8.2728   8.2746

          k = 0.0000-0.0000 0.3333 ( 86887 PWs)   bands (ev):

   -18.0446 -18.0441 -18.0437 -18.0435 -18.0433 -18.0427 -18.0427 -18.0418
   -17.9694 -17.9693 -17.9684 -17.9684 -17.9680 -17.9671 -17.9671 -17.9654
   -17.9654 -17.9637 -17.9637 -17.9628 -17.9624 -17.9624 -17.9615 -17.9614
   -17.9456 -17.9456 -17.9456 -17.9455 -17.9455 -17.9455 -17.9455 -17.9455
   -17.9455 -17.9455 -17.9455 -17.9454 -17.9454 -17.9454 -17.9454 -17.9454
   -17.9454 -17.9454 -17.9453 -17.9453 -17.9453 -17.9453 -17.9453 -17.9453
   -11.3404 -11.2750 -11.2004 -11.2004 -11.1394 -11.1394 -11.0548 -11.0519
   -11.0519 -11.0514 -11.0514 -11.0511 -11.0510 -11.0508 -11.0491 -11.0490
   -10.9923 -10.9677 -10.9677 -10.9136 -10.9037 -10.9037 -10.8813 -10.8804
    -4.8606  -4.8605  -4.8528  -4.8487  -4.8487  -4.8377  -4.8377  -4.8373
    -4.8372  -4.8298  -4.8295  -4.8294  -4.8274  -4.8274  -4.8261  -4.8260
    -4.8249  -4.8246  -4.8234  -4.8233  -4.8180  -4.8180  -4.8133  -4.8133
    -4.4236  -4.1249  -3.8031  -3.8031  -3.4581  -3.4581  -3.0626  -2.6192
    -0.9417  -0.9416  -0.8955  -0.8954  -0.8382  -0.8381  -0.7665  -0.7664
    -0.4284  -0.4283  -0.3605  -0.3246   0.3478   0.3611   0.3612   0.3847
     0.3848   0.3981   0.4437   0.4879   0.4983   0.4983   0.5447   0.5448
     0.7032   0.7032   0.9149   0.9181   0.9206   0.9207   0.9324   0.9325
     1.0095   1.0095   1.0457   1.0464   1.0585   1.0589   1.1135   1.1137
     1.1394   1.1395   1.1421   1.1874   1.1876   1.2020   1.2021   1.2061
     1.2245   1.2246   1.2710   1.2710   1.2844   1.2846   1.3224   1.3225
     1.3589   1.3604   1.3605   1.5841   1.5843   1.6044   1.6046   1.6427
     1.7077   1.7133   2.2166   2.2169   2.6016   2.6017   3.1349   3.4158
     4.6840   4.6843   4.9406   4.9408   5.1756   5.1757   5.3981   5.3982
     5.6683   6.0173   6.0173   6.3722   6.5680   7.0855   7.2727   7.5206
     7.5206   7.5974   7.6552   7.9448   7.9453   7.9713   7.9715   7.9848
     8.0056   8.0344   8.1505   8.1542   8.1545   8.1963   8.1964   8.3066
     8.3066   8.4872   8.4877

          k =-0.3333-0.0000 0.3333 ( 86894 PWs)   bands (ev):

   -18.0444 -18.0440 -18.0438 -18.0435 -18.0432 -18.0429 -18.0428 -18.0419
   -17.9687 -17.9685 -17.9684 -17.9674 -17.9674 -17.9674 -17.9659 -17.9658
   -17.9650 -17.9650 -17.9635 -17.9635 -17.9634 -17.9624 -17.9624 -17.9621
   -17.9456 -17.9455 -17.9455 -17.9455 -17.9455 -17.9455 -17.9455 -17.9455
   -17.9455 -17.9455 -17.9454 -17.9454 -17.9454 -17.9454 -17.9454 -17.9454
   -17.9454 -17.9454 -17.9454 -17.9453 -17.9453 -17.9453 -17.9453 -17.9453
   -11.3165 -11.2531 -11.2528 -11.1935 -11.1809 -11.1272 -11.1271 -11.0940
   -11.0514 -11.0512 -11.0512 -11.0498 -11.0112 -11.0077 -10.9944 -10.9938
   -10.9782 -10.9781 -10.9514 -10.9260 -10.9236 -10.9035 -10.9032 -10.8978
    -4.8549  -4.8549  -4.8437  -4.8434  -4.8432  -4.8431  -4.8426  -4.8397
    -4.8344  -4.8332  -4.8328  -4.8327  -4.8318  -4.8285  -4.8266  -4.8234
    -4.8232  -4.8230  -4.8220  -4.8215  -4.8211  -4.8206  -4.8196  -4.8158
    -4.2968  -3.9939  -3.9933  -3.6706  -3.6640  -3.3111  -3.3104  -2.9201
    -0.9174  -0.8657  -0.8656  -0.8013  -0.6376  -0.5282  -0.4718  -0.4709
    -0.3737  -0.3725  -0.2868  -0.1448   0.1794   0.3308   0.3804   0.3932
     0.3938   0.3943   0.3944   0.4061   0.4062   0.4463   0.4759   0.4916
     0.5620   0.7061   0.7064   0.7590   0.7706   0.8575   0.8794   0.8800
     0.9330   0.9335   1.0287   1.0462   1.0495   1.0944   1.0947   1.0995
     1.1730   1.1892   1.2126   1.2127   1.2222   1.2355   1.2356   1.2543
     1.2777   1.2783   1.2794   1.3379   1.3529   1.3530   1.3597   1.3768
     1.3770   1.3893   1.4166   1.5331   1.5458   1.5594   1.6088   1.6095
     1.6412   1.7259   1.7265   2.1150   2.2950   2.6530   2.6534   2.9323
     4.8106   5.0557   5.0560   5.2845   5.5506   5.8945   5.9001   5.9019
     5.9808   6.1960   6.2637   6.2653   6.7919   7.1658   7.1686   7.3165
     7.3740   7.3750   7.4242   7.6719   7.6754   7.6772   7.6972   7.8904
     7.9437   7.9566   8.0180   8.0248   8.1671   8.1676   8.1693   8.1695
     8.1701   8.2716   8.2740

          k = 0.3333-0.0000 0.3333 ( 86895 PWs)   bands (ev):

   -18.0444 -18.0440 -18.0438 -18.0435 -18.0432 -18.0429 -18.0428 -18.0419
   -17.9687 -17.9685 -17.9684 -17.9674 -17.9674 -17.9674 -17.9659 -17.9658
   -17.9650 -17.9650 -17.9635 -17.9635 -17.9634 -17.9624 -17.9624 -17.9621
   -17.9456 -17.9456 -17.9455 -17.9455 -17.9455 -17.9455 -17.9455 -17.9455
   -17.9455 -17.9455 -17.9454 -17.9454 -17.9454 -17.9454 -17.9454 -17.9454
   -17.9454 -17.9454 -17.9454 -17.9453 -17.9453 -17.9453 -17.9453 -17.9453
   -11.3165 -11.2531 -11.2528 -11.1935 -11.1809 -11.1272 -11.1271 -11.0940
   -11.0514 -11.0512 -11.0512 -11.0498 -11.0112 -11.0077 -10.9944 -10.9939
   -10.9782 -10.9781 -10.9514 -10.9260 -10.9236 -10.9035 -10.9032 -10.8978
    -4.8549  -4.8549  -4.8437  -4.8434  -4.8432  -4.8431  -4.8426  -4.8396
    -4.8344  -4.8332  -4.8328  -4.8327  -4.8318  -4.8285  -4.8266  -4.8234
    -4.8232  -4.8230  -4.8220  -4.8215  -4.8211  -4.8206  -4.8196  -4.8158
    -4.2968  -3.9939  -3.9933  -3.6706  -3.6641  -3.3111  -3.3104  -2.9201
    -0.9174  -0.8657  -0.8656  -0.8013  -0.6376  -0.5281  -0.4718  -0.4709
    -0.3737  -0.3725  -0.2869  -0.1448   0.1794   0.3308   0.3804   0.3933
     0.3935   0.3942   0.3947   0.4061   0.4062   0.4463   0.4759   0.4915
     0.5619   0.7061   0.7064   0.7590   0.7707   0.8575   0.8794   0.8800
     0.9330   0.9335   1.0287   1.0461   1.0494   1.0944   1.0947   1.0995
     1.1730   1.1894   1.2126   1.2127   1.2221   1.2352   1.2354   1.2544
     1.2779   1.2785   1.2794   1.3379   1.3529   1.3530   1.3596   1.3768
     1.3771   1.3893   1.4167   1.5333   1.5458   1.5594   1.6086   1.6093
     1.6411   1.7261   1.7267   2.1149   2.2950   2.6530   2.6535   2.9323
     4.8105   5.0557   5.0560   5.2845   5.5506   5.8944   5.9001   5.9019
     5.9808   6.1959   6.2637   6.2653   6.7919   7.1658   7.1687   7.3165
     7.3739   7.3749   7.4242   7.6720   7.6754   7.6773   7.6969   7.8904
     7.9436   7.9566   8.0180   8.0248   8.1673   8.1677   8.1694   8.1696
     8.1701   8.2730   8.2747

          k = 0.0000 0.3333 0.3333 ( 86889 PWs)   bands (ev):

   -18.0444 -18.0440 -18.0439 -18.0435 -18.0433 -18.0429 -18.0425 -18.0420
   -17.9687 -17.9685 -17.9684 -17.9674 -17.9674 -17.9674 -17.9659 -17.9658
   -17.9650 -17.9650 -17.9635 -17.9635 -17.9634 -17.9624 -17.9624 -17.9621
   -17.9456 -17.9456 -17.9455 -17.9455 -17.9455 -17.9455 -17.9455 -17.9455
   -17.9455 -17.9455 -17.9454 -17.9454 -17.9454 -17.9454 -17.9454 -17.9454
   -17.9454 -17.9454 -17.9454 -17.9453 -17.9453 -17.9453 -17.9453 -17.9453
   -11.3165 -11.2530 -11.2529 -11.1935 -11.1809 -11.1272 -11.1271 -11.0941
   -11.0513 -11.0512 -11.0512 -11.0498 -11.0112 -11.0077 -10.9944 -10.9939
   -10.9781 -10.9781 -10.9514 -10.9260 -10.9236 -10.9035 -10.9032 -10.8978
    -4.8549  -4.8548  -4.8434  -4.8434  -4.8433  -4.8432  -4.8428  -4.8396
    -4.8344  -4.8330  -4.8330  -4.8328  -4.8318  -4.8285  -4.8265  -4.8234
    -4.8233  -4.8232  -4.8217  -4.8216  -4.8208  -4.8208  -4.8196  -4.8158
    -4.2968  -3.9939  -3.9933  -3.6706  -3.6641  -3.3111  -3.3104  -2.9200
    -0.9174  -0.8657  -0.8656  -0.8013  -0.6375  -0.5282  -0.4717  -0.4710
    -0.3737  -0.3726  -0.2869  -0.1448   0.1794   0.3307   0.3805   0.3934
     0.3938   0.3940   0.3946   0.4061   0.4062   0.4463   0.4759   0.4916
     0.5619   0.7060   0.7064   0.7591   0.7707   0.8575   0.8797   0.8800
     0.9332   0.9334   1.0289   1.0463   1.0493   1.0942   1.0946   1.0994
     1.1729   1.1894   1.2125   1.2126   1.2221   1.2357   1.2358   1.2544
     1.2780   1.2780   1.2793   1.3380   1.3529   1.3529   1.3597   1.3768
     1.3769   1.3893   1.4168   1.5329   1.5461   1.5593   1.6095   1.6097
     1.6411   1.7257   1.7260   2.1149   2.2952   2.6532   2.6535   2.9324
     4.8103   5.0555   5.0558   5.2844   5.5505   5.8946   5.9001   5.9018
     5.9807   6.1960   6.2637   6.2654   6.7919   7.1659   7.1685   7.3164
     7.3741   7.3749   7.4243   7.6720   7.6755   7.6772   7.6972   7.8899
     7.9439   7.9572   8.0176   8.0248   8.1678   8.1679   8.1690   8.1695
     8.1702   8.2741   8.2742

          k =-0.3333 0.3333 0.3333 ( 86843 PWs)   bands (ev):

   -18.0442 -18.0438 -18.0438 -18.0436 -18.0434 -18.0431 -18.0426 -18.0421
   -17.9674 -17.9674 -17.9674 -17.9674 -17.9673 -17.9661 -17.9661 -17.9661
   -17.9648 -17.9648 -17.9648 -17.9635 -17.9635 -17.9634 -17.9634 -17.9634
   -17.9456 -17.9455 -17.9455 -17.9455 -17.9455 -17.9455 -17.9455 -17.9455
   -17.9455 -17.9454 -17.9454 -17.9454 -17.9454 -17.9454 -17.9454 -17.9454
   -17.9454 -17.9454 -17.9454 -17.9453 -17.9453 -17.9453 -17.9453 -17.9453
   -11.2936 -11.2327 -11.2327 -11.2325 -11.1780 -11.1779 -11.1778 -11.1358
   -11.0104 -11.0103 -11.0099 -11.0088 -11.0081 -10.9956 -10.9951 -10.9950
   -10.9670 -10.9668 -10.9666 -10.9256 -10.9250 -10.9242 -10.9241 -10.9238
    -4.8511  -4.8510  -4.8436  -4.8435  -4.8433  -4.8382  -4.8380  -4.8377
    -4.8357  -4.8355  -4.8352  -4.8339  -4.8337  -4.8333  -4.8325  -4.8324
    -4.8322  -4.8200  -4.8199  -4.8197  -4.8167  -4.8162  -4.8161  -4.8161
    -4.1691  -3.8610  -3.8610  -3.8604  -3.5318  -3.5312  -3.5311  -3.1745
    -0.6132  -0.6111  -0.5581  -0.5577  -0.5571  -0.4167  -0.4156  -0.4154
    -0.3539  -0.3536  -0.3535   0.0105   0.2057   0.2061   0.2062   0.2740
     0.2767   0.3924   0.3927   0.3929   0.3963   0.3966   0.3966   0.4294
     0.6599   0.6611   0.7400   0.7401   0.7403   0.8422   0.8424   0.8425
     0.8606   0.8608   0.8610   0.9818   0.9819   0.9821   1.0149   1.0163
     1.2877   1.2880   1.2882   1.3029   1.3073   1.3077   1.3078   1.3489
     1.3492   1.3492   1.3496   1.3753   1.3753   1.3754   1.3816   1.3818
     1.4091   1.4092   1.4094   1.5309   1.5312   1.5602   1.5606   1.5607
     1.5873   1.7696   1.7699   1.7702   2.1412   2.1416   2.1420   2.4305
     5.6483   5.6527   5.8647   5.8648   5.8656   6.0741   6.0823   6.0827
     6.0836   6.1544   6.1546   6.1562   6.9529   7.2207   7.2211   7.2236
     7.3323   7.3330   7.3335   7.3720   7.3735   7.3738   7.5309   7.5347
     7.7974   7.7978   7.7985   7.8418   7.9901   7.9982   7.9985   7.9988
     8.0068   8.0081   8.3769

          k = 0.3333 0.3333 0.3333 ( 86843 PWs)   bands (ev):

   -18.0442 -18.0438 -18.0438 -18.0436 -18.0434 -18.0431 -18.0426 -18.0421
   -17.9674 -17.9674 -17.9674 -17.9674 -17.9673 -17.9661 -17.9661 -17.9661
   -17.9648 -17.9648 -17.9648 -17.9635 -17.9635 -17.9634 -17.9634 -17.9634
   -17.9456 -17.9455 -17.9455 -17.9455 -17.9455 -17.9455 -17.9455 -17.9455
   -17.9455 -17.9454 -17.9454 -17.9454 -17.9454 -17.9454 -17.9454 -17.9454
   -17.9454 -17.9454 -17.9454 -17.9453 -17.9453 -17.9453 -17.9453 -17.9453
   -11.2936 -11.2328 -11.2327 -11.2325 -11.1780 -11.1779 -11.1778 -11.1358
   -11.0104 -11.0103 -11.0099 -11.0087 -11.0081 -10.9956 -10.9951 -10.9949
   -10.9670 -10.9669 -10.9666 -10.9255 -10.9250 -10.9242 -10.9241 -10.9238
    -4.8511  -4.8510  -4.8436  -4.8434  -4.8433  -4.8382  -4.8380  -4.8377
    -4.8357  -4.8355  -4.8352  -4.8339  -4.8337  -4.8333  -4.8325  -4.8324
    -4.8322  -4.8200  -4.8199  -4.8197  -4.8167  -4.8162  -4.8161  -4.8161
    -4.1691  -3.8610  -3.8610  -3.8604  -3.5318  -3.5312  -3.5311  -3.1745
    -0.6127  -0.6115  -0.5581  -0.5576  -0.5571  -0.4167  -0.4157  -0.4154
    -0.3539  -0.3537  -0.3535   0.0104   0.2057   0.2061   0.2063   0.2747
     0.2760   0.3923   0.3927   0.3928   0.3963   0.3967   0.3968   0.4293
     0.6602   0.6608   0.7400   0.7402   0.7403   0.8421   0.8424   0.8426
     0.8607   0.8608   0.8610   0.9818   0.9819   0.9821   1.0152   1.0159
     1.2875   1.2878   1.2882   1.3031   1.3071   1.3078   1.3079   1.3491
     1.3492   1.3492   1.3497   1.3753   1.3754   1.3755   1.3816   1.3817
     1.4091   1.4093   1.4095   1.5310   1.5313   1.5600   1.5605   1.5606
     1.5870   1.7696   1.7700   1.7704   2.1412   2.1415   2.1421   2.4304
     5.6493   5.6517   5.8647   5.8649   5.8658   6.0741   6.0822   6.0826
     6.0836   6.1544   6.1547   6.1562   6.9530   7.2209   7.2211   7.2236
     7.3324   7.3330   7.3335   7.3719   7.3733   7.3737   7.5316   7.5338
     7.7974   7.7978   7.7986   7.8417   7.9890   7.9986   7.9988   7.9990
     8.0074   8.0084   8.3770

          k = 0.0000-0.3333 0.3333 ( 86889 PWs)   bands (ev):

   -18.0444 -18.0440 -18.0439 -18.0435 -18.0433 -18.0429 -18.0425 -18.0420
   -17.9687 -17.9685 -17.9684 -17.9674 -17.9674 -17.9674 -17.9659 -17.9658
   -17.9650 -17.9650 -17.9635 -17.9635 -17.9634 -17.9624 -17.9624 -17.9621
   -17.9456 -17.9456 -17.9455 -17.9455 -17.9455 -17.9455 -17.9455 -17.9455
   -17.9455 -17.9455 -17.9454 -17.9454 -17.9454 -17.9454 -17.9454 -17.9454
   -17.9454 -17.9454 -17.9454 -17.9453 -17.9453 -17.9453 -17.9453 -17.9453
   -11.3165 -11.2530 -11.2528 -11.1936 -11.1808 -11.1272 -11.1271 -11.0940
   -11.0513 -11.0512 -11.0512 -11.0498 -11.0112 -11.0077 -10.9944 -10.9939
   -10.9782 -10.9781 -10.9514 -10.9260 -10.9236 -10.9035 -10.9032 -10.8978
    -4.8549  -4.8548  -4.8434  -4.8434  -4.8433  -4.8432  -4.8428  -4.8396
    -4.8344  -4.8330  -4.8330  -4.8328  -4.8318  -4.8285  -4.8265  -4.8234
    -4.8233  -4.8232  -4.8217  -4.8217  -4.8208  -4.8208  -4.8196  -4.8158
    -4.2968  -3.9939  -3.9933  -3.6707  -3.6639  -3.3111  -3.3104  -2.9200
    -0.9174  -0.8657  -0.8656  -0.8013  -0.6376  -0.5282  -0.4717  -0.4710
    -0.3737  -0.3726  -0.2869  -0.1448   0.1794   0.3307   0.3804   0.3934
     0.3939   0.3940   0.3944   0.4060   0.4062   0.4463   0.4759   0.4916
     0.5619   0.7060   0.7064   0.7591   0.7707   0.8575   0.8797   0.8800
     0.9332   0.9334   1.0289   1.0463   1.0492   1.0942   1.0946   1.0994
     1.1729   1.1895   1.2125   1.2126   1.2220   1.2356   1.2357   1.2545
     1.2780   1.2781   1.2793   1.3380   1.3529   1.3530   1.3597   1.3768
     1.3768   1.3892   1.4168   1.5329   1.5461   1.5593   1.6095   1.6096
     1.6410   1.7257   1.7260   2.1149   2.2952   2.6531   2.6535   2.9324
     4.8103   5.0555   5.0558   5.2844   5.5506   5.8946   5.9001   5.9018
     5.9808   6.1959   6.2637   6.2654   6.7919   7.1659   7.1685   7.3164
     7.3741   7.3749   7.4242   7.6721   7.6755   7.6773   7.6971   7.8899
     7.9438   7.9572   8.0175   8.0248   8.1678   8.1680   8.1690   8.1695
     8.1700   8.2741   8.2743

          k =-0.3333-0.3333 0.3333 ( 86843 PWs)   bands (ev):

   -18.0442 -18.0438 -18.0438 -18.0436 -18.0434 -18.0431 -18.0426 -18.0421
   -17.9674 -17.9674 -17.9674 -17.9674 -17.9673 -17.9661 -17.9661 -17.9661
   -17.9648 -17.9648 -17.9648 -17.9635 -17.9635 -17.9634 -17.9634 -17.9634
   -17.9456 -17.9455 -17.9455 -17.9455 -17.9455 -17.9455 -17.9455 -17.9455
   -17.9455 -17.9454 -17.9454 -17.9454 -17.9454 -17.9454 -17.9454 -17.9454
   -17.9454 -17.9454 -17.9454 -17.9453 -17.9453 -17.9453 -17.9453 -17.9453
   -11.2936 -11.2328 -11.2327 -11.2325 -11.1780 -11.1779 -11.1778 -11.1358
   -11.0104 -11.0103 -11.0099 -11.0087 -11.0082 -10.9955 -10.9951 -10.9949
   -10.9670 -10.9668 -10.9666 -10.9255 -10.9251 -10.9242 -10.9241 -10.9238
    -4.8511  -4.8510  -4.8436  -4.8434  -4.8433  -4.8382  -4.8380  -4.8377
    -4.8357  -4.8355  -4.8352  -4.8339  -4.8338  -4.8333  -4.8325  -4.8324
    -4.8322  -4.8200  -4.8199  -4.8197  -4.8167  -4.8162  -4.8161  -4.8161
    -4.1691  -3.8610  -3.8610  -3.8604  -3.5318  -3.5312  -3.5311  -3.1745
    -0.6125  -0.6117  -0.5581  -0.5576  -0.5571  -0.4167  -0.4156  -0.4155
    -0.3539  -0.3536  -0.3535   0.0105   0.2057   0.2061   0.2063   0.2751
     0.2756   0.3924   0.3927   0.3928   0.3963   0.3966   0.3967   0.4294
     0.6604   0.6606   0.7400   0.7402   0.7403   0.8422   0.8424   0.8426
     0.8606   0.8608   0.8610   0.9818   0.9819   0.9821   1.0155   1.0157
     1.2876   1.2879   1.2882   1.3031   1.3072   1.3076   1.3079   1.3490
     1.3492   1.3492   1.3497   1.3753   1.3753   1.3755   1.3816   1.3817
     1.4091   1.4092   1.4095   1.5310   1.5313   1.5601   1.5606   1.5606
     1.5872   1.7696   1.7700   1.7703   2.1412   2.1415   2.1421   2.4304
     5.6499   5.6511   5.8647   5.8648   5.8657   6.0741   6.0821   6.0827
     6.0837   6.1544   6.1546   6.1563   6.9529   7.2208   7.2212   7.2236
     7.3325   7.3330   7.3335   7.3719   7.3733   7.3737   7.5320   7.5335
     7.7974   7.7977   7.7986   7.8418   7.9895   7.9985   7.9988   7.9989
     8.0074   8.0080   8.3771

          k = 0.3333-0.3333 0.3333 ( 86843 PWs)   bands (ev):

   -18.0442 -18.0438 -18.0438 -18.0436 -18.0434 -18.0431 -18.0426 -18.0421
   -17.9674 -17.9674 -17.9674 -17.9674 -17.9673 -17.9661 -17.9661 -17.9661
   -17.9648 -17.9648 -17.9648 -17.9635 -17.9635 -17.9634 -17.9634 -17.9634
   -17.9456 -17.9455 -17.9455 -17.9455 -17.9455 -17.9455 -17.9455 -17.9455
   -17.9455 -17.9455 -17.9454 -17.9454 -17.9454 -17.9454 -17.9454 -17.9454
   -17.9454 -17.9454 -17.9454 -17.9453 -17.9453 -17.9453 -17.9453 -17.9453
   -11.2936 -11.2327 -11.2327 -11.2325 -11.1780 -11.1779 -11.1778 -11.1358
   -11.0104 -11.0103 -11.0099 -11.0087 -11.0081 -10.9955 -10.9951 -10.9950
   -10.9670 -10.9668 -10.9666 -10.9255 -10.9250 -10.9242 -10.9241 -10.9238
    -4.8511  -4.8510  -4.8436  -4.8434  -4.8433  -4.8382  -4.8380  -4.8377
    -4.8357  -4.8355  -4.8353  -4.8339  -4.8337  -4.8332  -4.8325  -4.8324
    -4.8322  -4.8200  -4.8199  -4.8197  -4.8167  -4.8162  -4.8161  -4.8161
    -4.1691  -3.8610  -3.8610  -3.8604  -3.5318  -3.5311  -3.5311  -3.1745
    -0.6127  -0.6116  -0.5581  -0.5576  -0.5571  -0.4167  -0.4156  -0.4155
    -0.3538  -0.3537  -0.3535   0.0105   0.2057   0.2061   0.2062   0.2748
     0.2760   0.3924   0.3926   0.3929   0.3963   0.3966   0.3967   0.4294
     0.6602   0.6607   0.7400   0.7402   0.7403   0.8421   0.8424   0.8425
     0.8606   0.8609   0.8610   0.9818   0.9819   0.9821   1.0153   1.0159
     1.2877   1.2879   1.2882   1.3031   1.3073   1.3077   1.3079   1.3491
     1.3492   1.3492   1.3496   1.3753   1.3754   1.3754   1.3816   1.3817
     1.4091   1.4093   1.4095   1.5310   1.5313   1.5601   1.5605   1.5607
     1.5872   1.7696   1.7700   1.7704   2.1412   2.1416   2.1420   2.4304
     5.6494   5.6516   5.8647   5.8649   5.8657   6.0740   6.0823   6.0826
     6.0835   6.1544   6.1547   6.1562   6.9529   7.2208   7.2211   7.2237
     7.3323   7.3331   7.3335   7.3720   7.3733   7.3737   7.5317   7.5338
     7.7975   7.7977   7.7985   7.8417   7.9894   7.9985   7.9987   7.9990
     8.0072   8.0082   8.3769

     the Fermi energy is     4.2964 ev

!    total energy              =   -2925.54215757 Ry
     estimated scf accuracy    <          3.1E-09 Ry
     smearing contrib. (-TS)   =       0.00000000 Ry
     internal energy E=F+TS    =   -2925.54215757 Ry

     The total energy is F=E-TS. E is the sum of the following terms:
     one-electron contribution =   -1015.72380962 Ry
     hartree contribution      =     656.64154831 Ry
     xc contribution           =   -1236.11671941 Ry
     ewald contribution        =   -1330.34317686 Ry

     convergence has been achieved in  10 iterations

     Forces acting on atoms (cartesian axes, Ry/au):

     atom    1 type  1   force =     0.00000983   -0.00001875    0.00001084
     atom    2 type  1   force =    -0.00000239   -0.00001127   -0.00000928
     atom    3 type  1   force =     0.00000518    0.00001469   -0.00000701
     atom    4 type  1   force =    -0.00000322    0.00000907    0.00000860
     atom    5 type  1   force =     0.00000411    0.00001718   -0.00001021
     atom    6 type  1   force =    -0.00000307    0.00000277    0.00000538
     atom    7 type  1   force =     0.00000791   -0.00002220    0.00000501
     atom    8 type  1   force =    -0.00000229   -0.00000745   -0.00000990
     atom    9 type  2   force =    -0.00004234    0.00012209   -0.00004787
     atom   10 type  2   force =    -0.00008737   -0.00006092    0.00003855
     atom   11 type  2   force =    -0.00002470   -0.00008112    0.00004596
     atom   12 type  2   force =     0.00003258    0.00009669   -0.00006882
     atom   13 type  2   force =    -0.00000400   -0.00007103    0.00006343
     atom   14 type  2   force =     0.00003960    0.00010371   -0.00007166
     atom   15 type  2   force =     0.00000369    0.00010961   -0.00006140
     atom   16 type  2   force =    -0.00005406   -0.00006993    0.00003815
     atom   17 type  3   force =     0.00003217   -0.00000854   -0.00000616
     atom   18 type  3   force =    -0.00001018    0.00000633   -0.00003282
     atom   19 type  3   force =    -0.00000423    0.00001216   -0.00005693
     atom   20 type  3   force =     0.00003502    0.00000465    0.00003927
     atom   21 type  3   force =    -0.00001476    0.00001016   -0.00003935
     atom   22 type  3   force =     0.00002803    0.00000329    0.00002574
     atom   23 type  3   force =     0.00003292    0.00000237    0.00003664
     atom   24 type  3   force =    -0.00000637    0.00001117   -0.00004451
     atom   25 type  3   force =    -0.00001567   -0.00000561   -0.00007965
     atom   26 type  3   force =     0.00004273   -0.00001319    0.00008415
     atom   27 type  3   force =     0.00003987   -0.00001067    0.00008095
     atom   28 type  3   force =    -0.00002198   -0.00000523   -0.00007643
     atom   29 type  3   force =     0.00003192   -0.00001275    0.00007839
     atom   30 type  3   force =    -0.00002974   -0.00000601   -0.00007417
     atom   31 type  3   force =    -0.00002745   -0.00000420   -0.00008000
     atom   32 type  3   force =     0.00003807   -0.00001305    0.00008439
     atom   33 type  3   force =     0.00000737   -0.00008903    0.00000359
     atom   34 type  3   force =     0.00005546    0.00005559    0.00003243
     atom   35 type  3   force =    -0.00003697    0.00006497    0.00003868
     atom   36 type  3   force =     0.00000568   -0.00008503   -0.00000927
     atom   37 type  3   force =    -0.00003981    0.00006289    0.00004165
     atom   38 type  3   force =    -0.00001415   -0.00008733   -0.00000591
     atom   39 type  3   force =     0.00000301   -0.00008695   -0.00000502
     atom   40 type  3   force =    -0.00001038    0.00006089    0.00003458

     Total force =     0.000494     Total SCF correction =     0.000035
     Message from routine punch:
     Nothing written, as per user request (disk_io='none')

     init_run     :    176.65s CPU    188.61s WALL (       1 calls)
     electrons    :   6734.71s CPU   7000.53s WALL (       1 calls)
     forces       :    114.71s CPU    120.16s WALL (       1 calls)

     Called by init_run:
     wfcinit      :    152.72s CPU    159.47s WALL (       1 calls)
     potinit      :      5.02s CPU      5.57s WALL (       1 calls)
     hinit0       :      1.85s CPU      2.13s WALL (       1 calls)

     Called by electrons:
     c_bands      :   5490.84s CPU   5649.91s WALL (      11 calls)
     sum_band     :   1010.49s CPU   1071.05s WALL (      11 calls)
     v_of_rho     :     40.32s CPU     45.07s WALL (      11 calls)
     newd         :    197.19s CPU    242.74s WALL (      11 calls)
     mix_rho      :      7.10s CPU      7.41s WALL (      11 calls)

     Called by c_bands:
     init_us_2    :    122.53s CPU    122.98s WALL (     168 calls)
     cegterg      :   4566.12s CPU   4724.95s WALL (      77 calls)

     Called by *egterg:
     cdiaghg      :     36.50s CPU     39.04s WALL (     500 calls)
     h_psi        :   2928.18s CPU   3036.70s WALL (     514 calls)
     s_psi        :    316.14s CPU    316.17s WALL (     514 calls)
     g_psi        :      9.35s CPU      9.35s WALL (     430 calls)

     Called by h_psi:
     h_psi:calbec :    447.78s CPU    448.70s WALL (     514 calls)
     vloc_psi     :   2128.80s CPU   2214.80s WALL (     514 calls)
                                        0.00s GPU  (     514 calls)
     add_vuspsi   :    336.10s CPU    336.14s WALL (     514 calls)

     General routines
     calbec       :    626.73s CPU    628.04s WALL (     619 calls)
     fft          :    147.97s CPU    151.91s WALL (     153 calls)
     ffts         :      2.32s CPU      2.45s WALL (      22 calls)
     fftw         :   2030.88s CPU   2133.02s WALL (  104079 calls)
     interpolate  :      4.99s CPU      5.28s WALL (      11 calls)

     Parallel routines

     PWSCF        :      1h57m CPU      2h 2m WALL


   This run was terminated on:   9: 7:44   5Oct2026            

=------------------------------------------------------------------------------=
   JOB DONE.
=------------------------------------------------------------------------------=
