
     Program PWSCF v.7.5 starts on  5Oct2026 at  3:43:54 

     This program is part of the open-source Quantum ESPRESSO suite
     for quantum simulation of materials; please cite
         "P. Giannozzi et al., J. Phys.:Condens. Matter 21 395502 (2009);
         "P. Giannozzi et al., J. Phys.:Condens. Matter 29 465901 (2017);
         "P. Giannozzi et al., J. Chem. Phys. 152 154105 (2020);
          URL http://www.quantum-espresso.org", 
     in publications or presentations arising from this work. More details at
     http://www.quantum-espresso.org/quote

     Parallel version (MPI & OpenMP), running on       8 processor cores
     Number of MPI processes:                 8
     Threads/MPI process:                     1

     MPI processes distributed on     1 nodes
     114379 MiB available memory on the printing compute node when the environment starts

     Reading input from pw.in

     Current dimensions of program PWSCF are:
     Max number of different atomic species (ntypx) = 10
     Max number of k-points (npk) =  40000
     Max angular momentum in pseudopotentials (lmaxx) =  4
     file K.pbe-spn-kjpaw_psl.1.0.0.UPF: wavefunction(s)  3S renormalized
     file Nb.pbe-spn-kjpaw_psl.0.3.0.UPF: wavefunction(s)  4S 4P renormalized
     file O.pbe-n-kjpaw_psl.0.1.UPF: wavefunction(s)  2P renormalized

     IMPORTANT: XC functional enforced from input :
     Exchange-correlation= PBESOL
                           (   1   4  10   8   0   0   0)
     Any further DFT definition will be discarded
     Please, verify this is what you really want

     Message from routine setup:
     using ibrav=0 with symmetry is DISCOURAGED, use correct ibrav instead

     K-points division:     npool     =       2
     R & G space division:  proc/nbgrp/npool/nimage =       4
     Subspace diagonalization in iterative solution of the eigenvalue problem:
     a serial algorithm will be used


     Parallelization info
     --------------------
     sticks:   dense  smooth     PW     G-vecs:    dense   smooth      PW
     Min        1122     560    157                40062    14156    2107
     Max        1124     561    159                40063    14159    2108
     Sum        4493    2241    633               160249    56629    8429

     Using Slab Decomposition



     bravais-lattice index     =            0
     lattice parameter (alat)  =      10.8414  a.u.
     unit-cell volume          =     901.0287 (a.u.)^3
     number of atoms/cell      =           10
     number of atomic types    =            3
     number of electrons       =        80.00
     number of Kohn-Sham states=           48
     kinetic-energy cutoff     =      60.0000  Ry
     charge density cutoff     =     480.0000  Ry
     scf convergence threshold =      1.0E-09
     mixing beta               =       0.4000
     number of iterations used =            8  plain     mixing
     Exchange-correlation= PBESOL
                           (   1   4  10   8   0   0   0)

     celldm(1)=  10.841379  celldm(2)=   0.000000  celldm(3)=   0.000000
     celldm(4)=   0.000000  celldm(5)=   0.000000  celldm(6)=   0.000000

     crystal axes: (cart. coord. in units of alat)
               a(1) = (   0.000000  -0.707107  -0.707107 )  
               a(2) = (   0.000000  -0.707107   0.707107 )  
               a(3) = (  -0.707107   0.000000   0.000000 )  

     reciprocal axes: (cart. coord. in units 2 pi/alat)
               b(1) = ( -0.000000 -0.707107 -0.707107 )  
               b(2) = (  0.000000 -0.707107  0.707107 )  
               b(3) = ( -1.414214 -0.000000  0.000000 )  


     PseudoPot. # 1 for K  read from file:
     /root/sssp/K.pbe-spn-kjpaw_psl.1.0.0.UPF
     MD5 check sum: 7d58810084cac21f60fbe77ea2b688fd
     Pseudo is Projector augmented-wave + core cor, Zval =  9.0
     Generated using "atomic" code by A. Dal Corso  v.5.1
     Shape of augmentation charge: PSQ
     Using radial grid of 1165 points,  6 beta functions with: 
                l(1) =   0
                l(2) =   0
                l(3) =   1
                l(4) =   1
                l(5) =   2
                l(6) =   2
     Q(r) pseudized with 0 coefficients 


     PseudoPot. # 2 for Nb read from file:
     /root/sssp/Nb.pbe-spn-kjpaw_psl.0.3.0.UPF
     MD5 check sum: 411d72ad547312f8017e2943ceca08cc
     Pseudo is Projector augmented-wave + core cor, Zval = 13.0
     Generated using "atomic" code by A. Dal Corso  v.5.0.99 svn rev. 10869
     Shape of augmentation charge: PSQ
     Using radial grid of 1227 points,  6 beta functions with: 
                l(1) =   0
                l(2) =   0
                l(3) =   1
                l(4) =   1
                l(5) =   2
                l(6) =   2
     Q(r) pseudized with 0 coefficients 


     PseudoPot. # 3 for O  read from file:
     /root/sssp/O.pbe-n-kjpaw_psl.0.1.UPF
     MD5 check sum: 0234752ac141de4415c5fc33072bef88
     Pseudo is Projector augmented-wave + core cor, Zval =  6.0
     Generated using "atomic" code by A. Dal Corso  v.5.0.99 svn rev. 10869
     Shape of augmentation charge: BESSEL
     Using radial grid of 1095 points,  4 beta functions with: 
                l(1) =   0
                l(2) =   0
                l(3) =   1
                l(4) =   1
     Q(r) pseudized with 0 coefficients 


     atomic species   valence    mass     pseudopotential
     K                 9.00    39.09830     K ( 1.00)
     Nb               13.00    92.90640     Nb( 1.00)
     O                 6.00    15.99900     O ( 1.00)

     16 Sym. Ops., with inversion, found ( 8 have fractional translation)



   Cartesian axes

     site n.     atom                  positions (alat units)
         1        K      tau(   1) = (  -0.7071068  -0.7071068   0.0000000  )
         2        K      tau(   2) = (   0.0000000   0.0000000   0.0000000  )
         3        Nb     tau(   3) = (  -0.3777627  -0.3535534  -0.3535534  )
         4        Nb     tau(   4) = (  -0.3293441  -0.3535534   0.3535534  )
         5        O      tau(   5) = (  -0.6914725  -0.3535534  -0.3535534  )
         6        O      tau(   6) = (  -0.0156343  -0.3535534   0.3535534  )
         7        O      tau(   7) = (  -0.3535534  -0.7071068   0.3535534  )
         8        O      tau(   8) = (  -0.3535534  -0.7071068  -0.3535534  )
         9        O      tau(   9) = (  -0.3535534  -1.0606602   0.0000000  )
        10        O      tau(  10) = (  -0.3535534  -0.3535534   0.0000000  )

     number of k points=    24  Marzari-Vanderbilt smearing, width (Ry)=  0.0050
                       cart. coord. in units 2pi/alat
        k(    1) = (   0.0000000  -0.0000000   0.0000000), wk =   0.0114286
        k(    2) = (  -0.2020305  -0.0000000   0.0000000), wk =   0.0228571
        k(    3) = (  -0.4040610  -0.0000000   0.0000000), wk =   0.0228571
        k(    4) = (  -0.6060915  -0.0000000   0.0000000), wk =   0.0228571
        k(    5) = (   0.0000000  -0.1414214   0.1414214), wk =   0.0457143
        k(    6) = (  -0.2020305  -0.1414214   0.1414214), wk =   0.0914286
        k(    7) = (  -0.4040610  -0.1414214   0.1414214), wk =   0.0914286
        k(    8) = (  -0.6060915  -0.1414214   0.1414214), wk =   0.0914286
        k(    9) = (   0.0000000  -0.2828427   0.2828427), wk =   0.0457143
        k(   10) = (  -0.2020305  -0.2828427   0.2828427), wk =   0.0914286
        k(   11) = (  -0.4040610  -0.2828427   0.2828427), wk =   0.0914286
        k(   12) = (  -0.6060915  -0.2828427   0.2828427), wk =   0.0914286
        k(   13) = (   0.0000000  -0.2828427   0.0000000), wk =   0.0457143
        k(   14) = (  -0.2020305  -0.2828427   0.0000000), wk =   0.0914286
        k(   15) = (  -0.4040610  -0.2828427   0.0000000), wk =   0.0914286
        k(   16) = (  -0.6060915  -0.2828427   0.0000000), wk =   0.0914286
        k(   17) = (   0.0000000  -0.4242641   0.1414214), wk =   0.0914286
        k(   18) = (  -0.2020305  -0.4242641   0.1414214), wk =   0.1828571
        k(   19) = (  -0.4040610  -0.4242641   0.1414214), wk =   0.1828571
        k(   20) = (  -0.6060915  -0.4242641   0.1414214), wk =   0.1828571
        k(   21) = (   0.0000000  -0.5656854   0.0000000), wk =   0.0457143
        k(   22) = (  -0.2020305  -0.5656854   0.0000000), wk =   0.0914286
        k(   23) = (  -0.4040610  -0.5656854   0.0000000), wk =   0.0914286
        k(   24) = (  -0.6060915  -0.5656854   0.0000000), wk =   0.0914286

     Dense  grid:   160249 G-vectors     FFT dimensions: (  80,  80,  54)

     Smooth grid:    56629 G-vectors     FFT dimensions: (  54,  54,  40)

     Estimated max dynamical RAM per process >     112.47 MB

     Estimated total dynamical RAM >     860.66 MB

     Check: negative core charge=   -0.000003

     Initial potential from superposition of free atoms

     starting charge      79.9581, renormalised to      80.0000
     Starting wfcs are   60 randomized atomic wfcs
     Checking if some PAW data can be deallocated... 

     total cpu time spent up to now is        4.0 secs

     per-process dynamical memory:    62.1 Mb

     Self-consistent Calculation

     iteration #  1     ecut=    60.00 Ry     beta= 0.40
     Davidson diagonalization with overlap
     ethr =  1.00E-02,  avg # of iterations =  2.0

     total cpu time spent up to now is        9.4 secs

     total energy              =   -1129.66019597 Ry
     estimated scf accuracy    <       4.59928541 Ry

     iteration #  2     ecut=    60.00 Ry     beta= 0.40
     Davidson diagonalization with overlap
     ethr =  5.75E-03,  avg # of iterations =  4.0
     Minimization algorithm failed to find Fermi energy: reverting to bisection
     Possible cause: smearing is larger than the electronic band-gap.

     total cpu time spent up to now is       15.2 secs

     total energy              =   -1130.83394483 Ry
     estimated scf accuracy    <       1.27448843 Ry

     iteration #  3     ecut=    60.00 Ry     beta= 0.40
     Davidson diagonalization with overlap
     ethr =  1.59E-03,  avg # of iterations =  2.5

     total cpu time spent up to now is       21.1 secs

     total energy              =   -1131.09403975 Ry
     estimated scf accuracy    <       0.06739330 Ry

     iteration #  4     ecut=    60.00 Ry     beta= 0.40
     Davidson diagonalization with overlap
     ethr =  8.42E-05,  avg # of iterations =  8.5

     total cpu time spent up to now is       28.2 secs

     total energy              =   -1131.09813541 Ry
     estimated scf accuracy    <       0.01579044 Ry

     iteration #  5     ecut=    60.00 Ry     beta= 0.40
     Davidson diagonalization with overlap
     ethr =  1.97E-05,  avg # of iterations =  4.9

     total cpu time spent up to now is       35.2 secs

     total energy              =   -1131.10042221 Ry
     estimated scf accuracy    <       0.00725696 Ry

     iteration #  6     ecut=    60.00 Ry     beta= 0.40
     Davidson diagonalization with overlap
     ethr =  9.07E-06,  avg # of iterations =  2.5

     total cpu time spent up to now is       40.9 secs

     total energy              =   -1131.10044577 Ry
     estimated scf accuracy    <       0.00084371 Ry

     iteration #  7     ecut=    60.00 Ry     beta= 0.40
     Davidson diagonalization with overlap
     ethr =  1.05E-06,  avg # of iterations =  6.4

     total cpu time spent up to now is       47.7 secs

     total energy              =   -1131.10081488 Ry
     estimated scf accuracy    <       0.00129298 Ry

     iteration #  8     ecut=    60.00 Ry     beta= 0.40
     Davidson diagonalization with overlap
     ethr =  1.05E-06,  avg # of iterations =  2.0

     total cpu time spent up to now is       53.1 secs

     total energy              =   -1131.10089470 Ry
     estimated scf accuracy    <       0.00010599 Ry

     iteration #  9     ecut=    60.00 Ry     beta= 0.40
     Davidson diagonalization with overlap
     ethr =  1.32E-07,  avg # of iterations =  3.7

     total cpu time spent up to now is       59.3 secs

     total energy              =   -1131.10091749 Ry
     estimated scf accuracy    <       0.00000271 Ry

     iteration # 10     ecut=    60.00 Ry     beta= 0.40
     Davidson diagonalization with overlap
     ethr =  3.39E-09,  avg # of iterations =  4.6

     total cpu time spent up to now is       66.5 secs

     total energy              =   -1131.10091929 Ry
     estimated scf accuracy    <       0.00000274 Ry

     iteration # 11     ecut=    60.00 Ry     beta= 0.40
     Davidson diagonalization with overlap
     ethr =  3.39E-09,  avg # of iterations =  1.0

     total cpu time spent up to now is       71.4 secs

     total energy              =   -1131.10091868 Ry
     estimated scf accuracy    <       0.00000141 Ry

     iteration # 12     ecut=    60.00 Ry     beta= 0.40
     Davidson diagonalization with overlap
     ethr =  1.76E-09,  avg # of iterations =  2.8

     total cpu time spent up to now is       77.2 secs

     total energy              =   -1131.10091897 Ry
     estimated scf accuracy    <          6.4E-09 Ry

     iteration # 13     ecut=    60.00 Ry     beta= 0.40
     Davidson diagonalization with overlap
     ethr =  7.97E-12,  avg # of iterations =  5.3

     total cpu time spent up to now is       84.6 secs

     total energy              =   -1131.10091897 Ry
     estimated scf accuracy    <          4.0E-09 Ry

     iteration # 14     ecut=    60.00 Ry     beta= 0.40
     Davidson diagonalization with overlap
     ethr =  5.02E-12,  avg # of iterations =  2.9

     total cpu time spent up to now is       89.9 secs

     End of self-consistent calculation

          k = 0.0000-0.0000 0.0000 (  7107 PWs)   bands (ev):

   -46.8805 -46.8770 -23.2406 -23.2348 -23.0508 -23.0508 -22.9434 -22.9434
   -19.3937 -19.3614  -9.1913  -9.0632  -8.7202  -8.5227  -7.7691  -7.7691
    -3.0220  -3.0220  -3.0140  -3.0140  -2.9810  -2.8954   2.8481   3.1263
     3.6441   4.9522   4.9522   5.5983   5.5983   5.6729   5.6917   5.6917
     5.9876   6.6753   6.6753   6.9606   6.9677   7.2209   7.2209   7.9438
     9.4242   9.8727   9.8727  12.2776  12.2776  12.9095  12.9518  13.1348

          k =-0.2020-0.0000 0.0000 (  7087 PWs)   bands (ev):

   -46.8802 -46.8766 -23.2628 -23.2563 -23.0499 -23.0499 -22.9426 -22.9426
   -19.3894 -19.3591  -9.0723  -8.8975  -8.6943  -8.5187  -7.7556  -7.7556
    -3.0624  -3.0624  -3.0082  -3.0082  -2.9580  -2.9551   2.8501   3.1154
     3.7515   4.5935   4.5935   5.0060   5.3841   5.3863   5.3863   5.9619
     5.9619   6.6379   6.7891   6.7891   6.8795   7.2001   7.2001   7.9507
     9.4443  10.3185  10.3185  12.4098  12.4098  12.9269  12.9563  13.7944

          k =-0.4041-0.0000 0.0000 (  7055 PWs)   bands (ev):

   -46.8793 -46.8758 -23.3120 -23.3040 -23.0478 -23.0478 -22.9409 -22.9409
   -19.3798 -19.3538  -8.9468  -8.5097  -8.5008  -8.4678  -7.7247  -7.7247
    -3.1533  -3.1533  -3.0838  -2.9953  -2.9953  -2.9056   2.8545   3.0183
     3.7268   3.9899   4.1289   4.1289   4.1305   5.1223   5.1223   5.8911
     5.8911   6.2517   6.6922   7.1552   7.1552   7.2784   7.2784   7.9665
     9.4902  11.2444  11.2444  12.7730  12.7730  12.9645  12.9645  14.6659

          k =-0.6061-0.0000 0.0000 (  7047 PWs)   bands (ev):

   -46.8787 -46.8751 -23.3508 -23.3417 -23.0462 -23.0462 -22.9395 -22.9395
   -19.3722 -19.3495  -8.9446  -8.5025  -8.1615  -8.1451  -7.6992  -7.6992
    -3.2265  -3.2265  -3.1821  -2.9849  -2.9849  -2.8625   2.6111   2.8481
     2.8579   3.5248   3.8721   3.8721   4.1787   4.9158   4.9158   5.8056
     5.8056   6.0192   6.5514   7.1286   7.1286   7.6274   7.6274   7.9792
     9.5278  11.9759  11.9759  12.9698  12.9931  13.1666  13.1666  15.2276

          k = 0.0000-0.1414 0.1414 (  7077 PWs)   bands (ev):

   -46.8802 -46.8773 -23.2401 -23.2354 -23.0411 -23.0407 -22.9543 -22.9538
   -19.3894 -19.3633  -9.1763  -9.0791  -8.6508  -8.4570  -7.8769  -7.8484
    -3.0236  -3.0163  -2.9951  -2.9867  -2.9737  -2.9054   3.1090   3.3779
     3.8443   4.9915   5.0349   5.3347   5.4290   5.5024   5.6523   5.7857
     6.0313   6.4398   6.5843   6.7018   6.7910   6.8547   7.0867   7.8112
     9.9618  10.0967  10.1785  12.0216  12.0693  12.6237  13.3643  13.5840

          k =-0.2020-0.1414 0.1414 (  7090 PWs)   bands (ev):

   -46.8798 -46.8769 -23.2622 -23.2569 -23.0402 -23.0398 -22.9535 -22.9530
   -19.3856 -19.3611  -9.0408  -8.9135  -8.6387  -8.4524  -7.8675  -7.8361
    -3.0590  -3.0461  -3.0145  -3.0028  -2.9387  -2.9347   3.1108   3.3626
     3.9232   4.6106   4.6667   4.9600   5.1598   5.2581   5.4101   5.7511
     5.7910   6.5883   6.6430   6.7255   6.7756   6.8894   7.0679   7.8146
     9.9754  10.4853  10.5402  12.1730  12.2086  12.6414  13.5886  14.0778

          k =-0.4041-0.1414 0.1414 (  7088 PWs)   bands (ev):

   -46.8790 -46.8761 -23.3112 -23.3047 -23.0381 -23.0378 -22.9516 -22.9513
   -19.3770 -19.3560  -8.8581  -8.5158  -8.4642  -8.4418  -7.8468  -7.8079
    -3.1389  -3.1364  -3.0281  -3.0108  -2.9931  -2.8989   3.1148   3.2179
     3.7179   3.9629   4.1914   4.1957   4.2837   4.8161   4.9638   5.6302
     5.6479   6.4616   6.6537   6.8333   7.0053   7.2077   7.2554   7.8208
    10.0161  11.3375  11.3648  12.5662  12.5941  12.6857  13.5965  15.0075

          k =-0.6061-0.1414 0.1414 (  7059 PWs)   bands (ev):

   -46.8784 -46.8754 -23.3499 -23.3424 -23.0363 -23.0361 -22.9501 -22.9499
   -19.3702 -19.3518  -8.8403  -8.4332  -8.1699  -8.1565  -7.8327  -7.7848
    -3.2035  -3.1778  -3.1298  -3.0080  -2.9697  -2.8830   2.6720   2.8412
     3.1182   3.7024   3.8459   3.9285   4.3162   4.5596   4.7339   5.5428
     5.5973   6.3649   6.6184   6.7570   6.9650   7.5249   7.5762   7.8168
    10.0499  12.0354  12.0580  12.7049  12.9918  13.0067  13.6027  15.5696

          k = 0.0000-0.2828 0.2828 (  7108 PWs)   bands (ev):

   -46.8793 -46.8782 -23.2387 -23.2369 -23.0154 -23.0141 -22.9822 -22.9809
   -19.3794 -19.3695  -9.1478  -9.1140  -8.4411  -8.2796  -8.1434  -8.0477
    -3.0245  -3.0212  -2.9579  -2.9453  -2.9438  -2.9295   3.8165   3.9973
     4.4606   4.7185   4.7403   5.0969   5.2601   5.2803   5.4304   5.5068
     5.8988   6.1315   6.3734   6.4189   6.5094   6.6086   7.1926   7.5015
    10.6709  10.8487  10.9158  11.4150  11.5491  11.8905  13.8033  14.1919

          k =-0.2020-0.2828 0.2828 (  7087 PWs)   bands (ev):

   -46.8789 -46.8778 -23.2606 -23.2585 -23.0143 -23.0132 -22.9813 -22.9801
   -19.3765 -19.3672  -8.9905  -8.9495  -8.4434  -8.2729  -8.1425  -8.0382
    -3.0477  -3.0303  -3.0209  -3.0058  -2.8992  -2.8960   3.8171   3.9638
     4.4124   4.6163   4.7104   4.7359   4.8279   4.8937   5.2271   5.3663
     5.4754   5.7497   6.6142   6.6736   6.7074   6.7754   7.1913   7.4981
    10.9039  10.9822  11.0876  11.6096  11.7177  11.9135  14.5927  14.9992

          k =-0.4041-0.2828 0.2828 (  7070 PWs)   bands (ev):

   -46.8781 -46.8770 -23.3091 -23.3066 -23.0121 -23.0113 -22.9791 -22.9782
   -19.3700 -19.3620  -8.6593  -8.5556  -8.4014  -8.2577  -8.1401  -8.0164
    -3.1003  -3.0825  -3.0512  -3.0231  -2.9310  -2.8865   3.5752   3.6901
     3.8185   3.9848   4.2986   4.3673   4.5941   4.6270   4.7145   4.8826
     5.0757   5.6138   6.8315   6.9696   7.0515   7.0895   7.2315   7.4914
    10.9829  11.6243  11.7126  11.9582  12.1290  12.1859  14.9723  15.7714

          k =-0.6061-0.2828 0.2828 (  7049 PWs)   bands (ev):

   -46.8775 -46.8763 -23.3474 -23.3445 -23.0102 -23.0097 -22.9773 -22.9768
   -19.3648 -19.3578  -8.5575  -8.2455  -8.2202  -8.1718  -8.1278  -7.9987
    -3.1431  -3.0795  -3.0684  -3.0126  -2.9851  -2.9265   2.7587   2.8141
     3.8140   3.8205   4.0122   4.0949   4.3565   4.4091   4.7717   4.8237
     4.9663   5.6345   6.8731   7.0215   7.1322   7.2617   7.3860   7.4707
    11.0246  11.9629  12.2675  12.3074  12.6142  12.6742  14.9673  16.3042

          k = 0.0000-0.2828 0.0000 (  7071 PWs)   bands (ev):

   -46.8799 -46.8776 -23.2396 -23.2358 -23.0530 -23.0128 -22.9832 -22.9421
   -19.3857 -19.3647  -9.1790  -9.0968  -8.6558  -8.3213  -8.1098  -7.7506
    -3.0090  -3.0024  -2.9834  -2.9749  -2.9678  -2.9139   2.9718   3.9507
     4.0301   4.7597   4.9976   5.1191   5.4171   5.5674   5.5966   5.8157
     6.0587   6.2853   6.3418   6.5883   6.7402   6.9188   6.9316   7.6353
     9.9054  10.4024  10.7426  11.4815  12.2662  12.4536  13.1466  14.1565

          k =-0.2020-0.2828 0.0000 (  7069 PWs)   bands (ev):

   -46.8796 -46.8772 -23.2617 -23.2574 -23.0520 -23.0119 -22.9823 -22.9413
   -19.3823 -19.3625  -9.0392  -8.9316  -8.6392  -8.3230  -8.0975  -7.7451
    -3.0553  -3.0178  -3.0036  -2.9952  -2.9331  -2.9313   2.9683   3.9299
     4.0741   4.5946   4.6627   4.7900   4.9042   5.3257   5.4050   5.4569
     5.8529   6.5348   6.5425   6.6961   6.7253   6.8786   6.9300   7.6402
    10.3217  10.4374  10.9915  11.6799  12.3848  12.4756  13.4777  14.6407

          k =-0.4041-0.2828 0.0000 (  7078 PWs)   bands (ev):

   -46.8787 -46.8764 -23.3105 -23.3052 -23.0496 -23.0100 -22.9801 -22.9396
   -19.3747 -19.3577  -8.8317  -8.5349  -8.4731  -8.3235  -8.0700  -7.7329
    -3.1273  -3.0965  -3.0134  -3.0011  -2.9790  -2.9076   2.9368   3.6524
     3.7063   3.9406   4.1890   4.3558   4.4033   4.5689   5.0048   5.0501
     5.7493   6.4553   6.6934   6.7111   6.9867   7.1156   7.2718   7.6501
    10.4397  11.2655  11.6435  12.1797  12.5021  12.7491  13.6817  15.5218

          k =-0.6061-0.2828 0.0000 (  7063 PWs)   bands (ev):

   -46.8781 -46.8757 -23.3490 -23.3430 -23.0478 -23.0085 -22.9784 -22.9383
   -19.3686 -19.3538  -8.7976  -8.3288  -8.1846  -8.1679  -8.0521  -7.7232
    -3.1599  -3.1477  -3.0927  -3.0064  -2.9661  -2.9011   2.6538   2.8329
     3.1336   3.6917   4.0388   4.0974   4.2866   4.4384   4.8379   4.9284
     5.6598   6.3633   6.6850   6.6908   7.0185   7.3507   7.5887   7.6579
    10.4677  11.9865  12.2518  12.5345  12.6679  13.1351  13.7416  16.0264

          k = 0.0000-0.4243 0.1414 (  7098 PWs)   bands (ev):

   -46.8792 -46.8783 -23.2384 -23.2370 -23.0444 -23.0178 -22.9789 -22.9518
   -19.3773 -19.3693  -9.1690  -9.1359  -8.5757  -8.3792  -8.0618  -7.8324
    -3.0046  -3.0017  -2.9564  -2.9378  -2.9368  -2.9331   3.2379   3.9161
     4.5457   4.8393   5.0602   5.2294   5.2318   5.2971   5.4895   5.6759
     5.8795   5.9623   6.4343   6.4388   6.6567   6.7600   6.8688   7.2365
    10.1810  10.7906  11.2093  11.4504  11.9566  12.0345  13.4726  13.9936

          k =-0.2020-0.4243 0.1414 (  7080 PWs)   bands (ev):

   -46.8788 -46.8779 -23.2603 -23.2586 -23.0433 -23.0167 -22.9781 -22.9510
   -19.3747 -19.3672  -9.0168  -8.9738  -8.5614  -8.3674  -8.0665  -7.8337
    -3.0325  -3.0045  -2.9956  -2.9905  -2.9092  -2.9064   3.2308   3.8971
     4.4058   4.6222   4.7248   4.8250   4.9708   5.1441   5.1864   5.4399
     5.5959   6.0519   6.5815   6.6617   6.7295   6.7922   6.9168   7.2450
    10.5544  11.0600  11.2288  11.6137  11.9729  12.1641  13.9621  14.6826

          k =-0.4041-0.4243 0.1414 (  7069 PWs)   bands (ev):

   -46.8780 -46.8771 -23.3087 -23.3067 -23.0407 -23.0143 -22.9763 -22.9493
   -19.3690 -19.3625  -8.7264  -8.5971  -8.4534  -8.3285  -8.0760  -7.8367
    -3.0697  -3.0550  -3.0284  -3.0021  -2.9336  -2.9030   3.1716   3.6065
     3.8001   3.9474   3.9886   4.2715   4.5603   4.7668   4.8507   5.1987
     5.3438   6.0612   6.6589   6.8123   6.9276   7.1436   7.1927   7.3312
    11.2346  11.4008  11.7286  11.9926  12.1101  12.5412  14.3605  15.4737

          k =-0.6061-0.4243 0.1414 (  7060 PWs)   bands (ev):

   -46.8774 -46.8765 -23.3469 -23.3447 -23.0387 -23.0124 -22.9748 -22.9479
   -19.3643 -19.3587  -8.6447  -8.3853  -8.1848  -8.1762  -8.0829  -7.8394
    -3.1040  -3.0584  -3.0448  -2.9972  -2.9757  -2.9335   2.7264   2.8027
     3.3724   3.6102   3.7523   3.9941   4.3703   4.6195   4.7843   5.1393
     5.2923   6.0675   6.6544   6.8247   7.0390   7.2131   7.3473   7.5463
    11.2743  12.0041  12.0999  12.3221  12.5947  12.9549  14.4678  15.6133

          k = 0.0000-0.5657 0.0000 (  7053 PWs)   bands (ev):

   -46.8789 -46.8785 -23.2379 -23.2374 -23.0566 -23.0465 -22.9504 -22.9399
   -19.3730 -19.3699  -9.1965  -9.1800  -8.6379  -8.5712  -7.8153  -7.7212
    -2.9847  -2.9834  -2.9517  -2.9434  -2.9117  -2.9107   2.9917   3.2465
     5.0197   5.0495   5.0992   5.3071   5.4511   5.4749   5.5222   5.7420
     5.8025   5.8248   6.2958   6.6181   6.6639   6.7202   6.8556   6.8740
     9.9605  10.2127  11.6871  11.9602  12.0156  12.2455  13.1828  13.4877

          k =-0.2020-0.5657 0.0000 (  7057 PWs)   bands (ev):

   -46.8785 -46.8782 -23.2597 -23.2590 -23.0553 -23.0453 -22.9496 -22.9392
   -19.3710 -19.3681  -9.0486  -9.0259  -8.6130  -8.5500  -7.8247  -7.7289
    -2.9999  -2.9739  -2.9689  -2.9397  -2.9352  -2.9216   2.9848   3.2372
     4.4138   4.4825   5.0717   5.1109   5.1178   5.1946   5.2406   5.5315
     6.0031   6.2355   6.3210   6.6665   6.6702   6.6811   6.8313   6.9365
    10.3914  10.5890  11.6947  11.9690  12.1339  12.3552  13.5990  13.9806

          k =-0.4041-0.5657 0.0000 (  7056 PWs)   bands (ev):

   -46.8777 -46.8774 -23.3079 -23.3071 -23.0525 -23.0425 -22.9479 -22.9376
   -19.3665 -19.3640  -8.7771  -8.7120  -8.4713  -8.4450  -7.8455  -7.7466
    -3.0128  -3.0064  -3.0002  -2.9525  -2.9475  -2.9367   2.9436   3.1728
     3.7609   3.7636   3.8796   3.9677   4.8075   4.9340   5.1065   5.4209
     6.0081   6.4047   6.4411   6.6196   6.7149   6.7296   7.2743   7.3150
    11.2939  11.4164  11.7131  11.9896  12.5052  12.6947  14.0061  14.4808

          k =-0.6061-0.5657 0.0000 (  7060 PWs)   bands (ev):

   -46.8771 -46.8767 -23.3460 -23.3451 -23.0503 -23.0403 -22.9466 -22.9362
   -19.3629 -19.3607  -8.6889  -8.5951  -8.1973  -8.1951  -7.8624  -7.7611
    -3.0522  -3.0311  -3.0061  -2.9676  -2.9538  -2.9351   2.6818   2.7505
     3.1919   3.3786   3.4023   3.4678   4.5791   4.7096   5.0852   5.3377
     5.9858   6.3974   6.5440   6.6014   6.7473   6.7980   7.5315   7.5979
    11.7244  11.9861  12.0296  12.0948  12.9202  13.0792  14.1421  14.6243

     the Fermi energy is     8.9163 ev

!    total energy              =   -1131.10091897 Ry
     total all-electron energy =    -18578.073649 Ry
     estimated scf accuracy    <          2.7E-10 Ry
     smearing contrib. (-TS)   =      -0.00000000 Ry
     internal energy E=F+TS    =   -1131.10091897 Ry

     The total energy is F=E-TS. E is the sum of the following terms:
     one-electron contribution =    -148.62426971 Ry
     hartree contribution      =     118.81059440 Ry
     xc contribution           =    -123.52566910 Ry
     ewald contribution        =    -405.91562243 Ry
     one-center paw contrib.   =    -571.84595215 Ry

     convergence has been achieved in  14 iterations

     Forces acting on atoms (cartesian axes, Ry/au):

     atom    1 type  1   force =     0.00000000   -0.00000000    0.00000000
     atom    2 type  1   force =     0.00000000   -0.00000000    0.00000000
     atom    3 type  2   force =     0.03730658    0.00000000    0.00000000
     atom    4 type  2   force =    -0.03730658   -0.00000000    0.00000000
     atom    5 type  3   force =    -0.05129237   -0.00000000    0.00000000
     atom    6 type  3   force =     0.05129237    0.00000000    0.00000000
     atom    7 type  3   force =     0.00000000   -0.00000000    0.00000000
     atom    8 type  3   force =     0.00000000    0.00000000   -0.00000000
     atom    9 type  3   force =    -0.00000000   -0.00000000   -0.00000000
     atom   10 type  3   force =    -0.00000000    0.00000000   -0.00000000

     Total force =     0.089696     Total SCF correction =     0.000015
     Message from routine punch:
     Nothing written, as per user request (disk_io='none')

     init_run     :      2.90s CPU      3.50s WALL (       1 calls)
     electrons    :     71.74s CPU     85.84s WALL (       1 calls)
     forces       :      0.79s CPU      1.06s WALL (       1 calls)

     Called by init_run:
     wfcinit      :      1.13s CPU      1.24s WALL (       1 calls)
     potinit      :      0.77s CPU      0.96s WALL (       1 calls)
     hinit0       :      0.63s CPU      0.67s WALL (       1 calls)

     Called by electrons:
     c_bands      :     46.87s CPU     50.75s WALL (      14 calls)
     sum_band     :     11.55s CPU     15.57s WALL (      14 calls)
     v_of_rho     :      1.43s CPU      1.54s WALL (      15 calls)
     newd         :      3.99s CPU      8.02s WALL (      15 calls)
     PAW_pot      :      8.26s CPU     10.70s WALL (      15 calls)
     mix_rho      :      0.17s CPU      0.19s WALL (      14 calls)

     Called by c_bands:
     init_us_2    :      1.91s CPU      1.92s WALL (     360 calls)
     cegterg      :     42.65s CPU     46.52s WALL (     168 calls)

     Called by *egterg:
     cdiaghg      :      2.43s CPU      2.45s WALL (     832 calls)
     h_psi        :     26.39s CPU     30.14s WALL (     844 calls)
     s_psi        :      2.36s CPU      2.37s WALL (     844 calls)
     g_psi        :      0.19s CPU      0.19s WALL (     664 calls)

     Called by h_psi:
     h_psi:calbec :      4.99s CPU      5.18s WALL (     844 calls)
     vloc_psi     :     17.22s CPU     20.73s WALL (     844 calls)
                                        0.00s GPU  (     844 calls)
     add_vuspsi   :      3.46s CPU      3.48s WALL (     844 calls)

     General routines
     calbec       :      6.29s CPU      6.55s WALL (    1060 calls)
     fft          :      0.86s CPU      1.03s WALL (     204 calls)
     ffts         :      0.16s CPU      0.16s WALL (      29 calls)
     fftw         :     17.46s CPU     21.15s WALL (   50482 calls)
     interpolate  :      0.22s CPU      0.24s WALL (      15 calls)

     Parallel routines

     PWSCF        :   1m15.91s CPU   1m30.97s WALL


   This run was terminated on:   3:45:25   5Oct2026            

=------------------------------------------------------------------------------=
   JOB DONE.
=------------------------------------------------------------------------------=
