
     Program PWSCF v.7.5 starts on  5Oct2026 at  1:50:48 

     This program is part of the open-source Quantum ESPRESSO suite
     for quantum simulation of materials; please cite
         "P. Giannozzi et al., J. Phys.:Condens. Matter 21 395502 (2009);
         "P. Giannozzi et al., J. Phys.:Condens. Matter 29 465901 (2017);
         "P. Giannozzi et al., J. Chem. Phys. 152 154105 (2020);
          URL http://www.quantum-espresso.org", 
     in publications or presentations arising from this work. More details at
     http://www.quantum-espresso.org/quote

     Parallel version (MPI & OpenMP), running on       8 processor cores
     Number of MPI processes:                 8
     Threads/MPI process:                     1

     MPI processes distributed on     1 nodes
     117335 MiB available memory on the printing compute node when the environment starts

     Reading input from pw.in

     Current dimensions of program PWSCF are:
     Max number of different atomic species (ntypx) = 10
     Max number of k-points (npk) =  40000
     Max angular momentum in pseudopotentials (lmaxx) =  4
     file Ba.pbe-spn-kjpaw_psl.1.0.0.UPF: wavefunction(s)  5S 6S renormalized
     file O.pbe-n-kjpaw_psl.0.1.UPF: wavefunction(s)  2P renormalized

     IMPORTANT: XC functional enforced from input :
     Exchange-correlation= PBESOL
                           (   1   4  10   8   0   0   0)
     Any further DFT definition will be discarded
     Please, verify this is what you really want

     Message from routine setup:
     using ibrav=0 with symmetry is DISCOURAGED, use correct ibrav instead

     K-points division:     npool     =       2
     R & G space division:  proc/nbgrp/npool/nimage =       4
     Subspace diagonalization in iterative solution of the eigenvalue problem:
     a serial algorithm will be used


     Parallelization info
     --------------------
     sticks:   dense  smooth     PW     G-vecs:    dense   smooth      PW
     Min         464     233     69                15000     5311     851
     Max         466     234     70                15002     5314     854
     Sum        1861     933    277                60005    21247    3407

     Using Slab Decomposition



     bravais-lattice index     =            0
     lattice parameter (alat)  =       7.6272  a.u.
     unit-cell volume          =     443.7078 (a.u.)^3
     number of atoms/cell      =            5
     number of atomic types    =            3
     number of electrons       =        40.00
     number of Kohn-Sham states=           24
     kinetic-energy cutoff     =      50.0000  Ry
     charge density cutoff     =     400.0000  Ry
     scf convergence threshold =      5.0E-10
     mixing beta               =       0.4000
     number of iterations used =            8  plain     mixing
     Exchange-correlation= PBESOL
                           (   1   4  10   8   0   0   0)

     celldm(1)=   7.627207  celldm(2)=   0.000000  celldm(3)=   0.000000
     celldm(4)=   0.000000  celldm(5)=   0.000000  celldm(6)=   0.000000

     crystal axes: (cart. coord. in units of alat)
               a(1) = (  -0.000000   0.000000   1.000000 )  
               a(2) = (   0.000000  -1.000000  -0.000000 )  
               a(3) = (   1.000000  -0.000000  -0.000000 )  

     reciprocal axes: (cart. coord. in units 2 pi/alat)
               b(1) = (  0.000000 -0.000000  1.000000 )  
               b(2) = ( -0.000000 -1.000000  0.000000 )  
               b(3) = (  1.000000  0.000000  0.000000 )  


     PseudoPot. # 1 for Ba read from file:
     /root/sssp/Ba.pbe-spn-kjpaw_psl.1.0.0.UPF
     MD5 check sum: c432291d3e53af55f19d5e8866385beb
     Pseudo is Projector augmented-wave + core cor, Zval = 10.0
     Generated using "atomic" code by A. Dal Corso  v.5.1
     Shape of augmentation charge: PSQ
     Using radial grid of 1251 points,  7 beta functions with: 
                l(1) =   0
                l(2) =   0
                l(3) =   0
                l(4) =   1
                l(5) =   1
                l(6) =   2
                l(7) =   2
     Q(r) pseudized with 0 coefficients 


     PseudoPot. # 2 for Ti read from file:
     /root/sssp/ti_pbe_v1.4.uspp.F.UPF
     MD5 check sum: 88a00a6731bd790ddea75d31a80cb452
     Pseudo is Ultrasoft + core correction, Zval = 12.0
     Generated by new atomic code, or converted to UPF format
     Using radial grid of  851 points,  6 beta functions with: 
                l(1) =   0
                l(2) =   0
                l(3) =   1
                l(4) =   1
                l(5) =   2
                l(6) =   2
     Q(r) pseudized with  6 coefficients,  rinner =    1.000   1.000   1.000
                                                       1.000   1.000

     PseudoPot. # 3 for O  read from file:
     /root/sssp/O.pbe-n-kjpaw_psl.0.1.UPF
     MD5 check sum: 0234752ac141de4415c5fc33072bef88
     Pseudo is Projector augmented-wave + core cor, Zval =  6.0
     Generated using "atomic" code by A. Dal Corso  v.5.0.99 svn rev. 10869
     Shape of augmentation charge: BESSEL
     Using radial grid of 1095 points,  4 beta functions with: 
                l(1) =   0
                l(2) =   0
                l(3) =   1
                l(4) =   1
     Q(r) pseudized with 0 coefficients 


     atomic species   valence    mass     pseudopotential
     Ba               10.00   137.32700     Ba( 1.00)
     Ti               12.00    47.86700     Ti( 1.00)
     O                 6.00    15.99900     O ( 1.00)

      2 Sym. Ops. (no inversion) found



   Cartesian axes

     site n.     atom                  positions (alat units)
         1        Ba     tau(   1) = (  -0.0000028  -0.0000000  -0.0019111  )
         2        Ti     tau(   2) = (   0.4999756  -0.5000002   0.4671882  )
         3        O      tau(   3) = (   1.0000575  -0.5000003   0.5235629  )
         4        O      tau(   4) = (   0.5000221  -1.0000003   0.5235744  )
         5        O      tau(   5) = (   0.5000262  -0.5000003   1.0674431  )

     number of k points=   100  Marzari-Vanderbilt smearing, width (Ry)=  0.0050

     Number of k-points >= 100: set verbosity='high' to print them.

     Dense  grid:    60005 G-vectors     FFT dimensions: (  50,  50,  50)

     Smooth grid:    21247 G-vectors     FFT dimensions: (  36,  36,  36)

     Estimated max dynamical RAM per process >      53.10 MB

     Estimated total dynamical RAM >     410.16 MB

     Check: negative core charge=   -0.000004

     Initial potential from superposition of free atoms

     starting charge      38.9829, renormalised to      40.0000

     negative rho (up, down):  1.158E-03 0.000E+00
     Starting wfcs are   27 randomized atomic wfcs
     Checking if some PAW data can be deallocated... 

     total cpu time spent up to now is        2.2 secs

     per-process dynamical memory:    54.2 Mb

     Self-consistent Calculation

     iteration #  1     ecut=    50.00 Ry     beta= 0.40
     Davidson diagonalization with overlap
     ethr =  1.00E-02,  avg # of iterations =  2.0

     negative rho (up, down):  1.242E-03 0.000E+00

     total cpu time spent up to now is        4.3 secs

     total energy              =    -672.90247771 Ry
     estimated scf accuracy    <       0.68032806 Ry

     iteration #  2     ecut=    50.00 Ry     beta= 0.40
     Davidson diagonalization with overlap
     ethr =  1.70E-03,  avg # of iterations =  3.4

     negative rho (up, down):  1.100E-03 0.000E+00

     total cpu time spent up to now is        6.5 secs

     WARNING: integrated charge=    40.00001268, expected=    40.00000000

     total energy              =    -673.03243777 Ry
     estimated scf accuracy    <       0.49511743 Ry

     iteration #  3     ecut=    50.00 Ry     beta= 0.40
     Davidson diagonalization with overlap
     ethr =  1.24E-03,  avg # of iterations =  2.1

     negative rho (up, down):  1.105E-03 0.000E+00

     total cpu time spent up to now is        8.4 secs

     WARNING: integrated charge=    40.00000904, expected=    40.00000000

     total energy              =    -673.12074080 Ry
     estimated scf accuracy    <       0.02614482 Ry

     iteration #  4     ecut=    50.00 Ry     beta= 0.40
     Davidson diagonalization with overlap
     ethr =  6.54E-05,  avg # of iterations =  5.6

     negative rho (up, down):  1.100E-03 0.000E+00

     total cpu time spent up to now is       10.9 secs

     WARNING: integrated charge=    40.00000416, expected=    40.00000000

     total energy              =    -673.12250367 Ry
     estimated scf accuracy    <       0.00640808 Ry

     iteration #  5     ecut=    50.00 Ry     beta= 0.40
     Davidson diagonalization with overlap
     ethr =  1.60E-05,  avg # of iterations =  3.0

     negative rho (up, down):  1.091E-03 0.000E+00

     total cpu time spent up to now is       13.1 secs

     total energy              =    -673.12358197 Ry
     estimated scf accuracy    <       0.00115742 Ry

     iteration #  6     ecut=    50.00 Ry     beta= 0.40
     Davidson diagonalization with overlap
     ethr =  2.89E-06,  avg # of iterations =  3.3

     negative rho (up, down):  1.080E-03 0.000E+00

     total cpu time spent up to now is       15.1 secs

     total energy              =    -673.12370102 Ry
     estimated scf accuracy    <       0.00061729 Ry

     iteration #  7     ecut=    50.00 Ry     beta= 0.40
     Davidson diagonalization with overlap
     ethr =  1.54E-06,  avg # of iterations =  2.9

     negative rho (up, down):  1.082E-03 0.000E+00

     total cpu time spent up to now is       17.1 secs

     total energy              =    -673.12369868 Ry
     estimated scf accuracy    <       0.00026121 Ry

     iteration #  8     ecut=    50.00 Ry     beta= 0.40
     Davidson diagonalization with overlap
     ethr =  6.53E-07,  avg # of iterations =  2.6

     negative rho (up, down):  1.082E-03 0.000E+00

     total cpu time spent up to now is       19.2 secs

     total energy              =    -673.12375870 Ry
     estimated scf accuracy    <       0.00008051 Ry

     iteration #  9     ecut=    50.00 Ry     beta= 0.40
     Davidson diagonalization with overlap
     ethr =  2.01E-07,  avg # of iterations =  2.3

     negative rho (up, down):  1.082E-03 0.000E+00

     total cpu time spent up to now is       21.1 secs

     total energy              =    -673.12376479 Ry
     estimated scf accuracy    <       0.00003892 Ry

     iteration # 10     ecut=    50.00 Ry     beta= 0.40
     Davidson diagonalization with overlap
     ethr =  9.73E-08,  avg # of iterations =  1.1

     negative rho (up, down):  1.081E-03 0.000E+00

     total cpu time spent up to now is       22.9 secs

     total energy              =    -673.12375714 Ry
     estimated scf accuracy    <       0.00007357 Ry

     iteration # 11     ecut=    50.00 Ry     beta= 0.40
     Davidson diagonalization with overlap
     ethr =  9.73E-08,  avg # of iterations =  1.6

     negative rho (up, down):  1.080E-03 0.000E+00

     total cpu time spent up to now is       24.8 secs

     total energy              =    -673.12376133 Ry
     estimated scf accuracy    <       0.00006952 Ry

     iteration # 12     ecut=    50.00 Ry     beta= 0.40
     Davidson diagonalization with overlap
     ethr =  9.73E-08,  avg # of iterations =  1.0

     negative rho (up, down):  1.080E-03 0.000E+00

     total cpu time spent up to now is       26.3 secs

     total energy              =    -673.12376172 Ry
     estimated scf accuracy    <       0.00006290 Ry

     iteration # 13     ecut=    50.00 Ry     beta= 0.40
     Davidson diagonalization with overlap
     ethr =  9.73E-08,  avg # of iterations =  1.0

     negative rho (up, down):  1.080E-03 0.000E+00

     total cpu time spent up to now is       28.0 secs

     total energy              =    -673.12376196 Ry
     estimated scf accuracy    <       0.00005483 Ry

     iteration # 14     ecut=    50.00 Ry     beta= 0.40
     Davidson diagonalization with overlap
     ethr =  9.73E-08,  avg # of iterations =  1.0

     negative rho (up, down):  1.080E-03 0.000E+00

     total cpu time spent up to now is       29.6 secs

     total energy              =    -673.12376180 Ry
     estimated scf accuracy    <       0.00005163 Ry

     iteration # 15     ecut=    50.00 Ry     beta= 0.40
     Davidson diagonalization with overlap
     ethr =  9.73E-08,  avg # of iterations =  1.0

     negative rho (up, down):  1.080E-03 0.000E+00

     total cpu time spent up to now is       31.3 secs

     total energy              =    -673.12376228 Ry
     estimated scf accuracy    <       0.00006942 Ry

     iteration # 16     ecut=    50.00 Ry     beta= 0.40
     Davidson diagonalization with overlap
     ethr =  9.73E-08,  avg # of iterations =  1.0

     negative rho (up, down):  1.080E-03 0.000E+00

     total cpu time spent up to now is       33.1 secs

     total energy              =    -673.12376254 Ry
     estimated scf accuracy    <       0.00002501 Ry

     iteration # 17     ecut=    50.00 Ry     beta= 0.40
     Davidson diagonalization with overlap
     ethr =  6.25E-08,  avg # of iterations =  1.0

     negative rho (up, down):  1.080E-03 0.000E+00

     total cpu time spent up to now is       34.7 secs

     total energy              =    -673.12376266 Ry
     estimated scf accuracy    <       0.00000544 Ry

     iteration # 18     ecut=    50.00 Ry     beta= 0.40
     Davidson diagonalization with overlap
     ethr =  1.36E-08,  avg # of iterations =  2.0

     negative rho (up, down):  1.080E-03 0.000E+00

     total cpu time spent up to now is       36.7 secs

     total energy              =    -673.12376276 Ry
     estimated scf accuracy    <       0.00000002 Ry

     iteration # 19     ecut=    50.00 Ry     beta= 0.40
     Davidson diagonalization with overlap
     ethr =  5.81E-11,  avg # of iterations =  4.5

     negative rho (up, down):  1.080E-03 0.000E+00

     total cpu time spent up to now is       39.6 secs

     total energy              =    -673.12376278 Ry
     estimated scf accuracy    <       0.00000019 Ry

     iteration # 20     ecut=    50.00 Ry     beta= 0.40
     Davidson diagonalization with overlap
     ethr =  5.81E-11,  avg # of iterations =  2.0

     negative rho (up, down):  1.080E-03 0.000E+00

     total cpu time spent up to now is       42.0 secs

     total energy              =    -673.12376278 Ry
     estimated scf accuracy    <          8.5E-09 Ry

     iteration # 21     ecut=    50.00 Ry     beta= 0.40
     Davidson diagonalization with overlap
     ethr =  2.11E-11,  avg # of iterations =  1.1

     negative rho (up, down):  1.080E-03 0.000E+00

     total cpu time spent up to now is       44.2 secs

     total energy              =    -673.12376278 Ry
     estimated scf accuracy    <       0.00000001 Ry

     iteration # 22     ecut=    50.00 Ry     beta= 0.40
     Davidson diagonalization with overlap
     ethr =  2.11E-11,  avg # of iterations =  1.0

     negative rho (up, down):  1.080E-03 0.000E+00

     total cpu time spent up to now is       46.4 secs

     End of self-consistent calculation

     Number of k-points >= 100: set verbosity='high' to print the bands.

     the Fermi energy is    11.2512 ev

!    total energy              =    -673.12376278 Ry
     estimated scf accuracy    <          2.9E-10 Ry
     smearing contrib. (-TS)   =       0.00000000 Ry
     internal energy E=F+TS    =    -673.12376278 Ry

     The total energy is F=E-TS. E is the sum of the following terms:
     one-electron contribution =     -76.94383168 Ry
     hartree contribution      =      62.94339353 Ry
     xc contribution           =     -60.22790421 Ry
     ewald contribution        =    -202.72887815 Ry
     one-center paw contrib.   =    -396.16654227 Ry

     convergence has been achieved in  22 iterations

     negative rho (up, down):  1.080E-03 0.000E+00

     Forces acting on atoms (cartesian axes, Ry/au):

     atom    1 type  1   force =     0.00000452    0.00000000   -0.00523512
     atom    2 type  2   force =    -0.00002473   -0.00000004    0.19970452
     atom    3 type  3   force =    -0.00002091   -0.00000000    0.00496496
     atom    4 type  3   force =     0.00001513   -0.00000000    0.00495631
     atom    5 type  3   force =     0.00002599    0.00000004   -0.20439067

     Total force =     0.285892     Total SCF correction =     0.000017
     Message from routine punch:
     Nothing written, as per user request (disk_io='none')

     init_run     :      1.46s CPU      1.63s WALL (       1 calls)
     electrons    :     40.00s CPU     44.20s WALL (       1 calls)
     forces       :      0.31s CPU      0.32s WALL (       1 calls)

     Called by init_run:
     wfcinit      :      0.49s CPU      0.57s WALL (       1 calls)
     potinit      :      0.34s CPU      0.37s WALL (       1 calls)
     hinit0       :      0.40s CPU      0.42s WALL (       1 calls)

     Called by electrons:
     c_bands      :     25.52s CPU     28.84s WALL (      22 calls)
     sum_band     :      8.58s CPU      9.34s WALL (      22 calls)
     v_of_rho     :      0.42s CPU      0.46s WALL (      23 calls)
     newd         :      2.37s CPU      2.42s WALL (      23 calls)
     PAW_pot      :      3.17s CPU      3.26s WALL (      23 calls)
     mix_rho      :      0.08s CPU      0.08s WALL (      22 calls)

     Called by c_bands:
     init_us_2    :      0.74s CPU      0.79s WALL (    2300 calls)
     cegterg      :     20.74s CPU     24.02s WALL (    1100 calls)

     Called by *egterg:
     cdiaghg      :      1.93s CPU      2.01s WALL (    3458 calls)
     h_psi        :     15.75s CPU     18.83s WALL (    3508 calls)
     s_psi        :      0.64s CPU      0.69s WALL (    3508 calls)
     g_psi        :      0.17s CPU      0.17s WALL (    2358 calls)

     Called by h_psi:
     h_psi:calbec :      0.91s CPU      1.07s WALL (    3508 calls)
     vloc_psi     :     14.10s CPU     16.94s WALL (    3508 calls)
                                        0.00s GPU  (    3508 calls)
     add_vuspsi   :      0.64s CPU      0.72s WALL (    3508 calls)

     General routines
     calbec       :      1.32s CPU      1.55s WALL (    4808 calls)
     fft          :      0.39s CPU      0.44s WALL (     308 calls)
     ffts         :      0.18s CPU      0.18s WALL (      45 calls)
     fftw         :     15.88s CPU     19.04s WALL (  144940 calls)
     interpolate  :      0.20s CPU      0.21s WALL (      23 calls)

     Parallel routines

     PWSCF        :     42.29s CPU     46.70s WALL


   This run was terminated on:   1:51:34   5Oct2026            

=------------------------------------------------------------------------------=
   JOB DONE.
=------------------------------------------------------------------------------=
