
     Program PWSCF v.7.5 starts on  5Oct2026 at  5:48:20 

     This program is part of the open-source Quantum ESPRESSO suite
     for quantum simulation of materials; please cite
         "P. Giannozzi et al., J. Phys.:Condens. Matter 21 395502 (2009);
         "P. Giannozzi et al., J. Phys.:Condens. Matter 29 465901 (2017);
         "P. Giannozzi et al., J. Chem. Phys. 152 154105 (2020);
          URL http://www.quantum-espresso.org", 
     in publications or presentations arising from this work. More details at
     http://www.quantum-espresso.org/quote

     Parallel version (MPI & OpenMP), running on       8 processor cores
     Number of MPI processes:                 8
     Threads/MPI process:                     1

     MPI processes distributed on     1 nodes
     103926 MiB available memory on the printing compute node when the environment starts

     Reading input from pw.in

     Current dimensions of program PWSCF are:
     Max number of different atomic species (ntypx) = 10
     Max number of k-points (npk) =  40000
     Max angular momentum in pseudopotentials (lmaxx) =  4
     file K.pbe-spn-kjpaw_psl.1.0.0.UPF: wavefunction(s)  3S renormalized
     file Nb.pbe-spn-kjpaw_psl.0.3.0.UPF: wavefunction(s)  4S 4P renormalized
     file O.pbe-n-kjpaw_psl.0.1.UPF: wavefunction(s)  2P renormalized
     Message from routine setup:
     using ibrav=0 with symmetry is DISCOURAGED, use correct ibrav instead

     K-points division:     npool     =       2
     R & G space division:  proc/nbgrp/npool/nimage =       4
     Subspace diagonalization in iterative solution of the eigenvalue problem:
     a serial algorithm will be used


     Parallelization info
     --------------------
     sticks:   dense  smooth     PW     G-vecs:    dense   smooth      PW
     Min        1122     560    163                40062    14156    2193
     Max        1124     561    165                40063    14159    2194
     Sum        4493    2241    657               160249    56629    8773

     Using Slab Decomposition



     bravais-lattice index     =            0
     lattice parameter (alat)  =      10.8414  a.u.
     unit-cell volume          =     901.0287 (a.u.)^3
     number of atoms/cell      =           10
     number of atomic types    =            3
     number of electrons       =        80.00
     number of Kohn-Sham states=           48
     kinetic-energy cutoff     =      60.0000  Ry
     charge density cutoff     =     480.0000  Ry
     scf convergence threshold =      1.0E-09
     mixing beta               =       0.4000
     number of iterations used =            8  plain     mixing
     Exchange-correlation= SLA  PW   PBX  PBC
                           (   1   4   3   4   0   0   0)

     celldm(1)=  10.841379  celldm(2)=   0.000000  celldm(3)=   0.000000
     celldm(4)=   0.000000  celldm(5)=   0.000000  celldm(6)=   0.000000

     crystal axes: (cart. coord. in units of alat)
               a(1) = (   0.000000  -0.707107  -0.707107 )  
               a(2) = (   0.000000  -0.707107   0.707107 )  
               a(3) = (  -0.707107   0.000000   0.000000 )  

     reciprocal axes: (cart. coord. in units 2 pi/alat)
               b(1) = ( -0.000000 -0.707107 -0.707107 )  
               b(2) = (  0.000000 -0.707107  0.707107 )  
               b(3) = ( -1.414214 -0.000000  0.000000 )  


     PseudoPot. # 1 for K  read from file:
     /root/sssp/K.pbe-spn-kjpaw_psl.1.0.0.UPF
     MD5 check sum: 7d58810084cac21f60fbe77ea2b688fd
     Pseudo is Projector augmented-wave + core cor, Zval =  9.0
     Generated using "atomic" code by A. Dal Corso  v.5.1
     Shape of augmentation charge: PSQ
     Using radial grid of 1165 points,  6 beta functions with: 
                l(1) =   0
                l(2) =   0
                l(3) =   1
                l(4) =   1
                l(5) =   2
                l(6) =   2
     Q(r) pseudized with 0 coefficients 


     PseudoPot. # 2 for Nb read from file:
     /root/sssp/Nb.pbe-spn-kjpaw_psl.0.3.0.UPF
     MD5 check sum: 411d72ad547312f8017e2943ceca08cc
     Pseudo is Projector augmented-wave + core cor, Zval = 13.0
     Generated using "atomic" code by A. Dal Corso  v.5.0.99 svn rev. 10869
     Shape of augmentation charge: PSQ
     Using radial grid of 1227 points,  6 beta functions with: 
                l(1) =   0
                l(2) =   0
                l(3) =   1
                l(4) =   1
                l(5) =   2
                l(6) =   2
     Q(r) pseudized with 0 coefficients 


     PseudoPot. # 3 for O  read from file:
     /root/sssp/O.pbe-n-kjpaw_psl.0.1.UPF
     MD5 check sum: 0234752ac141de4415c5fc33072bef88
     Pseudo is Projector augmented-wave + core cor, Zval =  6.0
     Generated using "atomic" code by A. Dal Corso  v.5.0.99 svn rev. 10869
     Shape of augmentation charge: BESSEL
     Using radial grid of 1095 points,  4 beta functions with: 
                l(1) =   0
                l(2) =   0
                l(3) =   1
                l(4) =   1
     Q(r) pseudized with 0 coefficients 


     atomic species   valence    mass     pseudopotential
     K                 9.00    39.09830     K ( 1.00)
     Nb               13.00    92.90640     Nb( 1.00)
     O                 6.00    15.99900     O ( 1.00)

     16 Sym. Ops., with inversion, found ( 8 have fractional translation)



   Cartesian axes

     site n.     atom                  positions (alat units)
         1        K      tau(   1) = (  -0.7071068  -0.7071068   0.0000000  )
         2        K      tau(   2) = (   0.0000000   0.0000000   0.0000000  )
         3        Nb     tau(   3) = (  -0.3690473  -0.3535534  -0.3535534  )
         4        Nb     tau(   4) = (  -0.3380595  -0.3535534   0.3535534  )
         5        O      tau(   5) = (  -0.6971008  -0.3535534  -0.3535534  )
         6        O      tau(   6) = (  -0.0100060  -0.3535534   0.3535534  )
         7        O      tau(   7) = (  -0.3535534  -0.7071068   0.3535534  )
         8        O      tau(   8) = (  -0.3535534  -0.7071068  -0.3535534  )
         9        O      tau(   9) = (  -0.3535534  -1.0606602   0.0000000  )
        10        O      tau(  10) = (  -0.3535534  -0.3535534   0.0000000  )

     number of k points=    90  Marzari-Vanderbilt smearing, width (Ry)=  0.0050
                       cart. coord. in units 2pi/alat
        k(    1) = (   0.0000000  -0.0000000   0.0000000), wk =   0.0028409
        k(    2) = (  -0.1285649  -0.0000000   0.0000000), wk =   0.0056818
        k(    3) = (  -0.2571297  -0.0000000   0.0000000), wk =   0.0056818
        k(    4) = (  -0.3856946  -0.0000000   0.0000000), wk =   0.0056818
        k(    5) = (  -0.5142595  -0.0000000   0.0000000), wk =   0.0056818
        k(    6) = (  -0.6428243  -0.0000000   0.0000000), wk =   0.0056818
        k(    7) = (   0.0000000  -0.0883883   0.0883883), wk =   0.0113636
        k(    8) = (  -0.1285649  -0.0883883   0.0883883), wk =   0.0227273
        k(    9) = (  -0.2571297  -0.0883883   0.0883883), wk =   0.0227273
        k(   10) = (  -0.3856946  -0.0883883   0.0883883), wk =   0.0227273
        k(   11) = (  -0.5142595  -0.0883883   0.0883883), wk =   0.0227273
        k(   12) = (  -0.6428243  -0.0883883   0.0883883), wk =   0.0227273
        k(   13) = (   0.0000000  -0.1767767   0.1767767), wk =   0.0113636
        k(   14) = (  -0.1285649  -0.1767767   0.1767767), wk =   0.0227273
        k(   15) = (  -0.2571297  -0.1767767   0.1767767), wk =   0.0227273
        k(   16) = (  -0.3856946  -0.1767767   0.1767767), wk =   0.0227273
        k(   17) = (  -0.5142595  -0.1767767   0.1767767), wk =   0.0227273
        k(   18) = (  -0.6428243  -0.1767767   0.1767767), wk =   0.0227273
        k(   19) = (   0.0000000  -0.2651650   0.2651650), wk =   0.0113636
        k(   20) = (  -0.1285649  -0.2651650   0.2651650), wk =   0.0227273
        k(   21) = (  -0.2571297  -0.2651650   0.2651650), wk =   0.0227273
        k(   22) = (  -0.3856946  -0.2651650   0.2651650), wk =   0.0227273
        k(   23) = (  -0.5142595  -0.2651650   0.2651650), wk =   0.0227273
        k(   24) = (  -0.6428243  -0.2651650   0.2651650), wk =   0.0227273
        k(   25) = (  -0.0000000   0.3535534  -0.3535534), wk =   0.0056818
        k(   26) = (  -0.1285649   0.3535534  -0.3535534), wk =   0.0113636
        k(   27) = (  -0.2571297   0.3535534  -0.3535534), wk =   0.0113636
        k(   28) = (  -0.3856946   0.3535534  -0.3535534), wk =   0.0113636
        k(   29) = (  -0.5142595   0.3535534  -0.3535534), wk =   0.0113636
        k(   30) = (  -0.6428243   0.3535534  -0.3535534), wk =   0.0113636
        k(   31) = (   0.0000000  -0.1767767   0.0000000), wk =   0.0113636
        k(   32) = (  -0.1285649  -0.1767767   0.0000000), wk =   0.0227273
        k(   33) = (  -0.2571297  -0.1767767   0.0000000), wk =   0.0227273
        k(   34) = (  -0.3856946  -0.1767767   0.0000000), wk =   0.0227273
        k(   35) = (  -0.5142595  -0.1767767   0.0000000), wk =   0.0227273
        k(   36) = (  -0.6428243  -0.1767767   0.0000000), wk =   0.0227273
        k(   37) = (   0.0000000  -0.2651650   0.0883883), wk =   0.0227273
        k(   38) = (  -0.1285649  -0.2651650   0.0883883), wk =   0.0454545
        k(   39) = (  -0.2571297  -0.2651650   0.0883883), wk =   0.0454545
        k(   40) = (  -0.3856946  -0.2651650   0.0883883), wk =   0.0454545
        k(   41) = (  -0.5142595  -0.2651650   0.0883883), wk =   0.0454545
        k(   42) = (  -0.6428243  -0.2651650   0.0883883), wk =   0.0454545
        k(   43) = (   0.0000000  -0.3535534   0.1767767), wk =   0.0227273
        k(   44) = (  -0.1285649  -0.3535534   0.1767767), wk =   0.0454545
        k(   45) = (  -0.2571297  -0.3535534   0.1767767), wk =   0.0454545
        k(   46) = (  -0.3856946  -0.3535534   0.1767767), wk =   0.0454545
        k(   47) = (  -0.5142595  -0.3535534   0.1767767), wk =   0.0454545
        k(   48) = (  -0.6428243  -0.3535534   0.1767767), wk =   0.0454545
        k(   49) = (  -0.0000000   0.2651650  -0.4419417), wk =   0.0113636
        k(   50) = (  -0.1285649   0.2651650  -0.4419417), wk =   0.0227273
        k(   51) = (  -0.2571297   0.2651650  -0.4419417), wk =   0.0227273
        k(   52) = (  -0.3856946   0.2651650  -0.4419417), wk =   0.0227273
        k(   53) = (  -0.5142595   0.2651650  -0.4419417), wk =   0.0227273
        k(   54) = (  -0.6428243   0.2651650  -0.4419417), wk =   0.0227273
        k(   55) = (   0.0000000  -0.3535534   0.0000000), wk =   0.0113636
        k(   56) = (  -0.1285649  -0.3535534   0.0000000), wk =   0.0227273
        k(   57) = (  -0.2571297  -0.3535534   0.0000000), wk =   0.0227273
        k(   58) = (  -0.3856946  -0.3535534   0.0000000), wk =   0.0227273
        k(   59) = (  -0.5142595  -0.3535534   0.0000000), wk =   0.0227273
        k(   60) = (  -0.6428243  -0.3535534   0.0000000), wk =   0.0227273
        k(   61) = (   0.0000000  -0.4419417   0.0883883), wk =   0.0227273
        k(   62) = (  -0.1285649  -0.4419417   0.0883883), wk =   0.0454545
        k(   63) = (  -0.2571297  -0.4419417   0.0883883), wk =   0.0454545
        k(   64) = (  -0.3856946  -0.4419417   0.0883883), wk =   0.0454545
        k(   65) = (  -0.5142595  -0.4419417   0.0883883), wk =   0.0454545
        k(   66) = (  -0.6428243  -0.4419417   0.0883883), wk =   0.0454545
        k(   67) = (  -0.0000000   0.1767767  -0.5303301), wk =   0.0113636
        k(   68) = (  -0.1285649   0.1767767  -0.5303301), wk =   0.0227273
        k(   69) = (  -0.2571297   0.1767767  -0.5303301), wk =   0.0227273
        k(   70) = (  -0.3856946   0.1767767  -0.5303301), wk =   0.0227273
        k(   71) = (  -0.5142595   0.1767767  -0.5303301), wk =   0.0227273
        k(   72) = (  -0.6428243   0.1767767  -0.5303301), wk =   0.0227273
        k(   73) = (   0.0000000  -0.5303301   0.0000000), wk =   0.0113636
        k(   74) = (  -0.1285649  -0.5303301   0.0000000), wk =   0.0227273
        k(   75) = (  -0.2571297  -0.5303301   0.0000000), wk =   0.0227273
        k(   76) = (  -0.3856946  -0.5303301   0.0000000), wk =   0.0227273
        k(   77) = (  -0.5142595  -0.5303301   0.0000000), wk =   0.0227273
        k(   78) = (  -0.6428243  -0.5303301   0.0000000), wk =   0.0227273
        k(   79) = (  -0.0000000   0.0883883  -0.6187184), wk =   0.0113636
        k(   80) = (  -0.1285649   0.0883883  -0.6187184), wk =   0.0227273
        k(   81) = (  -0.2571297   0.0883883  -0.6187184), wk =   0.0227273
        k(   82) = (  -0.3856946   0.0883883  -0.6187184), wk =   0.0227273
        k(   83) = (  -0.5142595   0.0883883  -0.6187184), wk =   0.0227273
        k(   84) = (  -0.6428243   0.0883883  -0.6187184), wk =   0.0227273
        k(   85) = (   0.0000000   0.7071068   0.0000000), wk =   0.0028409
        k(   86) = (  -0.1285649   0.7071068   0.0000000), wk =   0.0056818
        k(   87) = (  -0.2571297   0.7071068   0.0000000), wk =   0.0056818
        k(   88) = (  -0.3856946   0.7071068   0.0000000), wk =   0.0056818
        k(   89) = (  -0.5142595   0.7071068   0.0000000), wk =   0.0056818
        k(   90) = (  -0.6428243   0.7071068   0.0000000), wk =   0.0056818

     Dense  grid:   160249 G-vectors     FFT dimensions: (  80,  80,  54)

     Smooth grid:    56629 G-vectors     FFT dimensions: (  54,  54,  40)

     Estimated max dynamical RAM per process >     155.20 MB

     Estimated total dynamical RAM >       1.17 GB

     Check: negative core charge=   -0.000003

     Initial potential from superposition of free atoms

     starting charge      79.9581, renormalised to      80.0000
     Starting wfcs are   60 randomized atomic wfcs
     Checking if some PAW data can be deallocated... 

     total cpu time spent up to now is        8.8 secs

     per-process dynamical memory:   106.1 Mb

     Self-consistent Calculation

     iteration #  1     ecut=    60.00 Ry     beta= 0.40
     Davidson diagonalization with overlap
     ethr =  1.00E-02,  avg # of iterations =  2.0

     total cpu time spent up to now is       25.3 secs

     total energy              =   -1143.94922929 Ry
     estimated scf accuracy    <       5.10519342 Ry

     iteration #  2     ecut=    60.00 Ry     beta= 0.40
     Davidson diagonalization with overlap
     ethr =  6.38E-03,  avg # of iterations =  4.0

     total cpu time spent up to now is       44.9 secs

     total energy              =   -1145.20414665 Ry
     estimated scf accuracy    <       1.51409223 Ry

     iteration #  3     ecut=    60.00 Ry     beta= 0.40
     Davidson diagonalization with overlap
     ethr =  1.89E-03,  avg # of iterations =  2.6

     total cpu time spent up to now is       60.1 secs

     total energy              =   -1145.53551667 Ry
     estimated scf accuracy    <       0.09205042 Ry

     iteration #  4     ecut=    60.00 Ry     beta= 0.40
     Davidson diagonalization with overlap
     ethr =  1.15E-04,  avg # of iterations =  7.7

     total cpu time spent up to now is       79.3 secs

     total energy              =   -1145.53310569 Ry
     estimated scf accuracy    <       0.03058133 Ry

     iteration #  5     ecut=    60.00 Ry     beta= 0.40
     Davidson diagonalization with overlap
     c_bands:  1 eigenvalues not converged
     c_bands:  1 eigenvalues not converged
     ethr =  3.82E-05,  avg # of iterations =  5.6

     total cpu time spent up to now is       99.8 secs

     total energy              =   -1145.54157680 Ry
     estimated scf accuracy    <       0.02092142 Ry

     iteration #  6     ecut=    60.00 Ry     beta= 0.40
     Davidson diagonalization with overlap
     ethr =  2.62E-05,  avg # of iterations =  1.1

     total cpu time spent up to now is      113.4 secs

     total energy              =   -1145.53996060 Ry
     estimated scf accuracy    <       0.00667961 Ry

     iteration #  7     ecut=    60.00 Ry     beta= 0.40
     Davidson diagonalization with overlap
     ethr =  8.35E-06,  avg # of iterations =  3.1

     total cpu time spent up to now is      129.5 secs

     total energy              =   -1145.54063980 Ry
     estimated scf accuracy    <       0.00030208 Ry

     iteration #  8     ecut=    60.00 Ry     beta= 0.40
     Davidson diagonalization with overlap
     c_bands:  1 eigenvalues not converged
     ethr =  3.78E-07,  avg # of iterations =  5.2

     total cpu time spent up to now is      151.5 secs

     total energy              =   -1145.54082024 Ry
     estimated scf accuracy    <       0.00010723 Ry

     iteration #  9     ecut=    60.00 Ry     beta= 0.40
     Davidson diagonalization with overlap
     ethr =  1.34E-07,  avg # of iterations =  1.0

     total cpu time spent up to now is      165.9 secs

     total energy              =   -1145.54078367 Ry
     estimated scf accuracy    <       0.00008373 Ry

     iteration # 10     ecut=    60.00 Ry     beta= 0.40
     Davidson diagonalization with overlap
     ethr =  1.05E-07,  avg # of iterations =  2.9

     total cpu time spent up to now is      182.9 secs

     total energy              =   -1145.54080365 Ry
     estimated scf accuracy    <       0.00000193 Ry

     iteration # 11     ecut=    60.00 Ry     beta= 0.40
     Davidson diagonalization with overlap
     ethr =  2.42E-09,  avg # of iterations =  3.8

     total cpu time spent up to now is      202.5 secs

     total energy              =   -1145.54080421 Ry
     estimated scf accuracy    <       0.00000024 Ry

     iteration # 12     ecut=    60.00 Ry     beta= 0.40
     Davidson diagonalization with overlap
     ethr =  3.02E-10,  avg # of iterations =  2.6

     total cpu time spent up to now is      220.6 secs

     total energy              =   -1145.54080422 Ry
     estimated scf accuracy    <       0.00000007 Ry

     iteration # 13     ecut=    60.00 Ry     beta= 0.40
     Davidson diagonalization with overlap
     ethr =  8.28E-11,  avg # of iterations =  2.5

     total cpu time spent up to now is      237.2 secs

     total energy              =   -1145.54080423 Ry
     estimated scf accuracy    <          3.2E-09 Ry

     iteration # 14     ecut=    60.00 Ry     beta= 0.40
     Davidson diagonalization with overlap
     ethr =  4.00E-12,  avg # of iterations =  4.5

     total cpu time spent up to now is      260.7 secs

     total energy              =   -1145.54080423 Ry
     estimated scf accuracy    <          1.7E-09 Ry

     iteration # 15     ecut=    60.00 Ry     beta= 0.40
     Davidson diagonalization with overlap
     ethr =  2.15E-12,  avg # of iterations =  1.4

     total cpu time spent up to now is      276.0 secs

     End of self-consistent calculation

          k = 0.0000-0.0000 0.0000 (  7107 PWs)   bands (ev):

   -47.0301 -47.0265 -23.1680 -23.1631 -23.1631 -23.1613 -23.0564 -23.0564
   -19.4376 -19.4068  -9.1003  -8.9062  -8.6937  -8.5789  -7.8154  -7.8154
    -2.9813  -2.9813  -2.9755  -2.9755  -2.9607  -2.8793   2.8836   3.2518
     3.7539   5.2423   5.2423   5.7307   5.7307   5.7568   6.2579   6.2579
     6.2759   6.8958   6.8958   7.0277   7.2122   7.3108   7.3108   7.9898
     9.5102   9.7090   9.7090  12.1261  12.1261  12.9634  12.9886  13.0707

          k =-0.1286-0.0000 0.0000 (  7099 PWs)   bands (ev):

   -47.0299 -47.0263 -23.1772 -23.1702 -23.1627 -23.1627 -23.0560 -23.0560
   -19.4358 -19.4058  -9.0631  -8.8371  -8.6703  -8.5773  -7.8101  -7.8101
    -2.9973  -2.9973  -2.9731  -2.9731  -2.9517  -2.9033   2.8845   3.2498
     3.7970   5.0691   5.0691   5.5359   5.7023   5.7023   5.9712   6.3664
     6.3664   6.8802   6.8802   6.9926   7.0044   7.2936   7.2936   7.9926
     9.5183   9.9279   9.9279  12.1845  12.1845  12.9708  12.9901  13.4074

          k =-0.2571-0.0000 0.0000 (  7083 PWs)   bands (ev):

   -47.0295 -47.0259 -23.2019 -23.1942 -23.1618 -23.1618 -23.0552 -23.0552
   -19.4312 -19.4033  -8.9973  -8.6461  -8.5731  -8.5678  -7.7955  -7.7955
    -3.0401  -3.0401  -2.9667  -2.9667  -2.9665  -2.9274   2.8871   3.2381
     3.9118   4.7505   4.7505   4.9032   5.2287   5.6364   5.6364   6.2905
     6.2905   6.6446   6.9006   7.0935   7.0935   7.2661   7.2661   8.0002
     9.5399  10.4579  10.4579  12.3557  12.3557  12.9906  12.9939  14.1019

          k =-0.3857-0.0000 0.0000 (  7055 PWs)   bands (ev):

   -47.0290 -47.0254 -23.2338 -23.2253 -23.1605 -23.1605 -23.0542 -23.0542
   -19.4252 -19.3999  -8.9699  -8.5676  -8.3826  -8.3605  -7.7762  -7.7762
    -3.0964  -3.0964  -3.0468  -2.9583  -2.9583  -2.8953   2.8904   3.1901
     4.0607   4.0906   4.3871   4.4611   4.4611   5.5311   5.5311   6.0894
     6.0894   6.3588   6.7849   7.2227   7.2227   7.4512   7.4512   8.0102
     9.5686  11.0894  11.0894  12.6181  12.6181  12.9985  13.0161  14.7319

          k =-0.5143-0.0000 0.0000 (  7051 PWs)   bands (ev):

   -47.0285 -47.0249 -23.2628 -23.2535 -23.1594 -23.1594 -23.0532 -23.0532
   -19.4198 -19.3969  -8.9720  -8.5625  -8.1303  -8.1198  -7.7581  -7.7581
    -3.1482  -3.1482  -3.1183  -2.9505  -2.9505  -2.8654   2.8935   3.0240
     3.3909   3.7951   4.1964   4.2546   4.2546   5.4087   5.4087   5.9531
     5.9531   6.1614   6.6829   7.2011   7.2011   7.7216   7.7216   8.0193
     9.5954  11.6471  11.6471  12.9100  12.9100  13.0023  13.0389  15.2069

          k =-0.6428-0.0000 0.0000 (  7066 PWs)   bands (ev):

   -47.0283 -47.0247 -23.2799 -23.2702 -23.1587 -23.1587 -23.0526 -23.0526
   -19.4165 -19.3950  -8.9786  -8.5594  -7.9759  -7.9579  -7.7472  -7.7472
    -3.1791  -3.1791  -3.1598  -2.9459  -2.9459  -2.8475   2.7858   2.8952
     2.9928   3.5992   4.1484   4.1484   4.2765   5.3272   5.3272   5.8926
     5.8926   6.0579   6.6242   7.1881   7.1881   7.8660   7.8660   8.0247
     9.6115  11.9778  11.9778  13.0044  13.0522  13.1157  13.1157  15.4727

          k = 0.0000-0.0884 0.0884 (  7079 PWs)   bands (ev):

   -47.0299 -47.0266 -23.1679 -23.1615 -23.1591 -23.1591 -23.0607 -23.0605
   -19.4359 -19.4075  -9.0863  -8.9132  -8.6745  -8.5525  -7.8578  -7.8477
    -2.9821  -2.9763  -2.9706  -2.9644  -2.9581  -2.8831   2.9880   3.3536
     3.8311   5.2632   5.2813   5.6267   5.6599   5.7416   6.2384   6.2439
     6.2944   6.7731   6.8841   6.9427   7.0973   7.1594   7.2141   7.9377
     9.7460   9.8093   9.8427  12.0308  12.0473  12.8510  13.1613  13.2521

          k =-0.1286-0.0884 0.0884 (  7092 PWs)   bands (ev):

   -47.0298 -47.0265 -23.1770 -23.1705 -23.1588 -23.1587 -23.0604 -23.0602
   -19.4343 -19.4066  -9.0453  -8.8442  -8.6546  -8.5508  -7.8531  -7.8425
    -2.9973  -2.9889  -2.9746  -2.9700  -2.9424  -2.9016   2.9889   3.3512
     3.8703   5.0828   5.1044   5.5168   5.6014   5.6343   5.9839   6.3120
     6.3224   6.7835   6.8270   6.9785   7.0061   7.0899   7.2029   7.9400
     9.7506  10.0122  10.0385  12.0913  12.1067  12.8584  13.2536  13.5032

          k =-0.2571-0.0884 0.0884 (  7085 PWs)   bands (ev):

   -47.0294 -47.0261 -23.2016 -23.1945 -23.1579 -23.1578 -23.0595 -23.0593
   -19.4299 -19.4041  -8.9688  -8.6533  -8.5618  -8.5463  -7.8403  -7.8285
    -3.0380  -3.0369  -2.9699  -2.9676  -2.9522  -2.9172   2.9915   3.3378
     3.9744   4.7499   4.7810   4.8967   5.2451   5.5140   5.5690   6.1662
     6.1712   6.7138   6.9481   6.9883   7.1060   7.1180   7.1791   7.9462
     9.7700  10.5134  10.5305  12.2680  12.2812  12.8780  13.2573  14.2200

          k =-0.3857-0.0884 0.0884 (  7081 PWs)   bands (ev):

   -47.0289 -47.0256 -23.2335 -23.2256 -23.1566 -23.1565 -23.0584 -23.0583
   -19.4241 -19.4008  -8.9333  -8.5404  -8.3897  -8.3614  -7.8235  -7.8099
    -3.0951  -3.0915  -3.0210  -2.9637  -2.9578  -2.8906   2.9948   3.2817
     4.0869   4.1056   4.3565   4.4883   4.5176   5.3645   5.4531   5.9542
     5.9753   6.5099   6.8796   6.9999   7.1410   7.4229   7.4401   7.9541
     9.7964  11.1255  11.1361  12.5376  12.5489  12.9034  13.2618  14.8668

          k =-0.5143-0.0884 0.0884 (  7058 PWs)   bands (ev):

   -47.0284 -47.0251 -23.2624 -23.2538 -23.1555 -23.1554 -23.0574 -23.0573
   -19.4189 -19.3977  -8.9321  -8.5349  -8.1343  -8.1253  -7.8084  -7.7925
    -3.1413  -3.1408  -3.0896  -2.9581  -2.9459  -2.8686   2.9978   3.0812
     3.3890   3.8325   4.2009   4.2795   4.3023   5.2021   5.3149   5.8336
     5.8634   6.3610   6.7923   6.9801   7.1150   7.6844   7.7026   7.9602
     9.8211  11.6727  11.6812  12.8332  12.8454  12.9283  13.2661  15.3440

          k =-0.6428-0.0884 0.0884 (  7046 PWs)   bands (ev):

   -47.0281 -47.0248 -23.2795 -23.2705 -23.1548 -23.1547 -23.0568 -23.0567
   -19.4158 -19.3959  -8.9374  -8.5317  -7.9795  -7.9632  -7.8004  -7.7820
    -3.1703  -3.1591  -3.1393  -2.9548  -2.9379  -2.8563   2.8139   2.9904
     2.9996   3.6731   4.1331   4.1721   4.3294   5.1013   5.2251   5.7819
     5.8182   6.2811   6.7381   6.9680   7.1001   7.8220   7.8440   7.9602
     9.8360  11.9991  12.0079  12.9361  13.0462  13.0506  13.2714  15.6109

          k = 0.0000-0.1768 0.1768 (  7109 PWs)   bands (ev):

   -47.0296 -47.0270 -23.1673 -23.1623 -23.1480 -23.1477 -23.0729 -23.0722
   -19.4315 -19.4097  -9.0535  -8.9322  -8.6102  -8.4764  -7.9755  -7.9379
    -2.9837  -2.9786  -2.9522  -2.9422  -2.9376  -2.8938   3.2895   3.6369
     4.0658   5.3183   5.3462   5.3932   5.4027   5.6921   6.1837   6.2048
     6.2454   6.4599   6.7444   6.7620   6.7842   7.0231   7.1346   7.7958
    10.0837  10.1827  10.2696  11.7659  11.8286  12.5341  13.3837  13.9301

          k =-0.1286-0.1768 0.1768 (  7091 PWs)   bands (ev):

   -47.0294 -47.0269 -23.1764 -23.1713 -23.1478 -23.1473 -23.0725 -23.0719
   -19.4300 -19.4088  -9.0026  -8.8634  -8.5988  -8.4744  -7.9724  -7.9333
    -2.9967  -2.9786  -2.9720  -2.9651  -2.9166  -2.8947   3.2904   3.6337
     4.0937   5.1211   5.2071   5.3125   5.3880   5.4793   6.0023   6.1218
     6.1675   6.4739   6.7402   6.7564   6.9548   6.9583   7.1311   7.7968
    10.2219  10.2995  10.3334  11.8325  11.8919  12.5416  13.7373  13.9314

          k =-0.2571-0.1768 0.1768 (  7094 PWs)   bands (ev):

   -47.0290 -47.0265 -23.2008 -23.1953 -23.1468 -23.1464 -23.0716 -23.0710
   -19.4261 -19.4064  -8.8937  -8.6732  -8.5352  -8.4690  -7.9641  -7.9207
    -3.0315  -3.0269  -2.9788  -2.9727  -2.9176  -2.8914   3.2930   3.6155
     4.1630   4.7601   4.8709   4.8739   5.2189   5.2941   5.3471   5.8620
     5.8993   6.4419   6.8571   7.0053   7.0423   7.0634   7.1556   7.7997
    10.2859  10.6853  10.7396  12.0270  12.0783  12.5617  13.9340  14.5118

          k =-0.3857-0.1768 0.1768 (  7075 PWs)   bands (ev):

   -47.0285 -47.0259 -23.2325 -23.2264 -23.1455 -23.1451 -23.0704 -23.0700
   -19.4211 -19.4032  -8.8290  -8.4619  -8.4103  -8.3601  -7.9532  -7.9040
    -3.0799  -3.0773  -2.9792  -2.9675  -2.9633  -2.8752   3.2964   3.5280
     4.0766   4.1825   4.4149   4.5693   4.6158   5.0384   5.2451   5.6462
     5.6633   6.4205   6.8029   7.0149   7.0902   7.3510   7.4096   7.8041
    10.3147  11.2411  11.2780  12.3205  12.3657  12.5893  13.9360  15.2201

          k =-0.5143-0.1768 0.1768 (  7071 PWs)   bands (ev):

   -47.0280 -47.0255 -23.2613 -23.2547 -23.1443 -23.1440 -23.0693 -23.0689
   -19.4164 -19.4002  -8.8168  -8.4554  -8.1529  -8.1350  -7.9433  -7.8884
    -3.1197  -3.1120  -3.0254  -2.9797  -2.9459  -2.8723   3.2042   3.2997
     3.3829   3.9553   4.2419   4.3542   4.4563   4.8495   5.0984   5.5449
     5.5539   6.4277   6.7194   6.9924   7.0464   7.5826   7.6361   7.8076
    10.3398  11.7568  11.7869  12.5896  12.6629  12.6838  13.9359  15.7083

          k =-0.6428-0.1768 0.1768 (  7055 PWs)   bands (ev):

   -47.0277 -47.0252 -23.2783 -23.2714 -23.1436 -23.1434 -23.0686 -23.0683
   -19.4137 -19.3985  -8.8183  -8.4515  -7.9938  -7.9792  -7.9393  -7.8790
    -3.1450  -3.1137  -3.0776  -2.9800  -2.9246  -2.8803   2.8705   2.9830
     3.3017   3.8985   4.1117   4.2435   4.4896   4.7369   5.0012   5.4960
     5.5251   6.4475   6.6533   6.9830   7.0059   7.6994   7.7577   7.8027
    10.3546  12.0692  12.1003  12.6187  12.8647  12.9049  13.9345  15.9780

          k = 0.0000-0.2652 0.2652 (  7088 PWs)   bands (ev):

   -47.0290 -47.0276 -23.1661 -23.1634 -23.1314 -23.1305 -23.0908 -23.0897
   -19.4254 -19.4136  -9.0180  -8.9581  -8.4914  -8.3597  -8.1431  -8.0687
    -2.9846  -2.9814  -2.9402  -2.9145  -2.9117  -2.9085   3.7542   4.0394
     4.4683   4.9190   4.9416   5.4029   5.5775   5.6088   5.6806   6.0322
     6.2074   6.4121   6.5732   6.6291   6.6544   6.8487   7.2223   7.5997
    10.4755  10.6222  10.8759  11.3833  11.4952  12.0636  13.6511  14.1115

          k =-0.1286-0.2652 0.2652 (  7095 PWs)   bands (ev):

   -47.0288 -47.0274 -23.1752 -23.1725 -23.1311 -23.1302 -23.0904 -23.0893
   -19.4241 -19.4127  -8.9574  -8.8900  -8.4878  -8.3571  -8.1418  -8.0648
    -2.9944  -2.9842  -2.9625  -2.9595  -2.8892  -2.8821   3.7552   4.0339
     4.4781   4.9144   4.9158   5.2003   5.3770   5.3771   5.6854   5.8527
     6.0416   6.2044   6.6750   6.7454   6.8455   6.8519   7.2248   7.5994
    10.5956  10.7340  10.8876  11.4604  11.5664  12.0719  14.0151  14.4828

          k =-0.2571-0.2652 0.2652 (  7088 PWs)   bands (ev):

   -47.0284 -47.0270 -23.1995 -23.1965 -23.1301 -23.1292 -23.0894 -23.0885
   -19.4209 -19.4102  -8.8062  -8.7024  -8.4613  -8.3503  -8.1377  -8.0541
    -3.0207  -3.0121  -2.9920  -2.9827  -2.8811  -2.8668   3.7579   4.0064
     4.4618   4.7814   4.8273   4.8936   4.8984   5.0436   5.3687   5.5105
     5.5825   5.8595   6.9174   6.9931   7.0193   7.0525   7.2516   7.6008
    10.8668  10.9885  11.0525  11.6867  11.7768  12.0950  14.8327  14.8502

          k =-0.3857-0.2652 0.2652 (  7080 PWs)   bands (ev):

   -47.0279 -47.0265 -23.2311 -23.2278 -23.1287 -23.1280 -23.0881 -23.0874
   -19.4166 -19.4070  -8.6770  -8.4474  -8.3442  -8.3414  -8.1282  -8.0400
    -3.0555  -3.0511  -3.0023  -2.9866  -2.9078  -2.8614   3.7618   3.8309
     4.0575   4.2251   4.6673   4.6936   4.7108   4.7950   4.9112   5.2084
     5.3146   5.8062   6.9903   7.0664   7.2456   7.2552   7.3552   7.6104
    10.9250  11.4433  11.5075  12.0145  12.1001  12.1370  14.8323  15.6709

          k =-0.5143-0.2652 0.2652 (  7062 PWs)   bands (ev):

   -47.0274 -47.0261 -23.2597 -23.2562 -23.1275 -23.1269 -23.0869 -23.0863
   -19.4127 -19.4040  -8.6398  -8.3331  -8.2288  -8.1389  -8.0878  -8.0269
    -3.0878  -3.0657  -3.0119  -2.9721  -2.9521  -2.8752   3.3006   3.3711
     3.7661   4.1164   4.3960   4.4759   4.5653   4.7492   4.8392   5.0406
     5.1742   5.8190   7.0004   7.0687   7.2678   7.4326   7.4836   7.6389
    10.9550  11.9043  11.9641  12.1424  12.3980  12.4529  14.8288  16.1898

          k =-0.6428-0.2652 0.2652 (  7052 PWs)   bands (ev):

   -47.0271 -47.0258 -23.2766 -23.2729 -23.1267 -23.1263 -23.0862 -23.0857
   -19.4104 -19.4022  -8.6343  -8.3282  -8.1703  -8.0191  -7.9914  -7.9838
    -3.1071  -3.0554  -3.0178  -2.9995  -2.9406  -2.9036   2.9181   2.9699
     3.7692   4.0988   4.2528   4.3610   4.4581   4.7591   4.7811   4.9984
     5.1211   5.8325   6.9916   7.0676   7.2587   7.5156   7.5281   7.6720
    10.9717  12.1300  12.2253  12.2556  12.6306  12.6936  14.8245  16.4583

          k =-0.0000 0.3536-0.3536 (  7106 PWs)   bands (ev):

   -47.0283 -47.0283 -23.1648 -23.1648 -23.1113 -23.1113 -23.1101 -23.1101
   -19.4190 -19.4190  -8.9867  -8.9867  -8.3267  -8.3267  -8.2171  -8.2171
    -2.9837  -2.9837  -2.9253  -2.9253  -2.9015  -2.9015   4.3265   4.3265
     4.4897   4.4897   5.0263   5.0263   5.5094   5.5094   5.8050   5.8050
     6.2802   6.2802   6.6006   6.6006   6.6796   6.6796   7.3937   7.3937
    10.9223  10.9223  11.0787  11.0787  11.5004  11.5004  13.9042  13.9042

          k =-0.1286 0.3536-0.3536 (  7086 PWs)   bands (ev):

   -47.0281 -47.0281 -23.1738 -23.1738 -23.1110 -23.1110 -23.1098 -23.1098
   -19.4180 -19.4180  -8.9207  -8.9207  -8.3259  -8.3259  -8.2139  -8.2139
    -2.9900  -2.9900  -2.9588  -2.9588  -2.8763  -2.8763   4.3270   4.3270
     4.4765   4.4765   5.0046   5.0046   5.3195   5.3195   5.5957   5.5957
     6.0927   6.0927   6.7336   6.7336   6.7812   6.7812   7.3939   7.3939
    11.0161  11.0161  11.1649  11.1649  11.5110  11.5110  14.2739  14.2739

          k =-0.2571 0.3536-0.3536 (  7074 PWs)   bands (ev):

   -47.0277 -47.0277 -23.1980 -23.1980 -23.1100 -23.1100 -23.1089 -23.1089
   -19.4152 -19.4152  -8.7428  -8.7428  -8.3196  -8.3196  -8.2053  -8.2053
    -3.0068  -3.0068  -2.9964  -2.9964  -2.8612  -2.8612   4.3285   4.3285
     4.4244   4.4244   4.7176   4.7176   5.1483   5.1483   5.2375   5.2375
     5.5111   5.5111   6.9560   6.9560   7.0444   7.0444   7.4024   7.4024
    11.2826  11.2826  11.4175  11.4175  11.5474  11.5474  15.1487  15.1487

          k =-0.3857 0.3536-0.3536 (  7082 PWs)   bands (ev):

   -47.0272 -47.0272 -23.2294 -23.2294 -23.1086 -23.1086 -23.1078 -23.1078
   -19.4117 -19.4117  -8.5282  -8.5282  -8.2793  -8.2793  -8.1939  -8.1939
    -3.0292  -3.0292  -3.0172  -3.0172  -2.8697  -2.8697   4.0094   4.0094
     4.3304   4.3304   4.3927   4.3927   4.9173   4.9173   4.9985   4.9985
     5.2011   5.2011   7.1396   7.1396   7.1990   7.1990   7.4366   7.4366
    11.5194  11.5194  11.7478  11.7478  11.7968  11.7968  15.7964  16.0883

          k =-0.5143 0.3536-0.3536 (  7062 PWs)   bands (ev):

   -47.0267 -47.0267 -23.2579 -23.2579 -23.1073 -23.1073 -23.1067 -23.1067
   -19.4084 -19.4084  -8.4259  -8.4259  -8.1834  -8.1834  -8.1314  -8.1314
    -3.0499  -3.0499  -3.0150  -3.0150  -2.8987  -2.8987   3.3484   3.3484
     4.2741   4.2741   4.3320   4.3320   4.6881   4.6881   4.7947   4.7947
     5.2197   5.2197   7.2405   7.2405   7.2515   7.2515   7.4792   7.4792
    11.5676  11.5676  12.1391  12.1391  12.1975  12.1975  15.7880  15.7880

          k =-0.6428 0.3536-0.3536 (  7060 PWs)   bands (ev):

   -47.0265 -47.0265 -23.2747 -23.2747 -23.1066 -23.1066 -23.1061 -23.1061
   -19.4064 -19.4064  -8.4079  -8.4079  -8.1771  -8.1771  -7.9922  -7.9922
    -3.0624  -3.0624  -2.9941  -2.9941  -2.9353  -2.9353   2.9494   2.9494
     4.1920   4.1920   4.3327   4.3327   4.5700   4.5700   4.7215   4.7215
     5.2401   5.2401   7.2664   7.2664   7.2800   7.2800   7.4985   7.4985
    11.5872  11.5872  12.3988  12.3988  12.4629  12.4629  15.7797  15.7797

          k = 0.0000-0.1768 0.0000 (  7081 PWs)   bands (ev):

   -47.0298 -47.0267 -23.1676 -23.1640 -23.1618 -23.1470 -23.0731 -23.0558
   -19.4344 -19.4081  -9.0793  -8.9207  -8.6689  -8.5091  -7.9632  -7.8081
    -2.9766  -2.9709  -2.9659  -2.9594  -2.9556  -2.8868   2.9979   3.5379
     3.9061   5.2709   5.3275   5.3920   5.7132   5.7267   6.2155   6.2296
     6.3150   6.7176   6.7580   6.8478   6.9726   7.1575   7.1782   7.8788
     9.7226   9.9587  10.1234  11.7995  12.1221  12.7581  13.0642  13.6101

          k =-0.1286-0.1768 0.0000 (  7092 PWs)   bands (ev):

   -47.0297 -47.0266 -23.1768 -23.1708 -23.1636 -23.1467 -23.0728 -23.0555
   -19.4328 -19.4072  -9.0357  -8.8518  -8.6506  -8.5079  -7.9581  -7.8040
    -2.9959  -2.9806  -2.9705  -2.9683  -2.9371  -2.9012   2.9982   3.5357
     3.9415   5.0800   5.1495   5.3717   5.5057   5.6827   5.9953   6.2045
     6.3192   6.7455   6.7471   6.9499   6.9827   6.9990   7.1428   7.8810
     9.9184   9.9857  10.2786  11.8669  12.1787  12.7653  13.2426  13.7839

          k =-0.2571-0.1768 0.0000 (  7090 PWs)   bands (ev):

   -47.0293 -47.0262 -23.2013 -23.1947 -23.1626 -23.1458 -23.0719 -23.0547
   -19.4286 -19.4048  -8.9514  -8.6612  -8.5663  -8.5015  -7.9442  -7.7931
    -3.0437  -3.0208  -2.9738  -2.9613  -2.9433  -2.9130   2.9983   3.5223
     4.0345   4.7417   4.8083   4.8925   5.2670   5.3025   5.6140   5.9129
     6.2204   6.7187   6.9614   6.9641   6.9824   7.0915   7.1551   7.8867
     9.9761  10.4714  10.6970  12.0619  12.3457  12.7850  13.3712  14.4059

          k =-0.3857-0.1768 0.0000 (  7078 PWs)   bands (ev):

   -47.0287 -47.0257 -23.2331 -23.2258 -23.1612 -23.1446 -23.0707 -23.0536
   -19.4231 -19.4015  -8.9085  -8.5057  -8.3978  -8.3615  -7.9259  -7.7787
    -3.0981  -3.0736  -3.0050  -2.9688  -2.9520  -2.8903   2.9941   3.4601
     4.0831   4.1451   4.3565   4.4513   4.6160   5.1439   5.5043   5.6824
     6.0255   6.5228   6.9469   6.9845   6.9924   7.3822   7.4454   7.8939
    10.0010  11.0982  11.2475  12.3559  12.6031  12.8117  13.4079  15.0427

          k =-0.5143-0.1768 0.0000 (  7058 PWs)   bands (ev):

   -47.0283 -47.0252 -23.2621 -23.2541 -23.1600 -23.1435 -23.0697 -23.0526
   -19.4181 -19.3986  -8.9035  -8.5000  -8.1407  -8.1304  -7.9092  -7.7653
    -3.1376  -3.1221  -3.0708  -2.9600  -2.9436  -2.8732   2.9603   3.2340
     3.3871   3.9069   4.1540   4.3404   4.3605   4.9607   5.3776   5.5823
     5.8949   6.3888   6.9236   6.9317   6.9731   7.6195   7.7095   7.8999
    10.0236  11.6527  11.7629  12.6749  12.8215  12.9058  13.4230  15.5111

          k =-0.6428-0.1768 0.0000 (  7053 PWs)   bands (ev):

   -47.0280 -47.0249 -23.2791 -23.2708 -23.1593 -23.1428 -23.0690 -23.0521
   -19.4151 -19.3968  -8.9070  -8.4972  -7.9840  -7.9696  -7.9019  -7.7573
    -3.1509  -3.1478  -3.1226  -2.9534  -2.9385  -2.8644   2.8035   2.9877
     3.0808   3.7974   4.0720   4.2420   4.3791   4.8481   5.2941   5.5465
     5.8366   6.3190   6.8865   6.9143   6.9616   7.7425   7.8535   7.8978
    10.0372  11.9817  12.0779  12.8415  12.8936  13.1029  13.4292  15.7745

          k = 0.0000-0.2652 0.0884 (  7084 PWs)   bands (ev):

   -47.0295 -47.0271 -23.1671 -23.1625 -23.1606 -23.1295 -23.0914 -23.0595
   -19.4302 -19.4101  -9.0594  -8.9411  -8.6367  -8.3980  -8.1168  -7.8389
    -2.9757  -2.9708  -2.9507  -2.9392  -2.9348  -2.8967   3.1318   3.9510
     4.1384   4.9593   5.3186   5.4385   5.6013   5.6782   6.1566   6.1848
     6.2858   6.4151   6.5704   6.6919   6.9118   7.0531   7.0767   7.7192
     9.8474  10.4415  10.5356  11.4447  12.0334  12.4903  13.2035  14.1782

          k =-0.1286-0.2652 0.0884 (  7077 PWs)   bands (ev):

   -47.0293 -47.0269 -23.1761 -23.1715 -23.1603 -23.1292 -23.0911 -23.0592
   -19.4288 -19.4092  -9.0090  -8.8725  -8.6227  -8.3979  -8.1120  -7.8363
    -2.9932  -2.9702  -2.9650  -2.9604  -2.9161  -2.8970   3.1314   3.9487
     4.1616   4.9438   5.1087   5.2611   5.4406   5.5814   5.9898   6.0383
     6.1799   6.4810   6.6840   6.8040   6.9184   6.9939   7.0384   7.7208
    10.0412  10.4496  10.6502  11.5237  12.0896  12.4977  13.4438  14.3060

          k =-0.2571-0.2652 0.0884 (  7078 PWs)   bands (ev):

   -47.0289 -47.0266 -23.2005 -23.1955 -23.1593 -23.1283 -23.0901 -23.0584
   -19.4251 -19.4069  -8.9014  -8.6832  -8.5535  -8.3960  -8.0989  -7.8294
    -3.0368  -3.0042  -2.9769  -2.9634  -2.9169  -2.8943   3.1290   3.9316
     4.2153   4.7474   4.8129   4.8993   4.9537   5.3373   5.4934   5.5880
     6.0229   6.5412   6.8192   6.9206   7.0040   7.0968   7.1254   7.7257
    10.4310  10.5686  10.9801  11.7512  12.2567  12.5183  13.7404  14.8335

          k =-0.3857-0.2652 0.0884 (  7071 PWs)   bands (ev):

   -47.0284 -47.0260 -23.2322 -23.2266 -23.1579 -23.1271 -23.0888 -23.0573
   -19.4202 -19.4037  -8.8352  -8.4229  -8.4166  -8.3512  -8.0802  -7.8203
    -3.0821  -3.0525  -2.9789  -2.9605  -2.9550  -2.8811   3.1170   3.8152
     4.0691   4.2052   4.4283   4.5152   4.7344   4.8400   5.2479   5.3878
     5.8422   6.5019   6.7369   6.9267   7.1541   7.3010   7.4203   7.7354
    10.4764  11.1494  11.4504  12.0878  12.4993  12.5647  13.8472  15.4815

          k =-0.5143-0.2652 0.0884 (  7077 PWs)   bands (ev):

   -47.0279 -47.0256 -23.2610 -23.2549 -23.1567 -23.1260 -23.0877 -23.0563
   -19.4158 -19.4009  -8.8188  -8.4016  -8.1775  -8.1382  -8.0531  -7.8119
    -3.1097  -3.0944  -3.0167  -2.9756  -2.9413  -2.8795   3.0479   3.3765
     3.4224   4.0832   4.1938   4.4794   4.5007   4.6461   5.1263   5.2430
     5.7313   6.4935   6.6486   6.9093   7.1662   7.4915   7.6427   7.7650
    10.4993  11.6889  11.9169  12.4425  12.5593  12.8241  13.8864  15.9396

          k =-0.6428-0.2652 0.0884 (  7058 PWs)   bands (ev):

   -47.0276 -47.0253 -23.2780 -23.2716 -23.1559 -23.1254 -23.0870 -23.0557
   -19.4132 -19.3992  -8.8174  -8.3993  -8.0836  -7.9883  -7.9757  -7.8072
    -3.1247  -3.1027  -3.0675  -2.9729  -2.9257  -2.8866   2.8392   2.9800
     3.2493   4.0087   4.1432   4.3473   4.5275   4.5346   5.0904   5.1520
     5.6828   6.5155   6.5756   6.8964   7.1562   7.5890   7.7016   7.8333
    10.5124  12.0116  12.2111  12.5728  12.6821  13.0291  13.9001  16.1962

          k = 0.0000-0.3536 0.1768 (  7073 PWs)   bands (ev):

   -47.0289 -47.0276 -23.1660 -23.1635 -23.1499 -23.1125 -23.1090 -23.0711
   -19.4245 -19.4136  -9.0313  -8.9692  -8.5619  -8.2855  -8.2470  -7.9379
    -2.9762  -2.9732  -2.9397  -2.9116  -2.9111  -2.9083   3.4382   4.3956
     4.4244   4.5918   5.2809   5.3987   5.5888   5.5959   5.7929   6.0109
     6.1777   6.3268   6.5842   6.6077   6.7739   6.9170   7.0871   7.5006
    10.1548  10.9831  10.9896  11.0410  11.7909  12.0805  13.4946  14.0439

          k =-0.1286-0.3536 0.1768 (  7081 PWs)   bands (ev):

   -47.0288 -47.0275 -23.1751 -23.1725 -23.1495 -23.1121 -23.1087 -23.0708
   -19.4233 -19.4127  -8.9727  -8.9017  -8.5531  -8.2810  -8.2474  -7.9368
    -2.9886  -2.9750  -2.9587  -2.9514  -2.8905  -2.8853   3.4371   4.3939
     4.4185   4.5919   5.1706   5.2259   5.3788   5.4256   5.7527   5.8057
     6.0676   6.2719   6.6737   6.7638   6.7948   6.9129   7.0981   7.5018
    10.3116  11.0039  11.0772  11.1222  11.8500  12.0886  13.7949  14.4027

          k =-0.2571-0.3536 0.1768 (  7078 PWs)   bands (ev):

   -47.0284 -47.0271 -23.1994 -23.1966 -23.1485 -23.1111 -23.1078 -23.0699
   -19.4202 -19.4103  -8.8313  -8.7172  -8.5094  -8.2673  -8.2479  -7.9339
    -3.0204  -2.9933  -2.9810  -2.9780  -2.8844  -2.8717   3.4316   4.3728
     4.3920   4.5246   4.8003   4.8487   5.0197   5.1887   5.3499   5.4648
     5.6545   6.1021   6.8715   6.9377   6.9972   7.0643   7.1812   7.5099
    10.7248  11.0345  11.3335  11.3927  12.0249  12.1146  14.2988  15.2320

          k =-0.3857-0.3536 0.1768 (  7077 PWs)   bands (ev):

   -47.0279 -47.0266 -23.2309 -23.2278 -23.1471 -23.1097 -23.1066 -23.0688
   -19.4161 -19.4072  -8.7192  -8.4752  -8.3690  -8.2450  -8.2359  -7.9301
    -3.0511  -3.0321  -2.9938  -2.9784  -2.9086  -2.8679   3.4065   4.0280
     4.0763   4.2893   4.4095   4.6198   4.7687   4.8345   5.0158   5.1564
     5.4975   6.0286   6.8720   7.0018   7.1797   7.2994   7.3499   7.5484
    11.0371  11.2935  11.7235  11.7871  12.1299  12.3226  14.5178  15.9725

          k =-0.5143-0.3536 0.1768 (  7064 PWs)   bands (ev):

   -47.0274 -47.0261 -23.2595 -23.2562 -23.1458 -23.1085 -23.1055 -23.0678
   -19.4124 -19.4043  -8.6833  -8.3181  -8.2584  -8.1407  -8.1260  -7.9265
    -3.0713  -3.0565  -3.0022  -2.9662  -2.9495  -2.8807   3.2219   3.3632
     3.6112   4.1092   4.3120   4.4741   4.6307   4.7337   4.8502   5.0088
     5.4036   6.0242   6.8484   6.9946   7.3106   7.3816   7.4431   7.6630
    11.0688  11.7912  12.1167  12.1570  12.2071  12.6384  14.5874  16.2047

          k =-0.6428-0.3536 0.1768 (  7056 PWs)   bands (ev):

   -47.0271 -47.0258 -23.2764 -23.2730 -23.1450 -23.1077 -23.1049 -23.0672
   -19.4102 -19.4026  -8.6749  -8.2854  -8.2541  -7.9961  -7.9901  -7.9250
    -3.0890  -3.0472  -3.0069  -2.9933  -2.9396  -2.9059   2.8989   2.9654
     3.5340   3.9924   4.2219   4.4182   4.5920   4.6404   4.8578   4.9166
     5.3660   6.0318   6.8330   6.9797   7.3781   7.4053   7.4557   7.7479
    11.0837  12.0898  12.1728  12.4045  12.4558  12.8572  14.6094  16.2347

          k =-0.0000 0.2652-0.4419 (  7082 PWs)   bands (ev):

   -47.0283 -47.0283 -23.1648 -23.1648 -23.1330 -23.1330 -23.0885 -23.0885
   -19.4186 -19.4186  -9.0002  -9.0002  -8.4412  -8.4412  -8.0836  -8.0836
    -2.9753  -2.9753  -2.9259  -2.9259  -2.8988  -2.8988   3.8890   3.8890
     4.8381   4.8381   5.1836   5.1836   5.4969   5.4969   5.8096   5.8096
     6.2318   6.2318   6.6295   6.6295   6.7394   6.7394   7.2729   7.2729
    10.5673  10.5673  11.4173  11.4173  11.5803  11.5803  13.7975  13.7975

          k =-0.1286 0.2652-0.4419 (  7096 PWs)   bands (ev):

   -47.0281 -47.0281 -23.1738 -23.1738 -23.1326 -23.1326 -23.0882 -23.0882
   -19.4176 -19.4176  -8.9357  -8.9357  -8.4358  -8.4358  -8.0837  -8.0837
    -2.9821  -2.9821  -2.9531  -2.9531  -2.8787  -2.8787   3.8864   3.8864
     4.8169   4.8169   5.1416   5.1416   5.3093   5.3093   5.6052   5.6052
     6.1370   6.1370   6.7101   6.7101   6.8130   6.8130   7.2767   7.2767
    10.6893  10.6893  11.4790  11.4790  11.5948  11.5948  14.1380  14.1380

          k =-0.2571 0.2652-0.4419 (  7076 PWs)   bands (ev):

   -47.0277 -47.0277 -23.1980 -23.1980 -23.1316 -23.1316 -23.0873 -23.0873
   -19.4150 -19.4150  -8.7654  -8.7654  -8.4138  -8.4138  -8.0836  -8.0836
    -2.9994  -2.9994  -2.9857  -2.9857  -2.8660  -2.8660   3.8749   3.8749
     4.6602   4.6602   4.8569   4.8569   5.1477   5.1477   5.2251   5.2251
     5.7022   5.7022   6.9187   6.9187   7.0351   7.0351   7.3059   7.3059
    11.0284  11.0284  11.5843  11.5843  11.7201  11.7201  14.8507  14.8507

          k =-0.3857 0.2652-0.4419 (  7070 PWs)   bands (ev):

   -47.0272 -47.0272 -23.2293 -23.2293 -23.1302 -23.1302 -23.0861 -23.0861
   -19.4115 -19.4115  -8.5821  -8.5821  -8.3322  -8.3322  -8.0829  -8.0829
    -3.0153  -3.0153  -3.0103  -3.0103  -2.8741  -2.8741   3.7991   3.7991
     4.1517   4.1517   4.5065   4.5065   4.8906   4.8906   5.1322   5.1322
     5.4634   5.4634   7.0313   7.0313   7.1783   7.1783   7.4202   7.4202
    11.4816  11.4816  11.6380  11.6380  12.0369  12.0369  15.2868  15.2868

          k =-0.5143 0.2652-0.4419 (  7062 PWs)   bands (ev):

   -47.0267 -47.0267 -23.2578 -23.2578 -23.1289 -23.1289 -23.0851 -23.0851
   -19.4084 -19.4084  -8.5087  -8.5087  -8.1500  -8.1500  -8.0784  -8.0784
    -3.0352  -3.0352  -3.0086  -3.0086  -2.9004  -2.9004   3.3260   3.3260
     3.9575   3.9575   4.2264   4.2264   4.7720   4.7720   5.0362   5.0362
     5.4223   5.4223   7.0867   7.0867   7.2022   7.2022   7.5475   7.5475
    11.6322  11.6322  11.9716  11.9716  12.3921  12.3921  15.4060  15.4060

          k =-0.6428 0.2652-0.4419 (  7048 PWs)   bands (ev):

   -47.0264 -47.0264 -23.2747 -23.2747 -23.1281 -23.1281 -23.0844 -23.0844
   -19.4065 -19.4065  -8.4914  -8.4914  -8.0868  -8.0868  -7.9958  -7.9958
    -3.0478  -3.0478  -2.9896  -2.9896  -2.9331  -2.9331   2.9406   2.9406
     3.9568   3.9568   4.0699   4.0699   4.6917   4.6917   4.9993   4.9993
     5.4234   5.4234   7.1175   7.1175   7.1936   7.1936   7.6087   7.6087
    11.6510  11.6510  12.2545  12.2545  12.6322  12.6322  15.4362  15.4362

          k = 0.0000-0.3536 0.0000 (  7091 PWs)   bands (ev):

   -47.0292 -47.0274 -23.1664 -23.1661 -23.1630 -23.1132 -23.1083 -23.0545
   -19.4267 -19.4114  -9.0668  -8.9655  -8.6500  -8.2864  -8.2448  -7.7905
    -2.9641  -2.9598  -2.9458  -2.9243  -2.9203  -2.9047   3.0492   4.3424
     4.4309   4.4890   5.3378   5.5316   5.6326   5.6690   6.1075   6.1097
     6.2673   6.2810   6.4625   6.6135   6.7741   7.0940   7.1056   7.5133
     9.7560  10.8428  10.9793  11.0266  12.1124  12.3493  13.0853  14.0775

          k =-0.1286-0.3536 0.0000 (  7069 PWs)   bands (ev):

   -47.0290 -47.0272 -23.1755 -23.1720 -23.1657 -23.1128 -23.1080 -23.0542
   -19.4255 -19.4105  -9.0156  -8.8979  -8.6337  -8.2806  -8.2466  -7.7897
    -2.9862  -2.9581  -2.9566  -2.9375  -2.9087  -2.9017   3.0482   4.3536
     4.4242   4.4830   5.1044   5.3350   5.3945   5.6341   5.8479   6.0737
     6.1183   6.4643   6.5230   6.7526   6.8698   6.9652   7.0460   7.5178
     9.9677  10.8482  11.0618  11.1266  12.1639  12.3569  13.3091  14.4270

          k =-0.2571-0.3536 0.0000 (  7071 PWs)   bands (ev):

   -47.0286 -47.0268 -23.1999 -23.1960 -23.1645 -23.1118 -23.1071 -23.0534
   -19.4222 -19.4083  -8.9040  -8.7129  -8.5599  -8.2633  -8.2507  -7.7876
    -3.0277  -2.9753  -2.9698  -2.9481  -2.9113  -2.8962   3.0438   4.3534
     4.3924   4.4423   4.7575   4.8250   4.9624   5.2988   5.4721   5.5606
     5.9815   6.5909   6.6992   6.7910   6.9717   7.1156   7.1165   7.5311
    10.4808  10.8666  11.3165  11.4060  12.3119  12.3853  13.6541  15.2215

          k =-0.3857-0.3536 0.0000 (  7075 PWs)   bands (ev):

   -47.0281 -47.0263 -23.2315 -23.2272 -23.1630 -23.1104 -23.1060 -23.0523
   -19.4180 -19.4054  -8.8281  -8.4687  -8.3834  -8.2523  -8.2283  -7.7850
    -3.0634  -3.0178  -2.9790  -2.9423  -2.9369  -2.8925   3.0288   4.0283
     4.0896   4.2096   4.4205   4.5858   4.6224   4.8388   5.0314   5.4408
     5.8192   6.5488   6.6914   6.7434   7.1808   7.2926   7.3848   7.5804
    10.8585  11.1277  11.7081  11.8037  12.3886  12.5846  13.8405  15.9563

          k =-0.5143-0.3536 0.0000 (  7067 PWs)   bands (ev):

   -47.0276 -47.0258 -23.2602 -23.2555 -23.1617 -23.1091 -23.1049 -23.0514
   -19.4141 -19.4026  -8.8020  -8.3026  -8.2715  -8.1436  -8.1218  -7.7828
    -3.0793  -3.0587  -2.9871  -2.9764  -2.9266  -2.8973   2.9683   3.3653
     3.4854   4.0067   4.3094   4.4777   4.6420   4.6460   4.8025   5.3035
     5.7109   6.5103   6.6617   6.7232   7.3227   7.3747   7.4862   7.7379
    10.8847  11.6672  12.1203  12.2066  12.4125  12.8692  13.9245  16.2309

          k =-0.6428-0.3536 0.0000 (  7065 PWs)   bands (ev):

   -47.0274 -47.0256 -23.2771 -23.2723 -23.1609 -23.1083 -23.1043 -23.0508
   -19.4118 -19.4010  -8.7949  -8.2697  -8.2651  -7.9972  -7.9883  -7.7815
    -3.0829  -3.0710  -3.0314  -2.9698  -2.9204  -2.9048   2.8084   2.9703
     3.2343   3.8912   4.2066   4.4231   4.6095   4.6682   4.7054   5.2150
     5.6608   6.4957   6.6469   6.7074   7.3919   7.4010   7.5045   7.8509
    10.8959  11.9910  12.3895  12.4258  12.4673  13.0700  13.9578  16.2596

          k = 0.0000-0.4419 0.0884 (  7072 PWs)   bands (ev):

   -47.0288 -47.0278 -23.1658 -23.1638 -23.1628 -23.1344 -23.0873 -23.0581
   -19.4221 -19.4138  -9.0595  -8.9995  -8.6241  -8.4391  -8.0744  -7.8205
    -2.9600  -2.9574  -2.9379  -2.9158  -2.9004  -2.8980   3.1591   3.8993
     4.6764   5.0479   5.3880   5.4994   5.5560   5.6443   5.9422   5.9751
     6.0906   6.1605   6.6061   6.6261   6.8234   6.9778   7.0234   7.2408
     9.8829  10.5891  11.3057  11.4105  12.0225  12.0983  13.2195  13.8377

          k =-0.1286-0.4419 0.0884 (  7083 PWs)   bands (ev):

   -47.0286 -47.0276 -23.1747 -23.1728 -23.1625 -23.1340 -23.0870 -23.0578
   -19.4211 -19.4130  -9.0047  -8.9345  -8.6093  -8.4314  -8.0770  -7.8214
    -2.9772  -2.9576  -2.9482  -2.9271  -2.8942  -2.8910   3.1574   3.8956
     4.6607   5.0261   5.1453   5.2358   5.4834   5.5103   5.7337   5.8551
     6.1348   6.3323   6.5670   6.7902   6.8487   6.8903   6.9769   7.2495
    10.0772  10.7146  11.3103  11.4753  12.0692  12.1092  13.4638  14.1614

          k =-0.2571-0.4419 0.0884 (  7070 PWs)   bands (ev):

   -47.0282 -47.0272 -23.1989 -23.1969 -23.1614 -23.1329 -23.0861 -23.0570
   -19.4183 -19.4108  -8.8774  -8.7615  -8.5444  -8.4039  -8.0836  -7.8240
    -3.0074  -2.9694  -2.9561  -2.9529  -2.8938  -2.8844   3.1511   3.8804
     4.5093   4.7199   4.8613   4.9326   5.0688   5.1286   5.4442   5.7111
     5.7227   6.4120   6.6988   6.8145   6.9289   7.0542   7.1287   7.2968
    10.5638  11.0591  11.3240  11.6782  12.1146  12.2386  13.8801  14.8451

          k =-0.3857-0.4419 0.0884 (  7063 PWs)   bands (ev):

   -47.0277 -47.0267 -23.2304 -23.2281 -23.1599 -23.1314 -23.0850 -23.0559
   -19.4147 -19.4079  -8.7793  -8.5658  -8.3781  -8.3234  -8.0915  -7.8274
    -3.0299  -2.9946  -2.9813  -2.9499  -2.9104  -2.8865   3.1314   3.7961
     4.1334   4.1677   4.2415   4.5259   4.8438   4.9419   5.3267   5.4381
     5.5848   6.3715   6.6979   6.7975   7.0445   7.1942   7.3827   7.4907
    11.1524  11.3486  11.5310  12.0031  12.1380  12.4949  14.1286  15.3429

          k =-0.5143-0.4419 0.0884 (  7062 PWs)   bands (ev):

   -47.0272 -47.0262 -23.2590 -23.2565 -23.1584 -23.1300 -23.0840 -23.0549
   -19.4115 -19.4053  -8.7402  -8.4748  -8.1626  -8.1446  -8.0943  -7.8308
    -3.0357  -3.0282  -2.9872  -2.9448  -2.9403  -2.8966   3.0481   3.3302
     3.5323   3.9530   3.9675   4.1834   4.7793   4.8849   5.1835   5.3352
     5.5019   6.3612   6.6694   6.7920   7.1209   7.2293   7.5329   7.7071
    11.3441  11.7084  11.9856  12.1550  12.3652  12.7887  14.2409  15.5249

          k =-0.6428-0.4419 0.0884 (  7056 PWs)   bands (ev):

   -47.0269 -47.0260 -23.2759 -23.2732 -23.1576 -23.1292 -23.0834 -23.0543
   -19.4095 -19.4037  -8.7272  -8.4493  -8.1079  -8.0047  -8.0001  -7.8330
    -3.0488  -3.0246  -2.9877  -2.9724  -2.9370  -2.9090   2.8457   2.9498
     3.3212   3.8237   3.9513   4.0092   4.7017   4.8867   5.0922   5.3053
     5.4645   6.3635   6.6564   6.7837   7.1596   7.2399   7.5958   7.8182
    11.3564  12.0228  12.1673  12.2725  12.6065  12.9939  14.2845  15.5726

          k =-0.0000 0.1768-0.5303 (  7080 PWs)   bands (ev):

   -47.0283 -47.0283 -23.1648 -23.1648 -23.1518 -23.1518 -23.0696 -23.0696
   -19.4175 -19.4175  -9.0344  -9.0344  -8.5543  -8.5543  -7.9226  -7.9226
    -2.9584  -2.9584  -2.9275  -2.9275  -2.8886  -2.8886   3.4548   3.4548
     5.0947   5.0947   5.4643   5.4643   5.5241   5.5241   5.8318   5.8318
     6.1122   6.1122   6.7417   6.7417   6.8540   6.8540   6.9903   6.9903
    10.1857  10.1857  11.7248  11.7248  11.7913  11.7913  13.5206  13.5206

          k =-0.1286 0.1768-0.5303 (  7076 PWs)   bands (ev):

   -47.0281 -47.0281 -23.1738 -23.1738 -23.1515 -23.1515 -23.0693 -23.0693
   -19.4166 -19.4166  -8.9741  -8.9741  -8.5432  -8.5432  -7.9247  -7.9247
    -2.9667  -2.9667  -2.9366  -2.9366  -2.8832  -2.8832   3.4525   3.4525
     5.0062   5.0062   5.2609   5.2609   5.4772   5.4772   5.6437   5.6437
     6.2325   6.2325   6.7000   6.7000   6.8762   6.8762   7.0014   7.0014
    10.3451  10.3451  11.7362  11.7362  11.8400  11.8400  13.8036  13.8036

          k =-0.2571 0.1768-0.5303 (  7076 PWs)   bands (ev):

   -47.0277 -47.0277 -23.1979 -23.1979 -23.1503 -23.1503 -23.0685 -23.0685
   -19.4143 -19.4143  -8.8230  -8.8230  -8.4974  -8.4974  -7.9305  -7.9305
    -2.9829  -2.9829  -2.9562  -2.9562  -2.8795  -2.8795   3.4433   3.4433
     4.6208   4.6208   5.0234   5.0234   5.1737   5.1737   5.3960   5.3960
     6.0743   6.0743   6.8183   6.8183   6.9291   6.9291   7.1628   7.1628
    10.7649  10.7649  11.7553  11.7553  12.0074  12.0074  14.3363  14.3363

          k =-0.3857 0.1768-0.5303 (  7066 PWs)   bands (ev):

   -47.0272 -47.0272 -23.2292 -23.2292 -23.1488 -23.1488 -23.0674 -23.0674
   -19.4112 -19.4112  -8.6855  -8.6855  -8.3635  -8.3635  -7.9380  -7.9380
    -2.9944  -2.9944  -2.9788  -2.9788  -2.8867  -2.8867   3.4107   3.4107
     4.1254   4.1254   4.3499   4.3499   5.1064   5.1064   5.2523   5.2523
     5.9515   5.9515   6.8608   6.8608   6.9678   6.9678   7.4427   7.4427
    11.3062  11.3062  11.7762  11.7762  12.2871  12.2871  14.6752  14.6752

          k =-0.5143 0.1768-0.5303 (  7058 PWs)   bands (ev):

   -47.0267 -47.0267 -23.2577 -23.2577 -23.1473 -23.1473 -23.0664 -23.0664
   -19.4084 -19.4084  -8.6282  -8.6282  -8.1554  -8.1554  -7.9448  -7.9448
    -3.0053  -3.0053  -2.9873  -2.9873  -2.9045  -2.9045   3.2223   3.2223
     3.6516   3.6516   4.0088   4.0088   4.9832   4.9832   5.1891   5.1891
     5.9086   5.9086   6.8813   6.8813   6.9824   6.9824   7.6418   7.6418
    11.7641  11.7641  11.8382  11.8382  12.6051  12.6051  14.8152  14.8152

          k =-0.6428 0.1768-0.5303 (  7050 PWs)   bands (ev):

   -47.0264 -47.0264 -23.2745 -23.2745 -23.1465 -23.1465 -23.0658 -23.0658
   -19.4067 -19.4067  -8.6092  -8.6092  -8.0079  -8.0079  -7.9492  -7.9492
    -3.0167  -3.0167  -2.9777  -2.9777  -2.9244  -2.9244   2.9090   2.9090
     3.5628   3.5628   3.8500   3.8500   4.8939   4.8939   5.1713   5.1713
     5.8965   5.8965   6.8984   6.8984   6.9806   6.9806   7.7344   7.7344
    11.7962  11.7962  12.1220  12.1220  12.8243  12.8243  14.8637  14.8637

          k = 0.0000-0.5303 0.0000 (  7051 PWs)   bands (ev):

   -47.0285 -47.0280 -23.1682 -23.1651 -23.1643 -23.1527 -23.0690 -23.0532
   -19.4191 -19.4146  -9.0781  -9.0391  -8.6424  -8.5528  -7.9161  -7.7730
    -2.9502  -2.9486  -2.9344  -2.9225  -2.8822  -2.8808   3.0629   3.4586
     4.9946   5.3989   5.4571   5.5185   5.6162   5.7111   5.9462   5.9470
     5.9732   5.9843   6.4897   6.7503   6.8683   6.9041   7.0627   7.0668
     9.7903  10.1980  11.6336  11.7689  12.0514  12.1026  13.0965  13.5260

          k =-0.1286-0.5303 0.0000 (  7060 PWs)   bands (ev):

   -47.0284 -47.0278 -23.1742 -23.1732 -23.1677 -23.1523 -23.0687 -23.0529
   -19.4182 -19.4139  -9.0244  -8.9785  -8.6249  -8.5406  -7.9196  -7.7755
    -2.9644  -2.9449  -2.9408  -2.9132  -2.8933  -2.8841   3.0609   3.4559
     4.9064   5.1386   5.1856   5.4272   5.5684   5.5846   5.6996   5.8275
     6.1826   6.3390   6.4286   6.8019   6.8582   6.8888   6.9341   7.0456
    10.0000  10.3583  11.6367  11.8218  12.0542  12.1520  13.3265  13.8036

          k =-0.2571-0.5303 0.0000 (  7067 PWs)   bands (ev):

   -47.0280 -47.0275 -23.1984 -23.1973 -23.1665 -23.1511 -23.0679 -23.0521
   -19.4159 -19.4118  -8.9000  -8.8255  -8.5528  -8.4929  -7.9289  -7.7824
    -2.9848  -2.9558  -2.9349  -2.9226  -2.9058  -2.8949   3.0538   3.4454
     4.5269   4.6326   4.9855   5.0477   5.1024   5.3294   5.5141   5.6979
     6.0786   6.4493   6.5851   6.7636   6.8602   6.8644   7.1270   7.1849
    10.5137  10.7792  11.6451  11.9911  12.0645  12.3027  13.7330  14.3403

          k =-0.3857-0.5303 0.0000 (  7060 PWs)   bands (ev):

   -47.0275 -47.0269 -23.2297 -23.2285 -23.1648 -23.1495 -23.0669 -23.0510
   -19.4129 -19.4092  -8.7998  -8.6802  -8.3823  -8.3617  -7.9410  -7.7915
    -2.9979  -2.9717  -2.9600  -2.9217  -2.9122  -2.9092   3.0346   3.4109
     4.1197   4.1371   4.1855   4.3350   5.0926   5.1474   5.3846   5.5685
     5.9460   6.5169   6.5593   6.7027   6.8936   6.9102   7.4368   7.4847
    11.1299  11.3212  11.6569  12.0786  12.2716  12.5505  13.9998  14.7059

          k =-0.5143-0.5303 0.0000 (  7066 PWs)   bands (ev):

   -47.0270 -47.0265 -23.2583 -23.2569 -23.1633 -23.1480 -23.0659 -23.0501
   -19.4101 -19.4067  -8.7542  -8.6147  -8.1633  -8.1572  -7.9521  -7.8000
    -2.9999  -2.9955  -2.9802  -2.9314  -2.9220  -2.9095   2.9688   3.2228
     3.5232   3.6562   3.8549   3.9609   4.9818   5.0871   5.2323   5.4881
     5.8890   6.5159   6.5698   6.6833   6.9180   6.9515   7.6384   7.7217
    11.6412  11.7010  11.8229  12.0917  12.5906  12.8362  14.1294  14.8631

          k =-0.6428-0.5303 0.0000 (  7060 PWs)   bands (ev):

   -47.0267 -47.0262 -23.2751 -23.2737 -23.1624 -23.1471 -23.0653 -23.0495
   -19.4084 -19.4052  -8.7369  -8.5915  -8.0144  -8.0116  -7.9588  -7.8051
    -3.0151  -2.9947  -2.9832  -2.9452  -2.9358  -2.9022   2.8123   2.9133
     3.2625   3.5656   3.7087   3.7886   4.8865   5.0809   5.1399   5.4484
     5.8683   6.4955   6.6104   6.6672   6.9309   6.9757   7.7300   7.8385
    11.6690  12.0001  12.1011  12.1279  12.8103  13.0362  14.1817  14.9165

          k =-0.0000 0.0884-0.6187 (  7056 PWs)   bands (ev):

   -47.0283 -47.0283 -23.1655 -23.1655 -23.1637 -23.1637 -23.0570 -23.0570
   -19.4164 -19.4164  -9.0706  -9.0706  -8.6194  -8.6194  -7.8075  -7.8075
    -2.9471  -2.9471  -2.9291  -2.9291  -2.8726  -2.8726   3.1670   3.1670
     5.3696   5.3696   5.4350   5.4350   5.7329   5.7329   5.8617   5.8617
     5.9586   5.9586   6.6065   6.6065   6.9398   6.9398   7.0103   7.0103
     9.9083   9.9083  11.8950  11.8950  12.0141  12.0141  13.2260  13.2260

          k =-0.1286 0.0884-0.6187 (  7058 PWs)   bands (ev):

   -47.0281 -47.0281 -23.1737 -23.1737 -23.1641 -23.1641 -23.0567 -23.0567
   -19.4157 -19.4157  -9.0146  -9.0146  -8.6032  -8.6032  -7.8109  -7.8109
    -2.9516  -2.9516  -2.9270  -2.9270  -2.8803  -2.8803   3.1647   3.1647
     5.0497   5.0497   5.4147   5.4147   5.6020   5.6020   5.7011   5.7011
     6.2571   6.2571   6.6069   6.6069   6.8731   6.8731   6.9673   6.9673
    10.1021  10.1021  11.8982  11.8982  12.0621  12.0621  13.4689  13.4689

          k =-0.2571 0.0884-0.6187 (  7066 PWs)   bands (ev):

   -47.0277 -47.0277 -23.1978 -23.1978 -23.1629 -23.1629 -23.0559 -23.0559
   -19.4136 -19.4136  -8.8805  -8.8805  -8.5379  -8.5379  -7.8203  -7.8203
    -2.9605  -2.9605  -2.9280  -2.9280  -2.8973  -2.8973   3.1564   3.1564
     4.5579   4.5579   5.0117   5.0117   5.3835   5.3835   5.5276   5.5276
     6.4080   6.4080   6.5871   6.5871   6.8016   6.8016   7.1493   7.1493
    10.5879  10.5879  11.9065  11.9065  12.2147  12.2147  13.9140  13.9140

          k =-0.3857 0.0884-0.6187 (  7060 PWs)   bands (ev):

   -47.0272 -47.0272 -23.2291 -23.2291 -23.1612 -23.1612 -23.0549 -23.0549
   -19.4109 -19.4109  -8.7656  -8.7656  -8.3783  -8.3783  -7.8325  -7.8325
    -2.9699  -2.9699  -2.9446  -2.9446  -2.9052  -2.9052   3.1337   3.1337
     4.1110   4.1110   4.2279   4.2279   5.3008   5.3008   5.3773   5.3773
     6.3558   6.3558   6.6454   6.6454   6.7645   6.7645   7.4691   7.4691
    11.1838  11.1838  11.9171  11.9171  12.4694  12.4694  14.2136  14.2136

          k =-0.5143 0.0884-0.6187 (  7066 PWs)   bands (ev):

   -47.0267 -47.0267 -23.2575 -23.2575 -23.1597 -23.1597 -23.0539 -23.0539
   -19.4084 -19.4084  -8.7118  -8.7118  -8.1639  -8.1639  -7.8439  -7.8439
    -2.9821  -2.9821  -2.9616  -2.9616  -2.9058  -2.9058   3.0481   3.0481
     3.5475   3.5475   3.8503   3.8503   5.1433   5.1433   5.3237   5.3237
     6.3180   6.3180   6.6976   6.6976   6.7551   6.7551   7.6994   7.6994
    11.7165  11.7165  11.9273  11.9273  12.7633  12.7633  14.3554  14.3554

          k =-0.6428 0.0884-0.6187 (  7072 PWs)   bands (ev):

   -47.0265 -47.0265 -23.2743 -23.2743 -23.1587 -23.1587 -23.0534 -23.0534
   -19.4069 -19.4069  -8.6910  -8.6910  -8.0166  -8.0166  -7.8508  -7.8508
    -2.9939  -2.9939  -2.9666  -2.9666  -2.9059  -2.9059   2.8508   2.8508
     3.3323   3.3323   3.6908   3.6908   5.0464   5.0464   5.2981   5.2981
     6.3022   6.3022   6.7262   6.7262   6.7568   6.7568   7.8093   7.8093
    11.9301  11.9301  12.0371  12.0371  12.9681  12.9681  14.4100  14.4100

          k = 0.0000 0.7071 0.0000 (  7092 PWs)   bands (ev):

   -47.0283 -47.0283 -23.1691 -23.1691 -23.1645 -23.1645 -23.0526 -23.0526
   -19.4160 -19.4160  -9.0859  -9.0859  -8.6399  -8.6399  -7.7658  -7.7658
    -2.9440  -2.9440  -2.9298  -2.9298  -2.8644  -2.8644   3.0666   3.0666
     5.4215   5.4215   5.5834   5.5834   5.8009   5.8009   5.8401   5.8401
     5.8415   5.8415   6.4505   6.4505   7.0400   7.0400   7.0536   7.0536
     9.8047   9.8047  11.9574  11.9574  12.0968  12.0968  13.0999  13.0999

          k =-0.1286 0.7071 0.0000 (  7044 PWs)   bands (ev):

   -47.0281 -47.0281 -23.1736 -23.1736 -23.1686 -23.1686 -23.0523 -23.0523
   -19.4152 -19.4152  -9.0316  -9.0316  -8.6217  -8.6217  -7.7697  -7.7697
    -2.9400  -2.9400  -2.9329  -2.9329  -2.8746  -2.8746   3.0643   3.0643
     5.0419   5.0419   5.5648   5.5648   5.6351   5.6351   5.7029   5.7029
     6.1825   6.1825   6.5178   6.5178   6.9095   6.9095   7.0216   7.0216
    10.0136  10.0136  11.9595  11.9595  12.1432  12.1432  13.3301  13.3301

          k =-0.2571 0.7071 0.0000 (  7072 PWs)   bands (ev):

   -47.0277 -47.0277 -23.1977 -23.1977 -23.1673 -23.1673 -23.0515 -23.0515
   -19.4133 -19.4133  -8.9036  -8.9036  -8.5497  -8.5497  -7.7803  -7.7803
    -2.9409  -2.9409  -2.9294  -2.9294  -2.9018  -2.9018   3.0562   3.0562
     4.5303   4.5303   5.0071   5.0071   5.5149   5.5149   5.5631   5.5631
     6.3930   6.3930   6.5921   6.5921   6.7485   6.7485   7.1613   7.1613
    10.5257  10.5257  11.9650  11.9650  12.2904  12.2904  13.7504  13.7504

          k =-0.3857 0.7071 0.0000 (  7080 PWs)   bands (ev):

   -47.0272 -47.0272 -23.2290 -23.2290 -23.1656 -23.1656 -23.0505 -23.0505
   -19.4107 -19.4107  -8.7945  -8.7945  -8.3833  -8.3833  -7.7942  -7.7942
    -2.9507  -2.9507  -2.9369  -2.9369  -2.9153  -2.9153   3.0356   3.0356
     4.0983   4.0983   4.1916   4.1916   5.3744   5.3744   5.4504   5.4504
     6.5036   6.5036   6.5395   6.5395   6.6855   6.6855   7.4795   7.4795
    11.1413  11.1413  11.9723  11.9723  12.5367  12.5367  14.0392  14.0392

          k =-0.5143 0.7071 0.0000 (  7060 PWs)   bands (ev):

   -47.0267 -47.0267 -23.2575 -23.2575 -23.1640 -23.1640 -23.0495 -23.0495
   -19.4084 -19.4084  -8.7412  -8.7412  -8.1675  -8.1675  -7.8071  -7.8071
    -2.9684  -2.9684  -2.9589  -2.9589  -2.9023  -2.9023   2.9690   2.9690
     3.5306   3.5306   3.7912   3.7912   5.2027   5.2027   5.3917   5.3917
     6.4795   6.4795   6.6021   6.6021   6.6689   6.6689   7.7182   7.7182
    11.6853  11.6853  11.9791  11.9791  12.8223  12.8223  14.1812  14.1812

          k =-0.6428 0.7071 0.0000 (  7080 PWs)   bands (ev):

   -47.0265 -47.0265 -23.2742 -23.2742 -23.1630 -23.1630 -23.0490 -23.0490
   -19.4070 -19.4070  -8.7198  -8.7198  -8.0205  -8.0205  -7.8148  -7.8148
    -2.9866  -2.9866  -2.9634  -2.9634  -2.8945  -2.8945   2.8149   2.8149
     3.2675   3.2675   3.6322   3.6322   5.1037   5.1037   5.3570   5.3570
     6.4574   6.4574   6.6517   6.6517   6.6662   6.6662   7.8335   7.8335
    11.9832  11.9832  12.0068  12.0068  13.0218  13.0218  14.2378  14.2378

     the Fermi energy is     9.0325 ev

!    total energy              =   -1145.54080423 Ry
     total all-electron energy =    -18592.513535 Ry
     estimated scf accuracy    <          2.2E-10 Ry
     smearing contrib. (-TS)   =      -0.00000000 Ry
     internal energy E=F+TS    =   -1145.54080423 Ry

     The total energy is F=E-TS. E is the sum of the following terms:
     one-electron contribution =    -147.06675220 Ry
     hartree contribution      =     118.45049485 Ry
     xc contribution           =    -125.01488116 Ry
     ewald contribution        =    -406.99897992 Ry
     one-center paw contrib.   =    -584.91068581 Ry

     convergence has been achieved in  15 iterations

     Forces acting on atoms (cartesian axes, Ry/au):

     atom    1 type  1   force =     0.00000000   -0.00000000    0.00000000
     atom    2 type  1   force =     0.00000000   -0.00000000    0.00000000
     atom    3 type  2   force =    -0.00648511   -0.00000000    0.00000000
     atom    4 type  2   force =     0.00648511    0.00000000    0.00000000
     atom    5 type  3   force =    -0.00916153   -0.00000000    0.00000000
     atom    6 type  3   force =     0.00916153    0.00000000    0.00000000
     atom    7 type  3   force =     0.00000000    0.00000000    0.00000000
     atom    8 type  3   force =     0.00000000   -0.00000000    0.00000000
     atom    9 type  3   force =     0.00000000   -0.00000000   -0.00000000
     atom   10 type  3   force =     0.00000000    0.00000000    0.00000000

     Total force =     0.015874     Total SCF correction =     0.000003
     Message from routine punch:
     Nothing written, as per user request (disk_io='none')

     init_run     :      7.38s CPU      8.39s WALL (       1 calls)
     electrons    :    251.23s CPU    267.24s WALL (       1 calls)
     forces       :      2.99s CPU      3.16s WALL (       1 calls)

     Called by init_run:
     wfcinit      :      3.93s CPU      4.39s WALL (       1 calls)
     potinit      :      0.95s CPU      1.18s WALL (       1 calls)
     hinit0       :      0.63s CPU      0.67s WALL (       1 calls)

     Called by electrons:
     c_bands      :    195.64s CPU    204.13s WALL (      15 calls)
     sum_band     :     38.37s CPU     42.09s WALL (      15 calls)
     v_of_rho     :      1.25s CPU      1.34s WALL (      16 calls)
     newd         :      6.29s CPU      8.79s WALL (      16 calls)
     PAW_pot      :     10.30s CPU     11.95s WALL (      16 calls)
     mix_rho      :      0.17s CPU      0.18s WALL (      15 calls)

     Called by c_bands:
     init_us_2    :      3.99s CPU      4.01s WALL (    1440 calls)
     cegterg      :    134.17s CPU    142.61s WALL (     675 calls)

     Called by *egterg:
     cdiaghg      :      8.08s CPU      8.11s WALL (    3043 calls)
     h_psi        :     87.25s CPU     95.75s WALL (    3088 calls)
     s_psi        :      5.42s CPU      5.44s WALL (    3088 calls)
     g_psi        :      0.64s CPU      0.65s WALL (    2368 calls)

     Called by h_psi:
     h_psi:calbec :     14.42s CPU     14.78s WALL (    3088 calls)
     vloc_psi     :     65.24s CPU     73.26s WALL (    3088 calls)
                                        0.00s GPU  (    3088 calls)
     add_vuspsi   :      6.49s CPU      6.52s WALL (    3088 calls)

     General routines
     calbec       :     19.38s CPU     19.85s WALL (    3943 calls)
     fft          :      1.08s CPU      1.19s WALL (     217 calls)
     ffts         :      0.17s CPU      0.17s WALL (      31 calls)
     fftw         :     72.01s CPU     80.78s WALL (  193644 calls)
     interpolate  :      0.23s CPU      0.24s WALL (      16 calls)

     Parallel routines

     PWSCF        :   4m22.04s CPU   4m39.30s WALL


   This run was terminated on:   5:52:59   5Oct2026            

=------------------------------------------------------------------------------=
   JOB DONE.
=------------------------------------------------------------------------------=
