
     Program PWSCF v.7.5 starts on  3Oct2026 at 21:22: 3 

     This program is part of the open-source Quantum ESPRESSO suite
     for quantum simulation of materials; please cite
         "P. Giannozzi et al., J. Phys.:Condens. Matter 21 395502 (2009);
         "P. Giannozzi et al., J. Phys.:Condens. Matter 29 465901 (2017);
         "P. Giannozzi et al., J. Chem. Phys. 152 154105 (2020);
          URL http://www.quantum-espresso.org", 
     in publications or presentations arising from this work. More details at
     http://www.quantum-espresso.org/quote

     Parallel version (MPI & OpenMP), running on       8 processor cores
     Number of MPI processes:                 8
     Threads/MPI process:                     1

     MPI processes distributed on     1 nodes
     9594 MiB available memory on the printing compute node when the environment starts

     Reading input from pw.in

     Current dimensions of program PWSCF are:
     Max number of different atomic species (ntypx) = 10
     Max number of k-points (npk) =  40000
     Max angular momentum in pseudopotentials (lmaxx) =  4
     Message from routine setup:
     using ibrav=0 with symmetry is DISCOURAGED, use correct ibrav instead

     K-points division:     npool     =       8
     Subspace diagonalization in iterative solution of the eigenvalue problem:
     a serial algorithm will be used


     G-vector sticks info
     --------------------
     sticks:   dense  smooth     PW     G-vecs:    dense   smooth      PW
     Sum        4777    2385    665               248439    87703   12797

     Using Slab Decomposition



     bravais-lattice index     =            0
     lattice parameter (alat)  =      11.1882  a.u.
     unit-cell volume          =    1400.4944 (a.u.)^3
     number of atoms/cell      =            5
     number of atomic types    =            3
     number of electrons       =        44.00
     number of Kohn-Sham states=           26
     kinetic-energy cutoff     =      60.0000  Ry
     charge density cutoff     =     480.0000  Ry
     scf convergence threshold =      5.0E-10
     mixing beta               =       0.4000
     number of iterations used =            8  plain     mixing
     Exchange-correlation=  SLA  PW   PBX  PBC
                           (   1   4   3   4   0   0   0)

     celldm(1)=  11.188210  celldm(2)=   0.000000  celldm(3)=   0.000000
     celldm(4)=   0.000000  celldm(5)=   0.000000  celldm(6)=   0.000000

     crystal axes: (cart. coord. in units of alat)
               a(1) = (   1.000000  -0.000000  -0.000000 )  
               a(2) = (  -0.000000   1.000001   0.000000 )  
               a(3) = (  -0.000000   0.000000   0.999999 )  

     reciprocal axes: (cart. coord. in units 2 pi/alat)
               b(1) = (  1.000000  0.000000  0.000000 )  
               b(2) = (  0.000000  0.999999 -0.000000 )  
               b(3) = (  0.000000 -0.000000  1.000001 )  


     PseudoPot. # 1 for Cs read from file:
     /root/sssp/Cs_pbe_v1.uspp.F.UPF
     MD5 check sum: 3476d69cb178dfad3ffaa59df4e07ca4
     Pseudo is Ultrasoft + core correction, Zval =  9.0
     Generated by new atomic code, or converted to UPF format
     Using radial grid of  905 points,  6 beta functions with: 
                l(1) =   0
                l(2) =   0
                l(3) =   1
                l(4) =   1
                l(5) =   2
                l(6) =   2
     Q(r) pseudized with  6 coefficients,  rinner =    1.500   1.500   1.500
                                                       1.500   1.500

     PseudoPot. # 2 for Sn read from file:
     /root/sssp/Sn_pbe_v1.uspp.F.UPF
     MD5 check sum: 4cf58ce39ec5d5d420df3dd08604eb00
     Pseudo is Ultrasoft + core correction, Zval = 14.0
     Generated by new atomic code, or converted to UPF format
     Using radial grid of  891 points,  6 beta functions with: 
                l(1) =   0
                l(2) =   0
                l(3) =   1
                l(4) =   1
                l(5) =   2
                l(6) =   2
     Q(r) pseudized with  6 coefficients,  rinner =    1.200   1.200   1.200
                                                       1.200   1.200

     PseudoPot. # 3 for Br read from file:
     /root/sssp/br_pbe_v1.4.uspp.F.UPF
     MD5 check sum: d3ffb7b29f6225aa16fe06858fb2a80b
     Pseudo is Ultrasoft + core correction, Zval =  7.0
     Generated by new atomic code, or converted to UPF format
     Using radial grid of  879 points,  6 beta functions with: 
                l(1) =   0
                l(2) =   0
                l(3) =   1
                l(4) =   1
                l(5) =   2
                l(6) =   2
     Q(r) pseudized with  8 coefficients,  rinner =    1.100   1.100   1.100
                                                       1.100   1.100

     atomic species   valence    mass     pseudopotential
     Cs                9.00   132.90550     Cs( 1.00)
     Sn               14.00   118.71000     Sn( 1.00)
     Br                7.00    79.90400     Br( 1.00)

      2 Sym. Ops. (no inversion) found



   Cartesian axes

     site n.     atom                  positions (alat units)
         1        Cs     tau(   1) = (   0.0009384   0.9990622  -0.0000875  )
         2        Sn     tau(   2) = (   0.5000790   0.4999209   0.4999922  )
         3        Br     tau(   3) = (  -0.0000694   0.5008136   0.5000740  )
         4        Br     tau(   4) = (   0.4991867   0.0000697   0.5000740  )
         5        Br     tau(   5) = (   0.4992044   0.5007957   1.0000050  )

     number of k points=    39  Marzari-Vanderbilt smearing, width (Ry)=  0.0050
                       cart. coord. in units 2pi/alat
        k(    1) = (   0.0000000   0.0000000   0.0000000), wk =   0.0160000
        k(    2) = (   0.0000000  -0.0000000   0.2000003), wk =   0.0320000
        k(    3) = (   0.0000000  -0.0000000   0.4000006), wk =   0.0320000
        k(    4) = (   0.0000000   0.1999999  -0.0000000), wk =   0.0640000
        k(    5) = (   0.0000000   0.1999999   0.2000003), wk =   0.0640000
        k(    6) = (   0.0000000   0.1999999   0.4000006), wk =   0.0640000
        k(    7) = (   0.0000000   0.3999998  -0.0000000), wk =   0.0640000
        k(    8) = (   0.0000000   0.3999998   0.2000003), wk =   0.0640000
        k(    9) = (   0.0000000   0.3999998   0.4000006), wk =   0.0640000
        k(   10) = (   0.2000000   0.1999999   0.0000000), wk =   0.0320000
        k(   11) = (   0.2000000   0.1999999   0.2000003), wk =   0.0640000
        k(   12) = (   0.2000000   0.1999999   0.4000006), wk =   0.0640000
        k(   13) = (   0.2000000   0.3999998   0.0000000), wk =   0.0640000
        k(   14) = (   0.2000000   0.3999998   0.2000003), wk =   0.0640000
        k(   15) = (   0.2000000   0.3999998   0.4000006), wk =   0.0640000
        k(   16) = (   0.4000000   0.3999998   0.0000000), wk =   0.0320000
        k(   17) = (   0.4000000   0.3999998   0.2000003), wk =   0.0640000
        k(   18) = (   0.4000000   0.3999998   0.4000006), wk =   0.0640000
        k(   19) = (  -0.0000000   0.1999999  -0.2000003), wk =   0.0640000
        k(   20) = (  -0.0000000   0.1999999  -0.4000006), wk =   0.0640000
        k(   21) = (  -0.0000000   0.3999998  -0.2000003), wk =   0.0640000
        k(   22) = (  -0.0000000   0.3999998  -0.4000006), wk =   0.0640000
        k(   23) = (  -0.2000000   0.1999999  -0.0000000), wk =   0.0320000
        k(   24) = (  -0.2000000   0.1999999  -0.2000003), wk =   0.0320000
        k(   25) = (   0.2000000  -0.1999999  -0.2000003), wk =   0.0320000
        k(   26) = (  -0.2000000   0.1999999  -0.4000006), wk =   0.0320000
        k(   27) = (   0.2000000  -0.1999999  -0.4000006), wk =   0.0320000
        k(   28) = (  -0.2000000   0.3999998  -0.0000000), wk =   0.0640000
        k(   29) = (  -0.2000000   0.3999998  -0.2000003), wk =   0.0640000
        k(   30) = (   0.2000000  -0.3999998  -0.2000003), wk =   0.0640000
        k(   31) = (  -0.4000000  -0.1999999  -0.2000003), wk =   0.0640000
        k(   32) = (  -0.2000000   0.3999998  -0.4000006), wk =   0.0640000
        k(   33) = (   0.2000000  -0.3999998  -0.4000006), wk =   0.0640000
        k(   34) = (  -0.4000000  -0.1999999  -0.4000006), wk =   0.0640000
        k(   35) = (  -0.4000000   0.3999998  -0.0000000), wk =   0.0320000
        k(   36) = (  -0.4000000   0.3999998  -0.2000003), wk =   0.0320000
        k(   37) = (   0.4000000  -0.3999998  -0.2000003), wk =   0.0320000
        k(   38) = (  -0.4000000   0.3999998  -0.4000006), wk =   0.0320000
        k(   39) = (   0.4000000  -0.3999998  -0.4000006), wk =   0.0320000

     Dense  grid:   248439 G-vectors     FFT dimensions: (  80,  80,  80)

     Smooth grid:    87703 G-vectors     FFT dimensions: (  60,  60,  60)

     Estimated max dynamical RAM per process >     292.29 MB

     Estimated total dynamical RAM >       1.87 GB

     Initial potential from superposition of free atoms

     starting charge      42.9605, renormalised to      44.0000
     Starting wfcs are   34 randomized atomic wfcs

     total cpu time spent up to now is        4.4 secs

     per-process dynamical memory:   171.3 Mb

     Self-consistent Calculation

     iteration #  1     ecut=    60.00 Ry     beta= 0.40
     Davidson diagonalization with overlap
     ethr =  1.00E-02,  avg # of iterations =  2.5

     Threshold (ethr) on eigenvalues was too large:
     Diagonalizing with lowered threshold

     Davidson diagonalization with overlap
     ethr =  4.89E-04,  avg # of iterations =  2.5

     total cpu time spent up to now is        9.7 secs

     total energy              =    -367.28028214 Ry
     estimated scf accuracy    <       0.20674085 Ry

     iteration #  2     ecut=    60.00 Ry     beta= 0.40
     Davidson diagonalization with overlap
     ethr =  4.70E-04,  avg # of iterations =  2.0

     total cpu time spent up to now is       12.7 secs

     total energy              =    -367.30388321 Ry
     estimated scf accuracy    <       0.01910840 Ry

     iteration #  3     ecut=    60.00 Ry     beta= 0.40
     Davidson diagonalization with overlap
     ethr =  4.34E-05,  avg # of iterations =  5.2

     total cpu time spent up to now is       16.2 secs

     total energy              =    -367.30562298 Ry
     estimated scf accuracy    <       0.00293944 Ry

     iteration #  4     ecut=    60.00 Ry     beta= 0.40
     Davidson diagonalization with overlap
     ethr =  6.68E-06,  avg # of iterations =  5.2

     total cpu time spent up to now is       19.5 secs

     total energy              =    -367.30593019 Ry
     estimated scf accuracy    <       0.00024799 Ry

     iteration #  5     ecut=    60.00 Ry     beta= 0.40
     Davidson diagonalization with overlap
     ethr =  5.64E-07,  avg # of iterations =  2.8

     total cpu time spent up to now is       22.7 secs

     total energy              =    -367.30596879 Ry
     estimated scf accuracy    <       0.00000644 Ry

     iteration #  6     ecut=    60.00 Ry     beta= 0.40
     Davidson diagonalization with overlap
     ethr =  1.46E-08,  avg # of iterations =  4.7

     total cpu time spent up to now is       26.4 secs

     total energy              =    -367.30597572 Ry
     estimated scf accuracy    <       0.00000067 Ry

     iteration #  7     ecut=    60.00 Ry     beta= 0.40
     Davidson diagonalization with overlap
     ethr =  1.53E-09,  avg # of iterations =  3.2

     total cpu time spent up to now is       30.4 secs

     total energy              =    -367.30597703 Ry
     estimated scf accuracy    <       0.00000012 Ry

     iteration #  8     ecut=    60.00 Ry     beta= 0.40
     Davidson diagonalization with overlap
     ethr =  2.82E-10,  avg # of iterations =  2.2

     total cpu time spent up to now is       33.7 secs

     total energy              =    -367.30597740 Ry
     estimated scf accuracy    <       0.00000004 Ry

     iteration #  9     ecut=    60.00 Ry     beta= 0.40
     Davidson diagonalization with overlap
     ethr =  8.57E-11,  avg # of iterations =  2.0

     total cpu time spent up to now is       36.7 secs

     End of self-consistent calculation

          k = 0.0000 0.0000 0.0000 ( 11067 PWs)   bands (ev):

   -18.1152 -18.1118 -18.1118 -18.0928 -18.0928 -18.0928 -11.3139 -10.8557
   -10.8557  -4.9030  -4.9030  -4.9030  -2.1798  -0.8870  -0.8870  -0.8870
     1.2489   1.2489   1.2489   1.3580   1.3580   1.3580   6.4071   7.5255
     7.5255   8.1700

          k = 0.0000-0.0000 0.2000 ( 10991 PWs)   bands (ev):

   -18.1148 -18.1118 -18.1103 -18.0929 -18.0929 -18.0928 -11.2802 -10.8975
   -10.8551  -4.8999  -4.8994  -4.8994  -2.6643  -0.8569  -0.8569  -0.1216
     1.1994   1.1996   1.2070   1.3163   1.3164   1.3790   6.7711   7.6146
     7.8021   7.8097

          k = 0.0000-0.0000 0.4000 ( 11004 PWs)   bands (ev):

   -18.1143 -18.1118 -18.1077 -18.0930 -18.0930 -18.0928 -11.2000 -10.9907
   -10.8542  -4.8952  -4.8935  -4.8935  -3.0957  -0.8048  -0.8048   0.5676
     1.1014   1.1017   1.1413   1.2666   1.2666   1.8837   5.8868   7.6123
     8.3072   8.3077

          k = 0.0000 0.2000-0.0000 ( 10991 PWs)   bands (ev):

   -18.1148 -18.1118 -18.1103 -18.0929 -18.0929 -18.0928 -11.2802 -10.8975
   -10.8551  -4.8999  -4.8994  -4.8994  -2.6643  -0.8569  -0.8569  -0.1216
     1.1995   1.1997   1.2068   1.3163   1.3164   1.3790   6.7711   7.6148
     7.8021   7.8097

          k = 0.0000 0.2000 0.2000 ( 10979 PWs)   bands (ev):

   -18.1146 -18.1111 -18.1095 -18.0929 -18.0929 -18.0929 -11.2481 -10.9126
   -10.8777  -4.9058  -4.8960  -4.8938  -3.0253  -0.8224  -0.4375   0.1063
     1.0021   1.1641   1.2567   1.2591   1.4148   1.4233   7.0347   7.3774
     7.5898   8.0270

          k = 0.0000 0.2000 0.4000 ( 10993 PWs)   bands (ev):

   -18.1142 -18.1108 -18.1072 -18.0930 -18.0929 -18.0929 -11.1705 -10.9916
   -10.8853  -4.9038  -4.8964  -4.8905  -3.4037  -0.7620  -0.2310   0.5031
     0.9372   1.0779   1.1868   1.2294   1.4232   2.0262   5.7456   7.2591
     7.8923   8.1316

          k = 0.0000 0.4000-0.0000 ( 11004 PWs)   bands (ev):

   -18.1143 -18.1118 -18.1077 -18.0930 -18.0930 -18.0928 -11.2000 -10.9907
   -10.8542  -4.8952  -4.8935  -4.8935  -3.0957  -0.8048  -0.8048   0.5676
     1.1016   1.1017   1.1412   1.2665   1.2666   1.8837   5.8868   7.6123
     8.3075   8.3076

          k = 0.0000 0.4000 0.2000 ( 10993 PWs)   bands (ev):

   -18.1142 -18.1108 -18.1072 -18.0930 -18.0929 -18.0929 -11.1705 -10.9916
   -10.8853  -4.9038  -4.8964  -4.8905  -3.4037  -0.7620  -0.2310   0.5031
     0.9373   1.0779   1.1868   1.2293   1.4232   2.0262   5.7456   7.2591
     7.8924   8.1316

          k = 0.0000 0.4000 0.4000 ( 10962 PWs)   bands (ev):

   -18.1140 -18.1098 -18.1056 -18.0930 -18.0930 -18.0928 -11.0957 -11.0015
   -10.9541  -4.9116  -4.9071  -4.8857  -3.7535  -0.6858   0.3922   0.5601
     0.9241   1.0363   1.0559   1.1348   1.6340   2.5975   5.4733   5.6118
     7.9629   8.3955

          k = 0.2000 0.2000 0.0000 ( 10979 PWs)   bands (ev):

   -18.1146 -18.1111 -18.1095 -18.0929 -18.0929 -18.0929 -11.2481 -10.9126
   -10.8777  -4.9058  -4.8960  -4.8938  -3.0253  -0.8224  -0.4375   0.1063
     1.0021   1.1641   1.2567   1.2591   1.4143   1.4239   7.0347   7.3769
     7.5905   8.0268

          k = 0.2000 0.2000 0.2000 ( 10978 PWs)   bands (ev):

   -18.1144 -18.1095 -18.1095 -18.0929 -18.0929 -18.0928 -11.2182 -10.9118
   -10.9118  -4.9061  -4.9061  -4.8875  -3.3287  -0.4013  -0.4012   0.2445
     0.9602   0.9603   1.3967   1.3996   1.4038   1.4076   7.1343   7.2011
     7.2013   7.7232

          k = 0.2000 0.2000 0.4000 ( 10967 PWs)   bands (ev):

   -18.1140 -18.1095 -18.1069 -18.0930 -18.0929 -18.0929 -11.1452 -10.9917
   -10.9104  -4.9083  -4.9066  -4.8917  -3.6740  -0.3357  -0.0802   0.4889
     0.7773   0.9561   1.3181   1.3817   1.4676   2.1205   5.6008   7.0149
     7.1700   8.0093

          k = 0.2000 0.4000 0.0000 ( 10993 PWs)   bands (ev):

   -18.1142 -18.1108 -18.1072 -18.0930 -18.0929 -18.0929 -11.1705 -10.9916
   -10.8853  -4.9038  -4.8964  -4.8905  -3.4037  -0.7620  -0.2310   0.5031
     0.9372   1.0779   1.1868   1.2293   1.4232   2.0262   5.7456   7.2592
     7.8924   8.1315

          k = 0.2000 0.4000 0.2000 ( 10967 PWs)   bands (ev):

   -18.1140 -18.1095 -18.1069 -18.0930 -18.0929 -18.0929 -11.1452 -10.9917
   -10.9104  -4.9084  -4.9066  -4.8917  -3.6740  -0.3357  -0.0803   0.4889
     0.7773   0.9561   1.3182   1.3817   1.4676   2.1205   5.6007   7.0152
     7.1697   8.0093

          k = 0.2000 0.4000 0.4000 ( 11024 PWs)   bands (ev):

   -18.1136 -18.1082 -18.1056 -18.0930 -18.0930 -18.0929 -11.0812 -11.0002
   -10.9660  -4.9179  -4.9155  -4.8989  -3.9992  -0.1573   0.4385   0.5611
     0.7082   0.8320   1.3640   1.3992   1.6377   2.6721   5.3176   5.4655
     6.9098   8.2758

          k = 0.4000 0.4000 0.0000 ( 10962 PWs)   bands (ev):

   -18.1140 -18.1098 -18.1056 -18.0930 -18.0930 -18.0928 -11.0957 -11.0014
   -10.9541  -4.9117  -4.9071  -4.8857  -3.7535  -0.6858   0.3922   0.5601
     0.9241   1.0363   1.0559   1.1347   1.6340   2.5975   5.4731   5.6120
     7.9629   8.3955

          k = 0.4000 0.4000 0.2000 ( 11024 PWs)   bands (ev):

   -18.1136 -18.1082 -18.1056 -18.0930 -18.0930 -18.0929 -11.0812 -11.0002
   -10.9660  -4.9180  -4.9155  -4.8989  -3.9992  -0.1573   0.4385   0.5611
     0.7082   0.8320   1.3640   1.3992   1.6377   2.6721   5.3174   5.4657
     6.9098   8.2755

          k = 0.4000 0.4000 0.4000 ( 10996 PWs)   bands (ev):

   -18.1131 -18.1056 -18.1056 -18.0931 -18.0931 -18.0930 -11.0448 -10.9982
   -10.9982  -4.9282  -4.9281  -4.9209  -4.3080   0.5052   0.5559   0.5559
     0.7111   0.7112   1.6168   1.6168   1.6586   3.1180   5.0687   5.0689
     5.4184   8.0455

          k =-0.0000 0.2000-0.2000 ( 10979 PWs)   bands (ev):

   -18.1146 -18.1111 -18.1095 -18.0929 -18.0929 -18.0929 -11.2481 -10.9126
   -10.8777  -4.9058  -4.8960  -4.8938  -3.0253  -0.8224  -0.4375   0.1063
     1.0021   1.1641   1.2567   1.2591   1.4148   1.4234   7.0347   7.3774
     7.5899   8.0269

          k =-0.0000 0.2000-0.4000 ( 10993 PWs)   bands (ev):

   -18.1142 -18.1108 -18.1072 -18.0930 -18.0929 -18.0929 -11.1705 -10.9916
   -10.8853  -4.9038  -4.8964  -4.8905  -3.4037  -0.7620  -0.2310   0.5031
     0.9372   1.0779   1.1868   1.2294   1.4232   2.0262   5.7456   7.2591
     7.8923   8.1316

          k =-0.0000 0.4000-0.2000 ( 10993 PWs)   bands (ev):

   -18.1142 -18.1108 -18.1072 -18.0930 -18.0929 -18.0929 -11.1705 -10.9916
   -10.8853  -4.9038  -4.8964  -4.8905  -3.4037  -0.7620  -0.2310   0.5031
     0.9373   1.0779   1.1868   1.2293   1.4232   2.0262   5.7456   7.2591
     7.8923   8.1316

          k =-0.0000 0.4000-0.4000 ( 10962 PWs)   bands (ev):

   -18.1140 -18.1098 -18.1056 -18.0930 -18.0930 -18.0928 -11.0957 -11.0015
   -10.9541  -4.9116  -4.9071  -4.8857  -3.7535  -0.6858   0.3922   0.5601
     0.9241   1.0363   1.0559   1.1348   1.6340   2.5975   5.4733   5.6118
     7.9629   8.3955

          k =-0.2000 0.2000-0.0000 ( 10979 PWs)   bands (ev):

   -18.1146 -18.1111 -18.1095 -18.0929 -18.0929 -18.0929 -11.2481 -10.9126
   -10.8777  -4.9058  -4.8960  -4.8938  -3.0253  -0.8224  -0.4375   0.1062
     1.0021   1.1641   1.2567   1.2591   1.4150   1.4231   7.0346   7.3777
     7.5898   8.0271

          k =-0.2000 0.2000-0.2000 ( 10978 PWs)   bands (ev):

   -18.1144 -18.1095 -18.1095 -18.0929 -18.0929 -18.0928 -11.2182 -10.9118
   -10.9118  -4.9061  -4.9061  -4.8875  -3.3287  -0.4012  -0.4012   0.2445
     0.9603   0.9603   1.3967   1.4011   1.4038   1.4061   7.1344   7.2012
     7.2013   7.7230

          k = 0.2000-0.2000-0.2000 ( 10978 PWs)   bands (ev):

   -18.1144 -18.1095 -18.1095 -18.0929 -18.0929 -18.0928 -11.2182 -10.9118
   -10.9118  -4.9061  -4.9061  -4.8875  -3.3287  -0.4012  -0.4012   0.2445
     0.9603   0.9603   1.3967   1.4015   1.4038   1.4057   7.1344   7.2012
     7.2013   7.7230

          k =-0.2000 0.2000-0.4000 ( 10967 PWs)   bands (ev):

   -18.1140 -18.1095 -18.1069 -18.0930 -18.0929 -18.0929 -11.1452 -10.9917
   -10.9104  -4.9083  -4.9066  -4.8917  -3.6740  -0.3356  -0.0803   0.4889
     0.7772   0.9561   1.3181   1.3817   1.4676   2.1205   5.6008   7.0153
     7.1695   8.0093

          k = 0.2000-0.2000-0.4000 ( 10967 PWs)   bands (ev):

   -18.1140 -18.1095 -18.1069 -18.0930 -18.0929 -18.0929 -11.1452 -10.9917
   -10.9104  -4.9083  -4.9066  -4.8917  -3.6740  -0.3356  -0.0803   0.4889
     0.7772   0.9561   1.3181   1.3817   1.4676   2.1205   5.6008   7.0153
     7.1695   8.0093

          k =-0.2000 0.4000-0.0000 ( 10993 PWs)   bands (ev):

   -18.1142 -18.1108 -18.1072 -18.0930 -18.0929 -18.0929 -11.1705 -10.9916
   -10.8853  -4.9038  -4.8964  -4.8905  -3.4037  -0.7620  -0.2310   0.5031
     0.9372   1.0779   1.1868   1.2293   1.4232   2.0262   5.7456   7.2592
     7.8924   8.1314

          k =-0.2000 0.4000-0.2000 ( 10967 PWs)   bands (ev):

   -18.1140 -18.1095 -18.1069 -18.0930 -18.0929 -18.0929 -11.1452 -10.9917
   -10.9104  -4.9083  -4.9066  -4.8917  -3.6740  -0.3357  -0.0802   0.4889
     0.7773   0.9561   1.3182   1.3817   1.4676   2.1205   5.6008   7.0152
     7.1697   8.0093

          k = 0.2000-0.4000-0.2000 ( 10967 PWs)   bands (ev):

   -18.1140 -18.1095 -18.1069 -18.0930 -18.0929 -18.0929 -11.1452 -10.9917
   -10.9104  -4.9083  -4.9066  -4.8917  -3.6740  -0.3357  -0.0802   0.4889
     0.7773   0.9561   1.3182   1.3817   1.4676   2.1205   5.6008   7.0152
     7.1696   8.0093

          k =-0.4000-0.2000-0.2000 ( 10967 PWs)   bands (ev):

   -18.1140 -18.1095 -18.1069 -18.0930 -18.0929 -18.0929 -11.1452 -10.9917
   -10.9104  -4.9084  -4.9066  -4.8917  -3.6740  -0.3356  -0.0803   0.4889
     0.7773   0.9561   1.3181   1.3817   1.4676   2.1205   5.6007   7.0152
     7.1697   8.0093

          k =-0.2000 0.4000-0.4000 ( 11024 PWs)   bands (ev):

   -18.1136 -18.1082 -18.1056 -18.0930 -18.0930 -18.0929 -11.0812 -11.0002
   -10.9660  -4.9180  -4.9155  -4.8989  -3.9992  -0.1573   0.4385   0.5611
     0.7082   0.8320   1.3640   1.3992   1.6377   2.6720   5.3176   5.4656
     6.9098   8.2755

          k = 0.2000-0.4000-0.4000 ( 11024 PWs)   bands (ev):

   -18.1136 -18.1082 -18.1056 -18.0930 -18.0930 -18.0929 -11.0812 -11.0002
   -10.9660  -4.9179  -4.9155  -4.8989  -3.9992  -0.1573   0.4385   0.5611
     0.7082   0.8320   1.3640   1.3992   1.6377   2.6720   5.3176   5.4656
     6.9098   8.2755

          k =-0.4000-0.2000-0.4000 ( 11024 PWs)   bands (ev):

   -18.1136 -18.1082 -18.1056 -18.0930 -18.0930 -18.0929 -11.0812 -11.0002
   -10.9660  -4.9180  -4.9155  -4.8989  -3.9992  -0.1573   0.4385   0.5611
     0.7082   0.8320   1.3640   1.3992   1.6377   2.6721   5.3176   5.4655
     6.9098   8.2755

          k =-0.4000 0.4000-0.0000 ( 10962 PWs)   bands (ev):

   -18.1140 -18.1098 -18.1056 -18.0930 -18.0930 -18.0928 -11.0957 -11.0014
   -10.9541  -4.9116  -4.9071  -4.8857  -3.7535  -0.6858   0.3922   0.5601
     0.9241   1.0363   1.0559   1.1348   1.6341   2.5975   5.4734   5.6117
     7.9629   8.3955

          k =-0.4000 0.4000-0.2000 ( 11024 PWs)   bands (ev):

   -18.1136 -18.1082 -18.1056 -18.0930 -18.0930 -18.0929 -11.0812 -11.0002
   -10.9660  -4.9180  -4.9155  -4.8989  -3.9992  -0.1573   0.4385   0.5611
     0.7082   0.8320   1.3640   1.3992   1.6377   2.6720   5.3177   5.4655
     6.9098   8.2756

          k = 0.4000-0.4000-0.2000 ( 11024 PWs)   bands (ev):

   -18.1136 -18.1082 -18.1056 -18.0930 -18.0930 -18.0929 -11.0812 -11.0002
   -10.9660  -4.9180  -4.9155  -4.8989  -3.9992  -0.1573   0.4385   0.5611
     0.7082   0.8320   1.3640   1.3992   1.6377   2.6720   5.3177   5.4655
     6.9098   8.2756

          k =-0.4000 0.4000-0.4000 ( 10996 PWs)   bands (ev):

   -18.1131 -18.1056 -18.1056 -18.0931 -18.0931 -18.0930 -11.0448 -10.9982
   -10.9982  -4.9282  -4.9281  -4.9209  -4.3080   0.5052   0.5559   0.5559
     0.7112   0.7112   1.6168   1.6168   1.6586   3.1180   5.0688   5.0689
     5.4183   8.0455

          k = 0.4000-0.4000-0.4000 ( 10996 PWs)   bands (ev):

   -18.1131 -18.1056 -18.1056 -18.0931 -18.0931 -18.0930 -11.0448 -10.9982
   -10.9982  -4.9282  -4.9281  -4.9209  -4.3080   0.5052   0.5559   0.5559
     0.7112   0.7112   1.6168   1.6168   1.6586   3.1180   5.0688   5.0689
     5.4183   8.0455

     the Fermi energy is     3.8500 ev

!    total energy              =    -367.30597759 Ry
     estimated scf accuracy    <          1.4E-10 Ry
     smearing contrib. (-TS)   =       0.00000000 Ry
     internal energy E=F+TS    =    -367.30597759 Ry

     The total energy is F=E-TS. E is the sum of the following terms:
     one-electron contribution =    -128.14532783 Ry
     hartree contribution      =      82.63901465 Ry
     xc contribution           =    -156.18239229 Ry
     ewald contribution        =    -165.61727212 Ry

     convergence has been achieved in   9 iterations

     Forces acting on atoms (cartesian axes, Ry/au):

     atom    1 type  1   force =     0.00000367   -0.00000367   -0.00000016
     atom    2 type  2   force =    -0.00007935    0.00007935    0.00000720
     atom    3 type  3   force =    -0.00006841   -0.00007268   -0.00000666
     atom    4 type  3   force =     0.00007268    0.00006841   -0.00000666
     atom    5 type  3   force =     0.00007141   -0.00007141    0.00000627

     Total force =     0.000207     Total SCF correction =     0.000001
     Message from routine punch:
     Nothing written, as per user request (disk_io='none')

     init_run     :      3.88s CPU      4.05s WALL (       1 calls)
     electrons    :     30.93s CPU     32.30s WALL (       1 calls)
     forces       :      1.02s CPU      1.09s WALL (       1 calls)

     Called by init_run:
     wfcinit      :      1.14s CPU      1.16s WALL (       1 calls)
     potinit      :      0.71s CPU      0.76s WALL (       1 calls)
     hinit0       :      1.67s CPU      1.69s WALL (       1 calls)

     Called by electrons:
     c_bands      :     19.59s CPU     19.75s WALL (      10 calls)
     sum_band     :      6.19s CPU      6.86s WALL (      10 calls)
     v_of_rho     :      2.40s CPU      2.62s WALL (      10 calls)
     newd         :      2.82s CPU      3.22s WALL (      10 calls)
     mix_rho      :      0.18s CPU      0.18s WALL (      10 calls)

     Called by c_bands:
     init_us_2    :      0.98s CPU      1.00s WALL (     110 calls)
     cegterg      :     16.03s CPU     16.17s WALL (      50 calls)

     Called by *egterg:
     cdiaghg      :      0.18s CPU      0.18s WALL (     238 calls)
     h_psi        :     12.56s CPU     12.65s WALL (     248 calls)
     s_psi        :      1.14s CPU      1.14s WALL (     248 calls)
     g_psi        :      0.18s CPU      0.18s WALL (     193 calls)

     Called by h_psi:
     h_psi:calbec :      1.16s CPU      1.16s WALL (     248 calls)
     vloc_psi     :     10.24s CPU     10.30s WALL (     248 calls)
                                        0.00s GPU  (     248 calls)
     add_vuspsi   :      1.10s CPU      1.10s WALL (     248 calls)

     General routines
     calbec       :      1.67s CPU      1.67s WALL (     318 calls)
     fft          :      1.48s CPU      1.48s WALL (     140 calls)
     ffts         :      0.39s CPU      0.39s WALL (      20 calls)
     fftw         :     10.21s CPU     10.25s WALL (    8522 calls)
     interpolate  :      0.47s CPU      0.47s WALL (      10 calls)

     Parallel routines

     PWSCF        :     36.25s CPU     37.88s WALL


   This run was terminated on:  21:22:41   3Oct2026            

=------------------------------------------------------------------------------=
   JOB DONE.
=------------------------------------------------------------------------------=
