
     Program PWSCF v.7.5 starts on 27Sep2026 at 15: 5:51 

     This program is part of the open-source Quantum ESPRESSO suite
     for quantum simulation of materials; please cite
         "P. Giannozzi et al., J. Phys.:Condens. Matter 21 395502 (2009);
         "P. Giannozzi et al., J. Phys.:Condens. Matter 29 465901 (2017);
         "P. Giannozzi et al., J. Chem. Phys. 152 154105 (2020);
          URL http://www.quantum-espresso.org", 
     in publications or presentations arising from this work. More details at
     http://www.quantum-espresso.org/quote

     Parallel version (MPI & OpenMP), running on       8 processor cores
     Number of MPI processes:                 8
     Threads/MPI process:                     1

     MPI processes distributed on     1 nodes
     177418 MiB available memory on the printing compute node when the environment starts

     Reading input from pw.in

     Current dimensions of program PWSCF are:
     Max number of different atomic species (ntypx) = 10
     Max number of k-points (npk) =  40000
     Max angular momentum in pseudopotentials (lmaxx) =  4
     file O.pbe-n-kjpaw_psl.0.1.UPF: wavefunction(s)  2P renormalized

     K-points division:     npool     =       8
     Subspace diagonalization in iterative solution of the eigenvalue problem:
     a serial algorithm will be used


     G-vector sticks info
     --------------------
     sticks:   dense  smooth     PW     G-vecs:    dense   smooth      PW
     Sum        5197    2587    733               248849    87795   12939

     Using Slab Decomposition



     bravais-lattice index     =            0
     lattice parameter (alat)  =      13.7636  a.u.
     unit-cell volume          =    1843.6678 (a.u.)^3
     number of atoms/cell      =           24
     number of atomic types    =            2
     number of electrons       =       192.00
     number of Kohn-Sham states=          115
     kinetic-energy cutoff     =      50.0000  Ry
     charge density cutoff     =     400.0000  Ry
     scf convergence threshold =      2.4E-09
     mixing beta               =       0.4000
     number of iterations used =            8  plain     mixing
     Exchange-correlation= SLA  PW   PBX  PBC
                           (   1   4   3   4   0   0   0)

     celldm(1)=  13.763616  celldm(2)=   0.000000  celldm(3)=   0.000000
     celldm(4)=   0.000000  celldm(5)=   0.000000  celldm(6)=   0.000000

     crystal axes: (cart. coord. in units of alat)
               a(1) = (   0.000000   0.707107   0.707107 )  
               a(2) = (   0.707107  -0.000000   0.707107 )  
               a(3) = (   0.707107   0.707107  -0.000000 )  

     reciprocal axes: (cart. coord. in units 2 pi/alat)
               b(1) = ( -0.707107  0.707107  0.707107 )  
               b(2) = (  0.707107 -0.707107  0.707107 )  
               b(3) = (  0.707107  0.707107 -0.707107 )  


     PseudoPot. # 1 for Zr read from file:
     /root/sssp/upf/Zr_pbe_v1.uspp.F.UPF
     MD5 check sum: 5db81b1e868ab7776c4564c113de050b
     Pseudo is Ultrasoft + core correction, Zval = 12.0
     Generated by new atomic code, or converted to UPF format
     Using radial grid of  887 points,  6 beta functions with: 
                l(1) =   0
                l(2) =   0
                l(3) =   1
                l(4) =   1
                l(5) =   2
                l(6) =   2
     Q(r) pseudized with  6 coefficients,  rinner =    1.200   1.200   1.200
                                                       1.200   1.200

     PseudoPot. # 2 for O  read from file:
     /root/sssp/upf/O.pbe-n-kjpaw_psl.0.1.UPF
     MD5 check sum: 0234752ac141de4415c5fc33072bef88
     Pseudo is Projector augmented-wave + core cor, Zval =  6.0
     Generated using "atomic" code by A. Dal Corso  v.5.0.99 svn rev. 10869
     Shape of augmentation charge: BESSEL
     Using radial grid of 1095 points,  4 beta functions with: 
                l(1) =   0
                l(2) =   0
                l(3) =   1
                l(4) =   1
     Q(r) pseudized with 0 coefficients 


     atomic species   valence    mass     pseudopotential
     Zr               12.00    91.22400     Zr( 1.00)
     O                 6.00    15.99900     O ( 1.00)

     No symmetry found



   Cartesian axes

     site n.     atom                  positions (alat units)
         1        Zr     tau(   1) = (   0.0064752   0.0094776   0.0035432  )
         2        O      tau(   2) = (   0.1706855   0.1849678   0.1710220  )
         3        O      tau(   3) = (   0.5227254   0.5326183   0.5273389  )
         4        Zr     tau(   4) = (   0.3616445   0.3618905   0.0027170  )
         5        O      tau(   5) = (   0.5351860   0.5203215   0.1794692  )
         6        O      tau(   6) = (   0.8825609   0.8815528   0.5283148  )
         7        Zr     tau(   7) = (   0.3461094   0.0043770   0.3603428  )
         8        O      tau(   8) = (   0.5360995   0.1678699   0.5200727  )
         9        O      tau(   9) = (   0.8942164   0.5342271   0.8671601  )
        10        Zr     tau(  10) = (   0.7126096   0.3437432   0.3530833  )
        11        O      tau(  11) = (   0.8740818   0.5194247   0.5218952  )
        12        O      tau(  12) = (   1.2301177   0.8794612   0.8799807  )
        13        Zr     tau(  13) = (   0.0038292   0.3604416   0.3477710  )
        14        O      tau(  14) = (   0.1578642   0.5236200   0.5268076  )
        15        O      tau(  15) = (   0.5280009   0.8730341   0.8840973  )
        16        Zr     tau(  16) = (   0.3454591   0.7033161   0.3571489  )
        17        O      tau(  17) = (   0.5339762   0.8968973   0.5256613  )
        18        O      tau(  18) = (   0.8943711   1.2365688   0.8761358  )
        19        Zr     tau(  19) = (   0.3481052   0.3455279   0.7150375  )
        20        O      tau(  20) = (   0.5337838   0.5213021   0.8777270  )
        21        O      tau(  21) = (   0.8778037   0.8808939   1.2263194  )
        22        Zr     tau(  22) = (   0.7087423   0.7055870   0.7023223  )
        23        O      tau(  23) = (   0.8902499   0.8904415   0.8820643  )
        24        O      tau(  24) = (   1.2260574   1.2366740   1.2424456  )

     number of k points=    63  Marzari-Vanderbilt smearing, width (Ry)=  0.0050
                       cart. coord. in units 2pi/alat
        k(    1) = (   0.0000000   0.0000000   0.0000000), wk =   0.0160000
        k(    2) = (   0.1414214   0.1414214  -0.1414214), wk =   0.0320000
        k(    3) = (   0.2828427   0.2828427  -0.2828427), wk =   0.0320000
        k(    4) = (   0.2828427   0.0000000   0.0000000), wk =   0.0320000
        k(    5) = (   0.4242641   0.1414214  -0.1414214), wk =   0.0320000
        k(    6) = (  -0.1414214  -0.4242641   0.4242641), wk =   0.0320000
        k(    7) = (   0.0000000  -0.2828427   0.2828427), wk =   0.0320000
        k(    8) = (   0.5656854   0.0000000   0.0000000), wk =   0.0320000
        k(    9) = (   0.0000000  -0.5656854   0.5656854), wk =   0.0320000
        k(   10) = (  -0.1414214  -0.4242641   0.7071068), wk =   0.0320000
        k(   11) = (  -0.1414214  -0.1414214  -0.1414214), wk =   0.0320000
        k(   12) = (  -0.1414214   0.1414214   0.1414214), wk =   0.0320000
        k(   13) = (   0.1414214  -0.1414214   0.1414214), wk =   0.0320000
        k(   14) = (  -0.2828427  -0.2828427  -0.2828427), wk =   0.0320000
        k(   15) = (  -0.2828427   0.2828427   0.2828427), wk =   0.0320000
        k(   16) = (   0.2828427  -0.2828427   0.2828427), wk =   0.0320000
        k(   17) = (   0.0000000   0.2828427   0.0000000), wk =   0.0320000
        k(   18) = (   0.0000000   0.0000000   0.2828427), wk =   0.0320000
        k(   19) = (  -0.4242641  -0.1414214  -0.1414214), wk =   0.0320000
        k(   20) = (  -0.4242641   0.1414214   0.1414214), wk =   0.0320000
        k(   21) = (   0.4242641  -0.1414214   0.1414214), wk =   0.0320000
        k(   22) = (   0.1414214   0.4242641   0.1414214), wk =   0.0320000
        k(   23) = (  -0.1414214  -0.4242641   0.1414214), wk =   0.0320000
        k(   24) = (   0.1414214  -0.4242641  -0.1414214), wk =   0.0320000
        k(   25) = (  -0.1414214   0.4242641  -0.1414214), wk =   0.0320000
        k(   26) = (  -0.1414214  -0.1414214   0.4242641), wk =   0.0320000
        k(   27) = (   0.1414214  -0.1414214  -0.4242641), wk =   0.0320000
        k(   28) = (  -0.1414214   0.1414214  -0.4242641), wk =   0.0320000
        k(   29) = (   0.1414214   0.1414214   0.4242641), wk =   0.0320000
        k(   30) = (   0.1414214   0.4242641   0.4242641), wk =   0.0320000
        k(   31) = (   0.1414214  -0.4242641  -0.4242641), wk =   0.0320000
        k(   32) = (  -0.1414214   0.4242641  -0.4242641), wk =   0.0320000
        k(   33) = (  -0.4242641  -0.1414214  -0.4242641), wk =   0.0320000
        k(   34) = (   0.4242641   0.1414214  -0.4242641), wk =   0.0320000
        k(   35) = (  -0.4242641   0.1414214   0.4242641), wk =   0.0320000
        k(   36) = (   0.4242641  -0.1414214   0.4242641), wk =   0.0320000
        k(   37) = (   0.4242641   0.4242641  -0.1414214), wk =   0.0320000
        k(   38) = (  -0.4242641   0.4242641   0.1414214), wk =   0.0320000
        k(   39) = (   0.4242641  -0.4242641   0.1414214), wk =   0.0320000
        k(   40) = (  -0.4242641  -0.4242641  -0.1414214), wk =   0.0320000
        k(   41) = (  -0.0000000   0.2828427   0.2828427), wk =   0.0320000
        k(   42) = (  -0.2828427   0.0000000  -0.2828427), wk =   0.0320000
        k(   43) = (   0.2828427  -0.0000000  -0.2828427), wk =   0.0320000
        k(   44) = (   0.2828427   0.2828427   0.0000000), wk =   0.0320000
        k(   45) = (  -0.2828427   0.2828427  -0.0000000), wk =   0.0320000
        k(   46) = (   0.0000000   0.5656854   0.0000000), wk =   0.0320000
        k(   47) = (   0.0000000   0.0000000   0.5656854), wk =   0.0320000
        k(   48) = (   0.0000000   0.5656854   0.5656854), wk =   0.0320000
        k(   49) = (  -0.5656854   0.0000000  -0.5656854), wk =   0.0320000
        k(   50) = (   0.5656854   0.0000000  -0.5656854), wk =   0.0320000
        k(   51) = (   0.5656854   0.5656854   0.0000000), wk =   0.0320000
        k(   52) = (  -0.5656854   0.5656854   0.0000000), wk =   0.0320000
        k(   53) = (   0.1414214  -0.4242641  -0.7071068), wk =   0.0320000
        k(   54) = (  -0.4242641  -0.1414214  -0.7071068), wk =   0.0320000
        k(   55) = (  -0.4242641   0.1414214   0.7071068), wk =   0.0320000
        k(   56) = (   0.7071068   0.4242641  -0.1414214), wk =   0.0320000
        k(   57) = (  -0.7071068   0.4242641   0.1414214), wk =   0.0320000
        k(   58) = (   0.1414214   0.7071068  -0.4242641), wk =   0.0320000
        k(   59) = (   0.1414214  -0.7071068   0.4242641), wk =   0.0320000
        k(   60) = (  -0.4242641   0.7071068  -0.1414214), wk =   0.0320000
        k(   61) = (  -0.4242641  -0.7071068   0.1414214), wk =   0.0320000
        k(   62) = (   0.7071068  -0.1414214  -0.4242641), wk =   0.0320000
        k(   63) = (  -0.7071068   0.1414214  -0.4242641), wk =   0.0320000

     Dense  grid:   248849 G-vectors     FFT dimensions: (  90,  90,  90)

     Smooth grid:    87795 G-vectors     FFT dimensions: (  64,  64,  64)

     Estimated max dynamical RAM per process >     501.41 MB

     Estimated total dynamical RAM >       3.50 GB

     Check: negative core charge=   -0.000003

     Initial potential from superposition of free atoms

     starting charge     191.9828, renormalised to     192.0000

     negative rho (up, down):  4.876E-01 0.000E+00
     Starting wfcs are  168 randomized atomic wfcs
     Checking if some PAW data can be deallocated... 

     total cpu time spent up to now is       14.8 secs

     per-process dynamical memory:   326.7 Mb

     Self-consistent Calculation

     iteration #  1     ecut=    50.00 Ry     beta= 0.40
     Davidson diagonalization with overlap
     ethr =  1.00E-02,  avg # of iterations =  2.0

     negative rho (up, down):  4.995E-01 0.000E+00

     total cpu time spent up to now is       38.8 secs

     total energy              =   -1460.83559097 Ry
     estimated scf accuracy    <       9.16554071 Ry

     iteration #  2     ecut=    50.00 Ry     beta= 0.40
     Davidson diagonalization with overlap
     ethr =  4.77E-03,  avg # of iterations =  3.1

     negative rho (up, down):  5.099E-01 0.000E+00

     total cpu time spent up to now is       67.4 secs

     total energy              =   -1463.37761103 Ry
     estimated scf accuracy    <       0.53451524 Ry

     iteration #  3     ecut=    50.00 Ry     beta= 0.40
     Davidson diagonalization with overlap
     ethr =  2.78E-04,  avg # of iterations =  4.5

     negative rho (up, down):  5.201E-01 0.000E+00

     total cpu time spent up to now is       97.8 secs

     total energy              =   -1463.42121313 Ry
     estimated scf accuracy    <       0.15614155 Ry

     iteration #  4     ecut=    50.00 Ry     beta= 0.40
     Davidson diagonalization with overlap
     ethr =  8.13E-05,  avg # of iterations =  4.2

     negative rho (up, down):  5.240E-01 0.000E+00

     total cpu time spent up to now is      129.1 secs

     total energy              =   -1463.45686493 Ry
     estimated scf accuracy    <       0.10797582 Ry

     iteration #  5     ecut=    50.00 Ry     beta= 0.40
     Davidson diagonalization with overlap
     ethr =  5.62E-05,  avg # of iterations =  2.5

     negative rho (up, down):  5.237E-01 0.000E+00

     total cpu time spent up to now is      156.7 secs

     total energy              =   -1463.46742730 Ry
     estimated scf accuracy    <       0.00541495 Ry

     iteration #  6     ecut=    50.00 Ry     beta= 0.40
     Davidson diagonalization with overlap
     ethr =  2.82E-06,  avg # of iterations = 14.0

     negative rho (up, down):  5.231E-01 0.000E+00

     total cpu time spent up to now is      208.8 secs

     total energy              =   -1463.47092076 Ry
     estimated scf accuracy    <       0.00342654 Ry

     iteration #  7     ecut=    50.00 Ry     beta= 0.40
     Davidson diagonalization with overlap
     ethr =  1.78E-06,  avg # of iterations =  3.1

     negative rho (up, down):  5.228E-01 0.000E+00

     total cpu time spent up to now is      236.2 secs

     total energy              =   -1463.47015489 Ry
     estimated scf accuracy    <       0.00233542 Ry

     iteration #  8     ecut=    50.00 Ry     beta= 0.40
     Davidson diagonalization with overlap
     ethr =  1.22E-06,  avg # of iterations =  2.2

     negative rho (up, down):  5.227E-01 0.000E+00

     total cpu time spent up to now is      263.5 secs

     total energy              =   -1463.47040949 Ry
     estimated scf accuracy    <       0.00014112 Ry

     iteration #  9     ecut=    50.00 Ry     beta= 0.40
     Davidson diagonalization with overlap
     ethr =  7.35E-08,  avg # of iterations =  4.0

     negative rho (up, down):  5.226E-01 0.000E+00

     total cpu time spent up to now is      300.7 secs

     total energy              =   -1463.47048928 Ry
     estimated scf accuracy    <       0.00006039 Ry

     iteration # 10     ecut=    50.00 Ry     beta= 0.40
     Davidson diagonalization with overlap
     ethr =  3.15E-08,  avg # of iterations =  2.0

     negative rho (up, down):  5.226E-01 0.000E+00

     total cpu time spent up to now is      326.5 secs

     total energy              =   -1463.47049382 Ry
     estimated scf accuracy    <       0.00000727 Ry

     iteration # 11     ecut=    50.00 Ry     beta= 0.40
     Davidson diagonalization with overlap
     ethr =  3.79E-09,  avg # of iterations =  2.5

     negative rho (up, down):  5.226E-01 0.000E+00

     total cpu time spent up to now is      354.1 secs

     total energy              =   -1463.47049380 Ry
     estimated scf accuracy    <       0.00000250 Ry

     iteration # 12     ecut=    50.00 Ry     beta= 0.40
     Davidson diagonalization with overlap
     ethr =  1.30E-09,  avg # of iterations =  3.8

     negative rho (up, down):  5.226E-01 0.000E+00

     total cpu time spent up to now is      384.2 secs

     total energy              =   -1463.47049433 Ry
     estimated scf accuracy    <       0.00000006 Ry

     iteration # 13     ecut=    50.00 Ry     beta= 0.40
     Davidson diagonalization with overlap
     ethr =  3.32E-11,  avg # of iterations =  4.2

     negative rho (up, down):  5.226E-01 0.000E+00

     total cpu time spent up to now is      418.9 secs

     End of self-consistent calculation

          k = 0.0000 0.0000 0.0000 ( 10969 PWs)   bands (ev):

   -36.6571 -36.6423 -36.5603 -36.5441 -36.4759 -36.4346 -36.3524 -36.3283
   -15.0455 -15.0335 -15.0252 -14.9964 -14.9720 -14.9448 -14.9360 -14.6013
   -14.5843 -14.5560 -14.5343 -14.5263 -14.4970 -14.4905 -14.4737 -14.4613
   -14.4277 -14.4098 -14.3795 -14.3664 -14.3362 -14.3357 -14.3133 -14.2812
    -6.3668  -5.5079  -5.4914  -5.4528  -5.3957  -5.1458  -5.0884  -5.0317
    -4.4078  -4.3734  -4.3586  -4.2996  -4.2681  -4.2631  -4.2250  -3.8783
     5.9271   5.9527   5.9912   6.6139   6.6400   6.6453   7.4921   7.4974
     7.5376   7.5490   7.5851   7.6033   7.6658   7.6889   8.5703   8.5962
     8.5983   8.6113   8.6400   8.6582   9.0240   9.0538   9.1133   9.1698
     9.2370   9.2822   9.3299   9.3975   9.9390   9.9572   9.9790   9.9958
    10.0288  10.0789  10.0989  10.1260  10.1696  10.2143  10.2372  10.2853
    10.3308  10.4332  11.1390  11.1539  11.2334  11.6192  11.6712  11.7162
    14.9988  15.0677  15.2642  15.3932  15.4572  15.4848  15.5326  15.5851
    15.5971  15.6865  15.7072  15.7160  15.7239  16.2469  16.2699  16.3018
    17.1750  17.1998  17.2421

          k = 0.1414 0.1414-0.1414 ( 11011 PWs)   bands (ev):

   -36.6566 -36.6421 -36.5603 -36.5442 -36.4760 -36.4346 -36.3528 -36.3285
   -15.0174 -14.9995 -14.9932 -14.9684 -14.9478 -14.9185 -14.8997 -14.6219
   -14.5870 -14.5784 -14.5521 -14.5400 -14.5111 -14.4962 -14.4890 -14.4715
   -14.4489 -14.4136 -14.3831 -14.3777 -14.3703 -14.3570 -14.3420 -14.2835
    -6.2417  -5.5145  -5.4049  -5.3815  -5.3137  -5.1044  -5.0508  -4.9897
    -4.4749  -4.4481  -4.4228  -4.3876  -4.3374  -4.3019  -4.2394  -3.9609
     6.1149   6.1355   6.1862   6.6965   6.7132   6.9143   7.3753   7.3989
     7.4452   7.4910   7.5670   7.6471   7.6793   7.7541   8.3985   8.4284
     8.4518   8.4901   8.4944   8.5295   8.7504   8.7885   8.8213   9.0666
     9.2743   9.4571   9.4966   9.6254   9.9036   9.9281   9.9790  10.0530
    10.0680  10.1358  10.1623  10.2310  10.2386  10.3337  10.3497  10.4157
    10.4581  10.4927  10.9128  10.9830  11.0943  11.4309  11.4826  11.5296
    15.1386  15.2158  15.3465  15.3989  15.5241  15.5330  15.6022  15.6514
    15.6836  15.7649  15.7976  15.8438  15.8636  16.2175  16.2430  16.2782
    17.3375  17.3548  17.3983

          k = 0.2828 0.2828-0.2828 ( 11048 PWs)   bands (ev):

   -36.6557 -36.6419 -36.5603 -36.5445 -36.4762 -36.4345 -36.3533 -36.3287
   -14.9685 -14.9374 -14.9222 -14.9074 -14.8987 -14.8676 -14.7987 -14.6906
   -14.6521 -14.6028 -14.5888 -14.5736 -14.5492 -14.5125 -14.5005 -14.4894
   -14.4765 -14.4555 -14.4336 -14.3980 -14.3825 -14.3794 -14.3588 -14.2874
    -5.9342  -5.6326  -5.2266  -5.1896  -5.1287  -5.0475  -5.0083  -4.9423
    -4.6057  -4.5694  -4.5491  -4.5130  -4.4666  -4.3999  -4.2564  -4.1359
     6.5981   6.6192   6.6823   6.9251   6.9558   7.1210   7.1558   7.1918
     7.2342   7.3292   7.5436   7.8388   7.8629   7.9470   8.0617   8.1386
     8.1507   8.1875   8.2185   8.2459   8.3036   8.3215   8.3696   8.5553
     9.6465   9.7742   9.8555   9.9372  10.0144  10.0470  10.0999  10.1520
    10.1578  10.1958  10.2580  10.2982  10.3776  10.4240  10.4974  10.5442
    10.5678  10.5999  10.6717  10.6998  10.8157  10.9720  11.0380  11.1053
    15.3765  15.4400  15.4606  15.5153  15.6200  15.6487  15.6781  15.7729
    15.8536  15.8805  15.9589  16.0069  16.0575  16.1377  16.1680  16.2043
    17.4692  17.5102  17.5740

          k = 0.2828 0.0000 0.0000 ( 11022 PWs)   bands (ev):

   -36.6555 -36.6432 -36.5590 -36.5454 -36.4759 -36.4349 -36.3522 -36.3290
   -15.0048 -14.9930 -14.9811 -14.9559 -14.9290 -14.9077 -14.8981 -14.6258
   -14.6187 -14.5819 -14.5543 -14.5274 -14.5234 -14.5065 -14.4845 -14.4713
   -14.4384 -14.4240 -14.4064 -14.3793 -14.3673 -14.3538 -14.3405 -14.3076
    -6.1988  -5.4399  -5.4140  -5.3752  -5.3094  -5.0900  -5.0356  -4.9631
    -4.5825  -4.4415  -4.4268  -4.3790  -4.3433  -4.3233  -4.2728  -3.9847
     6.1390   6.1507   6.3366   6.7145   6.7309   7.0249   7.3000   7.3505
     7.3975   7.4458   7.6448   7.6894   7.7474   7.7928   8.2542   8.2651
     8.2907   8.3125   8.7053   8.7250   8.8070   8.8461   8.9022   8.9336
     9.3878   9.4371   9.4697   9.5148   9.7301   9.7788   9.8507   9.8787
     9.9975  10.0615  10.1283  10.2474  10.3465  10.3982  10.4556  10.5067
    10.5266  10.6082  10.6592  10.9964  11.1883  11.2929  11.6096  11.6688
    15.0827  15.3008  15.3485  15.3913  15.4622  15.5255  15.6266  15.6883
    15.7209  15.8025  15.8368  15.9007  15.9801  16.1321  16.2825  16.2953
    17.2598  17.2785  17.4373

          k = 0.4243 0.1414-0.1414 ( 11007 PWs)   bands (ev):

   -36.6547 -36.6431 -36.5591 -36.5456 -36.4760 -36.4348 -36.3526 -36.3293
   -14.9568 -14.9318 -14.9164 -14.9002 -14.8812 -14.8610 -14.8260 -14.6884
   -14.6609 -14.6276 -14.6163 -14.5479 -14.5350 -14.5274 -14.5013 -14.4774
   -14.4678 -14.4296 -14.4284 -14.4065 -14.3916 -14.3817 -14.3670 -14.3082
    -5.9478  -5.4879  -5.2754  -5.2434  -5.1416  -5.0296  -4.9854  -4.9046
    -4.7538  -4.5620  -4.5129  -4.4765  -4.4599  -4.3919  -4.3060  -4.1278
     6.4825   6.5058   6.7849   6.8844   6.9522   7.1145   7.2031   7.2836
     7.3086   7.4923   7.5965   7.7355   7.8036   7.9070   7.9609   7.9752
     8.0143   8.1746   8.3309   8.4489   8.4729   8.7127   8.7357   8.9924
     9.1983   9.4402   9.5676   9.5822   9.6794   9.7397   9.8513   9.8871
     9.9614  10.0356  10.2129  10.2761  10.3194  10.4001  10.5465  10.6279
    10.6679  10.7817  10.8061  10.8762  11.0623  11.1966  11.3902  11.4593
    15.2441  15.3631  15.4221  15.5182  15.5505  15.5898  15.6995  15.7850
    15.8427  15.9198  15.9813  16.0516  16.0705  16.1881  16.2544  16.2738
    17.4332  17.5024  17.5215

          k =-0.1414-0.4243 0.4243 ( 11002 PWs)   bands (ev):

   -36.6544 -36.6431 -36.5589 -36.5456 -36.4762 -36.4349 -36.3528 -36.3293
   -14.9271 -14.9051 -14.8903 -14.8742 -14.8508 -14.8357 -14.7711 -14.7421
   -14.6855 -14.6475 -14.6318 -14.5812 -14.5662 -14.5332 -14.5095 -14.4900
   -14.4734 -14.4483 -14.4248 -14.4061 -14.3991 -14.3863 -14.3667 -14.3122
    -5.7321  -5.6401  -5.1833  -5.1262  -5.0710  -5.0331  -4.9920  -4.9305
    -4.7060  -4.6424  -4.5862  -4.5422  -4.4994  -4.4378  -4.2700  -4.2249
     6.7436   6.9085   6.9596   6.9999   7.0653   7.0800   7.1286   7.1674
     7.2008   7.4286   7.6507   7.7104   7.7399   7.7704   7.8450   7.8969
     8.0327   8.2130   8.2579   8.3596   8.3910   8.5396   8.6081   8.6413
     9.1374   9.3366   9.5777   9.6302   9.6957   9.7582   9.8741   9.9390
    10.1338  10.2827  10.3657  10.4118  10.4573  10.4762  10.5276  10.6261
    10.7212  10.7702  10.8344  10.9072  10.9473  11.0500  11.1128  11.1794
    15.3738  15.3894  15.4709  15.5815  15.6359  15.6830  15.7476  15.7954
    15.8447  15.9478  15.9900  16.0752  16.0861  16.1367  16.1925  16.3356
    17.4971  17.5616  17.6070

          k = 0.0000-0.2828 0.2828 ( 11007 PWs)   bands (ev):

   -36.6550 -36.6433 -36.5588 -36.5454 -36.4761 -36.4351 -36.3524 -36.3291
   -14.9667 -14.9571 -14.9485 -14.9365 -14.9082 -14.8717 -14.8541 -14.6678
   -14.6227 -14.5868 -14.5747 -14.5502 -14.5419 -14.5172 -14.5091 -14.4909
   -14.4669 -14.4431 -14.4105 -14.3902 -14.3853 -14.3610 -14.3441 -14.3106
    -6.0514  -5.5046  -5.3268  -5.2565  -5.2126  -5.0590  -5.0003  -4.9375
    -4.5830  -4.5608  -4.5165  -4.4706  -4.4082  -4.3753  -4.2595  -4.0752
     6.3244   6.4682   6.5178   6.8217   6.8676   7.2056   7.2294   7.2886
     7.3521   7.3977   7.5595   7.6333   7.7986   7.8382   8.0588   8.0973
     8.2957   8.3502   8.4098   8.4498   8.4961   8.6857   8.7675   8.9122
     9.0826   9.3182   9.6030   9.7479   9.7632   9.8939   9.9711  10.0253
    10.1315  10.1921  10.2304  10.3182  10.3785  10.4386  10.5044  10.5773
    10.5972  10.6734  10.7033  10.7870  11.0521  11.1089  11.2177  11.5159
    15.2405  15.3880  15.4118  15.4733  15.5528  15.6160  15.6892  15.7222
    15.8060  15.8658  15.8908  15.9730  16.0408  16.1286  16.1447  16.3323
    17.3843  17.4440  17.4776

          k = 0.5657 0.0000 0.0000 ( 10982 PWs)   bands (ev):

   -36.6520 -36.6457 -36.5561 -36.5483 -36.4758 -36.4354 -36.3517 -36.3302
   -14.9080 -14.8952 -14.8725 -14.8618 -14.8327 -14.8153 -14.8103 -14.7182
   -14.7039 -14.6758 -14.6435 -14.6150 -14.5626 -14.5377 -14.4848 -14.4687
   -14.4610 -14.4529 -14.4386 -14.4227 -14.3979 -14.3796 -14.3670 -14.3401
    -5.7763  -5.3061  -5.2696  -5.2295  -5.1235  -5.0779  -4.9472  -4.8879
    -4.7887  -4.6335  -4.5821  -4.5099  -4.4738  -4.4427  -4.3686  -4.2008
     6.6613   6.6775   6.9761   6.9965   7.0723   7.1022   7.1594   7.1965
     7.3446   7.5422   7.5907   7.6514   7.6695   7.8908   7.9745   8.0360
     8.0750   8.1682   8.5522   8.5817   8.6153   8.6690   8.8229   9.0408
     9.1308   9.2370   9.2851   9.3278   9.3922   9.5097   9.5820   9.6392
     9.7428   9.7689   9.8159   9.8612  10.2039  10.3105  10.7598  10.8651
    10.8916  10.9821  11.0468  11.1107  11.2621  11.3531  11.5323  11.6054
    15.2387  15.2904  15.3603  15.4719  15.4923  15.6135  15.7139  15.8014
    15.9308  15.9774  16.1198  16.1676  16.2301  16.2676  16.2864  16.3787
    17.4526  17.4927  17.6885

          k = 0.0000-0.5657 0.5657 ( 11036 PWs)   bands (ev):

   -36.6518 -36.6459 -36.5559 -36.5484 -36.4759 -36.4354 -36.3518 -36.3303
   -14.8686 -14.8605 -14.8572 -14.8450 -14.8161 -14.7870 -14.7784 -14.7414
   -14.7316 -14.7096 -14.6912 -14.6322 -14.5742 -14.5360 -14.4966 -14.4719
   -14.4646 -14.4602 -14.4357 -14.4211 -14.3950 -14.3869 -14.3697 -14.3483
    -5.5946  -5.4477  -5.2565  -5.1741  -5.1033  -5.0199  -4.9463  -4.8736
    -4.7411  -4.6937  -4.6326  -4.5440  -4.5142  -4.4689  -4.3537  -4.2606
     6.8973   6.9382   6.9668   7.0557   7.1137   7.1654   7.1845   7.2079
     7.3426   7.4192   7.5068   7.5592   7.6176   7.8778   7.9322   8.0169
     8.1071   8.2606   8.3378   8.3821   8.5865   8.6637   8.8979   8.9529
     8.9935   9.1022   9.1289   9.2099   9.3777   9.4432   9.5368   9.5525
     9.6381   9.9941  10.0256  10.3251  10.3849  10.5055  10.7237  10.8086
    10.8826  11.0180  11.0498  11.1505  11.1792  11.2446  11.3650  11.4351
    15.2965  15.3305  15.4005  15.5498  15.5699  15.6321  15.7222  15.7979
    15.9208  15.9955  16.1251  16.1723  16.2089  16.2418  16.2566  16.4171
    17.5630  17.6253  17.8385

          k =-0.1414-0.4243 0.7071 ( 10988 PWs)   bands (ev):

   -36.6519 -36.6458 -36.5561 -36.5483 -36.4757 -36.4354 -36.3517 -36.3303
   -14.8959 -14.8821 -14.8645 -14.8444 -14.8219 -14.8076 -14.7912 -14.7521
   -14.7165 -14.6818 -14.6704 -14.6464 -14.5359 -14.5171 -14.4971 -14.4736
   -14.4671 -14.4527 -14.4346 -14.4194 -14.4000 -14.3819 -14.3712 -14.3458
    -5.6932  -5.4114  -5.3606  -5.1274  -5.0621  -5.0031  -4.9521  -4.8850
    -4.7862  -4.6881  -4.6061  -4.5427  -4.4865  -4.4300  -4.3490  -4.2374
     6.7475   6.9010   6.9686   7.0550   7.1029   7.1610   7.1919   7.2357
     7.3458   7.4880   7.5446   7.5955   7.7248   7.7704   7.7844   7.8588
     7.9611   8.2586   8.3607   8.4556   8.6584   8.7127   8.7478   8.9320
     8.9843   9.0683   9.1357   9.2720   9.4632   9.5245   9.6053   9.7270
     9.9939  10.0779  10.3062  10.4025  10.4755  10.5560  10.5996  10.7489
    10.8407  10.8622  10.9178  11.0243  11.0668  11.1626  11.2826  11.4200
    15.3356  15.3699  15.4487  15.5381  15.5973  15.6505  15.7189  15.7816
    15.9109  15.9661  16.0125  16.1259  16.1771  16.2052  16.2824  16.3581
    17.6060  17.6495  17.7050

          k =-0.1414-0.1414-0.1414 ( 11011 PWs)   bands (ev):

   -36.6557 -36.6434 -36.5588 -36.5452 -36.4760 -36.4351 -36.3520 -36.3289
   -15.0146 -15.0060 -14.9909 -14.9755 -14.9347 -14.9192 -14.9025 -14.6195
   -14.6102 -14.5526 -14.5424 -14.5314 -14.5271 -14.5067 -14.4802 -14.4711
   -14.4453 -14.4350 -14.4038 -14.3757 -14.3608 -14.3375 -14.3206 -14.3042
    -6.2415  -5.5064  -5.4161  -5.3824  -5.3135  -5.1116  -5.0525  -4.9768
    -4.4924  -4.4478  -4.4199  -4.3709  -4.3407  -4.3010  -4.2398  -3.9600
     6.1022   6.1383   6.1894   6.7020   6.7223   6.8967   7.3845   7.3912
     7.4305   7.4925   7.5486   7.6799   7.6880   7.7473   8.3826   8.4235
     8.4521   8.4933   8.5117   8.5308   8.6830   8.8158   8.8456   9.0585
     9.3024   9.4748   9.5097   9.5385   9.9357   9.9720  10.0063  10.0435
    10.0938  10.1153  10.1455  10.2246  10.2646  10.2976  10.3549  10.3946
    10.4238  10.5270  10.9430  10.9951  11.0765  11.4126  11.4856  11.5355
    15.1295  15.2129  15.3394  15.4445  15.4816  15.5569  15.6005  15.6526
    15.6772  15.7603  15.8018  15.8435  15.8612  16.2081  16.2419  16.2710
    17.3274  17.3670  17.4119

          k =-0.1414 0.1414 0.1414 ( 11011 PWs)   bands (ev):

   -36.6567 -36.6421 -36.5600 -36.5442 -36.4763 -36.4347 -36.3527 -36.3284
   -15.0220 -15.0034 -14.9949 -14.9599 -14.9457 -14.9128 -14.9028 -14.6132
   -14.5870 -14.5803 -14.5563 -14.5333 -14.5241 -14.4936 -14.4865 -14.4716
   -14.4395 -14.4322 -14.3890 -14.3824 -14.3793 -14.3544 -14.3214 -14.2823
    -6.2406  -5.4975  -5.4198  -5.3800  -5.3217  -5.1117  -5.0504  -4.9815
    -4.4826  -4.4389  -4.4268  -4.3836  -4.3398  -4.2987  -4.2395  -3.9598
     6.1058   6.1466   6.1801   6.6938   6.7251   6.9007   7.3906   7.4034
     7.4398   7.4790   7.5403   7.6564   7.6891   7.7610   8.3814   8.4165
     8.4416   8.4910   8.5146   8.5419   8.6988   8.8101   8.8527   9.0096
     9.3009   9.4735   9.5332   9.5597   9.9017   9.9731  10.0085  10.0400
    10.0955  10.1210  10.1790  10.2299  10.2820  10.3315  10.3549  10.4011
    10.4130  10.4552  10.9499  11.0046  11.0779  11.4223  11.4771  11.5298
    15.1231  15.2113  15.3415  15.4353  15.4839  15.5714  15.6235  15.6565
    15.6977  15.7478  15.7819  15.8199  15.8546  16.2117  16.2446  16.2756
    17.3305  17.3621  17.4064

          k = 0.1414-0.1414 0.1414 ( 11011 PWs)   bands (ev):

   -36.6557 -36.6434 -36.5589 -36.5452 -36.4760 -36.4351 -36.3520 -36.3289
   -15.0117 -15.0044 -14.9945 -14.9729 -14.9429 -14.9162 -14.9033 -14.6166
   -14.6110 -14.5518 -14.5400 -14.5372 -14.5204 -14.5053 -14.4792 -14.4757
   -14.4467 -14.4347 -14.4048 -14.3765 -14.3529 -14.3371 -14.3214 -14.3105
    -6.2413  -5.5024  -5.4072  -5.3738  -5.3368  -5.1049  -5.0463  -4.9870
    -4.4814  -4.4480  -4.4204  -4.3743  -4.3412  -4.3129  -4.2379  -3.9587
     6.1031   6.1425   6.1889   6.6990   6.7347   6.8904   7.3652   7.4031
     7.4446   7.5028   7.5524   7.6657   7.6902   7.7432   8.3792   8.4118
     8.4432   8.4910   8.5292   8.5398   8.7424   8.7833   8.7945   9.0770
     9.3000   9.4593   9.4935   9.5967   9.9287   9.9651  10.0025  10.0314
    10.0585  10.1308  10.1692  10.2015  10.2668  10.2966  10.3730  10.3866
    10.4430  10.5282  10.9068  10.9856  11.0870  11.4306  11.4939  11.5258
    15.1237  15.2088  15.3421  15.4442  15.5059  15.5535  15.6108  15.6496
    15.6785  15.7598  15.7848  15.8273  15.8691  16.2126  16.2421  16.2702
    17.3406  17.3623  17.4092

          k =-0.2828-0.2828-0.2828 ( 11048 PWs)   bands (ev):

   -36.6524 -36.6462 -36.5555 -36.5480 -36.4760 -36.4358 -36.3513 -36.3300
   -14.9573 -14.9496 -14.9412 -14.9165 -14.8692 -14.8611 -14.7972 -14.6895
   -14.6580 -14.6151 -14.5970 -14.5415 -14.5330 -14.5222 -14.5169 -14.4953
   -14.4855 -14.4554 -14.4399 -14.4245 -14.3689 -14.3405 -14.3310 -14.3254
    -5.9343  -5.6251  -5.2474  -5.2039  -5.1107  -5.0800  -4.9953  -4.8993
    -4.6545  -4.5837  -4.5306  -4.4974  -4.4547  -4.4017  -4.2514  -4.1330
     6.5774   6.6187   6.6909   6.9268   6.9391   7.1135   7.1570   7.2025
     7.2609   7.2807   7.5213   7.8759   7.8941   7.9344   8.0558   8.1222
     8.1386   8.1915   8.2209   8.2491   8.2703   8.3382   8.3859   8.5423
     9.6634   9.8238   9.8894   9.9474   9.9853  10.0184  10.0557  10.1430
    10.1775  10.2144  10.2857  10.3047  10.3733  10.4348  10.4951  10.5238
    10.5588  10.6161  10.6604  10.7609  10.8161  10.9420  11.0100  11.1205
    15.3584  15.4322  15.4595  15.5345  15.5764  15.6797  15.7180  15.7743
    15.8365  15.9254  15.9612  16.0125  16.0316  16.1063  16.1487  16.1760
    17.5056  17.5526  17.5662

          k =-0.2828 0.2828 0.2828 ( 11048 PWs)   bands (ev):

   -36.6560 -36.6419 -36.5595 -36.5444 -36.4769 -36.4347 -36.3531 -36.3287
   -14.9809 -14.9511 -14.9296 -14.9008 -14.8796 -14.8409 -14.7991 -14.6815
   -14.6515 -14.6191 -14.5779 -14.5652 -14.5575 -14.5453 -14.4913 -14.4861
   -14.4810 -14.4523 -14.4445 -14.4252 -14.3896 -14.3684 -14.3294 -14.2843
    -5.9299  -5.6176  -5.2481  -5.1981  -5.1332  -5.0763  -5.0035  -4.9063
    -4.6212  -4.5669  -4.5471  -4.5105  -4.4573  -4.3997  -4.2540  -4.1325
     6.5849   6.6420   6.6737   6.9288   6.9517   7.1231   7.1619   7.1754
     7.2468   7.2856   7.5229   7.8473   7.8844   7.9474   8.0614   8.1019
     8.1501   8.1987   8.2158   8.2486   8.3073   8.3238   8.3617   8.5205
     9.6661   9.8123   9.9100   9.9399  10.0228  10.0445  10.0727  10.1523
    10.1680  10.2312  10.2853  10.3030  10.3431  10.4256  10.4881  10.5159
    10.5776  10.6135  10.6549  10.7587  10.7956  10.9592  11.0392  11.0895
    15.3335  15.4381  15.4824  15.5151  15.5861  15.6954  15.7530  15.8016
    15.8515  15.8760  15.9125  15.9713  16.0345  16.1084  16.1701  16.1995
    17.4791  17.5386  17.5820

          k = 0.2828-0.2828 0.2828 ( 11048 PWs)   bands (ev):

   -36.6524 -36.6462 -36.5556 -36.5479 -36.4760 -36.4358 -36.3513 -36.3300
   -14.9574 -14.9512 -14.9223 -14.9186 -14.8896 -14.8641 -14.8014 -14.6939
   -14.6521 -14.6089 -14.5742 -14.5402 -14.5333 -14.5246 -14.5180 -14.5007
   -14.4985 -14.4622 -14.4282 -14.4120 -14.3696 -14.3475 -14.3386 -14.3247
    -5.9326  -5.6212  -5.2155  -5.2021  -5.1591  -5.0540  -4.9915  -4.9260
    -4.6110  -4.5831  -4.5372  -4.5026  -4.4629  -4.4305  -4.2462  -4.1312
     6.5807   6.6219   6.6923   6.9313   6.9720   7.1097   7.1473   7.1874
     7.2633   7.3252   7.5173   7.8579   7.9064   7.9274   8.0685   8.0891
     8.1598   8.2060   8.2204   8.2559   8.2861   8.3095   8.3421   8.5392
     9.6599   9.8352   9.8889   9.9412  10.0079  10.0406  10.0796  10.1106
    10.1915  10.2068  10.2547  10.3097  10.3741  10.4146  10.4793  10.5211
    10.5570  10.6397  10.6581  10.7160  10.7967  10.9735  11.0463  11.0958
    15.3407  15.4078  15.4954  15.5444  15.6102  15.6742  15.7398  15.7718
    15.8514  15.9014  15.9272  15.9788  16.0203  16.1303  16.1475  16.1928
    17.5064  17.5445  17.5815

          k = 0.0000 0.2828 0.0000 ( 11022 PWs)   bands (ev):

   -36.6565 -36.6422 -36.5596 -36.5441 -36.4766 -36.4349 -36.3527 -36.3284
   -15.0060 -14.9926 -14.9810 -14.9619 -14.9334 -14.9010 -14.8935 -14.6094
   -14.5810 -14.5730 -14.5667 -14.5467 -14.5177 -14.5047 -14.4890 -14.4862
   -14.4720 -14.4533 -14.3957 -14.3854 -14.3811 -14.3384 -14.3264 -14.2851
    -6.1973  -5.4595  -5.4249  -5.3466  -5.2980  -5.0896  -5.0486  -4.9615
    -4.5484  -4.4639  -4.4223  -4.4083  -4.3726  -4.3072  -4.2416  -3.9895
     6.1248   6.1815   6.3209   6.7100   6.7466   7.0031   7.2656   7.2922
     7.4802   7.5167   7.6445   7.6906   7.7085   7.7617   8.2238   8.2659
     8.3044   8.3339   8.7258   8.7496   8.8083   8.9092   8.9303   8.9447
     9.3391   9.3773   9.4431   9.4907   9.7428   9.7910   9.8416   9.8620
     9.9052   9.9817  10.1616  10.2559  10.3378  10.4202  10.4580  10.5114
    10.5763  10.6502  10.7454  11.0786  11.1774  11.2177  11.5808  11.6538
    15.1451  15.2328  15.3598  15.3973  15.4739  15.5550  15.5894  15.6531
    15.7182  15.8076  15.8387  15.9313  15.9803  16.1375  16.2743  16.2930
    17.2492  17.2838  17.4368

          k = 0.0000 0.0000 0.2828 ( 11022 PWs)   bands (ev):

   -36.6555 -36.6433 -36.5590 -36.5454 -36.4759 -36.4349 -36.3521 -36.3290
   -15.0053 -14.9880 -14.9818 -14.9574 -14.9318 -14.9088 -14.8931 -14.6259
   -14.6167 -14.5851 -14.5580 -14.5315 -14.5178 -14.5127 -14.4815 -14.4725
   -14.4375 -14.4262 -14.4053 -14.3784 -14.3657 -14.3564 -14.3345 -14.3092
    -6.1968  -5.4685  -5.3954  -5.3646  -5.3031  -5.1041  -5.0261  -4.9689
    -4.5512  -4.4550  -4.4349  -4.4070  -4.3683  -4.2963  -4.2507  -3.9884
     6.1411   6.1525   6.3286   6.7215   6.7443   6.9999   7.2268   7.3222
     7.4457   7.5189   7.6380   7.6743   7.7467   7.8084   8.2340   8.2573
     8.2959   8.3236   8.7288   8.7517   8.8029   8.9075   8.9383   8.9614
     9.3262   9.3749   9.4493   9.5017   9.7308   9.7789   9.8122   9.8630
     9.8819   9.9805  10.1799  10.2417  10.3101  10.4425  10.4896  10.5415
    10.5673  10.6675  10.7182  11.0534  11.1841  11.2205  11.6130  11.6484
    15.1067  15.2574  15.3547  15.4345  15.5169  15.5327  15.5832  15.6428
    15.7348  15.7517  15.8277  15.9285  15.9808  16.1345  16.2897  16.3053
    17.2434  17.2971  17.4467

          k =-0.4243-0.1414-0.1414 ( 11007 PWs)   bands (ev):

   -36.6524 -36.6460 -36.5560 -36.5480 -36.4758 -36.4356 -36.3514 -36.3301
   -14.9465 -14.9415 -14.9239 -14.9071 -14.8625 -14.8571 -14.8329 -14.6966
   -14.6668 -14.6321 -14.5849 -14.5666 -14.5342 -14.5224 -14.4970 -14.4748
   -14.4651 -14.4520 -14.4327 -14.4154 -14.3830 -14.3610 -14.3474 -14.3330
    -5.9485  -5.4742  -5.2933  -5.2499  -5.1392  -5.0460  -4.9763  -4.8641
    -4.7823  -4.5751  -4.5174  -4.4683  -4.4323  -4.4000  -4.3145  -4.1237
     6.4769   6.5027   6.8036   6.8892   6.9220   7.1549   7.1697   7.2643
     7.3066   7.5122   7.5668   7.7798   7.7945   7.9278   7.9531   7.9868
     8.0180   8.1612   8.2489   8.4653   8.4985   8.7244   8.7362   8.9740
     9.1881   9.4805   9.5524   9.6591   9.7033   9.7413   9.8174   9.8821
     9.9780  10.0214  10.1468  10.2822  10.3196  10.3994  10.5300  10.6557
    10.6914  10.7346  10.8272  10.8811  11.0942  11.1729  11.3847  11.4673
    15.2620  15.3803  15.4010  15.4804  15.5518  15.5897  15.7039  15.8062
    15.8501  15.9404  15.9755  16.0362  16.0860  16.1668  16.2253  16.2729
    17.4560  17.4904  17.5243

          k =-0.4243 0.1414 0.1414 ( 11007 PWs)   bands (ev):

   -36.6549 -36.6430 -36.5586 -36.5456 -36.4763 -36.4349 -36.3526 -36.3292
   -14.9627 -14.9405 -14.9241 -14.8856 -14.8756 -14.8433 -14.8353 -14.6748
   -14.6618 -14.6393 -14.6130 -14.5559 -14.5463 -14.5159 -14.4956 -14.4829
   -14.4554 -14.4448 -14.4408 -14.4154 -14.4032 -14.3726 -14.3442 -14.3079
    -5.9457  -5.4669  -5.2890  -5.2535  -5.1530  -5.0481  -4.9758  -4.8740
    -4.7701  -4.5422  -4.5289  -4.4907  -4.4432  -4.3862  -4.3134  -4.1241
     6.4759   6.5055   6.8209   6.8856   6.9200   7.1363   7.2034   7.2642
     7.2961   7.4967   7.5700   7.7586   7.7852   7.9430   7.9531   7.9882
     8.0207   8.1514   8.2691   8.4464   8.5012   8.7071   8.7339   8.9535
     9.1972   9.4722   9.5793   9.6392   9.6972   9.7829   9.8216   9.8911
     9.9945  10.0240  10.1895  10.2410  10.3391  10.3726  10.5483  10.6249
    10.6722  10.7398  10.8240  10.8915  11.1043  11.1700  11.3962  11.4522
    15.2289  15.3895  15.4340  15.4961  15.5256  15.6018  15.7178  15.7963
    15.8579  15.9229  15.9708  16.0198  16.0697  16.1705  16.2466  16.2816
    17.4583  17.4988  17.5177

          k = 0.4243-0.1414 0.1414 ( 11007 PWs)   bands (ev):

   -36.6524 -36.6460 -36.5559 -36.5480 -36.4759 -36.4356 -36.3514 -36.3301
   -14.9486 -14.9389 -14.9182 -14.9088 -14.8761 -14.8561 -14.8298 -14.6984
   -14.6571 -14.6202 -14.5862 -14.5677 -14.5392 -14.5248 -14.5100 -14.4796
   -14.4697 -14.4477 -14.4280 -14.3935 -14.3850 -14.3620 -14.3553 -14.3358
    -5.9468  -5.4736  -5.2752  -5.2367  -5.1826  -5.0266  -4.9708  -4.9004
    -4.7548  -4.5557  -4.5281  -4.4736  -4.4379  -4.4164  -4.3047  -4.1229
     6.4759   6.5061   6.7994   6.8906   6.9483   7.1240   7.1948   7.2637
     7.3139   7.5056   7.5526   7.7615   7.8308   7.9229   7.9672   7.9811
     8.0324   8.1272   8.3011   8.4262   8.4586   8.7010   8.7701   8.9755
     9.1984   9.4962   9.5514   9.6254   9.6792   9.7818   9.8269   9.8638
     9.9723  10.0214  10.1882  10.2336  10.3315  10.4067  10.5586  10.6390
    10.6868  10.7292  10.8332  10.8990  11.0594  11.1850  11.3887  11.4580
    15.2462  15.3773  15.4197  15.5066  15.5287  15.6002  15.7249  15.7746
    15.8531  15.9420  15.9812  16.0254  16.0712  16.1674  16.2508  16.2566
    17.4688  17.4900  17.5521

          k = 0.1414 0.4243 0.1414 ( 11007 PWs)   bands (ev):

   -36.6549 -36.6435 -36.5578 -36.5453 -36.4768 -36.4355 -36.3524 -36.3290
   -14.9518 -14.9419 -14.9298 -14.9103 -14.8727 -14.8444 -14.8205 -14.6712
   -14.6393 -14.6170 -14.5727 -14.5609 -14.5510 -14.5433 -14.5267 -14.5061
   -14.4922 -14.4692 -14.4404 -14.4013 -14.3939 -14.3419 -14.3326 -14.3057
    -5.9430  -5.4952  -5.3093  -5.2012  -5.1285  -5.0530  -5.0088  -4.8800
    -4.6901  -4.6183  -4.5264  -4.5143  -4.4509  -4.3733  -4.2743  -4.1383
     6.4642   6.5346   6.7933   6.8946   6.9153   7.0755   7.1573   7.3210
     7.3463   7.5121   7.5641   7.7512   7.8048   7.8868   7.9399   8.0150
     8.0483   8.1628   8.3493   8.3806   8.4778   8.7431   8.7889   8.9389
     9.1937   9.4485   9.4815   9.6694   9.7007   9.7484   9.7874   9.8594
     9.9841  10.0066  10.1131  10.3349  10.3826  10.4717  10.5442  10.5889
    10.6426  10.7800  10.9246  10.9684  11.0556  11.0949  11.3429  11.4545
    15.3022  15.3574  15.4036  15.4981  15.5252  15.6329  15.6891  15.7891
    15.8280  15.9110  15.9855  16.0382  16.1218  16.1749  16.2284  16.2580
    17.4653  17.5060  17.5171

          k =-0.1414-0.4243 0.1414 ( 11007 PWs)   bands (ev):

   -36.6558 -36.6421 -36.5595 -36.5442 -36.4768 -36.4350 -36.3532 -36.3286
   -14.9575 -14.9306 -14.9210 -14.9072 -14.8883 -14.8507 -14.8222 -14.6823
   -14.6254 -14.6118 -14.5746 -14.5688 -14.5553 -14.5481 -14.5096 -14.4995
   -14.4856 -14.4734 -14.4323 -14.4075 -14.3852 -14.3618 -14.3491 -14.2890
    -5.9442  -5.4995  -5.2944  -5.2031  -5.1330  -5.0346  -5.0147  -4.8983
    -4.6954  -4.5755  -4.5487  -4.5229  -4.4438  -4.3822  -4.2794  -4.1373
     6.4736   6.5306   6.8009   6.8856   6.9255   7.1024   7.1184   7.3067
     7.3790   7.5228   7.5850   7.7416   7.8078   7.8430   7.9580   8.0066
     8.0431   8.2027   8.3214   8.4073   8.4682   8.7159   8.7810   8.9820
     9.1908   9.4208   9.5048   9.6362   9.6919   9.7791   9.8175   9.8599
     9.9211  10.0001  10.1147  10.3093  10.3734  10.4681  10.5448  10.6098
    10.6866  10.7764  10.9109  10.9695  11.0379  11.0832  11.3718  11.4435
    15.3076  15.3486  15.4334  15.4805  15.5426  15.6306  15.6693  15.7689
    15.8444  15.9116  15.9856  16.0090  16.1307  16.1884  16.2433  16.2752
    17.4254  17.4880  17.5173

          k = 0.1414-0.4243-0.1414 ( 11007 PWs)   bands (ev):

   -36.6560 -36.6421 -36.5590 -36.5442 -36.4772 -36.4351 -36.3531 -36.3286
   -14.9663 -14.9390 -14.9253 -14.8970 -14.8836 -14.8392 -14.8182 -14.6602
   -14.6178 -14.6046 -14.5947 -14.5814 -14.5697 -14.5548 -14.5191 -14.4979
   -14.4848 -14.4722 -14.4304 -14.4067 -14.3912 -14.3564 -14.3399 -14.2869
    -5.9409  -5.4837  -5.3133  -5.1914  -5.1562  -5.0534  -5.0119  -4.8706
    -4.6951  -4.6033  -4.5281  -4.5108  -4.4579  -4.3749  -4.2774  -4.1357
     6.4685   6.5326   6.7947   6.8867   6.9421   7.0771   7.1183   7.3287
     7.4071   7.4839   7.5459   7.7544   7.8323   7.8780   7.9341   7.9973
     8.0298   8.1250   8.3269   8.3843   8.5212   8.7635   8.7897   8.9211
     9.1998   9.4485   9.5039   9.6505   9.7225   9.7603   9.8095   9.8769
     9.9388   9.9847  10.1210  10.2868  10.3723  10.4904  10.5648  10.6160
    10.6678  10.7488  10.9076  10.9987  11.0356  11.1121  11.3486  11.4398
    15.2956  15.3531  15.4188  15.4715  15.5572  15.6326  15.6938  15.7695
    15.8508  15.9145  15.9816  16.0165  16.1053  16.1831  16.2297  16.2613
    17.4300  17.5048  17.5486

          k =-0.1414 0.4243-0.1414 ( 11007 PWs)   bands (ev):

   -36.6549 -36.6435 -36.5578 -36.5453 -36.4768 -36.4354 -36.3524 -36.3290
   -14.9462 -14.9397 -14.9313 -14.9101 -14.8816 -14.8464 -14.8253 -14.6666
   -14.6317 -14.6175 -14.5790 -14.5562 -14.5511 -14.5367 -14.5253 -14.5076
   -14.4904 -14.4767 -14.4388 -14.4009 -14.3935 -14.3424 -14.3322 -14.3098
    -5.9426  -5.4934  -5.2759  -5.2193  -5.1530  -5.0396  -5.0072  -4.8883
    -4.6964  -4.5721  -4.5574  -4.5067  -4.4589  -4.3885  -4.2736  -4.1343
     6.4685   6.5405   6.7776   6.8979   6.9432   7.0820   7.1338   7.3172
     7.3969   7.4783   7.5844   7.7550   7.8008   7.8755   7.9642   8.0021
     8.0412   8.1595   8.2929   8.4154   8.4641   8.7399   8.7901   8.9472
     9.2097   9.4607   9.5071   9.6698   9.7041   9.7532   9.7873   9.8570
     9.9004  10.0128  10.1288  10.2813  10.3701  10.4702  10.5406  10.6414
    10.6961  10.7772  10.9118  10.9558  11.0407  11.0806  11.3772  11.4345
    15.2896  15.3545  15.4509  15.4819  15.5277  15.6250  15.6881  15.7726
    15.8759  15.9049  15.9592  16.0188  16.1234  16.1651  16.2368  16.2703
    17.4521  17.4790  17.5519

          k =-0.1414-0.1414 0.4243 ( 11007 PWs)   bands (ev):

   -36.6547 -36.6431 -36.5590 -36.5457 -36.4760 -36.4348 -36.3526 -36.3293
   -14.9547 -14.9289 -14.9155 -14.8998 -14.8868 -14.8582 -14.8239 -14.6891
   -14.6618 -14.6289 -14.6197 -14.5512 -14.5350 -14.5185 -14.5105 -14.4766
   -14.4712 -14.4321 -14.4286 -14.4044 -14.3888 -14.3784 -14.3650 -14.3094
    -5.9420  -5.5023  -5.2749  -5.2078  -5.1502  -5.0764  -4.9656  -4.9031
    -4.6925  -4.5871  -4.5617  -4.4989  -4.4512  -4.3707  -4.2863  -4.1354
     6.4842   6.5093   6.8094   6.9047   6.9151   7.0605   7.1532   7.3076
     7.3766   7.5088   7.5531   7.7886   7.8109   7.8843   7.9463   7.9940
     8.0467   8.1572   8.2982   8.4428   8.4646   8.7744   8.8020   8.9247
     9.2064   9.4034   9.4851   9.6413   9.7071   9.7599   9.7893   9.8660
     9.9347  10.0201  10.1340  10.2588  10.3924  10.4507  10.5216  10.6648
    10.7168  10.7545  10.9086  10.9400  11.0267  11.0849  11.4075  11.4441
    15.2894  15.3837  15.4199  15.5056  15.5638  15.6216  15.6531  15.7339
    15.8486  15.9007  15.9556  16.0438  16.0996  16.1717  16.2680  16.3038
    17.4586  17.4732  17.5388

          k = 0.1414-0.1414-0.4243 ( 11007 PWs)   bands (ev):

   -36.6549 -36.6431 -36.5586 -36.5457 -36.4763 -36.4349 -36.3525 -36.3292
   -14.9638 -14.9381 -14.9191 -14.8881 -14.8809 -14.8452 -14.8215 -14.6765
   -14.6620 -14.6438 -14.6178 -14.5598 -14.5478 -14.5219 -14.4954 -14.4780
   -14.4563 -14.4487 -14.4345 -14.4155 -14.4008 -14.3725 -14.3408 -14.3086
    -5.9397  -5.4904  -5.2842  -5.2276  -5.1499  -5.0773  -4.9568  -4.9016
    -4.6899  -4.5970  -4.5475  -4.5171  -4.4366  -4.3734  -4.2782  -4.1368
     6.4832   6.5131   6.8012   6.8988   6.9175   7.0478   7.1647   7.3138
     7.3643   7.4805   7.5877   7.7566   7.8114   7.9274   7.9420   7.9987
     8.0295   8.1146   8.3374   8.3772   8.5285   8.7354   8.8026   8.9157
     9.2154   9.3747   9.5535   9.6436   9.7124   9.7602   9.7909   9.8742
     9.9208  10.0326  10.1965  10.2597  10.3746  10.4277  10.5279  10.6788
    10.6967  10.7233  10.8745  10.9728  11.0618  11.0998  11.3892  11.4397
    15.2685  15.3777  15.4264  15.4933  15.6050  15.6144  15.6816  15.7076
    15.8376  15.9017  15.9646  16.0319  16.0966  16.1808  16.2661  16.2872
    17.4407  17.5062  17.5323

          k =-0.1414 0.1414-0.4243 ( 11007 PWs)   bands (ev):

   -36.6524 -36.6460 -36.5560 -36.5480 -36.4758 -36.4356 -36.3514 -36.3301
   -14.9454 -14.9350 -14.9181 -14.9089 -14.8824 -14.8512 -14.8286 -14.6967
   -14.6714 -14.6299 -14.5815 -14.5651 -14.5339 -14.5210 -14.5052 -14.4811
   -14.4646 -14.4593 -14.4297 -14.3921 -14.3863 -14.3598 -14.3535 -14.3363
    -5.9421  -5.4906  -5.2771  -5.2196  -5.1585  -5.0729  -4.9523  -4.9049
    -4.7021  -4.5899  -4.5394  -4.5120  -4.4530  -4.3770  -4.2824  -4.1328
     6.4838   6.5022   6.8106   6.9020   6.9351   7.0460   7.1492   7.3097
     7.4106   7.4942   7.5745   7.7355   7.8113   7.8944   7.9579   7.9852
     8.0429   8.2016   8.3085   8.4080   8.4348   8.7492   8.7683   8.9633
     9.2362   9.3959   9.5325   9.6682   9.6825   9.7241   9.8044   9.8628
     9.9285  10.0014  10.1494  10.2929  10.3673  10.4692  10.5434  10.6635
    10.6894  10.7467  10.9064  10.9300  11.0361  11.0649  11.4173  11.4471
    15.2650  15.3725  15.4389  15.5132  15.5575  15.6398  15.6730  15.7429
    15.8449  15.8882  15.9644  16.0163  16.1213  16.1627  16.2512  16.2914
    17.4701  17.5037  17.5237

          k = 0.1414 0.1414 0.4243 ( 11007 PWs)   bands (ev):

   -36.6524 -36.6460 -36.5558 -36.5481 -36.4759 -36.4356 -36.3514 -36.3301
   -14.9507 -14.9303 -14.9271 -14.9121 -14.8634 -14.8553 -14.8235 -14.6958
   -14.6657 -14.6267 -14.5925 -14.5722 -14.5417 -14.5266 -14.5093 -14.4818
   -14.4619 -14.4391 -14.4269 -14.4140 -14.3791 -14.3599 -14.3462 -14.3352
    -5.9419  -5.4960  -5.2786  -5.2138  -5.1656  -5.0742  -4.9616  -4.8825
    -4.7129  -4.5865  -4.5572  -4.5134  -4.4248  -4.3808  -4.2795  -4.1352
     6.4808   6.5061   6.8024   6.8918   6.9358   7.0418   7.1512   7.3079
     7.3850   7.4943   7.5519   7.7991   7.8284   7.8787   7.9414   8.0009
     8.0414   8.1380   8.3136   8.4281   8.4955   8.7397   8.8057   8.9167
     9.2100   9.4028   9.4780   9.6330   9.6711   9.7436   9.8175   9.8990
     9.9801  10.0437  10.1565  10.3287  10.3615  10.4115  10.5133  10.6562
    10.6934  10.7453  10.8657  10.9745  11.0339  11.1204  11.3867  11.4463
    15.2555  15.3695  15.4380  15.4918  15.5781  15.6279  15.6946  15.7509
    15.8338  15.8808  15.9746  16.0126  16.1290  16.1714  16.2576  16.2731
    17.4415  17.5077  17.5555

          k = 0.1414 0.4243 0.4243 ( 11002 PWs)   bands (ev):

   -36.6521 -36.6461 -36.5553 -36.5482 -36.4762 -36.4357 -36.3515 -36.3301
   -14.9256 -14.9166 -14.9042 -14.8746 -14.8335 -14.8194 -14.7656 -14.7174
   -14.6983 -14.6704 -14.6385 -14.5918 -14.5591 -14.5171 -14.5108 -14.4982
   -14.4765 -14.4518 -14.4360 -14.4264 -14.3815 -14.3676 -14.3484 -14.3287
    -5.7349  -5.6289  -5.1877  -5.1607  -5.0970  -5.0230  -4.9711  -4.8910
    -4.7293  -4.6534  -4.6027  -4.5274  -4.4794  -4.4374  -4.2619  -4.2284
     6.7574   6.8963   6.9461   6.9911   7.0195   7.0797   7.1542   7.1824
     7.2287   7.3420   7.6729   7.7356   7.7515   7.7712   7.8155   7.8920
     8.0543   8.2008   8.2779   8.3624   8.4357   8.5254   8.5528   8.6111
     9.1681   9.3783   9.5352   9.6342   9.6779   9.8019   9.9247  10.0062
    10.0518  10.2707  10.3644  10.3976  10.4385  10.4926  10.5635  10.6612
    10.7003  10.7733  10.8520  10.8994  10.9530  11.0135  11.1151  11.1816
    15.3475  15.4232  15.4883  15.5232  15.6456  15.6777  15.7400  15.8336
    15.8855  15.9182  15.9893  16.0537  16.1002  16.1580  16.1708  16.2922
    17.5326  17.5820  17.5942

          k = 0.1414-0.4243-0.4243 ( 11002 PWs)   bands (ev):

   -36.6547 -36.6431 -36.5581 -36.5457 -36.4767 -36.4351 -36.3527 -36.3293
   -14.9454 -14.9207 -14.8870 -14.8597 -14.8484 -14.8033 -14.7549 -14.7346
   -14.6823 -14.6649 -14.6439 -14.6052 -14.5679 -14.5302 -14.4996 -14.4913
   -14.4700 -14.4524 -14.4374 -14.4240 -14.4106 -14.3734 -14.3445 -14.3066
    -5.7291  -5.6253  -5.2061  -5.1502  -5.0925  -5.0302  -4.9810  -4.8944
    -4.7150  -4.6351  -4.6092  -4.5351  -4.4867  -4.4320  -4.2640  -4.2278
     6.7594   6.9177   6.9621   6.9855   7.0370   7.0593   7.1330   7.1754
     7.2102   7.3758   7.6597   7.7246   7.7533   7.7930   7.8174   7.8924
     8.0181   8.2199   8.2733   8.3319   8.4139   8.5273   8.5716   8.6022
     9.1679   9.4047   9.5423   9.6336   9.7120   9.7885   9.9389  10.0039
    10.0505  10.2786  10.3469  10.3961  10.4557  10.4835  10.5717  10.6105
    10.6914  10.7914  10.8588  10.8930  10.9720  11.0240  11.1124  11.1721
    15.3532  15.3895  15.5093  15.5513  15.6136  15.6893  15.7572  15.8279
    15.8881  15.9145  15.9747  16.0313  16.1019  16.1643  16.1873  16.2941
    17.5386  17.5755  17.5874

          k =-0.1414 0.4243-0.4243 ( 11002 PWs)   bands (ev):

   -36.6520 -36.6461 -36.5556 -36.5481 -36.4760 -36.4357 -36.3516 -36.3301
   -14.9202 -14.9095 -14.8905 -14.8856 -14.8508 -14.8289 -14.7756 -14.7244
   -14.7064 -14.6442 -14.6188 -14.5928 -14.5473 -14.5272 -14.5133 -14.4930
   -14.4892 -14.4604 -14.4335 -14.4055 -14.3766 -14.3680 -14.3496 -14.3466
    -5.7334  -5.6294  -5.1932  -5.1320  -5.0632  -5.0355  -5.0095  -4.9078
    -4.6947  -4.6490  -4.6073  -4.5226  -4.4935  -4.4629  -4.2537  -4.2297
     6.7501   6.8986   6.9641   6.9828   7.0603   7.0846   7.1398   7.1747
     7.2200   7.3959   7.6660   7.6984   7.7365   7.8189   7.8387   7.8963
     8.0247   8.1913   8.2819   8.3509   8.3949   8.5154   8.5684   8.6212
     9.1683   9.4070   9.5724   9.6550   9.6848   9.7187   9.8719   9.9688
    10.0958  10.2737  10.3610  10.4308  10.4458  10.5000  10.5327  10.6302
    10.7137  10.7660  10.8667  10.9121  10.9334  11.0301  11.0730  11.2098
    15.3442  15.4240  15.4703  15.5662  15.6356  15.6978  15.7507  15.8121
    15.8610  15.9383  16.0096  16.0427  16.0746  16.1302  16.1774  16.3234
    17.5244  17.5664  17.6303

          k =-0.4243-0.1414-0.4243 ( 11002 PWs)   bands (ev):

   -36.6520 -36.6464 -36.5550 -36.5481 -36.4764 -36.4359 -36.3515 -36.3300
   -14.9267 -14.9184 -14.9014 -14.8757 -14.8313 -14.8182 -14.7635 -14.7426
   -14.6962 -14.6507 -14.6396 -14.5515 -14.5354 -14.5282 -14.5197 -14.5155
   -14.5069 -14.4567 -14.4522 -14.4285 -14.3819 -14.3472 -14.3417 -14.3284
    -5.7417  -5.6131  -5.2457  -5.1479  -5.0682  -5.0189  -4.9491  -4.8691
    -4.7555  -4.6653  -4.6003  -4.5578  -4.4700  -4.4140  -4.2828  -4.2153
     6.7203   6.9313   6.9370   6.9932   7.0300   7.0740   7.1714   7.1912
     7.2437   7.3385   7.6318   7.7108   7.7657   7.8104   7.8402   7.9602
     8.0840   8.1514   8.2201   8.2641   8.3529   8.5603   8.5890   8.7277
     9.0604   9.3732   9.4635   9.6510   9.7408   9.8424   9.9682  10.0657
    10.1548  10.2560  10.3108  10.4059  10.4670  10.5175  10.5689  10.6253
    10.6553  10.7116  10.7841  10.8090  10.8777  11.0441  11.1860  11.2678
    15.3314  15.4381  15.4757  15.5575  15.6291  15.7099  15.7661  15.7896
    15.8642  15.9256  15.9927  16.0476  16.1021  16.1424  16.1866  16.2947
    17.5399  17.5759  17.6061

          k = 0.4243 0.1414-0.4243 ( 11002 PWs)   bands (ev):

   -36.6555 -36.6419 -36.5598 -36.5444 -36.4767 -36.4347 -36.3534 -36.3288
   -14.9458 -14.8982 -14.8838 -14.8648 -14.8527 -14.8311 -14.7793 -14.7263
   -14.6930 -14.6400 -14.6201 -14.5892 -14.5685 -14.5243 -14.5127 -14.4999
   -14.4852 -14.4706 -14.4202 -14.4051 -14.3933 -14.3864 -14.3791 -14.2884
    -5.7341  -5.6274  -5.2398  -5.1256  -5.0690  -5.0162  -4.9539  -4.9083
    -4.7230  -4.6563  -4.5998  -4.5708  -4.4768  -4.4112  -4.2835  -4.2208
     6.7330   6.8974   6.9366   7.0109   7.0344   7.1013   7.1687   7.1980
     7.2552   7.3524   7.6011   7.7423   7.7643   7.7876   7.8392   7.9523
     8.0137   8.1736   8.2317   8.3160   8.3550   8.5504   8.6183   8.6504
     9.1410   9.3843   9.4660   9.6046   9.7274   9.8298   9.9546  10.0817
    10.1517  10.2029  10.2646  10.3806  10.4501  10.5384  10.5886  10.6607
    10.6832  10.7309  10.7860  10.8487  10.9129  10.9924  11.1622  11.2659
    15.3327  15.4516  15.4825  15.5825  15.6414  15.6805  15.7239  15.7647
    15.8867  15.9328  15.9539  16.0666  16.0964  16.1524  16.2095  16.3305
    17.4970  17.5648  17.5817

          k =-0.4243 0.1414 0.4243 ( 11002 PWs)   bands (ev):

   -36.6557 -36.6419 -36.5593 -36.5444 -36.4771 -36.4348 -36.3533 -36.3287
   -14.9540 -14.9084 -14.8882 -14.8730 -14.8384 -14.7957 -14.7586 -14.7367
   -14.7015 -14.6555 -14.6109 -14.5908 -14.5712 -14.5403 -14.5216 -14.4896
   -14.4854 -14.4675 -14.4358 -14.4186 -14.3916 -14.3799 -14.3587 -14.2865
    -5.7333  -5.6107  -5.2667  -5.1245  -5.0872  -5.0094  -4.9646  -4.8783
    -4.7189  -4.6731  -4.5878  -4.5709  -4.4858  -4.4015  -4.2835  -4.2180
     6.7289   6.9089   6.9359   7.0038   7.0518   7.0999   7.1591   7.2128
     7.2329   7.3369   7.6143   7.7154   7.7485   7.7911   7.8500   7.9250
     8.0226   8.1530   8.2175   8.3058   8.3718   8.5525   8.6404   8.6841
     9.0971   9.3771   9.5249   9.6130   9.7292   9.8290   9.9742  10.0660
    10.1698  10.2040  10.2530  10.3883  10.4703  10.5301  10.6002  10.6458
    10.6765  10.7469  10.7793  10.8393  10.8920  11.0162  11.1534  11.2715
    15.3137  15.4710  15.4860  15.5540  15.6487  15.6851  15.7510  15.7767
    15.8559  15.9385  15.9841  16.0564  16.0908  16.1428  16.1752  16.3269
    17.4961  17.5692  17.6326

          k = 0.4243-0.1414 0.4243 ( 11002 PWs)   bands (ev):

   -36.6520 -36.6464 -36.5550 -36.5481 -36.4764 -36.4359 -36.3515 -36.3300
   -14.9263 -14.9216 -14.8827 -14.8746 -14.8498 -14.8257 -14.7730 -14.7421
   -14.6886 -14.6478 -14.6231 -14.5470 -14.5433 -14.5276 -14.5219 -14.5200
   -14.5025 -14.4630 -14.4502 -14.4209 -14.3791 -14.3559 -14.3439 -14.3275
    -5.7379  -5.6150  -5.2354  -5.1323  -5.0717  -5.0383  -4.9505  -4.8896
    -4.7066  -4.6872  -4.5840  -4.5663  -4.4845  -4.4275  -4.2721  -4.2182
     6.7240   6.9240   6.9543   6.9945   7.0280   7.0813   7.1506   7.2102
     7.2518   7.3571   7.6235   7.7107   7.7540   7.8221   7.8814   7.9545
     8.0321   8.1382   8.2139   8.2882   8.3547   8.5461   8.5759   8.7061
     9.1160   9.3522   9.4797   9.6276   9.7594   9.8304   9.9608  10.0578
    10.1526  10.2618  10.3032  10.3672  10.4896  10.5118  10.5893  10.6326
    10.6655  10.6916  10.7725  10.8234  10.9129  11.0371  11.1691  11.2562
    15.3321  15.4125  15.5244  15.5665  15.6185  15.7139  15.7444  15.7932
    15.8683  15.9097  16.0172  16.0312  16.0870  16.1349  16.2130  16.2883
    17.5390  17.5720  17.6286

          k = 0.4243 0.4243-0.1414 ( 11002 PWs)   bands (ev):

   -36.6544 -36.6431 -36.5589 -36.5457 -36.4762 -36.4349 -36.3528 -36.3293
   -14.9313 -14.9059 -14.8832 -14.8625 -14.8598 -14.8343 -14.7737 -14.7432
   -14.6857 -14.6466 -14.6339 -14.5849 -14.5619 -14.5344 -14.5147 -14.4906
   -14.4700 -14.4509 -14.4259 -14.4069 -14.3929 -14.3864 -14.3689 -14.3098
    -5.7380  -5.6217  -5.2590  -5.1234  -5.0379  -5.0142  -4.9570  -4.9221
    -4.7152  -4.6642  -4.6315  -4.5408  -4.4709  -4.4156  -4.2829  -4.2218
     6.7240   6.9210   6.9407   6.9889   7.0500   7.0820   7.1828   7.2095
     7.2579   7.3151   7.6166   7.6994   7.7596   7.8011   7.8659   7.9699
     8.0480   8.1188   8.2456   8.2821   8.3709   8.5468   8.6166   8.7256
     9.0533   9.3607   9.4468   9.6481   9.7394   9.8877   9.9489  10.0579
    10.1352  10.1986  10.3707  10.3951  10.4341  10.5371  10.5705  10.6336
    10.6655  10.7014  10.7767  10.8532  10.9080  10.9892  11.1494  11.2885
    15.3807  15.4151  15.5007  15.5617  15.5989  15.6853  15.7484  15.7935
    15.8443  15.9182  15.9666  16.0840  16.1098  16.1756  16.2043  16.3049
    17.5105  17.5557  17.6006

          k =-0.4243 0.4243 0.1414 ( 11002 PWs)   bands (ev):

   -36.6547 -36.6431 -36.5581 -36.5457 -36.4767 -36.4351 -36.3527 -36.3293
   -14.9435 -14.9173 -14.8915 -14.8606 -14.8455 -14.8060 -14.7668 -14.7206
   -14.6822 -14.6659 -14.6390 -14.6079 -14.5712 -14.5336 -14.5001 -14.4904
   -14.4714 -14.4490 -14.4391 -14.4231 -14.4107 -14.3724 -14.3414 -14.3097
    -5.7344  -5.6062  -5.2672  -5.1145  -5.0850  -5.0323  -4.9715  -4.8614
    -4.7268  -4.6623  -4.6120  -4.5590  -4.4743  -4.4072  -4.2840  -4.2162
     6.7145   6.9304   6.9685   7.0074   7.0489   7.0816   7.1713   7.1854
     7.2310   7.3188   7.6369   7.6942   7.7569   7.7953   7.8472   7.9626
     8.0327   8.1016   8.2098   8.2685   8.3917   8.5657   8.6113   8.7195
     9.0548   9.4008   9.5375   9.6402   9.7444   9.8259   9.9376  10.0771
    10.1635  10.2639  10.3240  10.3805  10.4341  10.5379  10.5806  10.6247
    10.6606  10.7387  10.7774  10.8028  10.9156  10.9963  11.1510  11.2860
    15.3648  15.4258  15.4810  15.5732  15.6382  15.6804  15.7270  15.7946
    15.8466  15.9504  15.9968  16.0399  16.0759  16.1427  16.2073  16.3106
    17.5096  17.5874  17.6056

          k = 0.4243-0.4243 0.1414 ( 11002 PWs)   bands (ev):

   -36.6521 -36.6461 -36.5554 -36.5482 -36.4762 -36.4357 -36.3515 -36.3301
   -14.9222 -14.9177 -14.8844 -14.8801 -14.8512 -14.8257 -14.7793 -14.7183
   -14.6881 -14.6609 -14.6242 -14.5934 -14.5610 -14.5222 -14.5109 -14.4965
   -14.4822 -14.4590 -14.4374 -14.4081 -14.3774 -14.3706 -14.3541 -14.3332
    -5.7361  -5.6122  -5.2467  -5.1310  -5.0563  -5.0359  -4.9714  -4.8846
    -4.7069  -4.6769  -4.6053  -4.5522  -4.4900  -4.4206  -4.2696  -4.2209
     6.7269   6.9100   6.9436   6.9848   7.0393   7.1192   7.1798   7.2008
     7.2588   7.3279   7.6437   7.6909   7.7553   7.8097   7.8642   7.9529
     8.0589   8.1035   8.1978   8.2776   8.3923   8.5255   8.5805   8.6670
     9.1419   9.3985   9.5382   9.6605   9.6938   9.8484   9.9608  10.0420
    10.1346  10.2166  10.3303  10.4018  10.4529  10.5158  10.5528  10.6393
    10.6818  10.7274  10.7610  10.8259  10.9497  11.0006  11.1627  11.2470
    15.3738  15.4070  15.5224  15.5463  15.6499  15.6681  15.7527  15.7695
    15.8586  15.9255  16.0097  16.0409  16.0868  16.1320  16.2240  16.2907
    17.5369  17.5756  17.6064

          k =-0.4243-0.4243-0.1414 ( 11002 PWs)   bands (ev):

   -36.6520 -36.6461 -36.5555 -36.5482 -36.4761 -36.4357 -36.3515 -36.3301
   -14.9225 -14.9118 -14.8992 -14.8828 -14.8330 -14.8218 -14.7698 -14.7281
   -14.7062 -14.6508 -14.6364 -14.5939 -14.5519 -14.5224 -14.5167 -14.4920
   -14.4846 -14.4537 -14.4335 -14.4191 -14.3787 -14.3624 -14.3514 -14.3354
    -5.7425  -5.6101  -5.2747  -5.1216  -5.0566  -5.0210  -4.9488  -4.8781
    -4.7431  -4.6864  -4.6085  -4.5481  -4.4636  -4.4106  -4.2811  -4.2198
     6.7241   6.9094   6.9379   7.0011   7.0475   7.0763   7.1630   7.1982
     7.2551   7.3165   7.6326   7.7254   7.7590   7.7984   7.8259   7.9807
     8.0451   8.1157   8.2698   8.3149   8.3699   8.5270   8.5937   8.6822
     9.0838   9.4008   9.4497   9.6514   9.7466   9.8782   9.9293  10.0629
    10.1531  10.2361  10.3486  10.3894  10.4294  10.5154  10.5766  10.6357
    10.6668  10.6975  10.7882  10.8601  10.9270  10.9816  11.1254  11.2990
    15.3734  15.4246  15.4744  15.5199  15.6530  15.6777  15.7751  15.7949
    15.8406  15.9381  16.0055  16.0587  16.1050  16.1425  16.1722  16.3085
    17.5084  17.5850  17.6155

          k =-0.0000 0.2828 0.2828 ( 11007 PWs)   bands (ev):

   -36.6552 -36.6433 -36.5583 -36.5454 -36.4765 -36.4352 -36.3523 -36.3291
   -14.9809 -14.9652 -14.9465 -14.9251 -14.8967 -14.8717 -14.8464 -14.6553
   -14.6199 -14.5920 -14.5778 -14.5608 -14.5513 -14.5369 -14.4949 -14.4822
   -14.4694 -14.4501 -14.4126 -14.3997 -14.3872 -14.3569 -14.3326 -14.3036
    -6.0494  -5.5000  -5.3383  -5.2648  -5.2034  -5.0798  -5.0029  -4.9134
    -4.5980  -4.5644  -4.5169  -4.4571  -4.4103  -4.3649  -4.2529  -4.0778
     6.3252   6.4637   6.5095   6.8132   6.8739   7.1966   7.2322   7.2981
     7.3417   7.3625   7.5379   7.6351   7.8416   7.8868   8.0256   8.0677
     8.3075   8.3752   8.4149   8.4696   8.5214   8.5855   8.7013   8.9311
     9.1704   9.2705   9.6560   9.6939   9.7942   9.9478   9.9764  10.0197
    10.0859  10.1806  10.2318  10.3114  10.4233  10.4709  10.5154  10.5619
    10.6354  10.6506  10.7370  10.7498  11.0443  11.1164  11.2274  11.4887
    15.2356  15.3426  15.4227  15.4918  15.5893  15.6333  15.6671  15.7227
    15.7873  15.8338  15.9112  15.9932  16.0312  16.1225  16.1566  16.3105
    17.3795  17.4637  17.4828

          k =-0.2828 0.0000-0.2828 ( 11007 PWs)   bands (ev):

   -36.6527 -36.6461 -36.5559 -36.5478 -36.4758 -36.4357 -36.3512 -36.3300
   -14.9713 -14.9632 -14.9447 -14.9352 -14.8914 -14.8667 -14.8640 -14.6919
   -14.6278 -14.6097 -14.5499 -14.5324 -14.5268 -14.5178 -14.4996 -14.4869
   -14.4687 -14.4415 -14.4289 -14.4055 -14.3786 -14.3517 -14.3403 -14.3211
    -6.0525  -5.4703  -5.3713  -5.2692  -5.2090  -5.0680  -4.9834  -4.9133
    -4.6344  -4.5653  -4.4804  -4.4663  -4.4102  -4.3473  -4.2864  -4.0691
     6.3178   6.4382   6.5424   6.7975   6.8901   7.1888   7.2484   7.3137
     7.3614   7.4626   7.5091   7.5657   7.8096   7.8773   8.0361   8.1033
     8.2645   8.3463   8.3676   8.4338   8.5118   8.6698   8.8231   8.9088
     9.1015   9.2094   9.6452   9.7483   9.7906   9.9474  10.0026  10.1210
    10.1796  10.2347  10.2727  10.3163  10.3467  10.4438  10.4729  10.5123
    10.5806  10.6111  10.6709  10.7416  11.0088  11.0820  11.2822  11.5603
    15.2004  15.3782  15.4170  15.5097  15.5830  15.6110  15.7057  15.7313
    15.7682  15.8618  15.8858  15.9702  16.0251  16.1290  16.1676  16.3060
    17.3960  17.4537  17.4989

          k = 0.2828-0.0000-0.2828 ( 11007 PWs)   bands (ev):

   -36.6561 -36.6419 -36.5601 -36.5445 -36.4763 -36.4345 -36.3531 -36.3287
   -14.9878 -14.9548 -14.9453 -14.9189 -14.9011 -14.8699 -14.8536 -14.6641
   -14.6411 -14.6233 -14.5754 -14.5371 -14.5205 -14.5048 -14.4960 -14.4863
   -14.4543 -14.4435 -14.4308 -14.4024 -14.3847 -14.3772 -14.3585 -14.2843
    -6.0514  -5.4735  -5.3814  -5.2615  -5.1921  -5.0730  -4.9882  -4.9252
    -4.6127  -4.5649  -4.4940  -4.4603  -4.4267  -4.3332  -4.2850  -4.0728
     6.3206   6.4573   6.5272   6.8050   6.8633   7.2113   7.2440   7.3181
     7.4023   7.4496   7.4789   7.5386   7.8082   7.9031   8.0502   8.0632
     8.2907   8.3546   8.3851   8.4299   8.4831   8.6542   8.7627   8.9964
     9.1129   9.1902   9.6753   9.7510   9.8112   9.8973   9.9928  10.0833
    10.1669  10.2126  10.2370  10.3386  10.4165  10.4350  10.5104  10.5257
    10.5725  10.6111  10.6556  10.7369  11.0017  11.1120  11.2754  11.5488
    15.1953  15.4178  15.4337  15.4907  15.5446  15.6024  15.6956  15.7188
    15.7901  15.8559  15.9177  15.9497  16.0211  16.1134  16.1887  16.3328
    17.3965  17.4263  17.4789

          k = 0.2828 0.2828 0.0000 ( 11007 PWs)   bands (ev):

   -36.6550 -36.6433 -36.5587 -36.5454 -36.4761 -36.4351 -36.3524 -36.3291
   -14.9738 -14.9586 -14.9446 -14.9354 -14.8993 -14.8728 -14.8558 -14.6720
   -14.6172 -14.5907 -14.5725 -14.5531 -14.5415 -14.5186 -14.5096 -14.4902
   -14.4648 -14.4442 -14.4110 -14.3928 -14.3841 -14.3623 -14.3455 -14.3050
    -6.0536  -5.4596  -5.4154  -5.2512  -5.1773  -5.0498  -5.0213  -4.9109
    -4.6229  -4.5641  -4.5131  -4.4506  -4.4030  -4.3499  -4.2797  -4.0739
     6.3170   6.4720   6.5147   6.7877   6.8784   7.2145   7.2556   7.3329
     7.3739   7.4579   7.4931   7.5372   7.8199   7.8362   8.0563   8.0929
     8.2495   8.3650   8.3986   8.4580   8.5003   8.6408   8.8427   8.8636
     9.1263   9.1956   9.6683   9.7857   9.8188   9.9640  10.0076  10.0382
    10.1788  10.2082  10.2772  10.3107  10.3714  10.4237  10.4835  10.4967
    10.5603  10.6275  10.6834  10.7863  10.9936  11.0791  11.2646  11.5517
    15.2458  15.3896  15.4231  15.4505  15.5291  15.6322  15.6717  15.7319
    15.7769  15.8964  15.9116  15.9946  16.0444  16.1185  16.1478  16.3130
    17.3871  17.4223  17.4966

          k =-0.2828 0.2828-0.0000 ( 11007 PWs)   bands (ev):

   -36.6552 -36.6433 -36.5583 -36.5454 -36.4764 -36.4352 -36.3523 -36.3291
   -14.9768 -14.9601 -14.9560 -14.9207 -14.9023 -14.8667 -14.8581 -14.6493
   -14.6194 -14.5862 -14.5775 -14.5568 -14.5494 -14.5393 -14.4939 -14.4849
   -14.4701 -14.4540 -14.4157 -14.3945 -14.3886 -14.3553 -14.3309 -14.3092
    -6.0512  -5.4484  -5.3989  -5.2546  -5.2169  -5.0533  -5.0104  -4.9076
    -4.6205  -4.5650  -4.4946  -4.4588  -4.4120  -4.3565  -4.2775  -4.0699
     6.3140   6.4830   6.5103   6.7909   6.8915   7.2105   7.2374   7.3018
     7.4087   7.4420   7.5081   7.5711   7.7986   7.8415   8.0621   8.0715
     8.2627   8.3296   8.3801   8.3988   8.5188   8.6515   8.8197   8.9388
     9.1310   9.1830   9.7313   9.7759   9.7970   9.9511   9.9751  10.0569
    10.1546  10.2541  10.2905  10.3495  10.3749  10.4169  10.4810  10.5157
    10.5430  10.6038  10.6866  10.7478  10.9977  11.0887  11.2808  11.5375
    15.2358  15.3742  15.4392  15.4580  15.5517  15.6287  15.6799  15.7102
    15.8158  15.8847  15.9325  15.9627  15.9941  16.1202  16.1516  16.3135
    17.3702  17.4493  17.4945

          k = 0.0000 0.5657 0.0000 ( 10982 PWs)   bands (ev):

   -36.6556 -36.6422 -36.5584 -36.5440 -36.4777 -36.4354 -36.3533 -36.3285
   -14.9246 -14.8993 -14.8915 -14.8588 -14.8448 -14.7939 -14.7814 -14.6889
   -14.6722 -14.6393 -14.6217 -14.5959 -14.5763 -14.5640 -14.5397 -14.5211
   -14.5047 -14.4845 -14.4778 -14.4141 -14.3949 -14.3503 -14.3355 -14.2912
    -5.7594  -5.3738  -5.3003  -5.2000  -5.0699  -5.0400  -4.9670  -4.8444
    -4.7558  -4.6909  -4.6409  -4.5588  -4.4685  -4.4053  -4.3130  -4.2303
     6.6580   6.7138   6.9439   6.9775   7.0206   7.0627   7.2484   7.2699
     7.3786   7.4866   7.5675   7.5883   7.6894   7.9348   7.9696   8.0484
     8.1126   8.1689   8.5098   8.5765   8.6369   8.6712   8.7694   9.1146
     9.1476   9.2348   9.2656   9.3108   9.3872   9.3926   9.5633   9.6688
     9.6978   9.7730   9.7935   9.9051  10.2829  10.3509  10.7794  10.8246
    10.9025  10.9908  11.1402  11.1825  11.2136  11.2433  11.5199  11.5830
    15.2667  15.3099  15.4045  15.4310  15.4761  15.6429  15.7506  15.7852
    15.8894  15.9633  16.0752  16.1438  16.2333  16.2712  16.3396  16.3858
    17.4425  17.4914  17.6952

          k = 0.0000 0.0000 0.5657 ( 10982 PWs)   bands (ev):

   -36.6520 -36.6458 -36.5559 -36.5484 -36.4758 -36.4354 -36.3517 -36.3302
   -14.9076 -14.8866 -14.8708 -14.8624 -14.8291 -14.8165 -14.8014 -14.7190
   -14.7112 -14.6856 -14.6472 -14.6148 -14.5656 -14.5430 -14.4927 -14.4727
   -14.4622 -14.4537 -14.4342 -14.4175 -14.3916 -14.3736 -14.3618 -14.3459
    -5.7554  -5.3729  -5.2977  -5.1983  -5.1037  -5.0521  -4.9109  -4.8592
    -4.7664  -4.6964  -4.6407  -4.5715  -4.4466  -4.3905  -4.3254  -4.2295
     6.6641   6.6981   6.9075   6.9941   7.0454   7.0665   7.2150   7.3037
     7.3536   7.4966   7.5867   7.6174   7.6521   7.8846   7.9846   8.0338
     8.1537   8.1878   8.5180   8.5753   8.6568   8.6786   8.7504   9.0694
     9.1667   9.2310   9.2720   9.2883   9.3604   9.3991   9.5766   9.6384
     9.7277   9.7958   9.8464   9.9181  10.2623  10.3109  10.7125  10.8833
    10.9482  10.9669  11.1145  11.1610  11.2095  11.2302  11.5688  11.5926
    15.2623  15.3280  15.4065  15.4512  15.5400  15.5991  15.6815  15.7477
    15.8698  15.9818  16.0400  16.1916  16.2487  16.2947  16.3265  16.3991
    17.4579  17.5104  17.7205

          k = 0.0000 0.5657 0.5657 ( 11036 PWs)   bands (ev):

   -36.6519 -36.6458 -36.5557 -36.5484 -36.4760 -36.4355 -36.3518 -36.3303
   -14.8879 -14.8761 -14.8414 -14.8257 -14.8073 -14.7860 -14.7647 -14.7390
   -14.7313 -14.7251 -14.6942 -14.6417 -14.5838 -14.5216 -14.4910 -14.4809
   -14.4658 -14.4564 -14.4333 -14.4269 -14.4050 -14.3910 -14.3664 -14.3367
    -5.5979  -5.4286  -5.2556  -5.1966  -5.1355  -4.9951  -4.9387  -4.8628
    -4.7497  -4.6962  -4.6337  -4.5507  -4.5043  -4.4559  -4.3644  -4.2578
     6.9057   6.9170   6.9770   7.0564   7.1116   7.1630   7.1819   7.2142
     7.3544   7.4238   7.5011   7.5305   7.6185   7.8860   7.9312   7.9725
     8.0992   8.2721   8.3299   8.4288   8.5863   8.6941   8.8915   8.9286
     9.0099   9.0655   9.1068   9.1679   9.4192   9.4915   9.5387   9.5796
     9.6361  10.0113  10.0389  10.3008  10.4114  10.4661  10.6764  10.8422
    10.8803  10.9901  11.0689  11.1514  11.2066  11.2433  11.3588  11.4362
    15.2930  15.3284  15.4387  15.5130  15.5743  15.6152  15.7161  15.8108
    15.9381  15.9897  16.1188  16.1679  16.1980  16.2481  16.2787  16.3992
    17.6018  17.6373  17.7848

          k =-0.5657 0.0000-0.5657 ( 11036 PWs)   bands (ev):

   -36.6544 -36.6435 -36.5571 -36.5453 -36.4774 -36.4357 -36.3527 -36.3291
   -14.8918 -14.8829 -14.8754 -14.8270 -14.7974 -14.7714 -14.7515 -14.7377
   -14.7172 -14.6927 -14.6577 -14.6216 -14.5679 -14.5586 -14.5303 -14.5119
   -14.5100 -14.4937 -14.4641 -14.4155 -14.4058 -14.3511 -14.3341 -14.3124
    -5.5272  -5.4922  -5.3559  -5.1955  -4.9974  -4.9542  -4.9382  -4.8395
    -4.7850  -4.7442  -4.6736  -4.5996  -4.4873  -4.4227  -4.3128  -4.2995
     6.8566   6.9441   6.9649   7.0664   7.1335   7.2036   7.2257   7.2571
     7.2958   7.3663   7.4294   7.5499   7.6275   7.9623   8.0393   8.0766
     8.0992   8.2179   8.2522   8.2915   8.5907   8.6690   8.8325   8.9059
     8.9386   9.0668   9.1329   9.2652   9.4565   9.4902   9.5206   9.6425
     9.7151   9.9189   9.9987  10.2877  10.4160  10.5402  10.7391  10.8673
    10.8815  10.9651  11.0115  11.0652  11.2044  11.3007  11.3461  11.4323
    15.2915  15.3567  15.4648  15.5025  15.5485  15.6814  15.7248  15.7791
    15.9250  15.9926  16.0695  16.1454  16.1910  16.2238  16.3595  16.3942
    17.5813  17.6721  17.7444

          k = 0.5657 0.0000-0.5657 ( 11036 PWs)   bands (ev):

   -36.6555 -36.6421 -36.5586 -36.5442 -36.4776 -36.4353 -36.3534 -36.3286
   -14.9160 -14.8640 -14.8464 -14.8339 -14.8192 -14.7869 -14.7467 -14.7110
   -14.6923 -14.6863 -14.6721 -14.6557 -14.5668 -14.5574 -14.5456 -14.5132
   -14.5045 -14.4790 -14.4606 -14.4107 -14.3953 -14.3712 -14.3539 -14.2908
    -5.5291  -5.4757  -5.3762  -5.1959  -5.0015  -4.9542  -4.9247  -4.8344
    -4.7884  -4.7465  -4.6733  -4.6041  -4.4869  -4.4162  -4.3215  -4.2958
     6.8600   6.9338   6.9641   7.0629   7.1457   7.1862   7.2350   7.2585
     7.3077   7.3863   7.4303   7.5477   7.6366   7.9429   7.9933   8.0480
     8.1019   8.1967   8.2618   8.3263   8.5952   8.7132   8.8282   8.8971
     8.9382   9.0818   9.1968   9.1983   9.4349   9.5154   9.5278   9.6398
     9.7385   9.8854   9.9523  10.2857  10.4551  10.5235  10.7672  10.8300
    10.8847  10.9704  11.0304  11.0708  11.2102  11.2806  11.3543  11.4297
    15.2773  15.3843  15.4507  15.5101  15.5548  15.6695  15.7225  15.7774
    15.9341  15.9771  16.0677  16.1473  16.1950  16.2277  16.3341  16.4272
    17.5271  17.6709  17.8051

          k = 0.5657 0.5657 0.0000 ( 11036 PWs)   bands (ev):

   -36.6517 -36.6459 -36.5558 -36.5485 -36.4759 -36.4355 -36.3518 -36.3303
   -14.8815 -14.8574 -14.8477 -14.8209 -14.8002 -14.7956 -14.7761 -14.7535
   -14.7413 -14.7107 -14.7011 -14.6313 -14.5819 -14.5358 -14.5049 -14.4772
   -14.4673 -14.4554 -14.4279 -14.4202 -14.3921 -14.3831 -14.3713 -14.3454
    -5.5215  -5.4495  -5.4272  -5.1716  -5.0128  -4.9427  -4.9335  -4.8277
    -4.7988  -4.7242  -4.7085  -4.6109  -4.4627  -4.4026  -4.3309  -4.2984
     6.8534   6.9511   6.9704   7.0454   7.1194   7.1849   7.2134   7.2673
     7.3294   7.3798   7.4653   7.5026   7.6424   7.9606   8.0069   8.0611
     8.1322   8.1701   8.2405   8.3401   8.6472   8.7124   8.7607   8.8642
     8.9671   9.0866   9.1591   9.2189   9.4378   9.4983   9.5369   9.6367
     9.7101   9.9655   9.9962  10.3463  10.3767  10.4834  10.7101  10.8845
    10.9208  10.9430  10.9910  11.0884  11.1840  11.2473  11.3876  11.4618
    15.3038  15.3917  15.4446  15.5285  15.6020  15.6099  15.6825  15.7662
    15.8777  15.9655  16.0849  16.1878  16.2156  16.2738  16.3129  16.4146
    17.5802  17.6507  17.8274

          k =-0.5657 0.5657 0.0000 ( 11036 PWs)   bands (ev):

   -36.6518 -36.6459 -36.5555 -36.5486 -36.4760 -36.4355 -36.3517 -36.3303
   -14.8861 -14.8671 -14.8407 -14.8226 -14.8034 -14.7829 -14.7619 -14.7535
   -14.7409 -14.7242 -14.6907 -14.6415 -14.5917 -14.5282 -14.4960 -14.4777
   -14.4695 -14.4541 -14.4348 -14.4244 -14.3998 -14.3764 -14.3689 -14.3425
    -5.5150  -5.4472  -5.4282  -5.1661  -5.0413  -4.9545  -4.8932  -4.8753
    -4.7671  -4.7287  -4.6811  -4.6285  -4.4725  -4.4003  -4.3230  -4.3015
     6.8467   6.9498   6.9815   7.0351   7.1363   7.1927   7.2159   7.2805
     7.3084   7.3828   7.4766   7.5109   7.6173   7.9874   8.0041   8.0589
     8.1218   8.1443   8.2463   8.2874   8.6028   8.6762   8.8179   8.9063
     8.9500   9.1042   9.2096   9.2715   9.4411   9.4866   9.5167   9.6341
     9.7029   9.9073   9.9903  10.3614  10.4131  10.4749  10.7141  10.8765
    10.9115  10.9664  11.0011  11.0517  11.1739  11.2677  11.3910  11.4554
    15.3105  15.3728  15.4750  15.5162  15.5894  15.6443  15.6737  15.7537
    15.8571  15.9810  16.0832  16.1868  16.2006  16.2730  16.3333  16.4033
    17.6116  17.6453  17.7941

          k = 0.1414-0.4243-0.7071 ( 10988 PWs)   bands (ev):

   -36.6520 -36.6458 -36.5557 -36.5484 -36.4759 -36.4354 -36.3517 -36.3302
   -14.9048 -14.8806 -14.8687 -14.8415 -14.8223 -14.8049 -14.7880 -14.7303
   -14.7123 -14.6827 -14.6731 -14.6617 -14.5374 -14.5198 -14.5029 -14.4727
   -14.4665 -14.4474 -14.4326 -14.4318 -14.3969 -14.3811 -14.3658 -14.3454
    -5.6892  -5.4043  -5.3541  -5.1422  -5.0617  -5.0237  -4.9476  -4.8940
    -4.7654  -4.6590  -4.6075  -4.5786  -4.4845  -4.4263  -4.3473  -4.2352
     6.7474   6.9051   6.9684   7.0549   7.0983   7.1807   7.1998   7.2254
     7.3540   7.4939   7.5098   7.6075   7.7266   7.7799   7.7909   7.8923
     7.9457   8.2061   8.3096   8.4034   8.6573   8.7118   8.7860   8.9484
     9.0383   9.0715   9.1307   9.3342   9.4335   9.5160   9.6397   9.6821
     9.9876  10.0834  10.3188  10.3996  10.4763  10.5469  10.5979  10.7673
    10.8382  10.8512  10.9095  11.0130  11.0882  11.1516  11.2964  11.4085
    15.3267  15.4045  15.4466  15.4997  15.6199  15.6505  15.7394  15.7562
    15.9030  15.9713  16.0428  16.0819  16.1714  16.2093  16.3039  16.3401
    17.6210  17.6583  17.7077

          k =-0.4243-0.1414-0.7071 ( 10988 PWs)   bands (ev):

   -36.6544 -36.6433 -36.5578 -36.5455 -36.4769 -36.4354 -36.3527 -36.3292
   -14.9085 -14.8856 -14.8759 -14.8474 -14.8282 -14.7851 -14.7761 -14.7479
   -14.7005 -14.6661 -14.6321 -14.6224 -14.5751 -14.5402 -14.5242 -14.5093
   -14.4921 -14.4755 -14.4427 -14.4085 -14.3983 -14.3687 -14.3515 -14.3092
    -5.6773  -5.4272  -5.3694  -5.1915  -5.0087  -4.9786  -4.9209  -4.8477
    -4.7681  -4.7295  -4.6404  -4.6161  -4.4644  -4.4061  -4.3157  -4.2591
     6.7468   6.9095   6.9448   7.0155   7.0540   7.1938   7.2672   7.2844
     7.3273   7.5380   7.5707   7.6004   7.6968   7.7599   7.7854   7.8623
     7.9051   8.2025   8.3886   8.4756   8.5950   8.6745   8.7825   8.9172
     8.9902   9.0717   9.1745   9.1987   9.4314   9.5002   9.6677   9.7858
    10.0831  10.1390  10.3366  10.3925  10.4850  10.5474  10.6195  10.6917
    10.7168  10.7740  10.9315  10.9912  11.1480  11.2072  11.2646  11.4273
    15.3500  15.4158  15.4461  15.5253  15.5767  15.6557  15.7017  15.8245
    15.8943  15.9390  16.0083  16.1079  16.1523  16.2610  16.2982  16.3395
    17.6142  17.6576  17.7056

          k =-0.4243 0.1414 0.7071 ( 10988 PWs)   bands (ev):

   -36.6545 -36.6433 -36.5575 -36.5455 -36.4771 -36.4355 -36.3527 -36.3292
   -14.9122 -14.8884 -14.8731 -14.8531 -14.8315 -14.7877 -14.7718 -14.7097
   -14.6869 -14.6664 -14.6594 -14.6397 -14.5745 -14.5454 -14.5203 -14.5030
   -14.4934 -14.4812 -14.4369 -14.4139 -14.4000 -14.3653 -14.3488 -14.3092
    -5.6730  -5.4246  -5.3615  -5.1911  -5.0256  -4.9997  -4.9378  -4.7974
    -4.7810  -4.6992  -4.6711  -4.6068  -4.4786  -4.4044  -4.3135  -4.2556
     6.7379   6.9175   6.9658   7.0215   7.0387   7.1892   7.2503   7.2960
     7.3846   7.5066   7.5364   7.6581   7.6821   7.7413   7.7809   7.8678
     7.8921   8.1868   8.3085   8.4602   8.5459   8.7290   8.8497   8.9502
     9.0144   9.1101   9.1448   9.2578   9.4052   9.4577   9.6731   9.7362
    10.0642  10.1503  10.3441  10.4254  10.4719  10.5481  10.6168  10.6859
    10.7335  10.7914  10.9189  11.0004  11.1345  11.1983  11.2945  11.4036
    15.3485  15.4121  15.4505  15.5477  15.5750  15.6577  15.6988  15.7798
    15.9107  15.9458  16.0293  16.0958  16.1441  16.2487  16.3039  16.3337
    17.5961  17.6777  17.7071

          k = 0.7071 0.4243-0.1414 ( 10988 PWs)   bands (ev):

   -36.6518 -36.6458 -36.5561 -36.5483 -36.4757 -36.4354 -36.3517 -36.3303
   -14.8874 -14.8805 -14.8639 -14.8523 -14.8299 -14.8020 -14.7844 -14.7545
   -14.7281 -14.6800 -14.6725 -14.6361 -14.5361 -14.5145 -14.5052 -14.4793
   -14.4631 -14.4583 -14.4320 -14.4169 -14.3907 -14.3796 -14.3686 -14.3555
    -5.6710  -5.4960  -5.2447  -5.1664  -5.0891  -5.0145  -4.9387  -4.8689
    -4.7559  -4.6938  -4.6127  -4.5836  -4.4899  -4.4322  -4.3034  -4.2607
     6.7794   6.8780   6.9482   7.0517   7.0921   7.1456   7.2176   7.2662
     7.3708   7.4426   7.4977   7.6803   7.7168   7.7793   7.8090   7.8372
     7.9528   8.2539   8.3136   8.5137   8.6314   8.7524   8.7793   8.8508
     8.9900   9.0841   9.2331   9.2863   9.3625   9.4348   9.4973   9.8763
     9.9540  10.2242  10.2741  10.3805  10.4361  10.5129  10.6293  10.7309
    10.7917  10.8718  10.9708  11.0296  11.1193  11.2059  11.2445  11.3745
    15.3511  15.3986  15.4527  15.5188  15.6075  15.6521  15.7417  15.8029
    15.8306  15.9084  16.0348  16.1220  16.1773  16.2291  16.2863  16.3727
    17.6395  17.6629  17.6903

          k =-0.7071 0.4243 0.1414 ( 10988 PWs)   bands (ev):

   -36.6520 -36.6458 -36.5557 -36.5485 -36.4759 -36.4355 -36.3517 -36.3302
   -14.9068 -14.8852 -14.8603 -14.8503 -14.8066 -14.8021 -14.7744 -14.7360
   -14.7163 -14.6946 -14.6784 -14.6643 -14.5397 -14.5223 -14.5014 -14.4747
   -14.4607 -14.4469 -14.4372 -14.4254 -14.3992 -14.3855 -14.3603 -14.3429
    -5.6687  -5.4902  -5.2444  -5.1950  -5.0977  -4.9983  -4.9227  -4.8763
    -4.7487  -4.6973  -4.6277  -4.5908  -4.4641  -4.4314  -4.2979  -4.2679
     6.7943   6.8897   6.9337   7.0304   7.0888   7.1459   7.1938   7.2724
     7.3446   7.4392   7.5306   7.6668   7.7192   7.7670   7.8002   7.8737
     7.9711   8.2121   8.2988   8.5406   8.6333   8.7069   8.8010   8.9132
     8.9656   9.0689   9.1856   9.2983   9.3799   9.4747   9.5332   9.8543
     9.9125  10.2476  10.2926  10.3876  10.4355  10.5271  10.6469  10.7368
    10.7811  10.8514  10.9562  11.0302  11.1433  11.1938  11.2479  11.3690
    15.3352  15.3902  15.4608  15.5272  15.6093  15.6445  15.7397  15.7701
    15.8677  15.9396  16.0236  16.0867  16.2054  16.2347  16.2864  16.3536
    17.6171  17.6567  17.7018

          k = 0.1414 0.7071-0.4243 ( 10988 PWs)   bands (ev):

   -36.6544 -36.6431 -36.5583 -36.5457 -36.4766 -36.4351 -36.3528 -36.3293
   -14.9214 -14.8736 -14.8668 -14.8422 -14.8211 -14.8020 -14.7849 -14.7349
   -14.7145 -14.6884 -14.6507 -14.6091 -14.5745 -14.5257 -14.5113 -14.5010
   -14.4780 -14.4583 -14.4281 -14.4079 -14.4015 -14.3893 -14.3784 -14.3077
    -5.6893  -5.4389  -5.3207  -5.1212  -5.0897  -5.0106  -4.9618  -4.8636
    -4.7921  -4.6551  -4.6137  -4.5459  -4.5118  -4.4234  -4.3461  -4.2369
     6.7536   6.8963   6.9709   7.0269   7.1256   7.1487   7.2028   7.2557
     7.3521   7.4566   7.5396   7.5996   7.7269   7.7470   7.8133   7.8978
     7.9683   8.2219   8.3112   8.4449   8.6832   8.7266   8.8166   8.8773
     8.9887   9.0869   9.1453   9.2968   9.4171   9.4876   9.6300   9.7273
     9.9333  10.0975  10.2788  10.4402  10.5013  10.5462  10.6213  10.7336
    10.7871  10.8756  10.9512  11.0026  11.0970  11.1894  11.2972  11.3922
    15.3005  15.3867  15.4514  15.5506  15.5803  15.6576  15.7567  15.7782
    15.8680  15.9573  16.0701  16.1180  16.1458  16.1832  16.3153  16.3534
    17.6295  17.6597  17.6904

          k = 0.1414-0.7071 0.4243 ( 10988 PWs)   bands (ev):

   -36.6518 -36.6462 -36.5552 -36.5482 -36.4763 -36.4358 -36.3516 -36.3301
   -14.9000 -14.8926 -14.8672 -14.8476 -14.8247 -14.8027 -14.7697 -14.7620
   -14.7132 -14.6819 -14.6569 -14.5843 -14.5690 -14.5288 -14.5109 -14.4954
   -14.4881 -14.4609 -14.4457 -14.4182 -14.3866 -14.3767 -14.3475 -14.3407
    -5.6928  -5.4381  -5.3048  -5.1389  -5.0921  -5.0025  -4.9702  -4.8569
    -4.7840  -4.6727  -4.6098  -4.5376  -4.4996  -4.4447  -4.3438  -4.2326
     6.7488   6.9064   6.9886   7.0267   7.1120   7.1311   7.1923   7.2572
     7.3173   7.4819   7.5353   7.6269   7.7079   7.8105   7.8315   7.8834
     7.9166   8.2236   8.3594   8.4595   8.6407   8.7347   8.7647   8.9086
     8.9940   9.0482   9.1644   9.3067   9.4181   9.5097   9.5669   9.7558
     9.9775  10.0764  10.2803  10.4346  10.5081  10.5417  10.6284  10.7356
    10.7910  10.8832  10.9301  11.0113  11.0580  11.1897  11.3174  11.3953
    15.3117  15.3891  15.4546  15.5222  15.6024  15.6202  15.7576  15.8061
    15.8834  15.9726  16.0408  16.1011  16.1745  16.1928  16.2974  16.3332
    17.6276  17.6706  17.7429

          k =-0.4243 0.7071-0.1414 ( 10988 PWs)   bands (ev):

   -36.6518 -36.6462 -36.5551 -36.5483 -36.4763 -36.4358 -36.3516 -36.3301
   -14.8980 -14.8913 -14.8647 -14.8494 -14.8221 -14.7920 -14.7686 -14.7622
   -14.7183 -14.6961 -14.6528 -14.5899 -14.5728 -14.5293 -14.5169 -14.4940
   -14.4875 -14.4566 -14.4469 -14.4122 -14.3858 -14.3755 -14.3504 -14.3381
    -5.6742  -5.4458  -5.3270  -5.2083  -5.0314  -5.0042  -4.8864  -4.8476
    -4.7761  -4.6994  -4.6590  -4.6200  -4.4667  -4.4000  -4.3205  -4.2541
     6.7470   6.9078   6.9384   7.0091   7.0621   7.1760   7.2498   7.2978
     7.3632   7.5145   7.5628   7.6160   7.7141   7.7486   7.8056   7.8502
     7.9305   8.1744   8.3887   8.4689   8.5600   8.6940   8.7660   8.9271
     8.9998   9.0715   9.1561   9.2577   9.4154   9.4787   9.6568   9.8219
    10.0627  10.1405  10.3802  10.4234  10.5014  10.5222  10.5738  10.6448
    10.7098  10.8035  10.9140  11.0067  11.1236  11.2033  11.3230  11.4150
    15.3297  15.3896  15.4992  15.5379  15.6045  15.6632  15.6949  15.7711
    15.8672  15.9084  16.0545  16.1283  16.1535  16.2631  16.2823  16.3373
    17.6454  17.6731  17.6881

          k =-0.4243-0.7071 0.1414 ( 10988 PWs)   bands (ev):

   -36.6544 -36.6431 -36.5583 -36.5457 -36.4766 -36.4351 -36.3528 -36.3293
   -14.9207 -14.8735 -14.8568 -14.8431 -14.8292 -14.7895 -14.7822 -14.7311
   -14.7256 -14.6918 -14.6531 -14.6161 -14.5775 -14.5287 -14.5168 -14.4921
   -14.4791 -14.4604 -14.4253 -14.4077 -14.4011 -14.3882 -14.3739 -14.3080
    -5.6687  -5.4501  -5.3378  -5.2057  -5.0408  -4.9743  -4.9043  -4.8309
    -4.7839  -4.7121  -4.6557  -4.6152  -4.4647  -4.3983  -4.3204  -4.2576
     6.7535   6.8942   6.9229   7.0406   7.0701   7.2164   7.2311   7.2874
     7.3448   7.5149   7.5538   7.6300   7.6914   7.7597   7.8103   7.8375
     7.9066   8.1823   8.3051   8.4882   8.5913   8.7445   8.8570   8.8992
     8.9887   9.1165   9.1625   9.2132   9.3876   9.4589   9.6618   9.7620
    10.0323  10.1818  10.3959  10.4299  10.4881  10.5463  10.5970  10.6215
    10.7083  10.8028  10.9419  10.9916  11.1178  11.1937  11.3279  11.4172
    15.3370  15.4338  15.4603  15.5353  15.6033  15.6382  15.7111  15.7560
    15.8684  15.9251  16.0217  16.1325  16.1643  16.2324  16.3186  16.3545
    17.6193  17.6448  17.7063

          k = 0.7071-0.1414-0.4243 ( 10988 PWs)   bands (ev):

   -36.6545 -36.6433 -36.5575 -36.5455 -36.4771 -36.4354 -36.3527 -36.3292
   -14.9167 -14.8916 -14.8728 -14.8519 -14.8261 -14.7903 -14.7575 -14.7206
   -14.6960 -14.6677 -14.6601 -14.6290 -14.5722 -14.5401 -14.5218 -14.5091
   -14.4971 -14.4743 -14.4377 -14.4147 -14.4016 -14.3647 -14.3505 -14.3073
    -5.6720  -5.4905  -5.2512  -5.1835  -5.0711  -5.0053  -4.9766  -4.8323
    -4.7482  -4.7114  -4.6250  -4.5546  -4.5093  -4.4275  -4.2961  -4.2654
     6.7829   6.8885   6.9711   7.0243   7.0624   7.1402   7.2027   7.2841
     7.3439   7.4634   7.5134   7.6386   7.7336   7.7434   7.8302   7.8689
     7.9770   8.2175   8.2887   8.5842   8.6058   8.7462   8.7964   8.8677
     8.9470   9.0785   9.2477   9.2915   9.3677   9.4488   9.5158   9.8302
     9.9172  10.2197  10.2641  10.3581  10.5402  10.5603  10.6025  10.7153
    10.8058  10.8363  10.9588  11.0735  11.1316  11.2280  11.2728  11.3035
    15.3175  15.3919  15.4597  15.5220  15.6013  15.6546  15.7199  15.8000
    15.8958  15.9783  16.0089  16.0939  16.1640  16.2229  16.3033  16.3322
    17.6487  17.6767  17.7217

          k =-0.7071 0.1414-0.4243 ( 10988 PWs)   bands (ev):

   -36.6544 -36.6433 -36.5578 -36.5454 -36.4769 -36.4354 -36.3527 -36.3292
   -14.9019 -14.8891 -14.8758 -14.8552 -14.8286 -14.8032 -14.7665 -14.7443
   -14.7015 -14.6624 -14.6309 -14.6113 -14.5740 -14.5385 -14.5203 -14.5112
   -14.4966 -14.4766 -14.4423 -14.4090 -14.4006 -14.3673 -14.3526 -14.3116
    -5.6745  -5.5005  -5.2292  -5.1447  -5.1106  -5.0083  -4.9646  -4.8665
    -4.7409  -4.6761  -4.6381  -4.5551  -4.5099  -4.4455  -4.2966  -4.2610
     6.7828   6.8937   6.9842   7.0258   7.0425   7.1524   7.1846   7.3019
     7.3734   7.4447   7.5219   7.6695   7.6985   7.7613   7.7900   7.8801
     7.9701   8.2758   8.3059   8.5500   8.6411   8.6868   8.7711   8.8891
     8.9870   9.0681   9.2104   9.2688   9.3862   9.4171   9.5160   9.8617
     9.9440  10.2137  10.2507  10.3132  10.5257  10.5596  10.6312  10.7010
    10.8056  10.8494  10.9942  11.0458  11.1358  11.2134  11.2529  11.3291
    15.3333  15.3694  15.4751  15.5140  15.6087  15.6756  15.7108  15.7737
    15.9415  15.9694  15.9877  16.0744  16.1459  16.2351  16.3113  16.3575
    17.6002  17.6714  17.7157

     the Fermi energy is    13.2823 ev

!    total energy              =   -1463.47049436 Ry
     estimated scf accuracy    <          1.4E-09 Ry
     smearing contrib. (-TS)   =       0.00000000 Ry
     internal energy E=F+TS    =   -1463.47049436 Ry

     The total energy is F=E-TS. E is the sum of the following terms:
     one-electron contribution =    -204.18878072 Ry
     hartree contribution      =     221.97860126 Ry
     xc contribution           =    -262.41888799 Ry
     ewald contribution        =   -1066.64338421 Ry
     one-center paw contrib.   =    -152.19804270 Ry

     convergence has been achieved in  13 iterations

     negative rho (up, down):  5.226E-01 0.000E+00

     Forces acting on atoms (cartesian axes, Ry/au):

     atom    1 type  1   force =    -0.03676572   -0.02934113   -0.00783762
     atom    2 type  2   force =    -0.00002767   -0.01004831    0.01267480
     atom    3 type  2   force =    -0.01241301    0.01121982    0.00765991
     atom    4 type  1   force =     0.03499765   -0.01319555   -0.02084364
     atom    5 type  2   force =     0.00707721    0.00848453   -0.00573224
     atom    6 type  2   force =     0.02068129   -0.01991436   -0.00077602
     atom    7 type  1   force =     0.03509707   -0.02944255   -0.01362873
     atom    8 type  2   force =    -0.01222828    0.02489183    0.02341990
     atom    9 type  2   force =    -0.01709224    0.02870501    0.03948448
     atom   10 type  1   force =    -0.03876376    0.02632235   -0.01078907
     atom   11 type  2   force =     0.00471711    0.02585550    0.00667488
     atom   12 type  2   force =     0.00945490   -0.02139277   -0.00871939
     atom   13 type  1   force =    -0.05675657   -0.00888963    0.00710105
     atom   14 type  2   force =     0.02886909    0.01780234   -0.01770402
     atom   15 type  2   force =    -0.00231431   -0.00073032   -0.02074098
     atom   16 type  1   force =     0.04959870   -0.00007889    0.00217593
     atom   17 type  2   force =    -0.00198845   -0.03271781   -0.00007845
     atom   18 type  2   force =    -0.01357177    0.02539886    0.00320691
     atom   19 type  1   force =     0.03979198    0.03291121   -0.01289151
     atom   20 type  2   force =     0.02880507    0.00177425    0.01711808
     atom   21 type  2   force =     0.03472883   -0.03320397    0.03205014
     atom   22 type  1   force =    -0.04990414   -0.00899127   -0.01237613
     atom   23 type  2   force =    -0.04288016   -0.02551502   -0.00099772
     atom   24 type  2   force =    -0.00911283    0.03009586   -0.01845053

     Total force =     0.197745     Total SCF correction =     0.000067
     Message from routine punch:
     Nothing written, as per user request (disk_io='none')

     init_run     :     13.65s CPU     14.60s WALL (       1 calls)
     electrons    :    388.75s CPU    404.14s WALL (       1 calls)
     forces       :      5.11s CPU      5.34s WALL (       1 calls)

     Called by init_run:
     wfcinit      :     10.75s CPU     11.36s WALL (       1 calls)
     potinit      :      1.17s CPU      1.34s WALL (       1 calls)
     hinit0       :      1.15s CPU      1.21s WALL (       1 calls)

     Called by electrons:
     c_bands      :    334.52s CPU    346.60s WALL (      13 calls)
     sum_band     :     43.22s CPU     44.56s WALL (      13 calls)
     v_of_rho     :      6.19s CPU      7.29s WALL (      14 calls)
     newd         :      2.29s CPU      3.37s WALL (      14 calls)
     PAW_pot      :      1.94s CPU      1.94s WALL (      14 calls)
     mix_rho      :      0.54s CPU      0.54s WALL (      13 calls)

     Called by c_bands:
     init_us_2    :      7.17s CPU      7.24s WALL (     224 calls)
     cegterg      :    290.32s CPU    302.33s WALL (     104 calls)

     Called by *egterg:
     cdiaghg      :      9.40s CPU      9.41s WALL (     519 calls)
     h_psi        :    183.34s CPU    187.12s WALL (     527 calls)
     s_psi        :     24.31s CPU     24.32s WALL (     527 calls)
     g_psi        :      1.51s CPU      1.51s WALL (     415 calls)

     Called by h_psi:
     h_psi:calbec :     24.38s CPU     24.39s WALL (     527 calls)
     vloc_psi     :    133.65s CPU    133.99s WALL (     527 calls)
                                        0.00s GPU  (     527 calls)
     add_vuspsi   :     24.05s CPU     24.06s WALL (     527 calls)

     General routines
     calbec       :     35.08s CPU     35.09s WALL (     663 calls)
     fft          :      3.05s CPU      3.07s WALL (     191 calls)
     ffts         :      0.52s CPU      0.52s WALL (      27 calls)
     fftw         :    132.71s CPU    133.02s WALL (   76548 calls)
     interpolate  :      0.79s CPU      0.79s WALL (      14 calls)

     Parallel routines

     PWSCF        :   6m47.81s CPU   7m 4.46s WALL


   This run was terminated on:  15:12:55  27Sep2026            

=------------------------------------------------------------------------------=
   JOB DONE.
=------------------------------------------------------------------------------=
