
     Program PWSCF v.7.5 starts on  4Oct2026 at 23:13:15 

     This program is part of the open-source Quantum ESPRESSO suite
     for quantum simulation of materials; please cite
         "P. Giannozzi et al., J. Phys.:Condens. Matter 21 395502 (2009);
         "P. Giannozzi et al., J. Phys.:Condens. Matter 29 465901 (2017);
         "P. Giannozzi et al., J. Chem. Phys. 152 154105 (2020);
          URL http://www.quantum-espresso.org", 
     in publications or presentations arising from this work. More details at
     http://www.quantum-espresso.org/quote

     Parallel version (MPI & OpenMP), running on       8 processor cores
     Number of MPI processes:                 8
     Threads/MPI process:                     1

     MPI processes distributed on     1 nodes
     103175 MiB available memory on the printing compute node when the environment starts

     Reading input from pw.in

     Current dimensions of program PWSCF are:
     Max number of different atomic species (ntypx) = 10
     Max number of k-points (npk) =  40000
     Max angular momentum in pseudopotentials (lmaxx) =  4
     file Ba.pbe-spn-kjpaw_psl.1.0.0.UPF: wavefunction(s)  5S 6S renormalized
     file O.pbe-n-kjpaw_psl.0.1.UPF: wavefunction(s)  2P renormalized

     K-points division:     npool     =       8
     Subspace diagonalization in iterative solution of the eigenvalue problem:
     a serial algorithm will be used


     G-vector sticks info
     --------------------
     sticks:   dense  smooth     PW     G-vecs:    dense   smooth      PW
     Sum        3717    1855    547               120005    42425    6649

     Using Slab Decomposition



     bravais-lattice index     =            0
     lattice parameter (alat)  =      15.2544  a.u.
     unit-cell volume          =     887.4155 (a.u.)^3
     number of atoms/cell      =           10
     number of atomic types    =            3
     number of electrons       =        80.00
     number of Kohn-Sham states=           48
     kinetic-energy cutoff     =      50.0000  Ry
     charge density cutoff     =     400.0000  Ry
     scf convergence threshold =      1.0E-09
     mixing beta               =       0.4000
     number of iterations used =            8  plain     mixing
     Exchange-correlation= SLA  PW   PBX  PBC
                           (   1   4   3   4   0   0   0)

     celldm(1)=  15.254415  celldm(2)=   0.000000  celldm(3)=   0.000000
     celldm(4)=   0.000000  celldm(5)=   0.000000  celldm(6)=   0.000000

     crystal axes: (cart. coord. in units of alat)
               a(1) = (  -0.000000   0.000000   1.000000 )  
               a(2) = (   0.000000  -0.500000  -0.000000 )  
               a(3) = (   0.500000  -0.000000  -0.000000 )  

     reciprocal axes: (cart. coord. in units 2 pi/alat)
               b(1) = (  0.000000 -0.000000  1.000000 )  
               b(2) = ( -0.000000 -1.999999  0.000000 )  
               b(3) = (  1.999999  0.000000  0.000000 )  


     PseudoPot. # 1 for Ba read from file:
     /root/sssp/Ba.pbe-spn-kjpaw_psl.1.0.0.UPF
     MD5 check sum: c432291d3e53af55f19d5e8866385beb
     Pseudo is Projector augmented-wave + core cor, Zval = 10.0
     Generated using "atomic" code by A. Dal Corso  v.5.1
     Shape of augmentation charge: PSQ
     Using radial grid of 1251 points,  7 beta functions with: 
                l(1) =   0
                l(2) =   0
                l(3) =   0
                l(4) =   1
                l(5) =   1
                l(6) =   2
                l(7) =   2
     Q(r) pseudized with 0 coefficients 


     PseudoPot. # 2 for Ti read from file:
     /root/sssp/ti_pbe_v1.4.uspp.F.UPF
     MD5 check sum: 88a00a6731bd790ddea75d31a80cb452
     Pseudo is Ultrasoft + core correction, Zval = 12.0
     Generated by new atomic code, or converted to UPF format
     Using radial grid of  851 points,  6 beta functions with: 
                l(1) =   0
                l(2) =   0
                l(3) =   1
                l(4) =   1
                l(5) =   2
                l(6) =   2
     Q(r) pseudized with  6 coefficients,  rinner =    1.000   1.000   1.000
                                                       1.000   1.000

     PseudoPot. # 3 for O  read from file:
     /root/sssp/O.pbe-n-kjpaw_psl.0.1.UPF
     MD5 check sum: 0234752ac141de4415c5fc33072bef88
     Pseudo is Projector augmented-wave + core cor, Zval =  6.0
     Generated using "atomic" code by A. Dal Corso  v.5.0.99 svn rev. 10869
     Shape of augmentation charge: BESSEL
     Using radial grid of 1095 points,  4 beta functions with: 
                l(1) =   0
                l(2) =   0
                l(3) =   1
                l(4) =   1
     Q(r) pseudized with 0 coefficients 


     atomic species   valence    mass     pseudopotential
     Ba               10.00   137.32700     Ba( 1.00)
     Ti               12.00    47.86700     Ti( 1.00)
     O                 6.00    15.99900     O ( 1.00)

     No symmetry found



   Cartesian axes

     site n.     atom                  positions (alat units)
         1        Ba     tau(   1) = (   0.0000014   0.0000129   0.0000829  )
         2        Ba     tau(   2) = (  -0.0000006  -0.0000128   0.4999184  )
         3        Ti     tau(   3) = (   0.2293584  -0.2699385   0.2500663  )
         4        Ti     tau(   4) = (   0.2706417  -0.2300030   0.7499347  )
         5        O      tau(   5) = (   0.5247759  -0.2423500   0.2499348  )
         6        O      tau(   6) = (   0.4752262  -0.2577743   0.7500653  )
         7        O      tau(   7) = (   0.2577574  -0.4755665   0.2502850  )
         8        O      tau(   8) = (   0.2422424  -0.5245054   0.7497146  )
         9        O      tau(   9) = (   0.2499998  -0.2499809   0.5000363  )
        10        O      tau(  10) = (   0.2500000  -0.2500191   0.9999607  )

     number of k points=    99  Marzari-Vanderbilt smearing, width (Ry)=  0.0050
                       cart. coord. in units 2pi/alat
        k(    1) = (   0.0000000   0.0000000   0.0000000), wk =   0.0102041
        k(    2) = (   0.2857142   0.0000000   0.0000001), wk =   0.0204082
        k(    3) = (   0.5714283   0.0000000   0.0000001), wk =   0.0204082
        k(    4) = (   0.8571425   0.0000001   0.0000002), wk =   0.0204082
        k(    5) = (   0.2857141  -0.2857141   0.0000001), wk =   0.0204082
        k(    6) = (   0.5714283  -0.2857141   0.0000002), wk =   0.0204082
        k(    7) = (   0.8571425  -0.2857141   0.0000002), wk =   0.0204082
        k(    8) = (   0.5714283  -0.5714283   0.0000002), wk =   0.0204082
        k(    9) = (   0.8571425  -0.5714282   0.0000003), wk =   0.0204082
        k(   10) = (   0.8571424  -0.8571424   0.0000004), wk =   0.0204082
        k(   11) = (   0.0000001  -0.0000001   0.2500000), wk =   0.0204082
        k(   12) = (   0.2857142  -0.0000000   0.2500001), wk =   0.0204082
        k(   13) = (   0.5714284  -0.0000000   0.2500001), wk =   0.0204082
        k(   14) = (   0.8571426   0.0000000   0.2500002), wk =   0.0204082
        k(   15) = (   0.2857142  -0.2857142   0.2500001), wk =   0.0204082
        k(   16) = (   0.5714284  -0.2857142   0.2500002), wk =   0.0204082
        k(   17) = (   0.8571425  -0.2857141   0.2500002), wk =   0.0204082
        k(   18) = (   0.5714283  -0.5714283   0.2500002), wk =   0.0204082
        k(   19) = (   0.8571425  -0.5714283   0.2500003), wk =   0.0204082
        k(   20) = (   0.8571425  -0.8571424   0.2500004), wk =   0.0204082
        k(   21) = (  -0.0000001   0.0000001  -0.5000000), wk =   0.0102041
        k(   22) = (   0.2857141   0.0000001  -0.4999999), wk =   0.0204082
        k(   23) = (   0.5714282   0.0000002  -0.4999999), wk =   0.0204082
        k(   24) = (   0.8571424   0.0000002  -0.4999998), wk =   0.0204082
        k(   25) = (   0.2857140  -0.2857140  -0.4999999), wk =   0.0204082
        k(   26) = (   0.5714282  -0.2857140  -0.4999998), wk =   0.0204082
        k(   27) = (   0.8571424  -0.2857140  -0.4999998), wk =   0.0204082
        k(   28) = (   0.5714282  -0.5714281  -0.4999998), wk =   0.0204082
        k(   29) = (   0.8571424  -0.5714281  -0.4999997), wk =   0.0204082
        k(   30) = (   0.8571423  -0.8571423  -0.4999996), wk =   0.0204082
        k(   31) = (   0.0000000   0.2857142  -0.0000001), wk =   0.0204082
        k(   32) = (   0.0000000   0.5714283  -0.0000001), wk =   0.0204082
        k(   33) = (   0.0000001   0.8571425  -0.0000002), wk =   0.0204082
        k(   34) = (  -0.2857142  -0.2857142   0.0000000), wk =   0.0204082
        k(   35) = (  -0.5714284  -0.2857142  -0.0000001), wk =   0.0204082
        k(   36) = (  -0.2857141   0.5714283  -0.0000002), wk =   0.0204082
        k(   37) = (  -0.2857142  -0.5714283   0.0000001), wk =   0.0204082
        k(   38) = (  -0.8571425  -0.2857142  -0.0000001), wk =   0.0204082
        k(   39) = (  -0.2857141   0.8571424  -0.0000002), wk =   0.0204082
        k(   40) = (  -0.2857142  -0.8571425   0.0000001), wk =   0.0204082
        k(   41) = (  -0.5714284  -0.5714283   0.0000000), wk =   0.0204082
        k(   42) = (  -0.8571426  -0.5714284  -0.0000000), wk =   0.0204082
        k(   43) = (  -0.5714283   0.8571424  -0.0000003), wk =   0.0204082
        k(   44) = (  -0.5714284  -0.8571425   0.0000001), wk =   0.0204082
        k(   45) = (  -0.8571426  -0.8571425   0.0000000), wk =   0.0204082
        k(   46) = (  -0.2857141  -0.0000001   0.2499999), wk =   0.0204082
        k(   47) = (  -0.0000000   0.2857142  -0.2500001), wk =   0.0204082
        k(   48) = (  -0.0000001  -0.2857141  -0.2499999), wk =   0.0204082
        k(   49) = (  -0.5714283  -0.0000001   0.2499999), wk =   0.0204082
        k(   50) = (  -0.0000000   0.5714284  -0.2500001), wk =   0.0204082
        k(   51) = (  -0.0000001  -0.5714282  -0.2499999), wk =   0.0204082
        k(   52) = (  -0.8571425  -0.0000001   0.2499998), wk =   0.0204082
        k(   53) = (   0.0000000   0.8571425  -0.2500002), wk =   0.0204082
        k(   54) = (  -0.0000001  -0.8571424  -0.2499998), wk =   0.0204082
        k(   55) = (  -0.2857141   0.2857141   0.2499999), wk =   0.0204082
        k(   56) = (  -0.2857142  -0.2857141  -0.2500000), wk =   0.0204082
        k(   57) = (   0.2857141   0.2857142  -0.2500000), wk =   0.0204082
        k(   58) = (  -0.5714283   0.2857141   0.2499998), wk =   0.0204082
        k(   59) = (  -0.5714284  -0.2857141  -0.2500001), wk =   0.0204082
        k(   60) = (   0.5714283   0.2857143  -0.2499999), wk =   0.0204082
        k(   61) = (  -0.2857142   0.5714283  -0.2500002), wk =   0.0204082
        k(   62) = (   0.2857141  -0.5714282  -0.2499998), wk =   0.0204082
        k(   63) = (  -0.2857142  -0.5714284   0.2500001), wk =   0.0204082
        k(   64) = (   0.2857143   0.5714283   0.2499999), wk =   0.0204082
        k(   65) = (  -0.8571424   0.2857140   0.2499998), wk =   0.0204082
        k(   66) = (  -0.8571426  -0.2857142  -0.2500001), wk =   0.0204082
        k(   67) = (   0.8571425   0.2857143  -0.2499999), wk =   0.0204082
        k(   68) = (  -0.2857141   0.8571425  -0.2500002), wk =   0.0204082
        k(   69) = (   0.2857140  -0.8571424  -0.2499998), wk =   0.0204082
        k(   70) = (  -0.2857142  -0.8571425   0.2500001), wk =   0.0204082
        k(   71) = (   0.2857143   0.8571424   0.2499999), wk =   0.0204082
        k(   72) = (  -0.5714282   0.5714282   0.2499998), wk =   0.0204082
        k(   73) = (  -0.5714284  -0.5714283  -0.2500000), wk =   0.0204082
        k(   74) = (   0.5714283   0.5714284  -0.2500000), wk =   0.0204082
        k(   75) = (  -0.8571424   0.5714282   0.2499997), wk =   0.0204082
        k(   76) = (  -0.8571426  -0.5714283  -0.2500000), wk =   0.0204082
        k(   77) = (   0.8571425   0.5714284  -0.2500000), wk =   0.0204082
        k(   78) = (  -0.5714283   0.8571425  -0.2500003), wk =   0.0204082
        k(   79) = (   0.5714282  -0.8571424  -0.2499997), wk =   0.0204082
        k(   80) = (  -0.5714284  -0.8571426   0.2500001), wk =   0.0204082
        k(   81) = (   0.5714285   0.8571424   0.2499999), wk =   0.0204082
        k(   82) = (  -0.8571424   0.8571423   0.2499996), wk =   0.0204082
        k(   83) = (  -0.8571426  -0.8571425  -0.2500000), wk =   0.0204082
        k(   84) = (   0.8571425   0.8571426  -0.2500000), wk =   0.0204082
        k(   85) = (   0.0000001   0.2857140   0.4999999), wk =   0.0204082
        k(   86) = (   0.0000001   0.5714282   0.4999999), wk =   0.0204082
        k(   87) = (   0.0000002   0.8571423   0.4999998), wk =   0.0204082
        k(   88) = (  -0.2857141  -0.2857143   0.5000000), wk =   0.0204082
        k(   89) = (  -0.5714283  -0.2857143   0.4999999), wk =   0.0204082
        k(   90) = (  -0.2857140   0.5714282   0.4999998), wk =   0.0204082
        k(   91) = (  -0.2857143  -0.5714282  -0.4999999), wk =   0.0204082
        k(   92) = (  -0.8571424  -0.2857143   0.4999999), wk =   0.0204082
        k(   93) = (  -0.2857140   0.8571423   0.4999998), wk =   0.0204082
        k(   94) = (  -0.2857143  -0.8571424  -0.4999999), wk =   0.0204082
        k(   95) = (  -0.5714283  -0.5714285   0.5000000), wk =   0.0204082
        k(   96) = (  -0.8571425  -0.5714285   0.5000000), wk =   0.0204082
        k(   97) = (  -0.5714282   0.8571423   0.4999997), wk =   0.0204082
        k(   98) = (  -0.5714285  -0.8571424  -0.4999999), wk =   0.0204082
        k(   99) = (  -0.8571425  -0.8571426   0.5000000), wk =   0.0204082

     Dense  grid:   120005 G-vectors     FFT dimensions: ( 100,  50,  50)

     Smooth grid:    42425 G-vectors     FFT dimensions: (  72,  36,  36)

     Estimated max dynamical RAM per process >     195.93 MB

     Estimated total dynamical RAM >       1.33 GB

     Check: negative core charge=   -0.000004

     Initial potential from superposition of free atoms

     starting charge      77.9659, renormalised to      80.0000

     negative rho (up, down):  1.859E-03 0.000E+00
     Starting wfcs are   54 randomized atomic wfcs
     Checking if some PAW data can be deallocated... 

     total cpu time spent up to now is       18.0 secs

     per-process dynamical memory:   136.4 Mb

     Self-consistent Calculation

     iteration #  1     ecut=    50.00 Ry     beta= 0.40
     Davidson diagonalization with overlap
     ethr =  1.00E-02,  avg # of iterations =  2.0

     negative rho (up, down):  7.138E-03 0.000E+00

     total cpu time spent up to now is       49.8 secs

     total energy              =   -1361.69695189 Ry
     estimated scf accuracy    <       1.67936912 Ry

     iteration #  2     ecut=    50.00 Ry     beta= 0.40
     Davidson diagonalization with overlap
     ethr =  2.10E-03,  avg # of iterations =  3.1

     negative rho (up, down):  1.817E-02 0.000E+00

     total cpu time spent up to now is       84.5 secs

     total energy              =   -1361.99867737 Ry
     estimated scf accuracy    <       0.82199686 Ry

     iteration #  3     ecut=    50.00 Ry     beta= 0.40
     Davidson diagonalization with overlap
     ethr =  1.03E-03,  avg # of iterations =  2.7

     negative rho (up, down):  3.637E-02 0.000E+00

     total cpu time spent up to now is      118.5 secs

     total energy              =   -1362.16193471 Ry
     estimated scf accuracy    <       0.06670353 Ry

     iteration #  4     ecut=    50.00 Ry     beta= 0.40
     Davidson diagonalization with overlap
     ethr =  8.34E-05,  avg # of iterations =  7.7

     negative rho (up, down):  3.438E-02 0.000E+00

     total cpu time spent up to now is      166.1 secs

     total energy              =   -1362.16888385 Ry
     estimated scf accuracy    <       0.01107723 Ry

     iteration #  5     ecut=    50.00 Ry     beta= 0.40
     Davidson diagonalization with overlap
     ethr =  1.38E-05,  avg # of iterations =  5.4

     negative rho (up, down):  2.616E-02 0.000E+00

     total cpu time spent up to now is      215.4 secs

     total energy              =   -1362.17080639 Ry
     estimated scf accuracy    <       0.00898025 Ry

     iteration #  6     ecut=    50.00 Ry     beta= 0.40
     Davidson diagonalization with overlap
     ethr =  1.12E-05,  avg # of iterations =  1.0

     negative rho (up, down):  7.705E-02 0.000E+00

     total cpu time spent up to now is      251.2 secs

     total energy              =   -1362.17060183 Ry
     estimated scf accuracy    <       0.01016175 Ry

     iteration #  7     ecut=    50.00 Ry     beta= 0.40
     Davidson diagonalization with overlap
     ethr =  1.12E-05,  avg # of iterations =  1.4

     negative rho (up, down):  1.713E-03 0.000E+00

     total cpu time spent up to now is      284.4 secs

     total energy              =   -1362.17136378 Ry
     estimated scf accuracy    <       0.03759153 Ry

     iteration #  8     ecut=    50.00 Ry     beta= 0.40
     Davidson diagonalization with overlap
     ethr =  1.12E-05,  avg # of iterations =  2.0

     negative rho (up, down):  1.711E-03 0.000E+00

     total cpu time spent up to now is      323.0 secs

     total energy              =   -1362.17200129 Ry
     estimated scf accuracy    <       0.00053774 Ry

     iteration #  9     ecut=    50.00 Ry     beta= 0.40
     Davidson diagonalization with overlap
     c_bands:  1 eigenvalues not converged
     ethr =  6.72E-07,  avg # of iterations =  5.5

     negative rho (up, down):  1.711E-03 0.000E+00

     total cpu time spent up to now is      361.7 secs

     total energy              =   -1362.17206828 Ry
     estimated scf accuracy    <       0.00042326 Ry

     iteration # 10     ecut=    50.00 Ry     beta= 0.40
     Davidson diagonalization with overlap
     ethr =  5.29E-07,  avg # of iterations =  1.2

     negative rho (up, down):  1.712E-03 0.000E+00

     total cpu time spent up to now is      395.0 secs

     total energy              =   -1362.17208485 Ry
     estimated scf accuracy    <       0.00037737 Ry

     iteration # 11     ecut=    50.00 Ry     beta= 0.40
     Davidson diagonalization with overlap
     ethr =  4.72E-07,  avg # of iterations =  1.7

     negative rho (up, down):  1.711E-03 0.000E+00

     total cpu time spent up to now is      432.2 secs

     total energy              =   -1362.17209403 Ry
     estimated scf accuracy    <       0.00017273 Ry

     iteration # 12     ecut=    50.00 Ry     beta= 0.40
     Davidson diagonalization with overlap
     ethr =  2.16E-07,  avg # of iterations =  2.0

     negative rho (up, down):  1.711E-03 0.000E+00

     total cpu time spent up to now is      473.0 secs

     total energy              =   -1362.17209894 Ry
     estimated scf accuracy    <       0.00005327 Ry

     iteration # 13     ecut=    50.00 Ry     beta= 0.40
     Davidson diagonalization with overlap
     ethr =  6.66E-08,  avg # of iterations =  3.6

     negative rho (up, down):  1.711E-03 0.000E+00

     total cpu time spent up to now is      511.2 secs

     total energy              =   -1362.17210280 Ry
     estimated scf accuracy    <       0.00004362 Ry

     iteration # 14     ecut=    50.00 Ry     beta= 0.40
     Davidson diagonalization with overlap
     ethr =  5.45E-08,  avg # of iterations =  1.5

     negative rho (up, down):  1.711E-03 0.000E+00

     total cpu time spent up to now is      544.6 secs

     total energy              =   -1362.17210328 Ry
     estimated scf accuracy    <       0.00000957 Ry

     iteration # 15     ecut=    50.00 Ry     beta= 0.40
     Davidson diagonalization with overlap
     ethr =  1.20E-08,  avg # of iterations =  2.0

     negative rho (up, down):  1.711E-03 0.000E+00

     total cpu time spent up to now is      578.1 secs

     total energy              =   -1362.17210356 Ry
     estimated scf accuracy    <       0.00000067 Ry

     iteration # 16     ecut=    50.00 Ry     beta= 0.40
     Davidson diagonalization with overlap
     ethr =  8.33E-10,  avg # of iterations =  2.5

     negative rho (up, down):  1.711E-03 0.000E+00

     total cpu time spent up to now is      616.7 secs

     total energy              =   -1362.17210361 Ry
     estimated scf accuracy    <       0.00000113 Ry

     iteration # 17     ecut=    50.00 Ry     beta= 0.40
     Davidson diagonalization with overlap
     ethr =  8.33E-10,  avg # of iterations =  1.8

     negative rho (up, down):  1.711E-03 0.000E+00

     total cpu time spent up to now is      654.8 secs

     total energy              =   -1362.17210363 Ry
     estimated scf accuracy    <       0.00000008 Ry

     iteration # 18     ecut=    50.00 Ry     beta= 0.40
     Davidson diagonalization with overlap
     ethr =  9.44E-11,  avg # of iterations =  2.0

     negative rho (up, down):  1.711E-03 0.000E+00

     total cpu time spent up to now is      691.6 secs

     total energy              =   -1362.17210363 Ry
     estimated scf accuracy    <       0.00000034 Ry

     iteration # 19     ecut=    50.00 Ry     beta= 0.40
     Davidson diagonalization with overlap
     ethr =  9.44E-11,  avg # of iterations =  2.0

     negative rho (up, down):  1.711E-03 0.000E+00

     total cpu time spent up to now is      723.2 secs

     total energy              =   -1362.17210363 Ry
     estimated scf accuracy    <          1.8E-09 Ry

     iteration # 20     ecut=    50.00 Ry     beta= 0.40
     Davidson diagonalization with overlap
     ethr =  2.21E-12,  avg # of iterations =  4.2

     negative rho (up, down):  1.711E-03 0.000E+00

     total cpu time spent up to now is      760.7 secs

     End of self-consistent calculation

          k = 0.0000 0.0000 0.0000 (  5267 PWs)   bands (ev):

   -45.5092 -45.5012 -22.1891 -22.1821 -22.0321 -22.0247 -21.7358 -21.6864
   -15.0017 -14.9006  -7.0776  -6.7868  -6.1835  -6.1557  -5.7533  -5.4037
    -0.2263  -0.1443  -0.1110   0.0228   0.0336   0.0976   6.6340   7.1822
     7.2827   7.3308   7.5523   7.5688   7.7568   7.7835   7.9228   7.9459
     8.0762   8.2641   8.2736   8.5026   9.3737   9.5432   9.5852   9.8238
    12.8403  13.1875  13.8967  14.4807  14.6534  14.8273  14.8735  14.9995

          k = 0.2857 0.0000 0.0000 (  5307 PWs)   bands (ev):

   -45.5090 -45.5010 -22.1947 -22.1876 -22.0355 -22.0281 -21.7351 -21.6861
   -14.9833 -14.8889  -6.9904  -6.7698  -6.1808  -6.1462  -5.7725  -5.4475
    -0.2017  -0.1200  -0.0504  -0.0079   0.0188   0.0567   6.5845   6.9748
     7.0257   7.2173   7.3711   7.4693   7.6144   7.7374   7.8043   7.8873
     8.0172   8.3211   8.4816   8.5198   9.3346   9.4235   9.4946   9.7771
    12.9737  13.4172  13.9415  14.3631  14.6395  14.8306  15.1920  15.3278

          k = 0.5714 0.0000 0.0000 (  5327 PWs)   bands (ev):

   -45.5086 -45.5006 -22.2083 -22.2008 -22.0419 -22.0348 -21.7334 -21.6852
   -14.9413 -14.8623  -6.7944  -6.7681  -6.1510  -6.1123  -5.8002  -5.5467
    -0.2068  -0.1573  -0.0676  -0.0264   0.1028   0.1263   6.3971   6.4100
     6.5728   6.7822   6.9686   7.1985   7.4558   7.6761   7.8448   8.0144
     8.0426   8.3189   8.3727   8.5704   8.9308   9.3569   9.4545   9.8309
    13.1865  14.0189  14.2289  14.4741  14.6273  14.8800  15.3218  16.0297

          k = 0.8571 0.0000 0.0000 (  5310 PWs)   bands (ev):

   -45.5083 -45.5003 -22.2201 -22.2122 -22.0462 -22.0392 -21.7321 -21.6846
   -14.9071 -14.8407  -6.8516  -6.5555  -6.1839  -6.0192  -5.8127  -5.6272
    -0.3471  -0.1650  -0.0598   0.0162   0.1848   0.2255   5.9611   6.0478
     6.3323   6.5537   6.7489   6.9544   7.3343   7.6646   7.7403   7.9758
     8.0443   8.3127   8.3708   8.6370   8.7427   9.2854   9.3862   9.9473
    13.3360  14.5837  14.5931  14.6213  14.7458  14.9185  15.3870  16.0656

          k = 0.2857-0.2857 0.0000 (  5292 PWs)   bands (ev):

   -45.5088 -45.5009 -22.1986 -22.1915 -22.0405 -22.0331 -21.7344 -21.6857
   -14.9655 -14.8774  -6.8966  -6.7413  -6.1900  -6.1360  -5.7824  -5.4760
    -0.2134  -0.1864  -0.1023  -0.0753   0.0583   0.1256   6.5632   6.8131
     6.8751   6.9240   7.1332   7.3588   7.5152   7.6264   7.7265   7.7825
     8.1258   8.5832   8.6424   8.6993   9.0900   9.3791   9.5704   9.7736
    13.1965  13.5628  13.8871  14.1785  14.6017  14.8500  15.2729  15.4758

          k = 0.5714-0.2857 0.0000 (  5312 PWs)   bands (ev):

   -45.5084 -45.5005 -22.2115 -22.2041 -22.0475 -22.0403 -21.7328 -21.6848
   -14.9263 -14.8512  -6.7224  -6.6733  -6.1728  -6.1154  -5.7964  -5.5423
    -0.3220  -0.2831  -0.1205  -0.0820   0.0983   0.1522   6.2708   6.4669
     6.5534   6.6588   6.8354   7.1645   7.2554   7.5250   7.7098   7.8405
     8.0601   8.5919   8.5966   8.7882   8.8795   9.4271   9.4760   9.8279
    13.4420  14.0887  14.1392  14.3481  14.6207  14.9195  15.3700  16.1882

          k = 0.8571-0.2857 0.0000 (  5300 PWs)   bands (ev):

   -45.5081 -45.5001 -22.2225 -22.2148 -22.0523 -22.0452 -21.7316 -21.6842
   -14.8949 -14.8300  -6.7590  -6.4641  -6.1736  -6.0513  -5.8062  -5.5980
    -0.4568  -0.2919  -0.0562  -0.0408   0.0115   0.1667   5.8990   6.2968
     6.2999   6.4999   6.7565   6.9355   7.0050   7.4920   7.6356   7.8971
     8.0339   8.4402   8.5565   8.7825   8.8915   9.3129   9.3866   9.9618
    13.5648  14.5126  14.5987  14.6890  14.7264  14.9861  15.4760  16.3513

          k = 0.5714-0.5714 0.0000 (  5288 PWs)   bands (ev):

   -45.5080 -45.5000 -22.2190 -22.2117 -22.0595 -22.0520 -21.7315 -21.6840
   -14.8936 -14.8260  -6.5819  -6.4679  -6.2041  -6.0953  -5.7963  -5.5341
    -0.5339  -0.5016  -0.1923  -0.1043  -0.0211   0.1147   5.9747   6.3459
     6.5454   6.6475   6.6515   6.9384   7.2442   7.4555   7.4738   7.5086
     7.7267   8.7372   8.7957   8.9384   8.9828   9.5846   9.5969   9.8648
    13.8774  14.2912  14.3106  14.5488  14.7279  15.0234  15.4349  16.7575

          k = 0.8571-0.5714 0.0000 (  5280 PWs)   bands (ev):

   -45.5077 -45.4997 -22.2286 -22.2211 -22.0653 -22.0579 -21.7304 -21.6834
   -14.8677 -14.8056  -6.5240  -6.2806  -6.1558  -6.0928  -5.8120  -5.5297
    -0.6816  -0.5658  -0.3656  -0.1719   0.0024   0.0363   5.7477   6.1571
     6.2888   6.6465   6.8050   6.8118   7.0542   7.1977   7.2687   7.4807
     7.6529   8.7026   8.9918   9.0608   9.1592   9.4955   9.6626  10.0080
    14.0229  14.5674  14.6662  14.8644  14.8686  15.1565  15.5033  16.5437

          k = 0.8571-0.8571 0.0000 (  5288 PWs)   bands (ev):

   -45.5074 -45.4994 -22.2342 -22.2270 -22.0748 -22.0672 -21.7295 -21.6827
   -14.8460 -14.7859  -6.2829  -6.2465  -6.0890  -6.0595  -5.8632  -5.4722
    -0.8492  -0.7463  -0.6619  -0.2291  -0.1513   0.0987   5.5585   6.0377
     6.2067   6.4365   6.6970   6.8026   6.9014   7.0713   7.2947   7.3109
     7.5842   8.6594   9.3329   9.3815   9.4144   9.5773  10.0294  10.0588
    14.2903  14.6651  14.8054  15.0462  15.0672  15.3245  15.4386  16.3928

          k = 0.0000-0.0000 0.2500 (  5290 PWs)   bands (ev):

   -45.5092 -45.5012 -22.1890 -22.1821 -22.0321 -22.0247 -21.7288 -21.6935
   -14.9872 -14.9157  -7.0309  -6.8231  -6.1798  -6.1594  -5.7134  -5.4642
    -0.1841  -0.1266  -0.0908   0.0035   0.0118   0.0572   6.8124   7.2757
     7.3675   7.3815   7.5403   7.5932   7.6260   7.7676   7.8378   7.8823
     8.1319   8.2454   8.2718   8.5840   9.3450   9.4428   9.4708   9.5083
    13.1182  13.4170  14.0306  14.3808  14.4182  14.4971  15.3630  15.5548

          k = 0.2857-0.0000 0.2500 (  5297 PWs)   bands (ev):

   -45.5090 -45.5011 -22.1946 -22.1876 -22.0354 -22.0281 -21.7281 -21.6931
   -14.9697 -14.9030  -6.9517  -6.7933  -6.1772  -6.1518  -5.7369  -5.5051
    -0.2083  -0.1301  -0.0562  -0.0008   0.0327   0.0608   6.7343   7.0290
     7.1345   7.2290   7.3101   7.4657   7.4900   7.7010   7.7876   7.9594
     8.0482   8.2639   8.4004   8.6531   9.2997   9.3657   9.3811   9.5697
    13.2186  13.5824  14.0522  14.3203  14.3849  14.5637  15.5175  15.5993

          k = 0.5714-0.0000 0.2500 (  5313 PWs)   bands (ev):

   -45.5086 -45.5006 -22.2082 -22.2009 -22.0419 -22.0348 -21.7266 -21.6921
   -14.9300 -14.8741  -6.7781  -6.7584  -6.1535  -6.1240  -5.7724  -5.5923
    -0.2421  -0.1823  -0.0239   0.0009   0.1028   0.1125   6.4054   6.5185
     6.6663   6.8516   6.9825   7.2614   7.3314   7.4933   7.7629   8.0139
     8.0766   8.2541   8.4302   8.6521   9.0836   9.2621   9.2918   9.7251
    13.3971  14.0749  14.3171  14.3915  14.4704  14.7016  15.5949  16.2104

          k = 0.8571 0.0000 0.2500 (  5301 PWs)   bands (ev):

   -45.5083 -45.5003 -22.2200 -22.2124 -22.0462 -22.0392 -21.7253 -21.6914
   -14.8976 -14.8505  -6.8061  -6.5942  -6.1644  -6.0450  -5.7879  -5.6564
    -0.3194  -0.1499  -0.0696   0.0377   0.1590   0.1755   5.9972   6.0887
     6.4033   6.6807   6.8665   7.0529   7.2239   7.3076   7.7098   7.8810
     8.0731   8.3034   8.4841   8.6804   8.9862   9.1465   9.2110   9.8283
    13.5166  14.4154  14.5873  14.6865  14.7501  14.8281  15.5793  16.0410

          k = 0.2857-0.2857 0.2500 (  5300 PWs)   bands (ev):

   -45.5088 -45.5009 -22.1985 -22.1916 -22.0405 -22.0331 -21.7275 -21.6927
   -14.9528 -14.8905  -6.8662  -6.7544  -6.1829  -6.1442  -5.7502  -5.5316
    -0.2406  -0.2104  -0.1173  -0.1070   0.1222   0.1677   6.6129   6.8426
     6.8607   7.0376   7.1335   7.3250   7.5041   7.5443   7.7810   7.8592
     8.1269   8.3983   8.6023   8.8145   9.1439   9.3438   9.5237   9.5595
    13.3643  13.7158  13.9611  14.1509  14.3696  14.6333  15.6259  15.7747

          k = 0.5714-0.2857 0.2500 (  5306 PWs)   bands (ev):

   -45.5084 -45.5005 -22.2114 -22.2042 -22.0475 -22.0403 -21.7260 -21.6917
   -14.9155 -14.8623  -6.7041  -6.6686  -6.1690  -6.1270  -5.7696  -5.5891
    -0.3433  -0.2737  -0.1552  -0.1290   0.1448   0.2022   6.2602   6.3908
     6.6799   6.7602   6.8745   7.1816   7.2928   7.3661   7.6730   7.9042
     8.0626   8.4166   8.6530   8.8071   9.0558   9.2926   9.4496   9.7038
    13.5833  14.1573  14.1872  14.3350  14.4327  14.7681  15.7389  16.4193

          k = 0.8571-0.2857 0.2500 (  5305 PWs)   bands (ev):

   -45.5081 -45.5001 -22.2224 -22.2149 -22.0523 -22.0453 -21.7249 -21.6910
   -14.8855 -14.8396  -6.7141  -6.5040  -6.1575  -6.0691  -5.7792  -5.6318
    -0.4318  -0.2634  -0.1535  -0.0262   0.0407   0.1509   5.9435   6.1723
     6.4116   6.5926   6.8507   6.9681   7.1116   7.2902   7.6267   7.8277
     8.0275   8.4533   8.5292   8.8351   9.0485   9.1864   9.2694   9.8369
    13.7080  14.4630  14.5946  14.6379  14.7171  14.8939  15.7960  16.4130

          k = 0.5714-0.5714 0.2500 (  5301 PWs)   bands (ev):

   -45.5080 -45.5001 -22.2188 -22.2118 -22.0595 -22.0520 -21.7248 -21.6908
   -14.8839 -14.8360  -6.5568  -6.4762  -6.1884  -6.1111  -5.7685  -5.5829
    -0.5251  -0.4686  -0.2299  -0.1857  -0.0168   0.1824   6.0069   6.3020
     6.5299   6.5399   6.8735   7.0505   7.2303   7.3202   7.4785   7.6124
     7.7779   8.4152   8.9196   9.0019   9.0503   9.5088   9.5829   9.7358
    13.9502  14.3223  14.3948  14.5274  14.5693  14.9065  15.8593  17.0065

          k = 0.8571-0.5714 0.2500 (  5281 PWs)   bands (ev):

   -45.5077 -45.4997 -22.2285 -22.2212 -22.0653 -22.0580 -21.7238 -21.6901
   -14.8588 -14.8148  -6.4840  -6.3104  -6.1477  -6.1035  -5.7770  -5.5775
    -0.6448  -0.5130  -0.2880  -0.2374  -0.1468   0.0559   5.8426   6.1514
     6.3088   6.5101   6.8573   6.9959   7.0904   7.2211   7.2694   7.5144
     7.6355   8.4059   9.0404   9.1508   9.1991   9.4744   9.5560   9.8789
    14.1141  14.5947  14.6833  14.7656  14.8331  15.0646  15.9271  16.7377

          k = 0.8571-0.8571 0.2500 (  5273 PWs)   bands (ev):

   -45.5074 -45.4994 -22.2341 -22.2271 -22.0747 -22.0673 -21.7229 -21.6894
   -14.8373 -14.7948  -6.2567  -6.2318  -6.1033  -6.0789  -5.8150  -5.5373
    -0.7658  -0.6815  -0.5642  -0.2968  -0.2566  -0.0272   5.7131   6.0397
     6.2404   6.4208   6.6865   6.9868   7.0124   7.0805   7.1629   7.3753
     7.5359   8.3389   9.3632   9.3954   9.4737   9.5877   9.9119   9.9260
    14.3709  14.7142  14.8559  14.9239  15.0174  15.2352  15.8831  16.6387

          k =-0.0000 0.0000-0.5000 (  5338 PWs)   bands (ev):

   -45.5092 -45.5012 -22.1890 -22.1822 -22.0321 -22.0247 -21.7148 -21.7076
   -14.9537 -14.9498  -6.9253  -6.9189  -6.1735  -6.1658  -5.5997  -5.5978
    -0.1112  -0.1075  -0.0424  -0.0395  -0.0170  -0.0130   7.2186   7.2207
     7.4450   7.4476   7.5303   7.5368   7.6515   7.6566   7.7152   7.7177
     8.2551   8.2595   8.4815   8.4822   9.2281   9.2296   9.3568   9.3576
    13.7405  13.7482  13.9435  13.9517  14.2539  14.2659  16.0118  16.0149

          k = 0.2857 0.0000-0.5000 (  5332 PWs)   bands (ev):

   -45.5090 -45.5011 -22.1946 -22.1877 -22.0354 -22.0282 -21.7143 -21.7070
   -14.9385 -14.9347  -6.8682  -6.8620  -6.1695  -6.1616  -5.6325  -5.6309
    -0.1859  -0.1839  -0.0216  -0.0192   0.0549   0.0561   7.0335   7.0358
     7.1943   7.1977   7.3121   7.3146   7.5722   7.5775   7.8327   7.8374
     8.2147   8.2172   8.5189   8.5232   9.1948   9.1991   9.4129   9.4164
    13.7796  13.7873  14.0098  14.0170  14.2513  14.2600  16.0859  16.0972

          k = 0.5714 0.0000-0.5000 (  5308 PWs)   bands (ev):

   -45.5086 -45.5007 -22.2081 -22.2010 -22.0419 -22.0349 -21.7130 -21.7058
   -14.9042 -14.9002  -6.7577  -6.7521  -6.1505  -6.1422  -5.6915  -5.6907
    -0.2405  -0.2388   0.0368   0.0394   0.0824   0.0852   6.4922   6.4959
     6.9277   6.9294   7.0354   7.0365   7.3825   7.3878   7.7345   7.7409
     8.3030   8.3060   8.4870   8.4914   9.0889   9.0946   9.5015   9.5050
    13.8840  13.8930  14.2889  14.2935  14.4607  14.4657  16.0178  16.0290

          k = 0.8571 0.0000-0.5000 (  5306 PWs)   bands (ev):

   -45.5083 -45.5003 -22.2198 -22.2125 -22.0461 -22.0393 -21.7120 -21.7048
   -14.8762 -14.8722  -6.7002  -6.6946  -6.1115  -6.1031  -5.7244  -5.7241
    -0.2382  -0.2362   0.0366   0.0413   0.1026   0.1058   6.0647   6.0702
     6.7201   6.7230   6.9483   6.9532   7.1800   7.1851   7.6461   7.6537
     8.3269   8.3303   8.4774   8.4818   9.0260   9.0318   9.4987   9.5026
    13.9516  13.9614  14.6467  14.6525  14.7639  14.7706  15.8963  15.9065

          k = 0.2857-0.2857-0.5000 (  5326 PWs)   bands (ev):

   -45.5088 -45.5009 -22.1984 -22.1917 -22.0405 -22.0331 -21.7137 -21.7065
   -14.9238 -14.9199  -6.8050  -6.7986  -6.1679  -6.1603  -5.6533  -5.6516
    -0.2535  -0.2506  -0.1235  -0.1205   0.1845   0.1861   6.6936   6.6959
     7.1130   7.1152   7.1656   7.1665   7.5068   7.5102   7.9691   7.9727
     8.0692   8.0751   8.7043   8.7081   9.2729   9.2748   9.4219   9.4227
    13.7901  13.7956  14.0449  14.0480  14.2216  14.2251  16.3228  16.3309

          k = 0.5714-0.2857-0.5000 (  5304 PWs)   bands (ev):

   -45.5084 -45.5005 -22.2113 -22.2043 -22.0475 -22.0403 -21.7125 -21.7053
   -14.8911 -14.8871  -6.6775  -6.6717  -6.1562  -6.1482  -5.6898  -5.6888
    -0.3260  -0.3238  -0.1635  -0.1601   0.2098   0.2123   6.2919   6.2950
     6.7999   6.8052   7.0492   7.0511   7.3464   7.3500   7.7533   7.7577
     8.1715   8.1772   8.7236   8.7278   9.2057   9.2105   9.5067   9.5100
    13.9340  13.9415  14.2903  14.2959  14.4514  14.4575  16.3931  16.4031

          k = 0.8571-0.2857-0.5000 (  5292 PWs)   bands (ev):

   -45.5081 -45.5001 -22.2223 -22.2150 -22.0523 -22.0453 -21.7116 -21.7044
   -14.8647 -14.8607  -6.6097  -6.6041  -6.1180  -6.1096  -5.7091  -5.7086
    -0.3457  -0.3438  -0.1103  -0.1061   0.1021   0.1046   6.0452   6.0506
     6.5485   6.5522   7.0092   7.0099   7.2226   7.2273   7.6136   7.6206
     8.1874   8.1926   8.6680   8.6718   9.1194   9.1238   9.5113   9.5153
    14.0655  14.0747  14.6664  14.6714  14.7320  14.7367  16.3098  16.3194

          k = 0.5714-0.5714-0.5000 (  5290 PWs)   bands (ev):

   -45.5080 -45.5001 -22.2187 -22.2119 -22.0595 -22.0521 -21.7114 -21.7042
   -14.8621 -14.8581  -6.5113  -6.5048  -6.1534  -6.1462  -5.6870  -5.6855
    -0.4596  -0.4571  -0.2998  -0.2968   0.1309   0.1331   6.1221   6.1255
     6.5405   6.5467   7.0781   7.0793   7.2382   7.2414   7.7082   7.7117
     7.8332   7.8382   9.0086   9.0139   9.2896   9.2925   9.6008   9.6031
    14.1616  14.1677  14.4684  14.4753  14.6438  14.6525  16.7153  16.7232

          k = 0.8571-0.5714-0.5000 (  5278 PWs)   bands (ev):

   -45.5077 -45.4997 -22.2283 -22.2213 -22.0652 -22.0580 -21.7106 -21.7034
   -14.8389 -14.8349  -6.3952  -6.3896  -6.1307  -6.1224  -5.6843  -5.6832
    -0.5172  -0.5155  -0.3121  -0.3083  -0.0750  -0.0737   6.0401   6.0455
     6.3540   6.3599   6.9815   6.9823   7.2531   7.2576   7.4457   7.4482
     7.8119   7.8142   9.1229   9.1282   9.3741   9.3774   9.6112   9.6151
    14.3537  14.3613  14.7455  14.7518  14.8768  14.8844  16.7595  16.7673

          k = 0.8571-0.8571-0.5000 (  5276 PWs)   bands (ev):

   -45.5073 -45.4994 -22.2340 -22.2272 -22.0747 -22.0673 -21.7098 -21.7026
   -14.8182 -14.8141  -6.2218  -6.2149  -6.1171  -6.1100  -5.6853  -5.6834
    -0.5882  -0.5861  -0.4448  -0.4430  -0.2916  -0.2902   5.9520   5.9570
     6.3443   6.3509   6.7844   6.7902   7.1665   7.1685   7.4156   7.4178
     7.6366   7.6398   9.3959   9.4022   9.6361   9.6397   9.7278   9.7311
    14.5807  14.5867  14.8925  14.8981  15.0428  15.0517  16.7207  16.7251

          k = 0.0000 0.2857-0.0000 (  5307 PWs)   bands (ev):

   -45.5090 -45.5010 -22.1930 -22.1861 -22.0372 -22.0296 -21.7351 -21.6861
   -14.9833 -14.8889  -6.9921  -6.7747  -6.1749  -6.1449  -5.7737  -5.4475
    -0.2014  -0.1180  -0.0529  -0.0124   0.0194   0.0606   6.5820   7.0136
     7.0474   7.2081   7.3806   7.4421   7.5738   7.7386   7.8223   7.8697
     8.0168   8.3190   8.4926   8.5310   9.3427   9.4184   9.4812   9.7797
    12.9862  13.4076  13.9356  14.3528  14.6414  14.8292  15.1919  15.3368

          k = 0.0000 0.5714-0.0000 (  5327 PWs)   bands (ev):

   -45.5086 -45.5006 -22.2029 -22.1961 -22.0474 -22.0394 -21.7334 -21.6852
   -14.9413 -14.8623  -6.8056  -6.7774  -6.1430  -6.0976  -5.8041  -5.5468
    -0.2066  -0.1567  -0.0726  -0.0214   0.0981   0.1302   6.4081   6.4296
     6.5866   6.7939   6.9867   7.1633   7.4638   7.7030   7.8429   7.9768
     8.0267   8.3265   8.3587   8.5821   8.9330   9.3389   9.4388   9.8462
    13.2083  14.0036  14.2193  14.4576  14.6380  14.8707  15.3245  16.0308

          k = 0.0000 0.8571-0.0000 (  5310 PWs)   bands (ev):

   -45.5083 -45.5003 -22.2119 -22.2052 -22.0544 -22.0462 -21.7321 -21.6846
   -14.9071 -14.8407  -6.8672  -6.5742  -6.1671  -5.9982  -5.8190  -5.6272
    -0.3459  -0.1677  -0.0617   0.0213   0.1887   0.2202   5.9716   6.0779
     6.3512   6.5542   6.7690   6.9178   7.3496   7.7087   7.7473   7.9647
     8.0459   8.2631   8.3544   8.6355   8.7360   9.2652   9.3668   9.9679
    13.3603  14.5655  14.5887  14.6379  14.7317  14.9055  15.3846  16.0723

          k =-0.2857-0.2857 0.0000 (  5292 PWs)   bands (ev):

   -45.5088 -45.5009 -22.1980 -22.1910 -22.0410 -22.0334 -21.7343 -21.6857
   -14.9667 -14.8774  -6.9147  -6.7395  -6.1791  -6.1290  -5.7879  -5.4755
    -0.1683  -0.1338  -0.1263  -0.0897   0.0379   0.1070   6.5075   7.0280
     7.1572   7.2610   7.2628   7.3475   7.4978   7.5128   7.6325   7.6933
     7.6981   8.1865   8.5151   8.6804   9.1689   9.4902   9.5329   9.6849
    13.1330  13.5837  13.9677  14.4794  14.6955  14.8411  15.3331  15.8048

          k =-0.5714-0.2857-0.0000 (  5312 PWs)   bands (ev):

   -45.5084 -45.5005 -22.2108 -22.2034 -22.0481 -22.0407 -21.7328 -21.6849
   -14.9277 -14.8512  -6.7198  -6.7061  -6.1421  -6.1130  -5.8041  -5.5417
    -0.2769  -0.2498  -0.1055  -0.0952   0.0824   0.1106   6.4015   6.6075
     6.6297   6.8305   7.0177   7.1423   7.1976   7.4786   7.5661   7.6868
     7.7392   8.3902   8.6003   8.6668   8.9541   9.3643   9.4971   9.8174
    13.3811  14.1021  14.1902  14.6511  14.7299  14.9147  15.5170  16.3488

          k =-0.2857 0.5714-0.0000 (  5312 PWs)   bands (ev):

   -45.5084 -45.5005 -22.2078 -22.2008 -22.0513 -22.0435 -21.7329 -21.6848
   -14.9263 -14.8512  -6.7323  -6.6803  -6.1619  -6.1079  -5.7991  -5.5424
    -0.3216  -0.2845  -0.1187  -0.0824   0.0999   0.1505   6.2725   6.4871
     6.5543   6.6674   6.8530   7.1711   7.2306   7.5407   7.7039   7.8305
     8.0506   8.5877   8.5909   8.7906   8.8759   9.4144   9.4696   9.8417
    13.4599  14.0745  14.1338  14.3395  14.6265  14.9147  15.3712  16.1876

          k =-0.2857-0.5714 0.0000 (  5312 PWs)   bands (ev):

   -45.5084 -45.5005 -22.2070 -22.2002 -22.0519 -22.0440 -21.7328 -21.6849
   -14.9277 -14.8512  -6.7301  -6.7120  -6.1286  -6.1087  -5.8071  -5.5417
    -0.2768  -0.2516  -0.1057  -0.0925   0.0841   0.1083   6.4040   6.6348
     6.6387   6.8435   7.0240   7.1554   7.1623   7.4826   7.5687   7.6914
     7.7215   8.3741   8.6065   8.6566   8.9553   9.3552   9.4836   9.8331
    13.3977  14.0891  14.1836  14.6457  14.7424  14.9036  15.5179  16.3494

          k =-0.8571-0.2857-0.0000 (  5300 PWs)   bands (ev):

   -45.5081 -45.5001 -22.2222 -22.2145 -22.0525 -22.0454 -21.7315 -21.6842
   -14.8955 -14.8300  -6.7582  -6.4898  -6.1468  -6.0514  -5.8104  -5.5977
    -0.4387  -0.2759  -0.0631  -0.0334   0.0151   0.1375   6.0151   6.2356
     6.3523   6.5533   6.8104   6.9440   6.9770   7.4913   7.5680   7.8129
     7.9172   8.4202   8.6011   8.7541   8.8965   9.2303   9.3960   9.9740
    13.5436  14.5255  14.6090  14.7259  14.8447  14.9895  15.5356  16.3699

          k =-0.2857 0.8571-0.0000 (  5300 PWs)   bands (ev):

   -45.5081 -45.5001 -22.2159 -22.2091 -22.0589 -22.0509 -21.7316 -21.6842
   -14.8948 -14.8299  -6.7741  -6.4830  -6.1556  -6.0319  -5.8119  -5.5980
    -0.4558  -0.2955  -0.0520  -0.0422   0.0162   0.1624   5.9082   6.3133
     6.3273   6.4967   6.7772   6.9461   6.9699   7.5262   7.6320   7.8865
     8.0237   8.4360   8.5313   8.7758   8.8840   9.3030   9.3691   9.9818
    13.5865  14.5074  14.5845  14.6979  14.7198  14.9764  15.4748  16.3505

          k =-0.2857-0.8571 0.0000 (  5300 PWs)   bands (ev):

   -45.5081 -45.5001 -22.2156 -22.2088 -22.0592 -22.0511 -21.7316 -21.6842
   -14.8955 -14.8299  -6.7733  -6.5060  -6.1319  -6.0312  -5.8164  -5.5978
    -0.4378  -0.2800  -0.0630  -0.0278   0.0188   0.1319   6.0253   6.2506
     6.3838   6.5546   6.8182   6.9383   6.9660   7.5262   7.5662   7.8006
     7.9037   8.4149   8.5760   8.7400   8.8999   9.2167   9.3790   9.9937
    13.5650  14.5199  14.5916  14.7424  14.8400  14.9757  15.5343  16.3711

          k =-0.5714-0.5714 0.0000 (  5288 PWs)   bands (ev):

   -45.5080 -45.5000 -22.2180 -22.2109 -22.0602 -22.0526 -21.7314 -21.6841
   -14.8954 -14.8260  -6.5882  -6.5211  -6.1660  -6.0673  -5.8093  -5.5333
    -0.4786  -0.4782  -0.1673  -0.1504  -0.0045   0.0671   6.2381   6.5295
     6.7409   6.8390   6.8912   6.9165   6.9900   7.1533   7.2802   7.3069
     7.4416   8.7201   8.7743   8.8974   8.9508   9.4807   9.6192   9.8909
    13.7682  14.2781  14.3694  14.7724  14.8686  15.0175  15.6824  16.7852

          k =-0.8571-0.5714-0.0000 (  5280 PWs)   bands (ev):

   -45.5077 -45.4997 -22.2282 -22.2208 -22.0656 -22.0582 -21.7304 -21.6834
   -14.8685 -14.8056  -6.5296  -6.3247  -6.1210  -6.0726  -5.8204  -5.5293
    -0.6575  -0.5470  -0.3893  -0.1458  -0.0343   0.0390   5.9010   6.1475
     6.3850   6.6590   6.8150   6.9522   6.9929   7.0362   7.2183   7.3296
     7.5811   8.7225   8.9637   9.0566   9.2352   9.3654   9.6565  10.0349
    13.9806  14.5319  14.6943  14.9218  14.9312  15.1623  15.6099  16.5868

          k =-0.5714 0.8571-0.0000 (  5280 PWs)   bands (ev):

   -45.5077 -45.4997 -22.2256 -22.2185 -22.0683 -22.0605 -21.7305 -21.6834
   -14.8677 -14.8056  -6.5380  -6.2940  -6.1393  -6.0790  -5.8161  -5.5298
    -0.6811  -0.5680  -0.3638  -0.1690  -0.0005   0.0367   5.7522   6.1584
     6.3047   6.6433   6.8114   6.8226   7.0419   7.1854   7.3035   7.4780
     7.6284   8.6944   8.9923   9.0563   9.1531   9.4952   9.6460  10.0256
    14.0372  14.5648  14.6538  14.8635  14.8750  15.1502  15.5015  16.5368

          k =-0.5714-0.8571 0.0000 (  5280 PWs)   bands (ev):

   -45.5077 -45.4997 -22.2252 -22.2182 -22.0686 -22.0608 -21.7304 -21.6834
   -14.8685 -14.8056  -6.5430  -6.3336  -6.1050  -6.0630  -5.8248  -5.5294
    -0.6571  -0.5499  -0.3869  -0.1412  -0.0388   0.0394   5.9053   6.1545
     6.4008   6.6567   6.8229   6.9558   6.9874   7.0204   7.2500   7.3278
     7.5558   8.7140   8.9624   9.0462   9.2385   9.3627   9.6415  10.0509
    13.9938  14.5293  14.6823  14.9309  14.9314  15.1534  15.6082  16.5801

          k =-0.8571-0.8571 0.0000 (  5288 PWs)   bands (ev):

   -45.5074 -45.4994 -22.2340 -22.2268 -22.0749 -22.0673 -21.7295 -21.6827
   -14.8463 -14.7859  -6.3252  -6.1793  -6.1528  -6.0150  -5.8701  -5.4721
    -0.8382  -0.7300  -0.6798  -0.2050  -0.1807   0.0996   5.6127   6.0745
     6.3083   6.4340   6.5314   6.7825   6.8873   7.1298   7.2670   7.3250
     7.5127   8.6669   9.3523   9.3869   9.3955   9.5382   9.9791  10.1153
    14.2663  14.6361  14.8244  15.0666  15.0797  15.3348  15.4829  16.3961

          k =-0.2857-0.0000 0.2500 (  5297 PWs)   bands (ev):

   -45.5090 -45.5011 -22.1946 -22.1876 -22.0354 -22.0281 -21.7281 -21.6931
   -14.9697 -14.9030  -6.9518  -6.7932  -6.1772  -6.1519  -5.7369  -5.5051
    -0.2087  -0.1293  -0.0561  -0.0027   0.0331   0.0617   6.7339   7.0278
     7.1359   7.2282   7.3112   7.4655   7.4892   7.7039   7.7875   7.9588
     8.0458   8.2648   8.4024   8.6500   9.3007   9.3686   9.3802   9.5680
    13.2183  13.5807  14.0533  14.3228  14.3848  14.5622  15.5176  15.5993

          k =-0.0000 0.2857-0.2500 (  5297 PWs)   bands (ev):

   -45.5090 -45.5011 -22.1929 -22.1862 -22.0372 -22.0296 -21.7281 -21.6931
   -14.9697 -14.9030  -6.9537  -6.7976  -6.1720  -6.1500  -5.7379  -5.5052
    -0.2091  -0.1297  -0.0533  -0.0067   0.0371   0.0598   6.7308   7.0531
     7.1547   7.2127   7.3261   7.4575   7.4951   7.6827   7.7900   7.9508
     8.0373   8.2603   8.4026   8.6595   9.2990   9.3622   9.3709   9.5815
    13.2280  13.5746  14.0455  14.3124  14.3850  14.5638  15.5172  15.6080

          k =-0.0000-0.2857-0.2500 (  5297 PWs)   bands (ev):

   -45.5090 -45.5011 -22.1929 -22.1862 -22.0372 -22.0296 -21.7281 -21.6931
   -14.9697 -14.9030  -6.9538  -6.7975  -6.1719  -6.1501  -5.7379  -5.5052
    -0.2088  -0.1307  -0.0534  -0.0052   0.0361   0.0601   6.7303   7.0502
     7.1563   7.2128   7.3282   7.4572   7.4955   7.6839   7.7895   7.9501
     8.0364   8.2623   8.4032   8.6567   9.2992   9.3659   9.3693   9.5799
    13.2278  13.5734  14.0464  14.3144  14.3852  14.5617  15.5176  15.6082

          k =-0.5714-0.0000 0.2500 (  5313 PWs)   bands (ev):

   -45.5086 -45.5006 -22.2082 -22.2009 -22.0419 -22.0348 -21.7266 -21.6921
   -14.9300 -14.8740  -6.7778  -6.7588  -6.1530  -6.1244  -5.7724  -5.5923
    -0.2413  -0.1838  -0.0238   0.0022   0.1027   0.1118   6.4039   6.5184
     6.6667   6.8527   6.9839   7.2607   7.3299   7.4938   7.7657   8.0118
     8.0752   8.2563   8.4295   8.6504   9.0845   9.2622   9.2917   9.7252
    13.3967  14.0732  14.3174  14.3949  14.4691  14.7012  15.5952  16.2154

          k =-0.0000 0.5714-0.2500 (  5313 PWs)   bands (ev):

   -45.5086 -45.5006 -22.2028 -22.1962 -22.0473 -22.0395 -21.7266 -21.6921
   -14.9299 -14.8740  -6.7896  -6.7685  -6.1437  -6.1096  -5.7761  -5.5930
    -0.2414  -0.1840  -0.0256   0.0042   0.1062   0.1086   6.4178   6.5381
     6.6793   6.8528   6.9935   7.2476   7.3427   7.5179   7.7505   8.0056
     8.0646   8.2297   8.4182   8.6563   9.0827   9.2461   9.2859   9.7419
    13.4166  14.0598  14.3069  14.3971  14.4589  14.6928  15.6002  16.2285

          k =-0.0000-0.5714-0.2500 (  5313 PWs)   bands (ev):

   -45.5086 -45.5006 -22.2028 -22.1962 -22.0473 -22.0395 -21.7266 -21.6921
   -14.9299 -14.8740  -6.7894  -6.7688  -6.1434  -6.1099  -5.7760  -5.5930
    -0.2430  -0.1817  -0.0260   0.0037   0.1068   0.1082   6.4158   6.5362
     6.6802   6.8569   6.9948   7.2464   7.3422   7.5172   7.7514   8.0044
     8.0652   8.2317   8.4169   8.6546   9.0832   9.2462   9.2856   9.7425
    13.4164  14.0584  14.3069  14.3997  14.4581  14.6923  15.6005  16.2222

          k =-0.8571-0.0000 0.2500 (  5301 PWs)   bands (ev):

   -45.5083 -45.5003 -22.2200 -22.2124 -22.0462 -22.0392 -21.7253 -21.6914
   -14.8976 -14.8505  -6.8060  -6.5944  -6.1642  -6.0451  -5.7879  -5.6565
    -0.3193  -0.1507  -0.0687   0.0377   0.1591   0.1752   5.9970   6.0882
     6.4040   6.6807   6.8677   7.0520   7.2232   7.3077   7.7114   7.8797
     8.0738   8.3033   8.4828   8.6806   8.9868   9.1462   9.2110   9.8284
    13.5165  14.4162  14.5859  14.6864  14.7506  14.8285  15.5793  16.0410

          k = 0.0000 0.8571-0.2500 (  5301 PWs)   bands (ev):

   -45.5083 -45.5003 -22.2118 -22.2053 -22.0543 -22.0463 -21.7253 -21.6914
   -14.8975 -14.8505  -6.8223  -6.6132  -6.1459  -6.0242  -5.7936  -5.6577
    -0.3183  -0.1503  -0.0738   0.0424   0.1632   0.1703   6.0107   6.1161
     6.4239   6.6818   6.8793   7.0243   7.2403   7.3381   7.7092   7.8829
     8.0606   8.2612   8.4628   8.6780   8.9940   9.1296   9.1919   9.8485
    13.5389  14.4331  14.5691  14.6793  14.7366  14.8131  15.5798  16.0464

          k =-0.0000-0.8571-0.2500 (  5301 PWs)   bands (ev):

   -45.5083 -45.5003 -22.2118 -22.2053 -22.0543 -22.0463 -21.7253 -21.6914
   -14.8975 -14.8505  -6.8223  -6.6133  -6.1458  -6.0242  -5.7936  -5.6577
    -0.3186  -0.1490  -0.0748   0.0425   0.1630   0.1705   6.0108   6.1144
     6.4255   6.6822   6.8804   7.0236   7.2395   7.3379   7.7095   7.8826
     8.0613   8.2615   8.4618   8.6779   8.9942   9.1291   9.1920   9.8488
    13.5388  14.4337  14.5678  14.6791  14.7364  14.8142  15.5797  16.0465

          k =-0.2857 0.2857 0.2500 (  5300 PWs)   bands (ev):

   -45.5088 -45.5009 -22.1985 -22.1916 -22.0405 -22.0331 -21.7275 -21.6927
   -14.9528 -14.8905  -6.8664  -6.7542  -6.1827  -6.1443  -5.7502  -5.5316
    -0.2406  -0.2105  -0.1173  -0.1070   0.1220   0.1680   6.6109   6.8435
     6.8597   7.0408   7.1346   7.3217   7.5055   7.5444   7.7794   7.8612
     8.1271   8.4000   8.6009   8.8116   9.1450   9.3466   9.5221   9.5590
    13.3640  13.7140  13.9625  14.1516  14.3701  14.6326  15.6264  15.7746

          k =-0.2857-0.2857-0.2500 (  5300 PWs)   bands (ev):

   -45.5088 -45.5009 -22.1979 -22.1910 -22.0410 -22.0335 -21.7274 -21.6927
   -14.9538 -14.8907  -6.8819  -6.7556  -6.1720  -6.1362  -5.7553  -5.5323
    -0.2038  -0.1455  -0.1323  -0.1268   0.0948   0.1474   6.6223   7.0774
     7.2021   7.2244   7.3172   7.3655   7.3760   7.4330   7.5957   7.6091
     7.9310   8.2500   8.4853   8.6175   9.1072   9.4535   9.4691   9.5422
    13.3488  13.7215  14.0902  14.4217  14.4616  14.5922  15.7039  15.9788

          k = 0.2857 0.2857-0.2500 (  5300 PWs)   bands (ev):

   -45.5088 -45.5009 -22.1979 -22.1910 -22.0410 -22.0335 -21.7274 -21.6927
   -14.9538 -14.8907  -6.8819  -6.7556  -6.1720  -6.1362  -5.7553  -5.5323
    -0.2044  -0.1446  -0.1326  -0.1266   0.0938   0.1482   6.6223   7.0780
     7.2027   7.2229   7.3172   7.3650   7.3789   7.4317   7.5950   7.6089
     7.9308   8.2497   8.4851   8.6175   9.1074   9.4539   9.4694   9.5420
    13.3487  13.7212  14.0902  14.4207  14.4628  14.5926  15.7038  15.9786

          k =-0.5714 0.2857 0.2500 (  5306 PWs)   bands (ev):

   -45.5084 -45.5005 -22.2114 -22.2042 -22.0475 -22.0403 -21.7260 -21.6917
   -14.9155 -14.8623  -6.7039  -6.6689  -6.1686  -6.1273  -5.7696  -5.5892
    -0.3424  -0.2751  -0.1564  -0.1272   0.1454   0.2016   6.2598   6.3899
     6.6798   6.7607   6.8766   7.1827   7.2891   7.3668   7.6735   7.9069
     8.0623   8.4156   8.6517   8.8059   9.0573   9.2925   9.4492   9.7040
    13.5835  14.1557  14.1879  14.3354  14.4330  14.7681  15.7393  16.4193

          k =-0.5714-0.2857-0.2500 (  5306 PWs)   bands (ev):

   -45.5084 -45.5005 -22.2107 -22.2035 -22.0480 -22.0408 -21.7260 -21.6918
   -14.9167 -14.8626  -6.7059  -6.6957  -6.1422  -6.1214  -5.7769  -5.5903
    -0.3015  -0.2165  -0.1905  -0.1102   0.1231   0.1640   6.4615   6.6217
     6.6795   6.8848   6.9275   7.1694   7.2523   7.3932   7.4819   7.7006
     7.8531   8.4433   8.5149   8.6236   9.0060   9.3166   9.4034   9.7423
    13.5684  14.1587  14.3012  14.5129  14.6045  14.7377  15.8800  16.5213

          k = 0.5714 0.2857-0.2500 (  5306 PWs)   bands (ev):

   -45.5084 -45.5005 -22.2107 -22.2035 -22.0480 -22.0408 -21.7260 -21.6918
   -14.9167 -14.8626  -6.7057  -6.6959  -6.1422  -6.1214  -5.7769  -5.5903
    -0.3016  -0.2166  -0.1901  -0.1105   0.1242   0.1629   6.4610   6.6209
     6.6796   6.8848   6.9290   7.1697   7.2505   7.3927   7.4879   7.6995
     7.8491   8.4415   8.5172   8.6233   9.0049   9.3190   9.4026   9.7423
    13.5682  14.1566  14.3018  14.5130  14.6060  14.7379  15.8802  16.5216

          k =-0.2857 0.5714-0.2500 (  5306 PWs)   bands (ev):

   -45.5084 -45.5005 -22.2077 -22.2009 -22.0513 -22.0435 -21.7260 -21.6917
   -14.9155 -14.8623  -6.7140  -6.6764  -6.1579  -6.1184  -5.7723  -5.5896
    -0.3423  -0.2753  -0.1562  -0.1274   0.1464   0.2010   6.2654   6.4027
     6.6842   6.7706   6.8857   7.1880   7.2931   7.3614   7.6742   7.8881
     8.0591   8.3998   8.6505   8.8084   9.0552   9.2762   9.4470   9.7201
    13.5991  14.1454  14.1813  14.3276  14.4373  14.7628  15.7417  16.4191

          k = 0.2857-0.5714-0.2500 (  5306 PWs)   bands (ev):

   -45.5084 -45.5005 -22.2077 -22.2009 -22.0513 -22.0435 -21.7260 -21.6917
   -14.9155 -14.8623  -6.7139  -6.6766  -6.1576  -6.1186  -5.7723  -5.5897
    -0.3436  -0.2737  -0.1552  -0.1288   0.1462   0.2012   6.2656   6.3996
     6.6840   6.7739   6.8876   7.1882   7.2896   7.3628   7.6738   7.8905
     8.0587   8.3993   8.6489   8.8077   9.0558   9.2765   9.4466   9.7208
    13.5988  14.1445  14.1818  14.3278  14.4373  14.7629  15.7421  16.4190

          k =-0.2857-0.5714 0.2500 (  5306 PWs)   bands (ev):

   -45.5084 -45.5005 -22.2069 -22.2003 -22.0518 -22.0440 -21.7260 -21.6918
   -14.9167 -14.8626  -6.7159  -6.7025  -6.1293  -6.1153  -5.7797  -5.5908
    -0.3022  -0.2163  -0.1908  -0.1095   0.1254   0.1620   6.4683   6.6324
     6.7017   6.8898   6.9337   7.1794   7.2368   7.4041   7.4717   7.6940
     7.8426   8.4318   8.4981   8.6307   9.0043   9.3008   9.4030   9.7571
    13.5835  14.1464  14.2940  14.5234  14.6004  14.7276  15.8824  16.5222

          k = 0.2857 0.5714 0.2500 (  5306 PWs)   bands (ev):

   -45.5084 -45.5005 -22.2069 -22.2003 -22.0518 -22.0440 -21.7260 -21.6918
   -14.9167 -14.8626  -6.7158  -6.7027  -6.1293  -6.1153  -5.7796  -5.5908
    -0.3022  -0.2158  -0.1914  -0.1092   0.1242   0.1630   6.4685   6.6316
     6.6992   6.8920   6.9356   7.1787   7.2364   7.4049   7.4734   7.6932
     7.8406   8.4310   8.5010   8.6294   9.0035   9.3026   9.4012   9.7578
    13.5838  14.1448  14.2943  14.5233  14.6018  14.7272  15.8827  16.5225

          k =-0.8571 0.2857 0.2500 (  5305 PWs)   bands (ev):

   -45.5081 -45.5001 -22.2224 -22.2149 -22.0523 -22.0453 -21.7249 -21.6910
   -14.8855 -14.8396  -6.7141  -6.5040  -6.1573  -6.0692  -5.7792  -5.6318
    -0.4318  -0.2632  -0.1543  -0.0251   0.0406   0.1506   5.9433   6.1720
     6.4117   6.5929   6.8515   6.9689   7.1107   7.2890   7.6258   7.8278
     8.0313   8.4522   8.5275   8.8349   9.0486   9.1878   9.2681   9.8370
    13.7087  14.4631  14.5946  14.6374  14.7168  14.8941  15.7958  16.4126

          k =-0.8571-0.2857-0.2500 (  5305 PWs)   bands (ev):

   -45.5081 -45.5001 -22.2221 -22.2146 -22.0525 -22.0455 -21.7248 -21.6910
   -14.8861 -14.8397  -6.7148  -6.5220  -6.1384  -6.0674  -5.7829  -5.6324
    -0.4152  -0.2319  -0.1733   0.0041   0.0288   0.1135   6.0591   6.2314
     6.3604   6.6528   6.8515   6.9854   7.0684   7.3181   7.5453   7.7328
     8.0121   8.4620   8.4792   8.7679   9.0278   9.2010   9.2326   9.8562
    13.7058  14.5256  14.6146  14.6308  14.8209  14.8817  15.8485  16.4117

          k = 0.8571 0.2857-0.2500 (  5305 PWs)   bands (ev):

   -45.5081 -45.5001 -22.2221 -22.2146 -22.0525 -22.0455 -21.7248 -21.6910
   -14.8861 -14.8397  -6.7147  -6.5222  -6.1382  -6.0676  -5.7829  -5.6324
    -0.4150  -0.2319  -0.1737   0.0042   0.0298   0.1126   6.0594   6.2305
     6.3606   6.6528   6.8525   6.9860   7.0662   7.3186   7.5505   7.7314
     8.0063   8.4635   8.4801   8.7679   9.0272   9.2043   9.2303   9.8562
    13.7051  14.5257  14.6134  14.6309  14.8215  14.8828  15.8489  16.4122

          k =-0.2857 0.8571-0.2500 (  5305 PWs)   bands (ev):

   -45.5081 -45.5001 -22.2158 -22.2092 -22.0589 -22.0510 -21.7249 -21.6910
   -14.8855 -14.8395  -6.7299  -6.5228  -6.1384  -6.0495  -5.7845  -5.6330
    -0.4307  -0.2649  -0.1552  -0.0257   0.0444   0.1491   5.9550   6.1922
     6.4342   6.5945   6.8655   6.9760   7.0851   7.3130   7.6220   7.8225
     8.0060   8.4323   8.5251   8.8279   9.0515   9.1675   9.2605   9.8565
    13.7285  14.4738  14.5880  14.6236  14.7103  14.8818  15.7971  16.4145

          k = 0.2857-0.8571-0.2500 (  5305 PWs)   bands (ev):

   -45.5081 -45.5001 -22.2158 -22.2092 -22.0589 -22.0510 -21.7249 -21.6910
   -14.8855 -14.8395  -6.7299  -6.5228  -6.1383  -6.0495  -5.7845  -5.6330
    -0.4310  -0.2649  -0.1543  -0.0264   0.0446   0.1491   5.9551   6.1907
     6.4353   6.5938   6.8676   6.9761   7.0846   7.3123   7.6218   7.8229
     8.0081   8.4308   8.5227   8.8286   9.0516   9.1691   9.2595   9.8568
    13.7286  14.4748  14.5887  14.6223  14.7094  14.8823  15.7969  16.4145

          k =-0.2857-0.8571 0.2500 (  5305 PWs)   bands (ev):

   -45.5081 -45.5001 -22.2155 -22.2089 -22.0592 -22.0512 -21.7249 -21.6910
   -14.8861 -14.8396  -6.7306  -6.5391  -6.1213  -6.0473  -5.7884  -5.6335
    -0.4143  -0.2340  -0.1745   0.0053   0.0335   0.1104   6.0721   6.2512
     6.3837   6.6584   6.8572   7.0031   7.0393   7.3428   7.5382   7.7275
     7.9864   8.4439   8.4730   8.7615   9.0286   9.1860   9.2222   9.8750
    13.7257  14.5423  14.6057  14.6162  14.8159  14.8671  15.8492  16.4143

          k = 0.2857 0.8571 0.2500 (  5305 PWs)   bands (ev):

   -45.5081 -45.5001 -22.2155 -22.2089 -22.0592 -22.0512 -21.7249 -21.6910
   -14.8861 -14.8396  -6.7305  -6.5393  -6.1212  -6.0474  -5.7883  -5.6335
    -0.4142  -0.2338  -0.1743   0.0053   0.0323   0.1112   6.0727   6.2499
     6.3835   6.6605   6.8576   7.0018   7.0383   7.3437   7.5395   7.7269
     7.9832   8.4466   8.4743   8.7602   9.0283   9.1885   9.2193   9.8754
    13.7256  14.5415  14.6046  14.6162  14.8163  14.8683  15.8495  16.4147

          k =-0.5714 0.5714 0.2500 (  5301 PWs)   bands (ev):

   -45.5080 -45.5001 -22.2188 -22.2118 -22.0595 -22.0520 -21.7248 -21.6908
   -14.8839 -14.8360  -6.5568  -6.4762  -6.1884  -6.1111  -5.7685  -5.5829
    -0.5250  -0.4688  -0.2300  -0.1854  -0.0167   0.1823   6.0079   6.3003
     6.5290   6.5395   6.8741   7.0526   7.2308   7.3185   7.4803   7.6147
     7.7758   8.4131   8.9189   9.0025   9.0495   9.5107   9.5815   9.7368
    13.9501  14.3219  14.3954  14.5268  14.5696  14.9065  15.8596  16.9379

          k =-0.5714-0.5714-0.2500 (  5301 PWs)   bands (ev):

   -45.5080 -45.5001 -22.2179 -22.2110 -22.0602 -22.0526 -21.7247 -21.6909
   -14.8855 -14.8363  -6.5684  -6.5214  -6.1521  -6.0821  -5.7810  -5.5852
    -0.4770  -0.4329  -0.2225  -0.2128  -0.0215   0.1516   6.3056   6.5236
     6.6815   6.8238   6.8499   6.9494   7.0426   7.1760   7.2590   7.3295
     7.6182   8.4704   8.7738   8.9457   9.0051   9.4539   9.5334   9.8381
    13.8977  14.3696  14.4309  14.6727  14.7315  14.8747  16.1186  16.9071

          k = 0.5714 0.5714-0.2500 (  5301 PWs)   bands (ev):

   -45.5080 -45.5001 -22.2179 -22.2110 -22.0602 -22.0526 -21.7247 -21.6909
   -14.8855 -14.8363  -6.5684  -6.5214  -6.1521  -6.0821  -5.7810  -5.5852
    -0.4769  -0.4329  -0.2235  -0.2130  -0.0197   0.1508   6.3052   6.5231
     6.6815   6.8254   6.8500   6.9500   7.0422   7.1750   7.2598   7.3285
     7.6186   8.4699   8.7737   8.9457   9.0052   9.4541   9.5337   9.8378
    13.8976  14.3696  14.4308  14.6723  14.7319  14.8752  16.1187  16.9064

          k =-0.8571 0.5714 0.2500 (  5281 PWs)   bands (ev):

   -45.5077 -45.4997 -22.2285 -22.2212 -22.0653 -22.0580 -21.7238 -21.6901
   -14.8588 -14.8148  -6.4841  -6.3102  -6.1479  -6.1034  -5.7770  -5.5776
    -0.6451  -0.5126  -0.2876  -0.2389  -0.1457   0.0559   5.8427   6.1517
     6.3085   6.5090   6.8561   6.9984   7.0894   7.2201   7.2724   7.5133
     7.6363   8.4046   9.0394   9.1513   9.1982   9.4753   9.5565   9.8791
    14.1147  14.5943  14.6847  14.7650  14.8323  15.0645  15.9270  16.7383

          k =-0.8571-0.5714-0.2500 (  5281 PWs)   bands (ev):

   -45.5077 -45.4997 -22.2281 -22.2209 -22.0656 -22.0582 -21.7238 -21.6901
   -14.8595 -14.8149  -6.4925  -6.3454  -6.1172  -6.0842  -5.7849  -5.5790
    -0.6255  -0.4833  -0.3333  -0.2187  -0.1441   0.0438   5.9966   6.1821
     6.3633   6.6047   6.8646   6.9188   7.0363   7.0995   7.2704   7.3597
     7.6189   8.4311   9.0275   9.0772   9.2296   9.4200   9.5365   9.9250
    14.0939  14.5954  14.7263  14.7746  14.8923  15.0593  16.0398  16.7846

          k = 0.8571 0.5714-0.2500 (  5281 PWs)   bands (ev):

   -45.5077 -45.4997 -22.2281 -22.2209 -22.0656 -22.0582 -21.7238 -21.6901
   -14.8595 -14.8149  -6.4924  -6.3454  -6.1174  -6.0840  -5.7849  -5.5790
    -0.6252  -0.4831  -0.3350  -0.2178  -0.1427   0.0429   5.9967   6.1819
     6.3634   6.6042   6.8653   6.9186   7.0390   7.0949   7.2738   7.3602
     7.6165   8.4316   9.0283   9.0768   9.2289   9.4221   9.5346   9.9251
    14.0937  14.5951  14.7256  14.7744  14.8926  15.0603  16.0404  16.7836

          k =-0.5714 0.8571-0.2500 (  5281 PWs)   bands (ev):

   -45.5077 -45.4997 -22.2255 -22.2187 -22.0683 -22.0606 -21.7238 -21.6901
   -14.8588 -14.8148  -6.4986  -6.3251  -6.1305  -6.0882  -5.7807  -5.5783
    -0.6442  -0.5147  -0.2864  -0.2350  -0.1505   0.0571   5.8489   6.1577
     6.3214   6.5151   6.8653   6.9903   7.0953   7.2264   7.2578   7.5208
     7.6118   8.3991   9.0396   9.1460   9.1988   9.4726   9.5418   9.8955
    14.1276  14.5947  14.6793  14.7621  14.8317  15.0570  15.9263  16.7320

          k = 0.5714-0.8571-0.2500 (  5281 PWs)   bands (ev):

   -45.5077 -45.4997 -22.2255 -22.2187 -22.0683 -22.0606 -21.7238 -21.6901
   -14.8588 -14.8148  -6.4987  -6.3250  -6.1307  -6.0880  -5.7807  -5.5783
    -0.6438  -0.5155  -0.2891  -0.2310  -0.1510   0.0567   5.8492   6.1573
     6.3214   6.5146   6.8636   6.9910   7.0972   7.2264   7.2596   7.5190
     7.6131   8.3974   9.0383   9.1470   9.1980   9.4739   9.5417   9.8959
    14.1276  14.5948  14.6812  14.7610  14.8308  15.0570  15.9261  16.7326

          k =-0.5714-0.8571 0.2500 (  5281 PWs)   bands (ev):

   -45.5077 -45.4997 -22.2251 -22.2183 -22.0686 -22.0608 -21.7238 -21.6901
   -14.8595 -14.8149  -6.5062  -6.3564  -6.1008  -6.0722  -5.7889  -5.5797
    -0.6243  -0.4863  -0.3337  -0.2122  -0.1481   0.0440   6.0032   6.1923
     6.3767   6.6068   6.8786   6.9274   7.0318   7.0701   7.2737   7.3733
     7.5954   8.4237   9.0250   9.0752   9.2296   9.4176   9.5247   9.9387
    14.1062  14.5939  14.7200  14.7781  14.8912  15.0502  16.0389  16.7788

          k = 0.5714 0.8571 0.2500 (  5281 PWs)   bands (ev):

   -45.5077 -45.4997 -22.2251 -22.2183 -22.0686 -22.0608 -21.7238 -21.6901
   -14.8595 -14.8149  -6.5062  -6.3564  -6.1010  -6.0721  -5.7888  -5.5797
    -0.6245  -0.4864  -0.3303  -0.2156  -0.1489   0.0451   6.0035   6.1924
     6.3768   6.6058   6.8788   6.9275   7.0327   7.0687   7.2736   7.3753
     7.5931   8.4250   9.0257   9.0745   9.2290   9.4199   9.5223   9.9391
    14.1064  14.5931  14.7193  14.7783  14.8914  15.0507  16.0393  16.7776

          k =-0.8571 0.8571 0.2500 (  5273 PWs)   bands (ev):

   -45.5074 -45.4994 -22.2341 -22.2271 -22.0747 -22.0673 -21.7229 -21.6894
   -14.8373 -14.7948  -6.2571  -6.2315  -6.1030  -6.0791  -5.8150  -5.5373
    -0.7657  -0.6817  -0.5647  -0.2966  -0.2561  -0.0273   5.7133   6.0392
     6.2402   6.4209   6.6862   6.9851   7.0134   7.0828   7.1637   7.3741
     7.5357   8.3382   9.3637   9.3946   9.4731   9.5882   9.9121   9.9265
    14.3710  14.7145  14.8571  14.9231  15.0168  15.2351  15.8830  16.6403

          k =-0.8571-0.8571-0.2500 (  5273 PWs)   bands (ev):

   -45.5074 -45.4994 -22.2339 -22.2269 -22.0749 -22.0674 -21.7229 -21.6894
   -14.8376 -14.7948  -6.2990  -6.1953  -6.1336  -6.0361  -5.8218  -5.5384
    -0.7596  -0.6559  -0.5891  -0.2854  -0.2705  -0.0254   5.7622   6.0800
     6.3650   6.4418   6.5021   6.9650   6.9792   7.0766   7.2302   7.2808
     7.5339   8.3504   9.3624   9.3976   9.4340   9.5937   9.8320  10.0082
    14.3559  14.6944  14.8883  14.9268  15.0294  15.2400  15.9303  16.9968

          k = 0.8571 0.8571-0.2500 (  5273 PWs)   bands (ev):

   -45.5074 -45.4994 -22.2339 -22.2269 -22.0749 -22.0674 -21.7229 -21.6894
   -14.8376 -14.7948  -6.2990  -6.1953  -6.1337  -6.0361  -5.8218  -5.5384
    -0.7592  -0.6558  -0.5904  -0.2854  -0.2691  -0.0260   5.7621   6.0800
     6.3648   6.4418   6.5022   6.9651   6.9793   7.0767   7.2298   7.2811
     7.5338   8.3503   9.3623   9.3977   9.4340   9.5938   9.8320  10.0081
    14.3559  14.6946  14.8882  14.9267  15.0294  15.2401  15.9303  16.6633

          k = 0.0000 0.2857 0.5000 (  5332 PWs)   bands (ev):

   -45.5090 -45.5011 -22.1929 -22.1862 -22.0371 -22.0296 -21.7143 -21.7070
   -14.9385 -14.9347  -6.8715  -6.8649  -6.1659  -6.1585  -5.6333  -5.6313
    -0.1872  -0.1848  -0.0182  -0.0156   0.0527   0.0536   7.0200   7.0214
     7.2095   7.2138   7.3309   7.3325   7.5805   7.5832   7.8274   7.8323
     8.1912   8.1948   8.5198   8.5227   9.1873   9.1922   9.4229   9.4272
    13.7835  13.7906  14.0066  14.0135  14.2435  14.2535  16.1018  16.1107

          k = 0.0000 0.5714 0.5000 (  5308 PWs)   bands (ev):

   -45.5086 -45.5007 -22.2027 -22.1963 -22.0473 -22.0395 -21.7130 -21.7058
   -14.9041 -14.9002  -6.7699  -6.7626  -6.1369  -6.1303  -5.6944  -5.6923
    -0.2418  -0.2383   0.0395   0.0418   0.0814   0.0823   6.5037   6.5077
     6.9331   6.9349   7.0516   7.0555   7.3928   7.3949   7.7278   7.7301
     8.2808   8.2850   8.4771   8.4798   9.0762   9.0811   9.5164   9.5213
    13.9000  13.9070  14.2747  14.2794  14.4479  14.4543  16.0291  16.0387

          k = 0.0000 0.8571 0.5000 (  5306 PWs)   bands (ev):

   -45.5083 -45.5003 -22.2117 -22.2055 -22.0543 -22.0463 -21.7120 -21.7048
   -14.8761 -14.8722  -6.7192  -6.7114  -6.0900  -6.0842  -5.7292  -5.7269
    -0.2391  -0.2338   0.0335   0.0353   0.1066   0.1098   6.0849   6.0886
     6.7439   6.7479   6.9561   6.9591   7.1773   7.1789   7.6438   7.6454
     8.3115   8.3167   8.4553   8.4591   9.0096   9.0147   9.5158   9.5215
    13.9720  13.9794  14.6288  14.6369  14.7510  14.7601  15.8999  15.9098

          k =-0.2857-0.2857 0.5000 (  5326 PWs)   bands (ev):

   -45.5088 -45.5009 -22.1979 -22.1911 -22.0409 -22.0336 -21.7137 -21.7065
   -14.9244 -14.9206  -6.8137  -6.8074  -6.1580  -6.1503  -5.6566  -5.6549
    -0.2104  -0.2076  -0.1307  -0.1277   0.1578   0.1593   6.8731   6.8748
     7.2663   7.2675   7.2931   7.2945   7.4988   7.5034   7.5164   7.5200
     8.2425   8.2443   8.3823   8.3871   9.1748   9.1762   9.4975   9.4990
    13.8662  13.8733  14.1077  14.1164  14.3103  14.3201  16.4527  16.4600

          k =-0.5714-0.2857 0.5000 (  5304 PWs)   bands (ev):

   -45.5084 -45.5005 -22.2106 -22.2036 -22.0480 -22.0408 -21.7125 -21.7053
   -14.8918 -14.8879  -6.6911  -6.6854  -6.1406  -6.1324  -5.6946  -5.6936
    -0.2862  -0.2841  -0.1609  -0.1574   0.1787   0.1810   6.5920   6.5947
     6.7148   6.7196   7.1170   7.1199   7.3478   7.3521   7.5381   7.5425
     8.1491   8.1533   8.5242   8.5287   9.1180   9.1208   9.5699   9.5727
    14.0172  14.0255  14.3672  14.3731  14.5109  14.5162  16.4271  16.4376

          k =-0.2857 0.5714 0.5000 (  5304 PWs)   bands (ev):

   -45.5084 -45.5005 -22.2076 -22.2010 -22.0512 -22.0436 -21.7125 -21.7053
   -14.8910 -14.8871  -6.6875  -6.6804  -6.1450  -6.1384  -5.6921  -5.6901
    -0.3266  -0.3232  -0.1634  -0.1605   0.2104   0.2122   6.2993   6.3026
     6.8109   6.8151   7.0565   7.0585   7.3446   7.3464   7.7589   7.7606
     8.1495   8.1546   8.7215   8.7250   9.1938   9.1966   9.5203   9.5239
    13.9443  13.9502  14.2821  14.2884  14.4438  14.4505  16.4020  16.4107

          k =-0.2857-0.5714-0.5000 (  5304 PWs)   bands (ev):

   -45.5084 -45.5005 -22.2068 -22.2003 -22.0518 -22.0441 -21.7125 -21.7053
   -14.8918 -14.8879  -6.7006  -6.6937  -6.1299  -6.1230  -5.6969  -5.6949
    -0.2871  -0.2837  -0.1604  -0.1576   0.1793   0.1808   6.5989   6.6025
     6.7315   6.7348   7.1218   7.1255   7.3506   7.3520   7.5285   7.5319
     8.1412   8.1441   8.5154   8.5211   9.1076   9.1097   9.5801   9.5833
    14.0302  14.0369  14.3579  14.3645  14.5023  14.5088  16.4351  16.4443

          k =-0.8571-0.2857 0.5000 (  5292 PWs)   bands (ev):

   -45.5081 -45.5001 -22.2220 -22.2147 -22.0525 -22.0455 -21.7116 -21.7044
   -14.8650 -14.8610  -6.6162  -6.6107  -6.1104  -6.1019  -5.7114  -5.7109
    -0.3306  -0.3285  -0.0960  -0.0913   0.0773   0.0796   6.1464   6.1529
     6.5209   6.5232   7.0274   7.0293   7.2078   7.2113   7.5579   7.5646
     8.1887   8.1940   8.5888   8.5933   9.0766   9.0799   9.5413   9.5450
    14.0989  14.1083  14.7028  14.7074  14.7502  14.7551  16.3071  16.3167

          k =-0.2857 0.8571 0.5000 (  5292 PWs)   bands (ev):

   -45.5081 -45.5001 -22.2157 -22.2093 -22.0589 -22.0510 -21.7116 -21.7044
   -14.8646 -14.8607  -6.6283  -6.6206  -6.0969  -6.0911  -5.7134  -5.7112
    -0.3456  -0.3416  -0.1124  -0.1101   0.1044   0.1066   6.0621   6.0658
     6.5674   6.5709   7.0166   7.0182   7.2178   7.2200   7.6103   7.6132
     8.1654   8.1701   8.6614   8.6651   9.1048   9.1082   9.5273   9.5325
    14.0835  14.0904  14.6578  14.6628  14.7177  14.7231  16.3138  16.3230

          k =-0.2857-0.8571-0.5000 (  5292 PWs)   bands (ev):

   -45.5081 -45.5001 -22.2153 -22.2090 -22.0591 -22.0512 -21.7116 -21.7044
   -14.8649 -14.8610  -6.6343  -6.6267  -6.0897  -6.0838  -5.7158  -5.7136
    -0.3305  -0.3264  -0.0984  -0.0960   0.0800   0.0822   6.1656   6.1699
     6.5401   6.5428   7.0294   7.0324   7.2078   7.2093   7.5501   7.5533
     8.1701   8.1747   8.5813   8.5869   9.0624   9.0653   9.5552   9.5602
    14.1182  14.1253  14.6859  14.6927  14.7423  14.7488  16.3099  16.3192

          k =-0.5714-0.5714 0.5000 (  5290 PWs)   bands (ev):

   -45.5080 -45.5001 -22.2178 -22.2111 -22.0601 -22.0527 -21.7114 -21.7042
   -14.8630 -14.8591  -6.5381  -6.5320  -6.1213  -6.1137  -5.6958  -5.6942
    -0.4001  -0.3976  -0.3249  -0.3215   0.1118   0.1138   6.4397   6.4427
     6.6711   6.6754   6.8834   6.8897   7.2155   7.2169   7.3680   7.3694
     7.9017   7.9025   8.8768   8.8824   9.1961   9.1982   9.6887   9.6903
    14.2285  14.2342  14.5990  14.6044  14.6121  14.6204  16.9738  16.9826

          k =-0.8571-0.5714 0.5000 (  5278 PWs)   bands (ev):

   -45.5077 -45.4997 -22.2280 -22.2210 -22.0655 -22.0583 -21.7106 -21.7034
   -14.8393 -14.8353  -6.4136  -6.4081  -6.1087  -6.1002  -5.6895  -5.6884
    -0.4926  -0.4909  -0.3261  -0.3215  -0.0788  -0.0772   6.1634   6.1697
     6.4058   6.4109   6.8845   6.8872   7.2086   7.2134   7.3544   7.3550
     7.8489   7.8505   9.0716   9.0770   9.3191   9.3209   9.6684   9.6713
    14.3802  14.3877  14.7686  14.7739  14.8798  14.8868  16.8541  16.8620

          k =-0.5714 0.8571 0.5000 (  5278 PWs)   bands (ev):

   -45.5077 -45.4997 -22.2253 -22.2188 -22.0682 -22.0606 -21.7106 -21.7034
   -14.8389 -14.8349  -6.4117  -6.4042  -6.1123  -6.1063  -5.6871  -5.6850
    -0.5160  -0.5138  -0.3146  -0.3128  -0.0732  -0.0711   6.0501   6.0540
     6.3634   6.3684   6.9884   6.9907   7.2347   7.2362   7.4553   7.4590
     7.7962   7.8002   9.1208   9.1261   9.3679   9.3708   9.6201   9.6237
    14.3647  14.3708  14.7432  14.7498  14.8660  14.8750  16.7611  16.7684

          k =-0.5714-0.8571-0.5000 (  5278 PWs)   bands (ev):

   -45.5077 -45.4997 -22.2250 -22.2184 -22.0685 -22.0609 -21.7106 -21.7034
   -14.8393 -14.8353  -6.4281  -6.4208  -6.0921  -6.0857  -5.6925  -5.6904
    -0.4909  -0.4889  -0.3288  -0.3264  -0.0768  -0.0747   6.1768   6.1810
     6.4155   6.4199   6.8862   6.8919   7.1892   7.1923   7.3623   7.3642
     7.8361   7.8393   9.0714   9.0771   9.3130   9.3148   9.6749   9.6777
    14.3916  14.3975  14.7672  14.7728  14.8680  14.8766  16.8553  16.8629

          k =-0.8571-0.8571 0.5000 (  5276 PWs)   bands (ev):

   -45.5073 -45.4994 -22.2338 -22.2270 -22.0748 -22.0674 -21.7098 -21.7026
   -14.8184 -14.8143  -6.2458  -6.2393  -6.0895  -6.0820  -5.6896  -5.6877
    -0.5656  -0.5636  -0.4751  -0.4713  -0.2817  -0.2793   5.9880   5.9929
     6.4584   6.4659   6.6423   6.6482   7.1498   7.1516   7.3698   7.3715
     7.6798   7.6822   9.3796   9.3859   9.5874   9.5895   9.7777   9.7796
    14.5831  14.5888  14.9001  14.9052  15.0475  15.0568  16.7637  16.7680

     the Fermi energy is    11.6984 ev

!    total energy              =   -1362.17210364 Ry
     estimated scf accuracy    <          3.8E-10 Ry
     smearing contrib. (-TS)   =       0.00000000 Ry
     internal energy E=F+TS    =   -1362.17210364 Ry

     The total energy is F=E-TS. E is the sum of the following terms:
     one-electron contribution =    -161.14374020 Ry
     hartree contribution      =     130.37803282 Ry
     xc contribution           =    -122.18534366 Ry
     ewald contribution        =    -402.20872805 Ry
     one-center paw contrib.   =    -807.01232455 Ry

     convergence has been achieved in  20 iterations

     negative rho (up, down):  1.711E-03 0.000E+00

     Forces acting on atoms (cartesian axes, Ry/au):

     atom    1 type  1   force =    -0.00001545   -0.00000775   -0.00036184
     atom    2 type  1   force =    -0.00000805    0.00003281    0.00035682
     atom    3 type  2   force =     0.15514523    0.14289805   -0.00013854
     atom    4 type  2   force =    -0.15488718   -0.14417428    0.00015115
     atom    5 type  3   force =    -0.17453487    0.01524105    0.00003931
     atom    6 type  3   force =     0.17449956   -0.01516336   -0.00004813
     atom    7 type  3   force =     0.01407638   -0.16469168   -0.00040376
     atom    8 type  3   force =    -0.01420040    0.16592166    0.00041823
     atom    9 type  3   force =    -0.00003706   -0.00006154   -0.00045809
     atom   10 type  3   force =    -0.00003816    0.00000504    0.00044486

     Total force =     0.453536     Total SCF correction =     0.000013
     Message from routine punch:
     Nothing written, as per user request (disk_io='none')

     init_run     :     16.38s CPU     17.21s WALL (       1 calls)
     electrons    :    722.76s CPU    742.74s WALL (       1 calls)
     forces       :      7.22s CPU      7.44s WALL (       1 calls)

     Called by init_run:
     wfcinit      :      5.28s CPU      5.44s WALL (       1 calls)
     potinit      :      3.14s CPU      3.48s WALL (       1 calls)
     hinit0       :      2.60s CPU      2.68s WALL (       1 calls)

     Called by electrons:
     c_bands      :    559.94s CPU    562.45s WALL (      20 calls)
     sum_band     :     94.88s CPU    101.36s WALL (      20 calls)
     v_of_rho     :     11.29s CPU     12.24s WALL (      21 calls)
     newd         :     16.90s CPU     22.14s WALL (      21 calls)
     PAW_pot      :     37.82s CPU     43.08s WALL (      21 calls)
     mix_rho      :      2.30s CPU      2.31s WALL (      20 calls)

     Called by c_bands:
     init_us_2    :     18.53s CPU     18.62s WALL (     546 calls)
     cegterg      :    237.34s CPU    239.50s WALL (     260 calls)

     Called by *egterg:
     cdiaghg      :      4.26s CPU      4.29s WALL (    1009 calls)
     h_psi        :    140.23s CPU    141.58s WALL (    1022 calls)
     s_psi        :     20.13s CPU     20.17s WALL (    1022 calls)
     g_psi        :      1.22s CPU      1.23s WALL (     749 calls)

     Called by h_psi:
     h_psi:calbec :     22.94s CPU     22.98s WALL (    1022 calls)
     vloc_psi     :     93.37s CPU     93.95s WALL (    1022 calls)
                                        0.00s GPU  (    1022 calls)
     add_vuspsi   :     20.12s CPU     20.15s WALL (    1022 calls)

     General routines
     calbec       :     32.61s CPU     32.66s WALL (    1334 calls)
     fft          :      4.23s CPU      4.25s WALL (     282 calls)
     ffts         :      0.48s CPU      0.48s WALL (      41 calls)
     fftw         :     85.47s CPU     85.97s WALL (   69414 calls)
     interpolate  :      1.06s CPU      1.06s WALL (      21 calls)

     Parallel routines

     PWSCF        :  12m28.01s CPU  12m49.12s WALL


   This run was terminated on:  23:26: 4   4Oct2026            

=------------------------------------------------------------------------------=
   JOB DONE.
=------------------------------------------------------------------------------=
