
     Program PWSCF v.7.5 starts on  4Oct2026 at  6: 6:56 

     This program is part of the open-source Quantum ESPRESSO suite
     for quantum simulation of materials; please cite
         "P. Giannozzi et al., J. Phys.:Condens. Matter 21 395502 (2009);
         "P. Giannozzi et al., J. Phys.:Condens. Matter 29 465901 (2017);
         "P. Giannozzi et al., J. Chem. Phys. 152 154105 (2020);
          URL http://www.quantum-espresso.org", 
     in publications or presentations arising from this work. More details at
     http://www.quantum-espresso.org/quote

     Parallel version (MPI & OpenMP), running on       8 processor cores
     Number of MPI processes:                 8
     Threads/MPI process:                     1

     MPI processes distributed on     1 nodes
     91402 MiB available memory on the printing compute node when the environment starts

     Reading input from pw.in

     Current dimensions of program PWSCF are:
     Max number of different atomic species (ntypx) = 10
     Max number of k-points (npk) =  40000
     Max angular momentum in pseudopotentials (lmaxx) =  4
     file Ba.pbe-spn-kjpaw_psl.1.0.0.UPF: wavefunction(s)  5S 6S renormalized
     file O.pbe-n-kjpaw_psl.0.1.UPF: wavefunction(s)  2P renormalized

     K-points division:     npool     =       4
     R & G space division:  proc/nbgrp/npool/nimage =       2
     Subspace diagonalization in iterative solution of the eigenvalue problem:
     a serial algorithm will be used


     Parallelization info
     --------------------
     sticks:   dense  smooth     PW     G-vecs:    dense   smooth      PW
     Min        3704    1852    503               239536    84620   12202
     Max        3705    1853    506               239537    84625   12203
     Sum        7409    3705   1009               479073   169245   24405

     Using Slab Decomposition



     bravais-lattice index     =            0
     lattice parameter (alat)  =      15.2465  a.u.
     unit-cell volume          =    3544.1285 (a.u.)^3
     number of atoms/cell      =           40
     number of atomic types    =            3
     number of electrons       =       320.00
     number of Kohn-Sham states=          192
     kinetic-energy cutoff     =      50.0000  Ry
     charge density cutoff     =     400.0000  Ry
     scf convergence threshold =      4.0E-09
     mixing beta               =       0.4000
     number of iterations used =            8  plain     mixing
     Exchange-correlation= SLA  PW   PBX  PBC
                           (   1   4   3   4   0   0   0)

     celldm(1)=  15.246488  celldm(2)=   0.000000  celldm(3)=   0.000000
     celldm(4)=   0.000000  celldm(5)=   0.000000  celldm(6)=   0.000000

     crystal axes: (cart. coord. in units of alat)
               a(1) = (   1.000000  -0.000000  -0.000000 )  
               a(2) = (  -0.000000   1.000000   0.000000 )  
               a(3) = (  -0.000000  -0.000000   1.000000 )  

     reciprocal axes: (cart. coord. in units 2 pi/alat)
               b(1) = (  1.000000  0.000000  0.000000 )  
               b(2) = (  0.000000  1.000000  0.000000 )  
               b(3) = (  0.000000  0.000000  1.000000 )  


     PseudoPot. # 1 for Ba read from file:
     /root/sssp/Ba.pbe-spn-kjpaw_psl.1.0.0.UPF
     MD5 check sum: c432291d3e53af55f19d5e8866385beb
     Pseudo is Projector augmented-wave + core cor, Zval = 10.0
     Generated using "atomic" code by A. Dal Corso  v.5.1
     Shape of augmentation charge: PSQ
     Using radial grid of 1251 points,  7 beta functions with: 
                l(1) =   0
                l(2) =   0
                l(3) =   0
                l(4) =   1
                l(5) =   1
                l(6) =   2
                l(7) =   2
     Q(r) pseudized with 0 coefficients 


     PseudoPot. # 2 for Ti read from file:
     /root/sssp/ti_pbe_v1.4.uspp.F.UPF
     MD5 check sum: 88a00a6731bd790ddea75d31a80cb452
     Pseudo is Ultrasoft + core correction, Zval = 12.0
     Generated by new atomic code, or converted to UPF format
     Using radial grid of  851 points,  6 beta functions with: 
                l(1) =   0
                l(2) =   0
                l(3) =   1
                l(4) =   1
                l(5) =   2
                l(6) =   2
     Q(r) pseudized with  6 coefficients,  rinner =    1.000   1.000   1.000
                                                       1.000   1.000

     PseudoPot. # 3 for O  read from file:
     /root/sssp/O.pbe-n-kjpaw_psl.0.1.UPF
     MD5 check sum: 0234752ac141de4415c5fc33072bef88
     Pseudo is Projector augmented-wave + core cor, Zval =  6.0
     Generated using "atomic" code by A. Dal Corso  v.5.0.99 svn rev. 10869
     Shape of augmentation charge: BESSEL
     Using radial grid of 1095 points,  4 beta functions with: 
                l(1) =   0
                l(2) =   0
                l(3) =   1
                l(4) =   1
     Q(r) pseudized with 0 coefficients 


     atomic species   valence    mass     pseudopotential
     Ba               10.00   137.32700     Ba( 1.00)
     Ti               12.00    47.86700     Ti( 1.00)
     O                 6.00    15.99900     O ( 1.00)

     No symmetry found



   Cartesian axes

     site n.     atom                  positions (alat units)
         1        Ba     tau(   1) = (   0.0120041  -0.0081713   0.0149191  )
         2        Ba     tau(   2) = (   0.4895786   0.0159484  -0.0036901  )
         3        Ba     tau(   3) = (   0.0055283   0.5012088  -0.0011769  )
         4        Ba     tau(   4) = (   0.5108975   0.5097995  -0.0148509  )
         5        Ba     tau(   5) = (  -0.0158879  -0.0092931   0.4939514  )
         6        Ba     tau(   6) = (   0.4870009  -0.0032116   0.5148312  )
         7        Ba     tau(   7) = (   0.0040111   0.5069354   0.4919016  )
         8        Ba     tau(   8) = (   0.5101269   0.4948608   0.5001246  )
         9        Ti     tau(   9) = (   0.2377240   0.2534589   0.2505574  )
        10        Ti     tau(  10) = (   0.7488759   0.2513066   0.2408951  )
        11        Ti     tau(  11) = (   0.2543612   0.7407193   0.2623429  )
        12        Ti     tau(  12) = (   0.7353564   0.7575755   0.2586720  )
        13        Ti     tau(  13) = (   0.2403196   0.2473467   0.7406583  )
        14        Ti     tau(  14) = (   0.7593503   0.2487071   0.7452902  )
        15        Ti     tau(  15) = (   0.2485864   0.7469973   0.7589045  )
        16        Ti     tau(  16) = (   0.7573718   0.7430760   0.7533935  )
        17        O      tau(  17) = (   0.0107043   0.2475282   0.2468229  )
        18        O      tau(  18) = (   0.5058373   0.2675743   0.2306908  )
        19        O      tau(  19) = (   0.0138276   0.7419234   0.2566246  )
        20        O      tau(  20) = (   0.5098905   0.7516527   0.2571593  )
        21        O      tau(  21) = (   0.0102722   0.2447104   0.7223643  )
        22        O      tau(  22) = (   0.5087260   0.2537356   0.7560880  )
        23        O      tau(  23) = (  -0.0068431   0.7229760   0.7421874  )
        24        O      tau(  24) = (   0.4955863   0.7362850   0.7500408  )
        25        O      tau(  25) = (   0.2449106   0.0068149   0.2694723  )
        26        O      tau(  26) = (   0.7537738  -0.0000351   0.2432990  )
        27        O      tau(  27) = (   0.2580615   0.5078304   0.2475482  )
        28        O      tau(  28) = (   0.7497185   0.5075848   0.2542540  )
        29        O      tau(  29) = (   0.2369441  -0.0055516   0.7461080  )
        30        O      tau(  30) = (   0.7539871  -0.0070198   0.7583801  )
        31        O      tau(  31) = (   0.2402852   0.4998273   0.7667765  )
        32        O      tau(  32) = (   0.7544920   0.5029160   0.7364400  )
        33        O      tau(  33) = (   0.2411387   0.2333409   0.0122904  )
        34        O      tau(  34) = (   0.7580200   0.2477364   0.0086727  )
        35        O      tau(  35) = (   0.2535948   0.7492834   0.0080059  )
        36        O      tau(  36) = (   0.7434755   0.7285196  -0.0050446  )
        37        O      tau(  37) = (   0.2416598   0.2748946   0.4967971  )
        38        O      tau(  38) = (   0.7483420   0.2380507   0.5086387  )
        39        O      tau(  39) = (   0.2495560   0.7461446   0.5048970  )
        40        O      tau(  40) = (   0.7500773   0.7663002   0.4836810  )

     number of k points=    36  Marzari-Vanderbilt smearing, width (Ry)=  0.0050
                       cart. coord. in units 2pi/alat
        k(    1) = (   0.0000000   0.0000000   0.0000000), wk =   0.0312500
        k(    2) = (   0.0000000   0.0000000   0.2500000), wk =   0.0625000
        k(    3) = (   0.0000000   0.0000000  -0.5000000), wk =   0.0312500
        k(    4) = (   0.0000000   0.2500000   0.2500000), wk =   0.0625000
        k(    5) = (   0.0000000   0.2500000  -0.5000000), wk =   0.0625000
        k(    6) = (   0.0000000  -0.5000000  -0.5000000), wk =   0.0312500
        k(    7) = (   0.2500000   0.2500000   0.2500000), wk =   0.0625000
        k(    8) = (   0.2500000   0.2500000  -0.5000000), wk =   0.0625000
        k(    9) = (   0.2500000  -0.5000000  -0.5000000), wk =   0.0625000
        k(   10) = (  -0.5000000  -0.5000000  -0.5000000), wk =   0.0312500
        k(   11) = (   0.2500000   0.0000000   0.0000000), wk =   0.0625000
        k(   12) = (   0.0000000   0.2500000   0.0000000), wk =   0.0625000
        k(   13) = (  -0.5000000   0.0000000   0.0000000), wk =   0.0312500
        k(   14) = (   0.0000000  -0.5000000   0.0000000), wk =   0.0312500
        k(   15) = (   0.0000000  -0.2500000   0.2500000), wk =   0.0625000
        k(   16) = (   0.2500000   0.0000000  -0.2500000), wk =   0.0625000
        k(   17) = (  -0.2500000   0.0000000  -0.2500000), wk =   0.0625000
        k(   18) = (   0.2500000  -0.2500000   0.0000000), wk =   0.0625000
        k(   19) = (  -0.2500000  -0.2500000   0.0000000), wk =   0.0625000
        k(   20) = (   0.2500000   0.0000000   0.5000000), wk =   0.0625000
        k(   21) = (  -0.5000000  -0.2500000   0.0000000), wk =   0.0625000
        k(   22) = (   0.0000000  -0.5000000   0.2500000), wk =   0.0625000
        k(   23) = (   0.2500000  -0.5000000   0.0000000), wk =   0.0625000
        k(   24) = (  -0.5000000   0.0000000   0.2500000), wk =   0.0625000
        k(   25) = (  -0.5000000   0.0000000   0.5000000), wk =   0.0312500
        k(   26) = (  -0.5000000   0.5000000   0.0000000), wk =   0.0312500
        k(   27) = (  -0.2500000  -0.2500000   0.2500000), wk =   0.0625000
        k(   28) = (  -0.2500000   0.2500000  -0.2500000), wk =   0.0625000
        k(   29) = (   0.2500000  -0.2500000  -0.2500000), wk =   0.0625000
        k(   30) = (  -0.2500000   0.2500000   0.5000000), wk =   0.0625000
        k(   31) = (  -0.5000000  -0.2500000   0.2500000), wk =   0.0625000
        k(   32) = (   0.5000000  -0.2500000  -0.2500000), wk =   0.0625000
        k(   33) = (  -0.2500000  -0.5000000   0.2500000), wk =   0.0625000
        k(   34) = (  -0.2500000   0.5000000  -0.2500000), wk =   0.0625000
        k(   35) = (  -0.5000000   0.2500000   0.5000000), wk =   0.0625000
        k(   36) = (  -0.5000000   0.5000000   0.2500000), wk =   0.0625000

     Dense  grid:   479073 G-vectors     FFT dimensions: ( 100, 100, 100)

     Smooth grid:   169245 G-vectors     FFT dimensions: (  72,  72,  72)

     Estimated max dynamical RAM per process >     795.75 MB

     Estimated total dynamical RAM >       5.87 GB

     Check: negative core charge=   -0.000004

     Initial potential from superposition of free atoms

     starting charge     311.8636, renormalised to     320.0000

     negative rho (up, down):  1.029E-02 0.000E+00
     Starting wfcs are  216 randomized atomic wfcs
     Checking if some PAW data can be deallocated... 

     total cpu time spent up to now is       52.8 secs

     per-process dynamical memory:   531.7 Mb

     Self-consistent Calculation

     iteration #  1     ecut=    50.00 Ry     beta= 0.40
     Davidson diagonalization with overlap
     ethr =  1.00E-02,  avg # of iterations =  2.0

     negative rho (up, down):  9.846E-02 0.000E+00

     total cpu time spent up to now is      187.6 secs

     total energy              =   -5446.37506360 Ry
     estimated scf accuracy    <       7.90272012 Ry

     iteration #  2     ecut=    50.00 Ry     beta= 0.40
     Davidson diagonalization with overlap
     ethr =  2.47E-03,  avg # of iterations =  4.0

     negative rho (up, down):  1.450E-01 0.000E+00

     total cpu time spent up to now is      346.6 secs

     total energy              =   -5446.36751531 Ry
     estimated scf accuracy    <      13.35987085 Ry

     iteration #  3     ecut=    50.00 Ry     beta= 0.40
     Davidson diagonalization with overlap
     ethr =  2.47E-03,  avg # of iterations =  2.9

     negative rho (up, down):  2.446E-01 0.000E+00

     total cpu time spent up to now is      485.5 secs

     total energy              =   -5448.83897531 Ry
     estimated scf accuracy    <       0.93979461 Ry

     iteration #  4     ecut=    50.00 Ry     beta= 0.40
     Davidson diagonalization with overlap
     ethr =  2.94E-04,  avg # of iterations =  4.0

     negative rho (up, down):  2.813E-01 0.000E+00

     total cpu time spent up to now is      632.5 secs

     total energy              =   -5448.88825272 Ry
     estimated scf accuracy    <       0.33974059 Ry

     iteration #  5     ecut=    50.00 Ry     beta= 0.40
     Davidson diagonalization with overlap
     ethr =  1.06E-04,  avg # of iterations =  2.6

     negative rho (up, down):  2.218E-01 0.000E+00

     total cpu time spent up to now is      765.2 secs

     total energy              =   -5448.90957101 Ry
     estimated scf accuracy    <       0.10932028 Ry

     iteration #  6     ecut=    50.00 Ry     beta= 0.40
     Davidson diagonalization with overlap
     ethr =  3.42E-05,  avg # of iterations =  2.8

     negative rho (up, down):  1.373E-01 0.000E+00

     total cpu time spent up to now is      896.2 secs

     total energy              =   -5448.91743911 Ry
     estimated scf accuracy    <       0.04326047 Ry

     iteration #  7     ecut=    50.00 Ry     beta= 0.40
     Davidson diagonalization with overlap
     c_bands:  1 eigenvalues not converged
     ethr =  1.35E-05,  avg # of iterations =  5.7

     negative rho (up, down):  3.011E-02 0.000E+00

     total cpu time spent up to now is     1036.8 secs

     total energy              =   -5448.92010107 Ry
     estimated scf accuracy    <       0.03287191 Ry

     iteration #  8     ecut=    50.00 Ry     beta= 0.40
     Davidson diagonalization with overlap
     ethr =  1.03E-05,  avg # of iterations =  3.6

     negative rho (up, down):  1.013E-02 0.000E+00

     total cpu time spent up to now is     1165.0 secs

     total energy              =   -5448.92181096 Ry
     estimated scf accuracy    <       0.01143874 Ry

     iteration #  9     ecut=    50.00 Ry     beta= 0.40
     Davidson diagonalization with overlap
     c_bands:  1 eigenvalues not converged
     ethr =  3.57E-06,  avg # of iterations =  5.2

     negative rho (up, down):  9.743E-03 0.000E+00

     total cpu time spent up to now is     1311.3 secs

     total energy              =   -5448.92323560 Ry
     estimated scf accuracy    <       0.00577563 Ry

     iteration # 10     ecut=    50.00 Ry     beta= 0.40
     Davidson diagonalization with overlap
     ethr =  1.80E-06,  avg # of iterations =  3.0

     negative rho (up, down):  9.743E-03 0.000E+00

     total cpu time spent up to now is     1424.5 secs

     total energy              =   -5448.92324878 Ry
     estimated scf accuracy    <       0.00158254 Ry

     iteration # 11     ecut=    50.00 Ry     beta= 0.40
     Davidson diagonalization with overlap
     ethr =  4.95E-07,  avg # of iterations =  3.8

     negative rho (up, down):  9.740E-03 0.000E+00

     total cpu time spent up to now is     1548.4 secs

     total energy              =   -5448.92339848 Ry
     estimated scf accuracy    <       0.00140134 Ry

     iteration # 12     ecut=    50.00 Ry     beta= 0.40
     Davidson diagonalization with overlap
     ethr =  4.38E-07,  avg # of iterations =  2.3

     negative rho (up, down):  9.740E-03 0.000E+00

     total cpu time spent up to now is     1665.8 secs

     total energy              =   -5448.92348038 Ry
     estimated scf accuracy    <       0.00017003 Ry

     iteration # 13     ecut=    50.00 Ry     beta= 0.40
     Davidson diagonalization with overlap
     ethr =  5.31E-08,  avg # of iterations =  2.5

     negative rho (up, down):  9.733E-03 0.000E+00

     total cpu time spent up to now is     1794.7 secs

     total energy              =   -5448.92351138 Ry
     estimated scf accuracy    <       0.00083095 Ry

     iteration # 14     ecut=    50.00 Ry     beta= 0.40
     Davidson diagonalization with overlap
     ethr =  5.31E-08,  avg # of iterations =  2.7

     negative rho (up, down):  9.732E-03 0.000E+00

     total cpu time spent up to now is     1920.0 secs

     total energy              =   -5448.92351881 Ry
     estimated scf accuracy    <       0.00016052 Ry

     iteration # 15     ecut=    50.00 Ry     beta= 0.40
     Davidson diagonalization with overlap
     ethr =  5.02E-08,  avg # of iterations =  1.1

     negative rho (up, down):  9.729E-03 0.000E+00

     total cpu time spent up to now is     2022.7 secs

     total energy              =   -5448.92352166 Ry
     estimated scf accuracy    <       0.00008360 Ry

     iteration # 16     ecut=    50.00 Ry     beta= 0.40
     Davidson diagonalization with overlap
     ethr =  2.61E-08,  avg # of iterations =  2.0

     negative rho (up, down):  9.729E-03 0.000E+00

     total cpu time spent up to now is     2139.2 secs

     total energy              =   -5448.92352307 Ry
     estimated scf accuracy    <       0.00001302 Ry

     iteration # 17     ecut=    50.00 Ry     beta= 0.40
     Davidson diagonalization with overlap
     ethr =  4.07E-09,  avg # of iterations =  3.6

     negative rho (up, down):  9.730E-03 0.000E+00

     total cpu time spent up to now is     2266.0 secs

     total energy              =   -5448.92352450 Ry
     estimated scf accuracy    <       0.00000160 Ry

     iteration # 18     ecut=    50.00 Ry     beta= 0.40
     Davidson diagonalization with overlap
     ethr =  5.00E-10,  avg # of iterations =  2.0

     negative rho (up, down):  9.730E-03 0.000E+00

     total cpu time spent up to now is     2382.2 secs

     total energy              =   -5448.92352453 Ry
     estimated scf accuracy    <       0.00000130 Ry

     iteration # 19     ecut=    50.00 Ry     beta= 0.40
     Davidson diagonalization with overlap
     ethr =  4.07E-10,  avg # of iterations =  2.0

     negative rho (up, down):  9.731E-03 0.000E+00

     total cpu time spent up to now is     2501.9 secs

     total energy              =   -5448.92352462 Ry
     estimated scf accuracy    <       0.00000088 Ry

     iteration # 20     ecut=    50.00 Ry     beta= 0.40
     Davidson diagonalization with overlap
     ethr =  2.74E-10,  avg # of iterations =  2.0

     negative rho (up, down):  9.731E-03 0.000E+00

     total cpu time spent up to now is     2623.2 secs

     total energy              =   -5448.92352465 Ry
     estimated scf accuracy    <       0.00000025 Ry

     iteration # 21     ecut=    50.00 Ry     beta= 0.40
     Davidson diagonalization with overlap
     ethr =  7.90E-11,  avg # of iterations =  3.9

     negative rho (up, down):  9.731E-03 0.000E+00

     total cpu time spent up to now is     2757.0 secs

     total energy              =   -5448.92352468 Ry
     estimated scf accuracy    <       0.00000025 Ry

     iteration # 22     ecut=    50.00 Ry     beta= 0.40
     Davidson diagonalization with overlap
     ethr =  7.83E-11,  avg # of iterations =  1.0

     negative rho (up, down):  9.731E-03 0.000E+00

     total cpu time spent up to now is     2858.1 secs

     total energy              =   -5448.92352469 Ry
     estimated scf accuracy    <       0.00000004 Ry

     iteration # 23     ecut=    50.00 Ry     beta= 0.40
     Davidson diagonalization with overlap
     ethr =  1.31E-11,  avg # of iterations =  2.0

     negative rho (up, down):  9.731E-03 0.000E+00

     total cpu time spent up to now is     2973.0 secs

     total energy              =   -5448.92352469 Ry
     estimated scf accuracy    <          8.9E-09 Ry

     iteration # 24     ecut=    50.00 Ry     beta= 0.40
     Davidson diagonalization with overlap
     ethr =  2.77E-12,  avg # of iterations =  4.0

     negative rho (up, down):  9.731E-03 0.000E+00

     total cpu time spent up to now is     3099.1 secs

     total energy              =   -5448.92352469 Ry
     estimated scf accuracy    <       0.00000002 Ry

     iteration # 25     ecut=    50.00 Ry     beta= 0.40
     Davidson diagonalization with overlap
     ethr =  2.77E-12,  avg # of iterations =  2.0

     negative rho (up, down):  9.731E-03 0.000E+00

     total cpu time spent up to now is     3211.3 secs

     End of self-consistent calculation

          k = 0.0000 0.0000 0.0000 ( 21247 PWs)   bands (ev):

   -46.8266 -46.8100 -46.6882 -46.5601 -46.5284 -46.3428 -46.2729 -46.1562
   -23.1187 -23.0561 -23.0480 -23.0359 -23.0298 -23.0196 -22.9306 -22.9288
   -22.9075 -22.8486 -22.7975 -22.7854 -22.7825 -22.7675 -22.7655 -22.6270
   -22.6055 -22.5998 -22.5989 -22.5508 -22.5043 -22.5038 -22.4933 -22.3991
   -14.8894 -14.7701 -14.6930 -14.6578 -14.6303 -14.5322 -14.4321 -14.3390
    -7.0816  -7.0360  -7.0023  -6.8056  -6.5909  -6.4922  -6.4543  -6.3193
    -6.2825  -6.2362  -6.1700  -6.1421  -6.1171  -6.0933  -6.0468  -6.0010
    -5.9627  -5.9173  -5.8977  -5.8342  -5.7304  -5.6980  -5.6398  -5.6018
    -0.6290  -0.6195  -0.5801  -0.1329  -0.0690  -0.0535  -0.0190  -0.0058
     0.0495   0.0913   0.1017   0.1515   0.1618   0.1949   0.2091   0.2641
     0.3101   0.3498   0.4112   0.4275   0.4410   0.5198   0.5669   0.5711
     5.5777   5.7656   5.8522   5.8860   6.0395   6.0483   6.0839   6.1196
     6.1297   6.1778   6.2071   6.2448   6.3074   6.3512   6.4200   7.1177
     7.1628   7.2147   7.2426   7.2708   7.3117   7.3539   7.3726   7.4065
     7.4395   7.4915   7.5381   7.6037   7.6223   7.6606   7.7436   7.7696
     7.8149   7.9389   8.0238   8.0853   8.1274   8.1456   8.1588   8.1898
     8.2676   8.2792   8.3050   8.3709   8.3857   8.4320   8.4556   8.4781
     8.9103   8.9295   8.9986   9.1109   9.1371   9.1722   9.2050   9.2197
     9.2469   9.3014   9.3198   9.3229   9.3522   9.3778   9.4084   9.7451
     9.7830   9.8268   9.9175   9.9401   9.9944  10.0165  10.0973  10.2032
    11.7965  11.8972  11.9203  12.0499  12.1304  12.2580  13.2396  13.3112
    13.3597  13.4317  13.4785  13.5158  13.5384  13.5651  13.5703  13.5913
    13.6383  13.7805  13.8447  13.8547  13.8792  13.8908  13.9988  14.0567
    14.1289  14.1899  14.2922  14.3091  14.3691  14.7400  14.7543  14.8492

          k = 0.0000 0.0000 0.2500 ( 21146 PWs)   bands (ev):

   -46.8266 -46.8100 -46.6882 -46.5601 -46.5284 -46.3428 -46.2729 -46.1562
   -23.1187 -23.0552 -23.0478 -23.0356 -23.0296 -23.0195 -22.9306 -22.9287
   -22.9067 -22.8499 -22.7975 -22.7854 -22.7824 -22.7675 -22.7646 -22.6271
   -22.6062 -22.6000 -22.5989 -22.5513 -22.5044 -22.5041 -22.4940 -22.3991
   -14.8837 -14.7720 -14.6920 -14.6525 -14.6323 -14.5363 -14.4349 -14.3417
    -7.0436  -6.9834  -6.9383  -6.8022  -6.6493  -6.5479  -6.4267  -6.3341
    -6.2688  -6.2268  -6.1825  -6.1384  -6.1087  -6.0887  -6.0410  -5.9995
    -5.9733  -5.9472  -5.8995  -5.8736  -5.7482  -5.7084  -5.6507  -5.6062
    -0.5439  -0.5123  -0.4966  -0.1757  -0.1046  -0.0625  -0.0096   0.0208
     0.0622   0.0723   0.1060   0.1398   0.1631   0.1801   0.2004   0.2609
     0.2987   0.3281   0.3577   0.3817   0.4070   0.4741   0.5220   0.5326
     5.6361   5.8458   5.9156   5.9327   6.0722   6.1612   6.1837   6.2308
     6.2669   6.3273   6.3478   6.3712   6.4185   6.4499   6.4875   7.0869
     7.1625   7.2079   7.2441   7.2736   7.2869   7.3438   7.3579   7.3748
     7.4076   7.4545   7.4929   7.5326   7.5625   7.5904   7.6279   7.6470
     7.6816   7.7460   7.7844   7.9150   7.9682   8.1118   8.1577   8.2057
     8.3175   8.3784   8.4382   8.4680   8.4850   8.5238   8.6701   8.7239
     8.8490   8.8950   8.9280   8.9978   9.0611   9.0893   9.1167   9.1497
     9.2002   9.2064   9.2605   9.2906   9.3314   9.3744   9.4079   9.4564
     9.6938   9.7578   9.8363   9.8727   9.8863   9.9450   9.9604  10.1968
    11.8062  12.1393  12.1673  12.2482  12.2795  12.3583  13.2249  13.2703
    13.2985  13.3386  13.3923  13.4220  13.4546  13.4979  13.5731  13.5903
    13.6130  13.7914  13.8605  13.8785  13.9260  13.9862  14.1155  14.1433
    14.1979  14.2265  14.2465  14.3445  14.3823  14.7586  14.8470  15.1431

          k = 0.0000 0.0000-0.5000 ( 21178 PWs)   bands (ev):

   -46.8266 -46.8100 -46.6882 -46.5601 -46.5284 -46.3428 -46.2729 -46.1562
   -23.1187 -23.0543 -23.0476 -23.0352 -23.0295 -23.0194 -22.9306 -22.9286
   -22.9059 -22.8512 -22.7975 -22.7854 -22.7824 -22.7675 -22.7638 -22.6273
   -22.6069 -22.6001 -22.5989 -22.5519 -22.5047 -22.5042 -22.4946 -22.3991
   -14.8774 -14.7748 -14.6905 -14.6430 -14.6386 -14.5406 -14.4376 -14.3444
    -7.0011  -6.8822  -6.8399  -6.7917  -6.7486  -6.6901  -6.3585  -6.3195
    -6.2516  -6.2217  -6.1949  -6.1365  -6.1081  -6.0888  -6.0635  -6.0248
    -5.9727  -5.9559  -5.9257  -5.8869  -5.7664  -5.7198  -5.6617  -5.6109
    -0.3746  -0.3306  -0.3197  -0.2909  -0.2475  -0.1703   0.0064   0.0464
     0.0558   0.0727   0.1105   0.1217   0.1362   0.1679   0.2004   0.2606
     0.2825   0.3213   0.3228   0.3699   0.3969   0.4080   0.4600   0.4872
     5.6736   5.8894   5.9515   5.9699   6.0901   6.1870   6.2002   6.3993
     6.5579   6.6427   6.6594   6.7266   6.7590   6.7832   6.8024   6.8220
     6.8810   6.9655   6.9854   7.0295   7.0956   7.1979   7.2529   7.2775
     7.3731   7.4143   7.4327   7.4711   7.5079   7.5536   7.5939   7.6429
     7.6700   7.7208   7.7840   7.7930   7.8499   7.9720   8.2544   8.2759
     8.4286   8.4690   8.4841   8.5781   8.5964   8.6300   8.6416   8.7169
     8.7817   8.8077   8.8773   8.8978   8.9097   8.9196   8.9954   9.0132
     9.0494   9.1092   9.3713   9.3935   9.4635   9.4743   9.4924   9.5533
     9.5885   9.6041   9.6539   9.6661   9.6887   9.7529   9.9309  10.1906
    11.8117  12.2443  12.5022  12.5429  12.6417  12.7159  12.9676  12.9823
    13.0730  13.1285  13.2579  13.3913  13.4089  13.4897  13.5876  13.6336
    13.6583  13.8059  13.8572  13.8691  13.8864  13.9244  14.0708  14.1173
    14.2031  14.2985  14.3318  14.4803  14.7721  14.7986  14.8721  15.3578

          k = 0.0000 0.2500 0.2500 ( 21150 PWs)   bands (ev):

   -46.8266 -46.8100 -46.6882 -46.5601 -46.5284 -46.3428 -46.2729 -46.1562
   -23.1186 -23.0551 -23.0467 -23.0347 -23.0294 -23.0185 -22.9327 -22.9289
   -22.9067 -22.8499 -22.7976 -22.7853 -22.7834 -22.7670 -22.7647 -22.6254
   -22.6059 -22.5997 -22.5989 -22.5514 -22.5065 -22.5043 -22.4940 -22.3998
   -14.8802 -14.7663 -14.6889 -14.6593 -14.6365 -14.5294 -14.4427 -14.3436
    -7.0042  -6.9429  -6.8825  -6.7985  -6.6694  -6.5366  -6.4851  -6.3314
    -6.2574  -6.2263  -6.1703  -6.1418  -6.1169  -6.0910  -6.0407  -6.0036
    -5.9839  -5.9530  -5.9094  -5.8974  -5.7646  -5.7368  -5.6631  -5.6108
    -0.5258  -0.4293  -0.3694  -0.1697  -0.1093  -0.0780  -0.0385  -0.0117
     0.0225   0.0546   0.0957   0.1150   0.1564   0.1917   0.2262   0.2641
     0.2760   0.3076   0.3276   0.3610   0.3901   0.4478   0.5048   0.5168
     5.7165   5.8872   5.9895   6.0444   6.0986   6.2499   6.3039   6.3114
     6.3765   6.3991   6.4336   6.4618   6.4862   6.5659   6.6024   7.0229
     7.1539   7.1990   7.2237   7.2497   7.2769   7.3052   7.3374   7.3741
     7.4066   7.4402   7.4481   7.4878   7.5127   7.5701   7.6005   7.6134
     7.6511   7.6927   7.7574   7.7938   7.8491   8.0494   8.0867   8.1138
     8.1425   8.3913   8.4184   8.4722   8.5516   8.6050   8.7219   8.8037
     8.8616   8.8936   8.9164   8.9351   9.0081   9.0721   9.0953   9.1335
     9.1668   9.2005   9.2113   9.2395   9.2681   9.3281   9.3792   9.3936
     9.5733   9.6692   9.7720   9.7935   9.8475   9.9007   9.9281  10.0838
    12.0490  12.1653  12.3122  12.3554  12.4560  12.4708  13.1505  13.2183
    13.2712  13.3266  13.3913  13.4077  13.4350  13.4501  13.4735  13.4853
    13.5895  13.7588  13.8229  13.8442  13.9656  14.0379  14.0629  14.1785
    14.2232  14.2513  14.4000  14.4556  14.5774  14.8416  15.1347  15.2082

          k = 0.0000 0.2500-0.5000 ( 21174 PWs)   bands (ev):

   -46.8266 -46.8100 -46.6882 -46.5601 -46.5284 -46.3428 -46.2729 -46.1562
   -23.1186 -23.0542 -23.0465 -23.0344 -23.0293 -23.0184 -22.9327 -22.9289
   -22.9059 -22.8512 -22.7976 -22.7853 -22.7833 -22.7670 -22.7638 -22.6255
   -22.6066 -22.5998 -22.5990 -22.5519 -22.5065 -22.5047 -22.4946 -22.3998
   -14.8744 -14.7692 -14.6871 -14.6483 -14.6438 -14.5334 -14.4458 -14.3465
    -6.9716  -6.8676  -6.8044  -6.7679  -6.7203  -6.6304  -6.4083  -6.3570
    -6.2764  -6.2215  -6.1930  -6.1450  -6.1172  -6.0988  -6.0709  -6.0268
    -5.9813  -5.9680  -5.9180  -5.8991  -5.7788  -5.7466  -5.6681  -5.6111
    -0.3766  -0.3537  -0.2610  -0.2258  -0.1943  -0.1287  -0.0396  -0.0071
     0.0197   0.0566   0.0830   0.1098   0.1335   0.1483   0.1972   0.2538
     0.2800   0.3107   0.3294   0.3594   0.3975   0.4145   0.4617   0.4828
     5.7489   5.9313   6.0268   6.0954   6.1394   6.3241   6.3388   6.5414
     6.6021   6.6553   6.7308   6.7478   6.7753   6.7934   6.8229   6.8800
     6.9037   6.9361   6.9612   7.0474   7.1107   7.1575   7.2693   7.2815
     7.3477   7.4065   7.4485   7.4639   7.4914   7.5336   7.5821   7.6245
     7.6741   7.6933   7.7241   7.7608   7.8421   7.9756   8.0125   8.0824
     8.1627   8.3029   8.3500   8.4257   8.5411   8.5894   8.6611   8.6879
     8.7696   8.8773   8.9109   8.9538   8.9871   9.0264   9.0451   9.0789
     9.1248   9.2326   9.2861   9.3187   9.3879   9.4014   9.4492   9.5042
     9.5276   9.5764   9.6030   9.6594   9.6685   9.7499   9.8375  10.0833
    12.0592  12.4224  12.5370  12.6086  12.7107  12.7673  12.9744  13.0277
    13.1048  13.1807  13.1913  13.2958  13.4016  13.4143  13.4627  13.5210
    13.6390  13.7198  13.7746  13.8381  13.8951  13.9432  14.0606  14.1065
    14.1983  14.4252  14.4835  14.7461  14.8382  15.0129  15.1924  15.5207

          k = 0.0000-0.5000-0.5000 ( 21152 PWs)   bands (ev):

   -46.8266 -46.8100 -46.6882 -46.5601 -46.5284 -46.3428 -46.2729 -46.1562
   -23.1186 -23.0541 -23.0455 -23.0335 -23.0289 -23.0174 -22.9350 -22.9289
   -22.9059 -22.8512 -22.7977 -22.7852 -22.7843 -22.7664 -22.7638 -22.6238
   -22.6063 -22.5997 -22.5988 -22.5520 -22.5088 -22.5047 -22.4946 -22.4006
   -14.8714 -14.7631 -14.6818 -14.6577 -14.6473 -14.5245 -14.4557 -14.3485
    -6.9377  -6.8540  -6.7755  -6.7569  -6.6087  -6.5366  -6.4984  -6.4785
    -6.2772  -6.2235  -6.2008  -6.1409  -6.1247  -6.1041  -6.0802  -6.0364
    -5.9837  -5.9756  -5.9236  -5.9084  -5.7963  -5.7666  -5.6751  -5.6117
    -0.3174  -0.2956  -0.2631  -0.2438  -0.1733  -0.1247  -0.0525  -0.0153
    -0.0011   0.0159   0.0470   0.0868   0.1390   0.1821   0.2178   0.2400
     0.2654   0.2800   0.3222   0.3713   0.3815   0.4067   0.4602   0.4794
     5.7870   5.9556   6.0782   6.0923   6.4828   6.5324   6.5431   6.5707
     6.6656   6.7131   6.7551   6.7896   6.8550   6.8667   6.8715   6.8913
     6.9514   6.9651   7.0225   7.0540   7.0925   7.1609   7.2487   7.3086
     7.3207   7.3676   7.3872   7.4141   7.4453   7.4513   7.5181   7.5460
     7.5851   7.6609   7.7134   7.7406   7.8735   7.8985   7.9274   7.9581
     7.9772   8.0470   8.1287   8.1817   8.5218   8.5346   8.5587   8.5994
     8.8113   8.9033   8.9805   9.0119   9.0326   9.0869   9.1304   9.1980
     9.2230   9.2439   9.2670   9.3186   9.3346   9.3712   9.4217   9.4669
     9.5039   9.5541   9.5701   9.6784   9.7014   9.7244   9.7502   9.8562
    12.4534  12.5126  12.6698  12.7882  12.8179  12.8782  12.9596  12.9810
    13.0482  13.0985  13.1615  13.1974  13.2679  13.3492  13.4222  13.4799
    13.5409  13.6107  13.6364  13.7170  13.8733  13.9192  14.0634  14.1020
    14.2503  14.4345  14.6652  14.8590  15.2296  15.4653  15.6870  15.7775

          k = 0.2500 0.2500 0.2500 ( 21167 PWs)   bands (ev):

   -46.8266 -46.8100 -46.6882 -46.5601 -46.5284 -46.3428 -46.2729 -46.1562
   -23.1157 -23.0556 -23.0462 -23.0347 -23.0323 -23.0186 -22.9326 -22.9273
   -22.9065 -22.8499 -22.7994 -22.7842 -22.7835 -22.7667 -22.7647 -22.6253
   -22.6055 -22.6007 -22.5971 -22.5514 -22.5067 -22.5061 -22.4947 -22.3999
   -14.8773 -14.7577 -14.6976 -14.6543 -14.6368 -14.5325 -14.4459 -14.3463
    -6.9633  -6.8916  -6.8517  -6.7713  -6.6347  -6.5789  -6.5075  -6.3423
    -6.2773  -6.2361  -6.1901  -6.1416  -6.1143  -6.0915  -6.0490  -6.0246
    -5.9778  -5.9577  -5.9167  -5.9015  -5.7967  -5.7396  -5.6765  -5.6131
    -0.4636  -0.4457  -0.2267  -0.1691  -0.1247  -0.0986  -0.0557  -0.0337
     0.0051   0.0357   0.0649   0.0750   0.1203   0.1346   0.1828   0.2106
     0.3119   0.3285   0.3630   0.3744   0.4049   0.4565   0.5027   0.5351
     5.8612   6.0002   6.0636   6.1258   6.2275   6.2570   6.3131   6.3734
     6.4294   6.4678   6.5159   6.5467   6.5668   6.6087   6.6359   6.9982
     7.0695   7.0820   7.1740   7.1876   7.2509   7.2906   7.3321   7.3577
     7.4016   7.4277   7.4728   7.4922   7.5362   7.5636   7.5978   7.6378
     7.6565   7.6823   7.7274   7.7553   7.8594   7.8696   8.0070   8.0778
     8.1311   8.2467   8.3158   8.3573   8.5540   8.6262   8.6726   8.8305
     8.8525   8.8744   8.9246   8.9616   9.0006   9.0251   9.0786   9.1020
     9.1429   9.1617   9.2085   9.2306   9.2902   9.3456   9.3695   9.5081
     9.5315   9.5694   9.6972   9.7331   9.7895   9.8579   9.8823   9.9893
    12.2289  12.3313  12.3439  12.4463  12.5159  12.6554  13.1052  13.1888
    13.2233  13.2921  13.3276  13.3706  13.3991  13.4227  13.4438  13.4669
    13.5333  13.6487  13.7672  13.8502  13.8983  14.0216  14.0740  14.1130
    14.3635  14.4440  14.4990  14.6306  14.7868  15.1206  15.1819  15.2748

          k = 0.2500 0.2500-0.5000 ( 21192 PWs)   bands (ev):

   -46.8266 -46.8100 -46.6882 -46.5601 -46.5284 -46.3428 -46.2729 -46.1562
   -23.1157 -23.0547 -23.0460 -23.0344 -23.0322 -23.0184 -22.9326 -22.9272
   -22.9057 -22.8512 -22.7994 -22.7842 -22.7835 -22.7667 -22.7638 -22.6254
   -22.6062 -22.6007 -22.5972 -22.5520 -22.5068 -22.5063 -22.4955 -22.3999
   -14.8723 -14.7595 -14.6966 -14.6461 -14.6403 -14.5368 -14.4494 -14.3492
    -6.9370  -6.8217  -6.7691  -6.7391  -6.7094  -6.5860  -6.4422  -6.4012
    -6.3212  -6.2313  -6.1985  -6.1467  -6.1195  -6.0944  -6.0686  -6.0442
    -5.9858  -5.9719  -5.9247  -5.9106  -5.8062  -5.7557  -5.6769  -5.6110
    -0.3433  -0.3285  -0.2960  -0.2552  -0.1446  -0.0976  -0.0611  -0.0191
     0.0024   0.0341   0.0468   0.0682   0.0967   0.1215   0.1689   0.1951
     0.2509   0.2904   0.3580   0.4031   0.4286   0.4693   0.5125   0.5461
     5.9105   6.0627   6.1356   6.1687   6.2528   6.3302   6.3827   6.5654
     6.6297   6.6521   6.6855   6.7399   6.7569   6.8176   6.8500   6.8592
     6.9233   6.9577   7.0264   7.0527   7.1351   7.1655   7.2774   7.2984
     7.3440   7.3825   7.4062   7.4483   7.5058   7.5286   7.5521   7.6235
     7.6363   7.6771   7.7212   7.7429   7.8009   7.9262   7.9867   8.0428
     8.0586   8.1008   8.2285   8.2944   8.3411   8.4296   8.5622   8.6408
     8.8666   8.9111   8.9507   8.9946   9.0344   9.0618   9.1026   9.1392
     9.1875   9.2385   9.2897   9.3190   9.3815   9.4105   9.4472   9.4773
     9.5039   9.5390   9.5615   9.6399   9.6714   9.7296   9.7816   9.9790
    12.2448  12.5869  12.6117  12.6781  12.7509  12.8085  13.0346  13.0567
    13.1097  13.1728  13.2004  13.2756  13.2876  13.3523  13.4101  13.4568
    13.5361  13.6590  13.7212  13.7789  13.7961  13.9126  13.9718  14.0866
    14.3751  14.6933  14.7863  14.8881  15.0917  15.1927  15.2763  15.6180

          k = 0.2500-0.5000-0.5000 ( 21180 PWs)   bands (ev):

   -46.8266 -46.8100 -46.6882 -46.5601 -46.5284 -46.3428 -46.2729 -46.1562
   -23.1157 -23.0546 -23.0450 -23.0337 -23.0316 -23.0175 -22.9349 -22.9272
   -22.9057 -22.8512 -22.7995 -22.7845 -22.7841 -22.7662 -22.7638 -22.6237
   -22.6058 -22.6008 -22.5969 -22.5520 -22.5089 -22.5066 -22.4955 -22.4006
   -14.8694 -14.7538 -14.6910 -14.6557 -14.6434 -14.5270 -14.4599 -14.3513
    -6.8988  -6.8117  -6.7446  -6.7166  -6.6060  -6.5414  -6.5166  -6.4640
    -6.2988  -6.2358  -6.2047  -6.1603  -6.1372  -6.1010  -6.0816  -6.0447
    -5.9956  -5.9812  -5.9396  -5.9217  -5.8203  -5.7645  -5.6904  -5.6211
    -0.3053  -0.2808  -0.2542  -0.2261  -0.1900  -0.1653  -0.1002  -0.0449
    -0.0260  -0.0135   0.0118   0.0427   0.0598   0.0872   0.1692   0.2192
     0.3169   0.3369   0.3656   0.3899   0.4462   0.4977   0.5424   0.5610
     5.9713   6.0960   6.2202   6.2571   6.4307   6.4581   6.4822   6.5251
     6.6473   6.6672   6.7298   6.7549   6.8690   6.8936   6.9178   6.9490
     6.9918   7.0198   7.0786   7.1062   7.1560   7.1761   7.2305   7.2484
     7.2950   7.3206   7.3946   7.4144   7.4598   7.4773   7.5499   7.5701
     7.5794   7.6762   7.7271   7.7589   7.7883   7.8403   7.8616   7.9062
     7.9347   7.9911   8.0306   8.0847   8.2083   8.2992   8.3280   8.4159
     8.9396   8.9936   9.0401   9.0827   9.1195   9.1378   9.1662   9.2014
     9.2359   9.2586   9.2988   9.3430   9.3551   9.3925   9.4223   9.4628
     9.5017   9.5449   9.5647   9.6487   9.6707   9.7029   9.7336   9.8444
    12.5678  12.6258  12.7699  12.8193  12.8796  12.9399  12.9702  13.0542
    13.0694  13.1673  13.1928  13.2414  13.2619  13.2961  13.3298  13.3627
    13.4738  13.4870  13.5376  13.6994  13.7418  13.7958  13.9212  13.9659
    14.6534  14.8758  15.0753  15.2361  15.2999  15.4703  15.7003  15.7447

          k =-0.5000-0.5000-0.5000 ( 21008 PWs)   bands (ev):

   -46.8266 -46.8100 -46.6882 -46.5601 -46.5284 -46.3428 -46.2729 -46.1562
   -23.1125 -23.0554 -23.0442 -23.0357 -23.0329 -23.0175 -22.9349 -22.9255
   -22.9055 -22.8512 -22.8014 -22.7847 -22.7830 -22.7658 -22.7639 -22.6236
   -22.6055 -22.6022 -22.5944 -22.5521 -22.5092 -22.5086 -22.4961 -22.4006
   -14.8674 -14.7400 -14.7048 -14.6534 -14.6391 -14.5296 -14.4644 -14.3541
    -6.8526  -6.7563  -6.7084  -6.6645  -6.6101  -6.5580  -6.5428  -6.4519
    -6.3240  -6.2540  -6.2136  -6.1797  -6.1450  -6.1024  -6.0824  -6.0487
    -6.0101  -5.9804  -5.9522  -5.9411  -5.8413  -5.7654  -5.7063  -5.6295
    -0.3077  -0.2747  -0.2341  -0.2164  -0.1862  -0.1512  -0.1204  -0.0987
    -0.0708  -0.0502  -0.0356  -0.0082   0.0164   0.0467   0.1046   0.1548
     0.4009   0.4247   0.4407   0.4579   0.4769   0.5204   0.5768   0.6049
     6.2123   6.2447   6.3239   6.3601   6.3649   6.3786   6.4287   6.5068
     6.6998   6.7573   6.7782   6.8353   6.8404   6.9263   6.9371   6.9692
     7.0155   7.0759   7.0926   7.1233   7.1541   7.2121   7.2464   7.2877
     7.3182   7.3701   7.4005   7.4728   7.5030   7.5085   7.5378   7.5761
     7.6267   7.6398   7.6900   7.7036   7.7224   7.7715   7.7911   7.8376
     7.8467   7.8698   7.8973   7.9093   7.9662   8.0012   8.0339   8.1180
     9.0317   9.0894   9.0986   9.1177   9.1400   9.2101   9.2596   9.2826
     9.2942   9.3211   9.3498   9.3614   9.3932   9.4354   9.4418   9.4804
     9.4938   9.5141   9.5825   9.6079   9.6235   9.6749   9.6933   9.8176
    12.7762  12.8282  12.8646  12.9349  12.9861  13.0175  13.0352  13.0533
    13.0950  13.1143  13.1644  13.2022  13.2281  13.2497  13.2939  13.3156
    13.3586  13.3886  13.5198  13.5562  13.6312  13.6718  13.7277  13.7796
    15.2276  15.3422  15.5168  15.6013  15.6338  15.6722  15.6957  15.7448

          k = 0.2500 0.0000 0.0000 ( 21146 PWs)   bands (ev):

   -46.8266 -46.8100 -46.6882 -46.5601 -46.5284 -46.3428 -46.2729 -46.1562
   -23.1158 -23.0566 -23.0475 -23.0359 -23.0328 -23.0197 -22.9304 -22.9273
   -22.9073 -22.8486 -22.7993 -22.7843 -22.7826 -22.7672 -22.7655 -22.6270
   -22.6051 -22.6006 -22.5973 -22.5508 -22.5061 -22.5042 -22.4940 -22.3991
   -14.8853 -14.7636 -14.7002 -14.6527 -14.6319 -14.5355 -14.4346 -14.3415
    -7.0360  -6.9779  -6.9481  -6.8034  -6.6134  -6.5727  -6.4727  -6.3206
    -6.2716  -6.2395  -6.1714  -6.1432  -6.1045  -6.0724  -6.0404  -6.0003
    -5.9644  -5.9265  -5.9032  -5.8625  -5.7615  -5.7150  -5.6564  -5.6096
    -0.5490  -0.5404  -0.4693  -0.1688  -0.1243  -0.0335  -0.0147  -0.0056
     0.0421   0.1001   0.1077   0.1531   0.1646   0.1789   0.1968   0.2587
     0.3063   0.3287   0.3620   0.3843   0.3970   0.4666   0.5250   0.5393
     5.6806   5.7892   5.9383   5.9826   6.0872   6.1265   6.1758   6.2133
     6.2249   6.2963   6.3362   6.3746   6.4042   6.4312   6.5095   7.0790
     7.1260   7.1489   7.1948   7.2482   7.2835   7.3246   7.3766   7.4184
     7.4519   7.4838   7.5167   7.5355   7.5835   7.6051   7.6572   7.6909
     7.7017   7.7672   7.8178   7.9775   8.0399   8.0898   8.1373   8.1855
     8.3068   8.3391   8.4012   8.4318   8.4775   8.5380   8.7024   8.7476
     8.8025   8.8785   8.9303   9.0159   9.0339   9.0881   9.0988   9.1244
     9.1561   9.2076   9.2562   9.2807   9.3650   9.4152   9.4491   9.5208
     9.6794   9.7093   9.7987   9.8688   9.8981  10.0090  10.0523  10.0843
    11.9120  12.0199  12.0547  12.1660  12.3303  12.4922  13.0816  13.1715
    13.3229  13.3724  13.4316  13.4655  13.4957  13.5389  13.5639  13.5730
    13.6778  13.7574  13.8420  13.8708  13.8817  13.9792  14.0867  14.1464
    14.2008  14.2217  14.2464  14.3259  14.5081  14.7366  14.7509  15.2469

          k = 0.0000 0.2500 0.0000 ( 21146 PWs)   bands (ev):

   -46.8266 -46.8100 -46.6882 -46.5601 -46.5284 -46.3428 -46.2729 -46.1562
   -23.1186 -23.0560 -23.0470 -23.0350 -23.0296 -23.0186 -22.9327 -22.9290
   -22.9075 -22.8486 -22.7976 -22.7852 -22.7834 -22.7670 -22.7655 -22.6252
   -22.6053 -22.5996 -22.5989 -22.5508 -22.5065 -22.5039 -22.4933 -22.3998
   -14.8855 -14.7642 -14.6905 -14.6650 -14.6342 -14.5255 -14.4397 -14.3409
    -7.0387  -6.9858  -6.9421  -6.8116  -6.6464  -6.5738  -6.4137  -6.3163
    -6.2722  -6.2322  -6.1652  -6.1373  -6.1090  -6.0812  -6.0397  -6.0020
    -5.9658  -5.9315  -5.9034  -5.8633  -5.7546  -5.7317  -5.6608  -5.6090
    -0.5568  -0.5107  -0.4926  -0.1264  -0.1120  -0.0855  -0.0089   0.0191
     0.0510   0.0823   0.1030   0.1203   0.1633   0.2093   0.2287   0.2482
     0.2860   0.2935   0.3358   0.3891   0.4120   0.4774   0.5336   0.5422
     5.6580   5.8101   5.9047   5.9584   6.0699   6.1108   6.2032   6.2326
     6.2671   6.2961   6.3103   6.3296   6.3717   6.5212   6.5875   7.0840
     7.1854   7.2107   7.2404   7.2853   7.3026   7.3415   7.3659   7.3856
     7.4272   7.4476   7.5031   7.5230   7.5399   7.5782   7.6168   7.6404
     7.7078   7.7506   7.8034   7.9704   7.9809   8.0245   8.1634   8.2246
     8.2739   8.3608   8.4105   8.4476   8.4756   8.5617   8.7089   8.7802
     8.8260   8.9067   8.9271   8.9880   9.0280   9.0799   9.0963   9.1426
     9.1754   9.1985   9.2276   9.3180   9.3468   9.3977   9.4296   9.4982
     9.6678   9.7450   9.8041   9.8683   9.9074   9.9868  10.0390  10.0845
    11.9138  12.0275  12.1384  12.1761  12.2861  12.4585  13.1543  13.2080
    13.3178  13.3625  13.3782  13.4455  13.5231  13.5358  13.5566  13.6028
    13.6389  13.7490  13.8341  13.8751  13.9104  14.0128  14.0938  14.0971
    14.1807  14.2152  14.2565  14.3076  14.5136  14.7355  14.8228  15.1896

          k =-0.5000 0.0000 0.0000 ( 21178 PWs)   bands (ev):

   -46.8266 -46.8100 -46.6882 -46.5601 -46.5284 -46.3428 -46.2729 -46.1562
   -23.1127 -23.0572 -23.0466 -23.0363 -23.0358 -23.0197 -22.9303 -22.9256
   -22.9070 -22.8486 -22.8012 -22.7833 -22.7827 -22.7669 -22.7656 -22.6269
   -22.6049 -22.6019 -22.5947 -22.5508 -22.5086 -22.5043 -22.4945 -22.3992
   -14.8812 -14.7547 -14.7105 -14.6428 -14.6375 -14.5390 -14.4371 -14.3442
    -6.9764  -6.8836  -6.8683  -6.7689  -6.7494  -6.6872  -6.4322  -6.3147
    -6.2712  -6.2464  -6.1770  -6.1499  -6.0832  -6.0521  -6.0408  -5.9954
    -5.9703  -5.9240  -5.9157  -5.8965  -5.7945  -5.7360  -5.6714  -5.6161
    -0.3975  -0.3749  -0.3168  -0.2798  -0.2344  -0.1368   0.0023   0.0349
     0.0523   0.0961   0.1002   0.1177   0.1375   0.1927   0.2133   0.2562
     0.2603   0.3242   0.3440   0.3536   0.3863   0.4020   0.4623   0.5044
     5.7628   5.7897   6.0114   6.0556   6.0798   6.1182   6.3128   6.3386
     6.4372   6.5163   6.5600   6.6065   6.7125   6.7419   6.7649   6.8055
     6.8991   6.9727   6.9991   7.0231   7.1540   7.2497   7.2947   7.3370
     7.3714   7.4845   7.5368   7.5556   7.5824   7.5999   7.6338   7.6682
     7.6783   7.7347   7.7575   7.8063   7.8635   7.8964   8.2305   8.3182
     8.4539   8.4889   8.5224   8.5527   8.6155   8.6648   8.6916   8.7011
     8.7375   8.7483   8.7677   8.8167   8.8881   8.9309   8.9664   8.9809
     9.0578   9.1162   9.3853   9.4232   9.4765   9.4933   9.5253   9.5303
     9.5593   9.5738   9.6669   9.7144   9.7596   9.7762  10.0220  10.0346
    11.9372  12.0002  12.5095  12.5822  12.6829  12.7147  12.8360  12.9442
    12.9575  13.0801  13.3747  13.4900  13.5103  13.5493  13.5680  13.6112
    13.6241  13.7017  13.8474  13.8755  13.9232  13.9729  14.0367  14.0976
    14.1596  14.1982  14.4999  14.5327  14.6401  14.6877  15.0940  15.1865

          k = 0.0000-0.5000 0.0000 ( 21178 PWs)   bands (ev):

   -46.8266 -46.8100 -46.6882 -46.5601 -46.5284 -46.3428 -46.2729 -46.1562
   -23.1186 -23.0559 -23.0460 -23.0340 -23.0292 -23.0177 -22.9350 -22.9291
   -22.9075 -22.8486 -22.7978 -22.7852 -22.7844 -22.7664 -22.7656 -22.6234
   -22.6051 -22.5996 -22.5986 -22.5509 -22.5088 -22.5039 -22.4934 -22.4006
   -14.8815 -14.7573 -14.6865 -14.6746 -14.6383 -14.5172 -14.4487 -14.3428
    -6.9831  -6.9103  -6.8311  -6.8181  -6.7473  -6.7004  -6.3678  -6.2902
    -6.2714  -6.2267  -6.1733  -6.1332  -6.0885  -6.0669  -6.0326  -6.0054
    -5.9747  -5.9472  -5.9046  -5.9021  -5.7860  -5.7666  -5.6787  -5.6152
    -0.4431  -0.3635  -0.2703  -0.2314  -0.1873  -0.1423  -0.0678   0.0213
     0.0336   0.0676   0.0901   0.1286   0.1787   0.2028   0.2268   0.2535
     0.2709   0.2939   0.3010   0.3197   0.3667   0.4325   0.4949   0.5163
     5.7110   5.8328   5.9448   6.0243   6.0530   6.1181   6.2122   6.2967
     6.6050   6.6203   6.6625   6.7062   6.7333   6.7562   6.7706   6.8790
     6.9032   6.9447   6.9999   7.0686   7.2289   7.2556   7.3341   7.3614
     7.3926   7.4246   7.4381   7.5177   7.5239   7.5476   7.5947   7.6068
     7.6300   7.6680   7.6987   7.7995   7.8335   7.8858   8.2814   8.3613
     8.3865   8.4428   8.5282   8.5941   8.6253   8.6431   8.6696   8.7217
     8.7406   8.7714   8.8140   8.8375   8.8591   8.9292   8.9901   9.0173
     9.0616   9.1013   9.3568   9.4289   9.4587   9.4972   9.5383   9.5506
     9.5642   9.6072   9.6601   9.6793   9.7115   9.8184   9.9769  10.0324
    11.9249  12.0898  12.4681  12.6264  12.6837  12.8052  12.8416  12.8615
    13.0368  13.0952  13.3126  13.4437  13.5296  13.5465  13.5808  13.5935
    13.6557  13.7145  13.7738  13.8805  13.9221  13.9396  14.0632  14.1112
    14.1330  14.2791  14.4355  14.5267  14.6624  14.8021  14.9482  15.2804

          k = 0.0000-0.2500 0.2500 ( 21150 PWs)   bands (ev):

   -46.8266 -46.8100 -46.6882 -46.5601 -46.5284 -46.3428 -46.2729 -46.1562
   -23.1186 -23.0551 -23.0467 -23.0347 -23.0294 -23.0185 -22.9327 -22.9289
   -22.9067 -22.8499 -22.7976 -22.7853 -22.7834 -22.7670 -22.7647 -22.6254
   -22.6060 -22.5997 -22.5989 -22.5514 -22.5065 -22.5043 -22.4940 -22.3998
   -14.8802 -14.7662 -14.6890 -14.6592 -14.6365 -14.5294 -14.4427 -14.3436
    -7.0069  -6.9443  -6.8769  -6.7973  -6.6855  -6.5150  -6.4739  -6.3360
    -6.2710  -6.2264  -6.1827  -6.1515  -6.1057  -6.0832  -6.0503  -6.0003
    -5.9883  -5.9560  -5.9084  -5.8735  -5.7709  -5.7391  -5.6657  -5.6089
    -0.5277  -0.4285  -0.3731  -0.1733  -0.1015  -0.0681  -0.0422  -0.0301
     0.0318   0.0681   0.1060   0.1130   0.1570   0.1814   0.2170   0.2534
     0.2918   0.3149   0.3392   0.3457   0.3895   0.4464   0.5038   0.5115
     5.7167   5.8886   5.9903   6.0402   6.0946   6.2705   6.2965   6.3323
     6.3753   6.3992   6.4236   6.4487   6.4824   6.5501   6.6077   7.0162
     7.1354   7.1661   7.2233   7.2449   7.2916   7.3233   7.3659   7.3877
     7.4234   7.4436   7.4524   7.4912   7.5178   7.5567   7.6010   7.6536
     7.6697   7.6953   7.7372   7.7767   7.8318   8.0314   8.0795   8.1162
     8.1696   8.3086   8.4198   8.5000   8.5729   8.6232   8.7023   8.7702
     8.8541   8.8867   8.9278   8.9652   9.0158   9.0532   9.1019   9.1149
     9.1554   9.1810   9.2227   9.2604   9.2991   9.3391   9.3733   9.4076
     9.5923   9.6874   9.7467   9.7708   9.8414   9.9001   9.9183  10.0894
    12.0418  12.1595  12.3235  12.3570  12.4577  12.4753  13.1509  13.2069
    13.2648  13.3225  13.3879  13.4158  13.4209  13.4580  13.4745  13.4976
    13.5890  13.7552  13.8268  13.8399  13.9649  14.0402  14.0527  14.1793
    14.2224  14.2604  14.4137  14.4665  14.5708  14.8343  15.1324  15.1940

          k = 0.2500 0.0000-0.2500 ( 21150 PWs)   bands (ev):

   -46.8266 -46.8100 -46.6882 -46.5601 -46.5284 -46.3428 -46.2729 -46.1562
   -23.1158 -23.0557 -23.0473 -23.0356 -23.0326 -23.0195 -22.9304 -22.9272
   -22.9065 -22.8499 -22.7993 -22.7843 -22.7826 -22.7672 -22.7647 -22.6271
   -22.6058 -22.6006 -22.5973 -22.5513 -22.5063 -22.5042 -22.4947 -22.3991
   -14.8803 -14.7642 -14.7002 -14.6480 -14.6323 -14.5400 -14.4377 -14.3443
    -7.0052  -6.9270  -6.8911  -6.7880  -6.6368  -6.5662  -6.4981  -6.3350
    -6.2669  -6.2374  -6.1949  -6.1513  -6.1113  -6.0726  -6.0428  -6.0075
    -5.9783  -5.9454  -5.9071  -5.8919  -5.7654  -5.7253  -5.6608  -5.6109
    -0.5114  -0.4653  -0.3542  -0.1836  -0.1406  -0.0799  -0.0348   0.0117
     0.0453   0.0833   0.0982   0.1340   0.1502   0.1659   0.2307   0.2468
     0.2840   0.3042   0.3351   0.3651   0.3791   0.4122   0.5065   0.5469
     5.7551   5.8760   6.0164   6.0440   6.1419   6.2278   6.2864   6.3129
     6.3684   6.4074   6.4226   6.4615   6.4776   6.5098   6.5378   7.0720
     7.0900   7.1539   7.1895   7.2416   7.2712   7.3161   7.3458   7.3798
     7.4116   7.4447   7.4898   7.5276   7.5547   7.5661   7.6003   7.6258
     7.6665   7.6904   7.7568   7.7775   7.8573   8.0354   8.0704   8.1271
     8.1917   8.3774   8.4715   8.4898   8.5126   8.6286   8.6590   8.7806
     8.7977   8.8861   8.9604   9.0052   9.0163   9.0517   9.1010   9.1293
     9.1719   9.2020   9.2516   9.2664   9.2916   9.3314   9.3626   9.3988
     9.5492   9.6222   9.7542   9.7784   9.8351   9.9306   9.9496  10.0785
    12.0413  12.1706  12.2537  12.3375  12.4883  12.5187  13.0788  13.1865
    13.3051  13.3263  13.3465  13.4048  13.4309  13.4646  13.5014  13.5239
    13.6003  13.7656  13.8502  13.8826  13.9583  13.9877  14.0992  14.1453
    14.1734  14.2140  14.3763  14.5038  14.6394  14.7617  15.1308  15.2636

          k =-0.2500 0.0000-0.2500 ( 21150 PWs)   bands (ev):

   -46.8266 -46.8100 -46.6882 -46.5601 -46.5284 -46.3428 -46.2729 -46.1562
   -23.1158 -23.0557 -23.0473 -23.0356 -23.0326 -23.0195 -22.9304 -22.9272
   -22.9065 -22.8499 -22.7993 -22.7843 -22.7826 -22.7672 -22.7647 -22.6271
   -22.6058 -22.6006 -22.5973 -22.5513 -22.5063 -22.5042 -22.4947 -22.3991
   -14.8805 -14.7636 -14.7006 -14.6477 -14.6327 -14.5400 -14.4376 -14.3443
    -7.0007  -6.9286  -6.8952  -6.7885  -6.6440  -6.5630  -6.4891  -6.3314
    -6.2782  -6.2356  -6.1845  -6.1464  -6.0990  -6.0923  -6.0512  -6.0217
    -5.9658  -5.9462  -5.9072  -5.8831  -5.7729  -5.7233  -5.6606  -5.6090
    -0.5208  -0.4683  -0.3294  -0.1762  -0.1401  -0.0875  -0.0495   0.0153
     0.0668   0.0855   0.1037   0.1118   0.1397   0.1598   0.1885   0.2447
     0.2934   0.3139   0.3506   0.3726   0.3875   0.4585   0.4803   0.5286
     5.7486   5.8808   6.0177   6.0416   6.1399   6.2271   6.2807   6.3067
     6.3754   6.3956   6.4463   6.4668   6.4884   6.5136   6.5434   7.0523
     7.0905   7.1283   7.1915   7.2522   7.2852   7.2967   7.3518   7.3700
     7.3904   7.4284   7.4714   7.4967   7.5565   7.5947   7.6177   7.6632
     7.6787   7.7152   7.7511   7.7889   7.8668   8.0281   8.0590   8.1158
     8.1654   8.3867   8.4678   8.4911   8.5267   8.5993   8.7049   8.7702
     8.8413   8.8740   8.9169   9.0015   9.0237   9.0553   9.1014   9.1241
     9.1450   9.2007   9.2329   9.2622   9.3004   9.3421   9.3590   9.4211
     9.5953   9.6331   9.7214   9.7942   9.8356   9.9085   9.9407  10.0876
    12.0398  12.1675  12.2553  12.3311  12.4837  12.5192  13.0822  13.1793
    13.3007  13.3218  13.3597  13.4069  13.4319  13.4730  13.4988  13.5163
    13.6046  13.7665  13.8472  13.8831  13.9561  14.0036  14.0936  14.1405
    14.1818  14.2094  14.3690  14.5073  14.6457  14.7641  15.1357  15.2554

          k = 0.2500-0.2500 0.0000 ( 21150 PWs)   bands (ev):

   -46.8266 -46.8100 -46.6882 -46.5601 -46.5284 -46.3428 -46.2729 -46.1562
   -23.1157 -23.0565 -23.0464 -23.0350 -23.0325 -23.0187 -22.9326 -22.9273
   -22.9073 -22.8486 -22.7994 -22.7842 -22.7836 -22.7667 -22.7656 -22.6251
   -22.6048 -22.6007 -22.5971 -22.5509 -22.5065 -22.5061 -22.4940 -22.3999
   -14.8819 -14.7576 -14.6966 -14.6606 -14.6359 -14.5284 -14.4425 -14.3435
    -6.9971  -6.9338  -6.8938  -6.8017  -6.6428  -6.5864  -6.4603  -6.3340
    -6.2925  -6.2376  -6.1712  -6.1427  -6.0991  -6.0718  -6.0399  -5.9993
    -5.9648  -5.9393  -5.9112  -5.8929  -5.7889  -5.7285  -5.6725  -5.6154
    -0.5056  -0.4787  -0.3517  -0.1616  -0.1011  -0.0718  -0.0551  -0.0198
     0.0286   0.0663   0.0923   0.1031   0.1594   0.1906   0.2332   0.2541
     0.2910   0.3155   0.3361   0.3592   0.3760   0.4384   0.5029   0.5278
     5.7807   5.8786   5.9579   6.0430   6.1097   6.1952   6.2727   6.3388
     6.3564   6.3944   6.4116   6.4621   6.4890   6.5262   6.6258   7.0310
     7.0900   7.1584   7.2137   7.2449   7.2978   7.3182   7.3478   7.3912
     7.4300   7.4494   7.4767   7.5109   7.5396   7.5592   7.5838   7.6154
     7.6759   7.7185   7.7586   7.8141   7.8824   8.0480   8.0676   8.1131
     8.1723   8.3492   8.4130   8.4954   8.5728   8.6449   8.7158   8.7933
     8.8099   8.8516   8.9526   8.9808   9.0163   9.0611   9.0828   9.1066
     9.1477   9.2022   9.2225   9.2825   9.3058   9.3308   9.3631   9.4126
     9.5594   9.5914   9.6949   9.8306   9.8859   9.9212   9.9547  10.0432
    12.1238  12.1954  12.2371  12.2770  12.3283  12.6291  13.0954  13.1491
    13.2359  13.2902  13.3356  13.3805  13.4505  13.5413  13.5597  13.5970
    13.6356  13.6813  13.7564  13.9115  13.9826  14.0275  14.0948  14.1639
    14.1942  14.2162  14.3181  14.3873  14.7243  14.7954  15.1383  15.2599

          k =-0.2500-0.2500 0.0000 ( 21150 PWs)   bands (ev):

   -46.8266 -46.8100 -46.6882 -46.5601 -46.5284 -46.3428 -46.2729 -46.1562
   -23.1157 -23.0565 -23.0464 -23.0351 -23.0325 -23.0187 -22.9326 -22.9273
   -22.9073 -22.8486 -22.7994 -22.7842 -22.7836 -22.7667 -22.7656 -22.6252
   -22.6048 -22.6006 -22.5971 -22.5509 -22.5066 -22.5059 -22.4940 -22.3999
   -14.8819 -14.7572 -14.6977 -14.6598 -14.6360 -14.5283 -14.4426 -14.3435
    -6.9957  -6.9332  -6.9000  -6.7909  -6.6455  -6.5923  -6.4731  -6.3333
    -6.2657  -6.2342  -6.1728  -6.1545  -6.0944  -6.0683  -6.0444  -6.0115
    -5.9742  -5.9413  -5.9118  -5.8743  -5.7842  -5.7292  -5.6795  -5.6136
    -0.5114  -0.4807  -0.3331  -0.1678  -0.1110  -0.0860  -0.0270  -0.0124
     0.0229   0.0586   0.0860   0.0999   0.1701   0.1880   0.2261   0.2476
     0.3020   0.3164   0.3278   0.3550   0.3837   0.4571   0.4998   0.5171
     5.7792   5.8785   5.9634   6.0388   6.1122   6.1963   6.2889   6.3549
     6.3688   6.3830   6.4259   6.4489   6.4626   6.5231   6.6201   7.0405
     7.0679   7.1579   7.1990   7.2423   7.2863   7.3179   7.3344   7.3705
     7.4397   7.4578   7.4730   7.5107   7.5467   7.5699   7.6055   7.6385
     7.6982   7.7409   7.7556   7.7971   7.8446   8.0423   8.0896   8.1380
     8.2191   8.3390   8.4141   8.4531   8.5838   8.6214   8.7255   8.7598
     8.8197   8.8815   8.9206   8.9559   8.9834   9.0575   9.1072   9.1185
     9.1523   9.1729   9.1936   9.2541   9.2813   9.3298   9.3538   9.5461
     9.5968   9.6299   9.7127   9.8230   9.8592   9.9268   9.9426   9.9955
    12.1432  12.1620  12.2457  12.2667  12.3516  12.6539  13.0975  13.1752
    13.2120  13.2837  13.3136  13.3876  13.4164  13.5407  13.5500  13.5996
    13.6343  13.6833  13.7788  13.9179  13.9826  14.0281  14.0927  14.1603
    14.1967  14.2140  14.3281  14.3842  14.7135  14.7990  15.1386  15.2644

          k = 0.2500 0.0000 0.5000 ( 21174 PWs)   bands (ev):

   -46.8266 -46.8100 -46.6882 -46.5601 -46.5284 -46.3428 -46.2729 -46.1562
   -23.1158 -23.0549 -23.0470 -23.0352 -23.0324 -23.0194 -22.9304 -22.9271
   -22.9057 -22.8512 -22.7993 -22.7843 -22.7825 -22.7672 -22.7638 -22.6272
   -22.6066 -22.6007 -22.5974 -22.5519 -22.5066 -22.5043 -22.4954 -22.3991
   -14.8751 -14.7650 -14.7000 -14.6395 -14.6365 -14.5446 -14.4407 -14.3471
    -6.9689  -6.8378  -6.8064  -6.7672  -6.7228  -6.6474  -6.4050  -6.3635
    -6.3014  -6.2288  -6.2004  -6.1533  -6.1103  -6.0893  -6.0687  -6.0369
    -5.9832  -5.9477  -5.9334  -5.8872  -5.7781  -5.7344  -5.6648  -5.6108
    -0.3716  -0.3536  -0.3011  -0.2619  -0.1606  -0.0852  -0.0408   0.0148
     0.0281   0.0525   0.0766   0.1017   0.1480   0.1730   0.1964   0.2255
     0.2486   0.2809   0.3227   0.3509   0.3662   0.4394   0.4925   0.5111
     5.7942   5.9273   6.0652   6.0824   6.1722   6.2771   6.3041   6.4932
     6.6255   6.6618   6.6904   6.7427   6.7672   6.8022   6.8393   6.8548
     6.9015   6.9447   6.9817   7.0034   7.1066   7.1477   7.2499   7.3080
     7.3694   7.4086   7.4272   7.4828   7.5087   7.5404   7.5830   7.6001
     7.6321   7.6779   7.7377   7.7847   7.8450   7.9703   8.0183   8.0617
     8.1725   8.2767   8.3659   8.4339   8.5575   8.6483   8.6823   8.7230
     8.8321   8.8975   8.9180   8.9401   8.9718   8.9869   9.0439   9.0704
     9.1364   9.2347   9.2828   9.3105   9.3749   9.4186   9.4458   9.4647
     9.5397   9.5543   9.6021   9.6535   9.6936   9.7370   9.8404  10.0779
    12.0492  12.4579  12.5384  12.6159  12.6440  12.8085  12.9738  13.0327
    13.0520  13.1248  13.2060  13.2676  13.4153  13.4616  13.4846  13.5159
    13.6533  13.7380  13.7803  13.8737  13.9172  13.9827  14.0316  14.0597
    14.1933  14.3213  14.4461  14.7638  14.8369  15.0300  15.2439  15.5558

          k =-0.5000-0.2500 0.0000 ( 21174 PWs)   bands (ev):

   -46.8266 -46.8100 -46.6882 -46.5601 -46.5284 -46.3428 -46.2729 -46.1562
   -23.1126 -23.0571 -23.0456 -23.0363 -23.0347 -23.0187 -22.9326 -22.9256
   -22.9070 -22.8486 -22.8013 -22.7838 -22.7831 -22.7664 -22.7656 -22.6251
   -22.6046 -22.6020 -22.5945 -22.5509 -22.5086 -22.5065 -22.4945 -22.3999
   -14.8782 -14.7479 -14.7075 -14.6512 -14.6408 -14.5313 -14.4454 -14.3462
    -6.9452  -6.8551  -6.8371  -6.7513  -6.7177  -6.6471  -6.4645  -6.3484
    -6.3024  -6.2377  -6.1799  -6.1619  -6.0890  -6.0538  -6.0488  -6.0057
    -5.9739  -5.9427  -5.9239  -5.9064  -5.8114  -5.7376  -5.6866  -5.6199
    -0.3664  -0.3527  -0.3403  -0.2228  -0.1582  -0.0850  -0.0316  -0.0038
     0.0198   0.0425   0.0540   0.0932   0.1307   0.1608   0.2058   0.2639
     0.2824   0.3139   0.3395   0.3597   0.3860   0.4011   0.4563   0.5076
     5.8622   5.9004   6.0411   6.0470   6.2094   6.2399   6.4198   6.4676
     6.4925   6.5730   6.6440   6.6852   6.7238   6.7494   6.7881   6.8442
     6.9003   6.9507   6.9920   7.0370   7.1726   7.2421   7.2792   7.3245
     7.3821   7.4107   7.4649   7.5109   7.5538   7.5887   7.6073   7.6552
     7.6837   7.7197   7.7569   7.7798   7.8567   7.9180   7.9830   8.0990
     8.2059   8.3296   8.3761   8.4207   8.5612   8.6100   8.6384   8.6776
     8.8380   8.8730   8.9076   8.9363   8.9795   8.9916   9.0201   9.0452
     9.1045   9.1513   9.3233   9.3470   9.3854   9.4098   9.4285   9.4648
     9.5024   9.5271   9.6274   9.6847   9.6958   9.8331   9.9191   9.9319
    12.1847  12.2434  12.5755  12.6188  12.7187  12.7620  12.8353  12.9534
    13.0035  13.1628  13.2296  13.3511  13.3759  13.4536  13.5603  13.5797
    13.6303  13.7204  13.8151  13.8859  13.9147  13.9635  14.0140  14.0737
    14.2014  14.2223  14.5332  14.6560  14.8979  15.0053  15.2797  15.4207

          k = 0.0000-0.5000 0.2500 ( 21174 PWs)   bands (ev):

   -46.8266 -46.8100 -46.6882 -46.5601 -46.5284 -46.3428 -46.2729 -46.1562
   -23.1186 -23.0550 -23.0458 -23.0337 -23.0291 -23.0176 -22.9350 -22.9290
   -22.9067 -22.8499 -22.7978 -22.7852 -22.7843 -22.7664 -22.7647 -22.6236
   -22.6057 -22.5997 -22.5987 -22.5515 -22.5088 -22.5043 -22.4940 -22.4006
   -14.8766 -14.7599 -14.6838 -14.6688 -14.6407 -14.5208 -14.4522 -14.3456
    -6.9607  -6.8842  -6.8009  -6.7856  -6.7014  -6.6566  -6.4031  -6.3485
    -6.2682  -6.2309  -6.1897  -6.1529  -6.1022  -6.0878  -6.0445  -6.0027
    -5.9929  -5.9668  -5.9255  -5.8953  -5.7941  -5.7640  -5.6765  -5.6132
    -0.4139  -0.3247  -0.3014  -0.1761  -0.1380  -0.1103  -0.0621  -0.0323
    -0.0091   0.0345   0.0820   0.1069   0.1520   0.1772   0.1974   0.2529
     0.2606   0.3048   0.3212   0.3489   0.3834   0.4175   0.4789   0.5002
     5.7628   5.9119   6.0400   6.0786   6.1860   6.2543   6.3389   6.4452
     6.6037   6.6379   6.7114   6.7361   6.7644   6.7994   6.8383   6.8530
     6.9304   6.9544   7.0056   7.0775   7.1629   7.2452   7.2757   7.3542
     7.3665   7.4025   7.4276   7.4789   7.5113   7.5518   7.5693   7.6077
     7.6668   7.6824   7.7075   7.7430   7.8230   7.8752   7.9843   8.0850
     8.2651   8.3107   8.3439   8.3900   8.5612   8.5820   8.6352   8.6976
     8.7714   8.8824   8.9174   8.9536   8.9735   9.0185   9.0515   9.0702
     9.0958   9.1581   9.2917   9.3341   9.3607   9.4348   9.4745   9.5005
     9.5282   9.5506   9.6224   9.6937   9.7168   9.8061   9.8862   9.9341
    12.1558  12.3160  12.4762  12.6821  12.7894  12.8249  12.8586  12.8976
    13.0856  13.1215  13.2683  13.4080  13.4297  13.4527  13.4863  13.5731
    13.5821  13.6223  13.6865  13.8703  13.8811  13.9933  14.0755  14.1478
    14.1904  14.2868  14.5755  14.8044  14.8250  15.0511  15.0926  15.4306

          k = 0.2500-0.5000 0.0000 ( 21174 PWs)   bands (ev):

   -46.8266 -46.8100 -46.6882 -46.5601 -46.5284 -46.3428 -46.2729 -46.1562
   -23.1157 -23.0564 -23.0455 -23.0343 -23.0319 -23.0177 -22.9349 -22.9274
   -22.9073 -22.8486 -22.7995 -22.7846 -22.7841 -22.7661 -22.7656 -22.6233
   -22.6045 -22.6008 -22.5968 -22.5510 -22.5088 -22.5061 -22.4940 -22.4006
   -14.8784 -14.7503 -14.6922 -14.6705 -14.6400 -14.5195 -14.4521 -14.3455
    -6.9502  -6.8704  -6.8139  -6.7716  -6.7294  -6.6596  -6.4071  -6.3493
    -6.3004  -6.2314  -6.1783  -6.1549  -6.0820  -6.0657  -6.0442  -6.0117
    -5.9782  -5.9475  -5.9311  -5.9019  -5.8109  -5.7514  -5.6874  -5.6201
    -0.3853  -0.3611  -0.3198  -0.1575  -0.1389  -0.0782  -0.0652  -0.0366
    -0.0031   0.0232   0.0641   0.0987   0.1409   0.1720   0.2144   0.2686
     0.2796   0.2827   0.3129   0.3525   0.3755   0.4253   0.4863   0.5021
     5.8416   5.9354   5.9839   6.0598   6.1231   6.2496   6.3513   6.4138
     6.6195   6.6560   6.6840   6.7251   6.7693   6.7980   6.8355   6.8622
     6.8812   6.9399   7.0323   7.0600   7.1668   7.2130   7.2764   7.3267
     7.4202   7.4436   7.4616   7.4716   7.5077   7.5670   7.5748   7.5925
     7.6553   7.6803   7.6969   7.7325   7.8374   7.9282   8.0041   8.0546
     8.2469   8.2997   8.3478   8.5006   8.6103   8.6453   8.6739   8.7134
     8.7893   8.8375   8.8734   8.9412   8.9555   9.0147   9.0338   9.0438
     9.1018   9.1333   9.2871   9.3185   9.3642   9.4249   9.4635   9.4956
     9.5319   9.5644   9.6168   9.6605   9.7003   9.8429   9.8845   9.9267
    12.1624  12.2999  12.5693  12.6398  12.6775  12.8154  12.8779  12.9447
    13.0319  13.1802  13.1955  13.2929  13.3536  13.4564  13.5647  13.5980
    13.6886  13.7157  13.7562  13.7922  13.9330  13.9461  14.0005  14.1658
    14.1862  14.3161  14.4512  14.6922  14.8085  15.1470  15.1968  15.5089

          k =-0.5000 0.0000 0.2500 ( 21174 PWs)   bands (ev):

   -46.8266 -46.8100 -46.6882 -46.5601 -46.5284 -46.3428 -46.2729 -46.1562
   -23.1127 -23.0563 -23.0464 -23.0360 -23.0355 -23.0196 -22.9303 -22.9255
   -22.9063 -22.8499 -22.8012 -22.7833 -22.7827 -22.7669 -22.7647 -22.6270
   -22.6057 -22.6020 -22.5947 -22.5514 -22.5088 -22.5043 -22.4953 -22.3992
   -14.8771 -14.7522 -14.7128 -14.6399 -14.6353 -14.5438 -14.4405 -14.3470
    -6.9549  -6.8457  -6.8233  -6.7381  -6.7257  -6.6455  -6.4687  -6.3329
    -6.3098  -6.2452  -6.1966  -6.1583  -6.1007  -6.0737  -6.0594  -6.0089
    -5.9848  -5.9387  -5.9289  -5.8920  -5.7924  -5.7406  -5.6690  -5.6137
    -0.3927  -0.3484  -0.3156  -0.2642  -0.1127  -0.0872  -0.0540   0.0086
     0.0274   0.0384   0.0789   0.1145   0.1538   0.1825   0.1945   0.2195
     0.2529   0.2725   0.3200   0.3495   0.3749   0.4388   0.4978   0.5077
     5.8340   5.8836   6.1006   6.1279   6.2191   6.2407   6.4066   6.4360
     6.4645   6.5957   6.6194   6.6562   6.7141   6.7494   6.8122   6.8603
     6.9076   6.9471   6.9949   7.0327   7.1964   7.2335   7.2601   7.3205
     7.3713   7.4544   7.4644   7.4867   7.5348   7.5686   7.6346   7.6500
     7.6730   7.7188   7.7545   7.7863   7.8307   7.8710   7.9535   8.0719
     8.2174   8.2974   8.3422   8.4222   8.5760   8.6286   8.6876   8.7417
     8.8132   8.8514   8.9244   8.9476   8.9671   9.0106   9.0255   9.0619
     9.0928   9.1406   9.3301   9.3383   9.3727   9.4079   9.4493   9.4793
     9.5113   9.5443   9.6365   9.6786   9.7458   9.7565   9.9337   9.9362
    12.1703  12.2379  12.5119  12.6654  12.6919  12.8067  12.9021  12.9447
    13.0500  13.0792  13.3214  13.3285  13.4565  13.4756  13.5321  13.5394
    13.5964  13.6239  13.7905  13.9186  13.9567  13.9905  14.0521  14.0676
    14.1363  14.2020  14.5719  14.6785  14.9114  15.0162  15.2648  15.3251

          k =-0.5000 0.0000 0.5000 ( 21152 PWs)   bands (ev):

   -46.8266 -46.8100 -46.6882 -46.5601 -46.5284 -46.3428 -46.2729 -46.1562
   -23.1127 -23.0555 -23.0462 -23.0357 -23.0352 -23.0194 -22.9303 -22.9254
   -22.9055 -22.8512 -22.8012 -22.7832 -22.7827 -22.7669 -22.7638 -22.6272
   -22.6064 -22.6020 -22.5947 -22.5519 -22.5090 -22.5043 -22.4961 -22.3992
   -14.8727 -14.7504 -14.7144 -14.6367 -14.6332 -14.5490 -14.4439 -14.3498
    -6.9331  -6.7978  -6.7523  -6.7342  -6.6996  -6.5385  -6.4973  -6.4721
    -6.3281  -6.2397  -6.2153  -6.1539  -6.1153  -6.0950  -6.0802  -6.0344
    -6.0012  -5.9458  -5.9336  -5.8896  -5.7920  -5.7463  -5.6669  -5.6118
    -0.3599  -0.3294  -0.2517  -0.2137  -0.1741  -0.1225  -0.0376  -0.0159
     0.0226   0.0584   0.0989   0.1006   0.1306   0.1493   0.1862   0.2024
     0.2477   0.2844   0.2932   0.3086   0.3546   0.4492   0.5019   0.5310
     5.8714   5.9306   6.1473   6.1657   6.3583   6.5343   6.5567   6.5798
     6.6151   6.6509   6.7201   6.7312   6.7976   6.8326   6.8769   6.8981
     6.9553   6.9812   6.9907   7.0606   7.1163   7.1911   7.1960   7.2598
     7.2935   7.3417   7.3875   7.4235   7.4449   7.4682   7.5474   7.5841
     7.5944   7.7040   7.7310   7.7879   7.8180   7.8355   7.8989   7.9861
     8.0490   8.0798   8.1092   8.1974   8.5464   8.5952   8.6167   8.6375
     8.9116   8.9380   8.9968   9.0360   9.0435   9.0675   9.0946   9.1133
     9.1551   9.2025   9.2542   9.2673   9.3683   9.3887   9.4006   9.4714
     9.5385   9.5667   9.6253   9.6617   9.6866   9.7256   9.7704   9.7995
    12.4958  12.5066  12.6210  12.6993  12.8100  12.9387  12.9856  12.9920
    13.0365  13.0790  13.0888  13.1687  13.2565  13.2932  13.4827  13.5459
    13.6146  13.6281  13.6488  13.7603  13.9431  13.9666  14.0152  14.0483
    14.2126  14.3104  14.6192  14.7499  15.3788  15.5890  15.6015  15.6809

          k =-0.5000 0.5000 0.0000 ( 21152 PWs)   bands (ev):

   -46.8266 -46.8100 -46.6882 -46.5601 -46.5284 -46.3428 -46.2729 -46.1562
   -23.1126 -23.0570 -23.0447 -23.0363 -23.0333 -23.0178 -22.9349 -22.9257
   -22.9070 -22.8486 -22.8014 -22.7847 -22.7830 -22.7659 -22.7656 -22.6233
   -22.6041 -22.6022 -22.5943 -22.5510 -22.5091 -22.5084 -22.4945 -22.4006
   -14.8752 -14.7404 -14.7030 -14.6618 -14.6441 -14.5218 -14.4555 -14.3482
    -6.9135  -6.8209  -6.7945  -6.7415  -6.6789  -6.5761  -6.5138  -6.4131
    -6.3314  -6.2331  -6.1875  -6.1775  -6.0824  -6.0611  -6.0508  -6.0177
    -5.9823  -5.9489  -5.9449  -5.9101  -5.8270  -5.7492  -5.6940  -5.6246
    -0.3270  -0.2986  -0.2779  -0.2095  -0.1794  -0.1163  -0.0627  -0.0391
    -0.0170   0.0286   0.0632   0.0789   0.1481   0.1824   0.2042   0.2495
     0.2708   0.3060   0.3228   0.3367   0.3818   0.4031   0.4534   0.5113
     5.9102   5.9935   6.0229   6.0647   6.3595   6.5067   6.5261   6.5891
     6.6092   6.6829   6.7134   6.7662   6.7886   6.8185   6.8574   6.9029
     6.9143   6.9855   7.0088   7.0878   7.1555   7.1786   7.2148   7.2915
     7.3234   7.3477   7.3971   7.4596   7.5042   7.5128   7.5686   7.5947
     7.6552   7.6739   7.6970   7.7342   7.7756   7.8638   7.9267   7.9829
     8.0644   8.0947   8.1696   8.2496   8.5630   8.5745   8.6350   8.6702
     8.7924   8.8971   8.9360   8.9474   9.0138   9.0668   9.1015   9.1538
     9.1670   9.1998   9.2455   9.2832   9.3552   9.3962   9.4459   9.4798
     9.5264   9.5827   9.5882   9.6180   9.6534   9.6992   9.7580   9.8774
    12.5408  12.6279  12.6380  12.7533  12.7763  12.7905  12.8835  12.9550
    12.9780  13.0495  13.0689  13.1188  13.2122  13.3908  13.5637  13.6173
    13.6425  13.6920  13.7231  13.7499  13.8124  13.8879  13.9228  14.0665
    14.3347  14.4345  14.4865  14.7112  15.3396  15.5665  15.6659  15.6781

          k =-0.2500-0.2500 0.2500 ( 21167 PWs)   bands (ev):

   -46.8266 -46.8100 -46.6882 -46.5601 -46.5284 -46.3428 -46.2729 -46.1562
   -23.1157 -23.0556 -23.0462 -23.0347 -23.0323 -23.0186 -22.9326 -22.9273
   -22.9065 -22.8499 -22.7994 -22.7842 -22.7835 -22.7667 -22.7647 -22.6253
   -22.6055 -22.6007 -22.5971 -22.5514 -22.5067 -22.5061 -22.4947 -22.3999
   -14.8772 -14.7583 -14.6972 -14.6546 -14.6365 -14.5325 -14.4460 -14.3463
    -6.9681  -6.8930  -6.8428  -6.7697  -6.6512  -6.5623  -6.5033  -6.3433
    -6.2836  -6.2314  -6.2094  -6.1587  -6.0984  -6.0737  -6.0516  -6.0085
    -5.9950  -5.9608  -5.9198  -5.8931  -5.7927  -5.7442  -5.6798  -5.6109
    -0.4660  -0.4348  -0.2546  -0.1906  -0.1098  -0.0930  -0.0453  -0.0405
     0.0058   0.0368   0.0709   0.0907   0.1224   0.1514   0.1919   0.2317
     0.2922   0.3182   0.3381   0.3783   0.3984   0.4362   0.5016   0.5576
     5.8723   5.9934   6.0699   6.1097   6.2294   6.2641   6.3322   6.3773
     6.4310   6.4680   6.5012   6.5322   6.5548   6.5808   6.6534   6.9725
     7.0471   7.1197   7.1543   7.2204   7.2443   7.2996   7.3522   7.3923
     7.4196   7.4392   7.4763   7.5131   7.5333   7.5590   7.5800   7.6114
     7.6398   7.6917   7.7067   7.7565   7.8220   7.8838   7.9886   8.1029
     8.1852   8.2409   8.2970   8.3460   8.5649   8.5931   8.6509   8.7691
     8.8564   8.9094   8.9404   8.9717   9.0109   9.0575   9.0966   9.1133
     9.1406   9.1896   9.2034   9.2375   9.2604   9.3325   9.3647   9.4880
     9.5398   9.5674   9.6846   9.7238   9.7922   9.8713   9.8819   9.9805
    12.2299  12.3323  12.3525  12.4414  12.5276  12.6537  13.0973  13.1946
    13.2167  13.2977  13.3250  13.3626  13.3890  13.4172  13.4576  13.4751
    13.5293  13.6431  13.7749  13.8420  13.9023  14.0100  14.0754  14.1172
    14.3697  14.4463  14.5081  14.6247  14.7879  15.1261  15.1599  15.2699

          k =-0.2500 0.2500-0.2500 ( 21167 PWs)   bands (ev):

   -46.8266 -46.8100 -46.6882 -46.5601 -46.5284 -46.3428 -46.2729 -46.1562
   -23.1157 -23.0556 -23.0462 -23.0347 -23.0324 -23.0186 -22.9326 -22.9273
   -22.9065 -22.8499 -22.7994 -22.7842 -22.7836 -22.7667 -22.7647 -22.6253
   -22.6055 -22.6007 -22.5971 -22.5514 -22.5065 -22.5063 -22.4947 -22.3999
   -14.8774 -14.7579 -14.6968 -14.6549 -14.6368 -14.5325 -14.4459 -14.3463
    -6.9661  -6.8943  -6.8393  -6.7796  -6.6565  -6.5528  -6.4925  -6.3457
    -6.2981  -6.2304  -6.1851  -6.1600  -6.0980  -6.0885  -6.0653  -6.0125
    -5.9842  -5.9555  -5.9195  -5.8985  -5.7970  -5.7330  -5.6753  -5.6177
    -0.4704  -0.4367  -0.2470  -0.1777  -0.1023  -0.0878  -0.0712  -0.0348
     0.0290   0.0457   0.0616   0.0821   0.0999   0.1337   0.1832   0.2135
     0.3065   0.3324   0.3647   0.3830   0.3971   0.4481   0.4941   0.5413
     5.8684   5.9968   6.0556   6.1229   6.2300   6.2624   6.3124   6.3590
     6.4324   6.4680   6.5113   6.5374   6.5713   6.6039   6.6548   6.9941
     7.0415   7.1106   7.1510   7.2150   7.2728   7.3075   7.3304   7.3448
     7.4021   7.4522   7.4686   7.5040   7.5371   7.5590   7.5803   7.6177
     7.6727   7.6900   7.7106   7.7532   7.8021   7.9335   7.9819   8.0721
     8.1824   8.1892   8.3063   8.3690   8.5587   8.6070   8.6620   8.7960
     8.8440   8.8881   8.9374   8.9725   9.0267   9.0589   9.0956   9.1161
     9.1707   9.2003   9.2134   9.2347   9.3055   9.3251   9.3746   9.4018
     9.5231   9.5446   9.6610   9.7437   9.8089   9.8341   9.8833  10.0408
    12.2251  12.3003  12.3743  12.4546  12.5049  12.6322  13.1008  13.1729
    13.2297  13.2953  13.3270  13.3825  13.4126  13.4328  13.4649  13.4794
    13.5260  13.6495  13.7492  13.8329  13.9114  14.0111  14.0697  14.1205
    14.3636  14.4586  14.5058  14.6215  14.7939  15.1248  15.1596  15.2650

          k = 0.2500-0.2500-0.2500 ( 21167 PWs)   bands (ev):

   -46.8266 -46.8100 -46.6882 -46.5601 -46.5284 -46.3428 -46.2729 -46.1562
   -23.1157 -23.0556 -23.0462 -23.0347 -23.0324 -23.0186 -22.9326 -22.9273
   -22.9065 -22.8499 -22.7994 -22.7842 -22.7835 -22.7667 -22.7647 -22.6253
   -22.6055 -22.6007 -22.5971 -22.5514 -22.5065 -22.5063 -22.4947 -22.3999
   -14.8771 -14.7586 -14.6963 -14.6551 -14.6364 -14.5326 -14.4459 -14.3463
    -6.9670  -6.8926  -6.8388  -6.7788  -6.6488  -6.5629  -6.5063  -6.3402
    -6.2781  -6.2396  -6.1774  -6.1557  -6.1272  -6.0823  -6.0589  -6.0075
    -5.9873  -5.9498  -5.9322  -5.8955  -5.7848  -5.7356  -5.6789  -5.6191
    -0.4645  -0.4288  -0.2724  -0.1648  -0.1240  -0.1062  -0.0602  -0.0225
     0.0201   0.0403   0.0638   0.0784   0.1131   0.1692   0.2028   0.2374
     0.2817   0.3277   0.3362   0.3564   0.3922   0.4293   0.5245   0.5590
     5.8754   5.9949   6.0590   6.1214   6.2223   6.2574   6.3092   6.3609
     6.4301   6.4787   6.5078   6.5254   6.5755   6.6011   6.6436   7.0052
     7.0758   7.1039   7.1702   7.2116   7.2455   7.3041   7.3561   7.3691
     7.4279   7.4342   7.4695   7.4814   7.5235   7.5604   7.5870   7.6149
     7.6515   7.6652   7.7197   7.7496   7.8202   7.8966   7.9567   8.0684
     8.1513   8.2168   8.3302   8.4087   8.5934   8.6221   8.6631   8.7734
     8.8411   8.8891   8.9520   8.9735   9.0307   9.0623   9.0935   9.1335
     9.1609   9.1853   9.2055   9.2421   9.2679   9.3175   9.3632   9.3952
     9.4918   9.5281   9.6786   9.7577   9.8179   9.8668   9.8894  10.0316
    12.2236  12.3222  12.3707  12.4490  12.5064  12.6293  13.0984  13.1674
    13.2538  13.2931  13.3331  13.3820  13.3995  13.4379  13.4555  13.4745
    13.5269  13.6496  13.7482  13.8407  13.8997  14.0209  14.0730  14.1158
    14.3602  14.4408  14.5028  14.6224  14.7917  15.1262  15.1771  15.2710

          k =-0.2500 0.2500 0.5000 ( 21192 PWs)   bands (ev):

   -46.8266 -46.8100 -46.6882 -46.5601 -46.5284 -46.3428 -46.2729 -46.1562
   -23.1157 -23.0547 -23.0459 -23.0344 -23.0322 -23.0184 -22.9326 -22.9272
   -22.9057 -22.8512 -22.7994 -22.7842 -22.7835 -22.7667 -22.7638 -22.6254
   -22.6062 -22.6007 -22.5972 -22.5520 -22.5066 -22.5065 -22.4955 -22.3999
   -14.8723 -14.7597 -14.6960 -14.6464 -14.6402 -14.5369 -14.4493 -14.3492
    -6.9363  -6.8249  -6.7716  -6.7373  -6.6867  -6.6256  -6.4411  -6.3758
    -6.2929  -6.2296  -6.2095  -6.1601  -6.1284  -6.1059  -6.0820  -6.0316
    -6.0006  -5.9597  -5.9368  -5.9002  -5.7930  -5.7400  -5.6820  -5.6215
    -0.3559  -0.3359  -0.2693  -0.2530  -0.1466  -0.0930  -0.0729  -0.0358
    -0.0060   0.0286   0.0624   0.0869   0.1052   0.1229   0.1683   0.2077
     0.2398   0.2774   0.3637   0.3917   0.4174   0.4740   0.5228   0.5470
     5.9176   6.0590   6.1315   6.1741   6.2530   6.3131   6.3718   6.5662
     6.6356   6.6515   6.7207   6.7241   6.7646   6.8055   6.8212   6.8636
     6.9281   6.9720   7.0178   7.0850   7.1399   7.1578   7.2692   7.3091
     7.3335   7.3889   7.4347   7.4627   7.4749   7.5256   7.5730   7.5865
     7.6495   7.6675   7.7222   7.7477   7.7986   7.9113   7.9588   7.9963
     8.0807   8.1433   8.2271   8.2766   8.3654   8.4124   8.6023   8.6482
     8.8042   8.9269   8.9628   9.0123   9.0365   9.1071   9.1416   9.1605
     9.1999   9.2272   9.2607   9.3017   9.3217   9.3731   9.4121   9.4886
     9.5053   9.5467   9.5932   9.6260   9.6679   9.7160   9.7843  10.0268
    12.2348  12.5707  12.6305  12.6493  12.7523  12.8101  13.0262  13.0625
    13.1073  13.1751  13.2075  13.2714  13.2992  13.3435  13.4510  13.4711
    13.5322  13.6605  13.7200  13.7475  13.8026  13.9134  13.9720  14.0868
    14.3745  14.6899  14.7904  14.8967  15.0839  15.1791  15.2798  15.6248

          k =-0.5000-0.2500 0.2500 ( 21192 PWs)   bands (ev):

   -46.8266 -46.8100 -46.6882 -46.5601 -46.5284 -46.3428 -46.2729 -46.1562
   -23.1126 -23.0562 -23.0453 -23.0360 -23.0345 -23.0186 -22.9326 -22.9256
   -22.9063 -22.8499 -22.8013 -22.7837 -22.7831 -22.7664 -22.7647 -22.6252
   -22.6053 -22.6020 -22.5946 -22.5514 -22.5088 -22.5065 -22.4953 -22.3999
   -14.8743 -14.7462 -14.7093 -14.6478 -14.6385 -14.5358 -14.4492 -14.3490
    -6.9215  -6.8190  -6.7949  -6.7159  -6.6945  -6.6176  -6.4874  -6.3707
    -6.3244  -6.2355  -6.1997  -6.1719  -6.0949  -6.0744  -6.0692  -6.0044
    -5.9941  -5.9557  -5.9388  -5.9231  -5.8161  -5.7441  -5.6867  -5.6187
    -0.3589  -0.3286  -0.3089  -0.2571  -0.1130  -0.0820  -0.0508  -0.0268
     0.0052   0.0273   0.0489   0.0552   0.0759   0.1299   0.1627   0.2116
     0.2405   0.2875   0.3655   0.4139   0.4256   0.4713   0.5170   0.5377
     5.9876   6.0279   6.1800   6.1843   6.2632   6.2758   6.4393   6.4988
     6.5302   6.6398   6.6560   6.6657   6.7073   6.7467   6.8402   6.8661
     6.9309   6.9448   7.0068   7.0667   7.1620   7.2136   7.2673   7.3394
     7.3880   7.4349   7.4522   7.4922   7.5200   7.5553   7.5697   7.6070
     7.6674   7.7116   7.7363   7.7791   7.8014   7.8817   7.9359   8.0132
     8.0691   8.1457   8.2484   8.3012   8.3381   8.3991   8.5729   8.6377
     8.8762   8.9023   8.9378   8.9920   9.0296   9.0741   9.1109   9.1533
     9.1807   9.2329   9.3058   9.3199   9.3458   9.3830   9.3917   9.4354
     9.4799   9.5262   9.6196   9.6517   9.6884   9.7992   9.8526   9.8672
    12.3536  12.4244  12.6109  12.6827  12.7769  12.8179  12.9010  12.9997
    13.0397  13.1607  13.2469  13.3538  13.3635  13.4418  13.4536  13.4727
    13.4781  13.5668  13.7623  13.8140  13.8800  13.9108  13.9423  13.9948
    14.4489  14.5176  14.8844  14.9413  15.0480  15.0652  15.3611  15.4574

          k = 0.5000-0.2500-0.2500 ( 21192 PWs)   bands (ev):

   -46.8266 -46.8100 -46.6882 -46.5601 -46.5284 -46.3428 -46.2729 -46.1562
   -23.1126 -23.0562 -23.0453 -23.0360 -23.0345 -23.0186 -22.9326 -22.9256
   -22.9063 -22.8499 -22.8013 -22.7837 -22.7831 -22.7664 -22.7647 -22.6252
   -22.6053 -22.6020 -22.5946 -22.5514 -22.5088 -22.5065 -22.4953 -22.3999
   -14.8742 -14.7462 -14.7093 -14.6478 -14.6384 -14.5358 -14.4491 -14.3490
    -6.9208  -6.8190  -6.7948  -6.7067  -6.6968  -6.6360  -6.4793  -6.3632
    -6.3110  -6.2537  -6.1941  -6.1624  -6.1197  -6.0803  -6.0606  -6.0193
    -5.9949  -5.9550  -5.9358  -5.9014  -5.8126  -5.7444  -5.6897  -5.6215
    -0.3536  -0.3316  -0.3056  -0.2477  -0.1222  -0.0859  -0.0707  -0.0249
    -0.0175   0.0181   0.0371   0.0758   0.1193   0.1472   0.1697   0.1966
     0.2502   0.2708   0.3666   0.3902   0.4118   0.4793   0.5347   0.5424
     5.9828   6.0259   6.1794   6.2080   6.2488   6.2748   6.4244   6.5060
     6.5304   6.6179   6.6563   6.6906   6.7089   6.7391   6.8351   6.8830
     6.9278   6.9469   7.0201   7.0721   7.1558   7.2443   7.2693   7.3305
     7.3610   7.4002   7.4466   7.4903   7.5143   7.5538   7.5964   7.6242
     7.6703   7.7181   7.7509   7.7726   7.7996   7.8357   7.9648   7.9994
     8.0725   8.1359   8.2410   8.2851   8.3611   8.3890   8.6067   8.6548
     8.8799   8.9244   8.9370   8.9756   9.0248   9.0657   9.1131   9.1630
     9.1807   9.1989   9.2518   9.3210   9.3454   9.3763   9.3912   9.4684
     9.4923   9.5147   9.6232   9.6540   9.6870   9.8128   9.8584   9.8735
    12.3582  12.4216  12.6106  12.6857  12.7718  12.8159  12.8992  12.9976
    13.0452  13.1623  13.2585  13.3606  13.3679  13.4294  13.4372  13.4638
    13.4857  13.5705  13.7679  13.8102  13.8910  13.9128  13.9475  13.9819
    14.4352  14.5101  14.8840  14.9449  15.0595  15.0851  15.3493  15.4466

          k =-0.2500-0.5000 0.2500 ( 21192 PWs)   bands (ev):

   -46.8266 -46.8100 -46.6882 -46.5601 -46.5284 -46.3428 -46.2729 -46.1562
   -23.1157 -23.0555 -23.0453 -23.0340 -23.0317 -23.0176 -22.9349 -22.9273
   -22.9065 -22.8499 -22.7995 -22.7845 -22.7841 -22.7662 -22.7647 -22.6235
   -22.6051 -22.6008 -22.5969 -22.5515 -22.5089 -22.5063 -22.4948 -22.4006
   -14.8739 -14.7520 -14.6915 -14.6644 -14.6405 -14.5232 -14.4560 -14.3484
    -6.9253  -6.8435  -6.7711  -6.7477  -6.6801  -6.6426  -6.4296  -6.3782
    -6.2933  -6.2392  -6.1978  -6.1655  -6.1154  -6.0805  -6.0568  -6.0059
    -5.9980  -5.9757  -5.9425  -5.9013  -5.8111  -5.7616  -5.6906  -5.6198
    -0.3657  -0.3199  -0.2944  -0.1903  -0.1634  -0.1114  -0.1000  -0.0171
    -0.0064   0.0205   0.0416   0.0854   0.1046   0.1348   0.1851   0.2256
     0.2505   0.2645   0.3689   0.3833   0.4201   0.4510   0.5151   0.5645
     5.9408   6.0510   6.1289   6.1915   6.2154   6.2700   6.3991   6.4861
     6.5983   6.6231   6.7061   6.7478   6.7826   6.8175   6.8272   6.8566
     6.9200   6.9625   7.0569   7.0979   7.1533   7.2247   7.2845   7.3475
     7.3738   7.4309   7.4516   7.4741   7.5053   7.5409   7.5518   7.5802
     7.6256   7.6513   7.6878   7.7358   7.7999   7.8309   7.9815   8.0307
     8.0801   8.1466   8.2501   8.3083   8.3572   8.4136   8.5413   8.6214
     8.8859   8.9473   8.9731   8.9998   9.0521   9.0594   9.0885   9.1189
     9.1559   9.2010   9.2508   9.2904   9.3252   9.3772   9.4221   9.4887
     9.5137   9.5446   9.6203   9.6661   9.6871   9.8046   9.8304   9.8709
    12.3437  12.4794  12.5848  12.7033  12.7785  12.8649  12.9123  12.9449
    13.1085  13.1717  13.2154  13.3014  13.3775  13.4149  13.4476  13.4695
    13.5293  13.5907  13.6832  13.7485  13.8502  13.9060  13.9408  14.0772
    14.4615  14.6297  14.8117  14.8860  15.0691  15.2067  15.2234  15.5568

          k =-0.2500 0.5000-0.2500 ( 21192 PWs)   bands (ev):

   -46.8266 -46.8100 -46.6882 -46.5601 -46.5284 -46.3428 -46.2729 -46.1562
   -23.1157 -23.0555 -23.0453 -23.0340 -23.0318 -23.0176 -22.9349 -22.9273
   -22.9065 -22.8499 -22.7995 -22.7845 -22.7841 -22.7662 -22.7647 -22.6235
   -22.6051 -22.6008 -22.5969 -22.5515 -22.5089 -22.5063 -22.4947 -22.4006
   -14.8741 -14.7514 -14.6920 -14.6642 -14.6407 -14.5232 -14.4560 -14.3484
    -6.9249  -6.8426  -6.7833  -6.7312  -6.6992  -6.6200  -6.4368  -6.3878
    -6.3030  -6.2285  -6.1966  -6.1560  -6.1034  -6.0871  -6.0575  -6.0147
    -5.9960  -5.9693  -5.9332  -5.9198  -5.8206  -5.7536  -5.6870  -5.6210
    -0.3769  -0.3224  -0.2937  -0.1737  -0.1495  -0.1062  -0.0533  -0.0272
    -0.0211   0.0037   0.0334   0.0592   0.1060   0.1086   0.1747   0.2137
     0.2380   0.3082   0.3924   0.4009   0.4323   0.4756   0.4832   0.5410
     5.9349   6.0393   6.1353   6.1955   6.2190   6.2757   6.4004   6.4882
     6.5974   6.6282   6.6970   6.7402   6.7820   6.8220   6.8497   6.8808
     6.9180   6.9577   7.0602   7.1022   7.1628   7.1791   7.2703   7.3451
     7.3547   7.3906   7.4416   7.4625   7.4887   7.5309   7.5749   7.6251
     7.6340   7.6790   7.7187   7.7542   7.7614   7.8887   7.9802   8.0256
     8.0837   8.0961   8.2544   8.2915   8.3570   8.4345   8.5548   8.6205
     8.8367   8.8727   8.9349   9.0054   9.0508   9.0805   9.1328   9.1469
     9.1736   9.2171   9.2735   9.2991   9.3553   9.3828   9.4099   9.4809
     9.5112   9.5257   9.5960   9.6639   9.7114   9.7877   9.8270   9.8771
    12.3325  12.4818  12.5781  12.7019  12.7812  12.8654  12.9141  12.9497
    13.1051  13.1821  13.2076  13.2992  13.3788  13.4155  13.4473  13.4670
    13.5374  13.5912  13.6800  13.7515  13.8525  13.9058  13.9377  14.0772
    14.4658  14.6336  14.8228  14.8734  15.0600  15.2075  15.2264  15.5583

          k =-0.5000 0.2500 0.5000 ( 21180 PWs)   bands (ev):

   -46.8266 -46.8100 -46.6882 -46.5601 -46.5284 -46.3428 -46.2729 -46.1562
   -23.1126 -23.0554 -23.0451 -23.0357 -23.0342 -23.0185 -22.9326 -22.9255
   -22.9055 -22.8512 -22.8013 -22.7837 -22.7831 -22.7664 -22.7639 -22.6254
   -22.6060 -22.6021 -22.5946 -22.5520 -22.5090 -22.5065 -22.4961 -22.3999
   -14.8701 -14.7453 -14.7104 -14.6442 -14.6361 -14.5405 -14.4530 -14.3519
    -6.8968  -6.7724  -6.7198  -6.7132  -6.6750  -6.5449  -6.4957  -6.4691
    -6.3279  -6.2473  -6.2138  -6.1561  -6.1373  -6.0998  -6.0808  -6.0415
    -6.0071  -5.9608  -5.9451  -5.9128  -5.8181  -5.7519  -5.6896  -5.6206
    -0.3350  -0.3105  -0.2503  -0.2137  -0.1635  -0.1233  -0.0942  -0.0646
    -0.0395  -0.0235   0.0210   0.0504   0.0790   0.1217   0.1369   0.1789
     0.3069   0.3420   0.3599   0.3789   0.4495   0.5065   0.5513   0.5783
     6.0387   6.0954   6.2760   6.2836   6.3468   6.4829   6.5080   6.5427
     6.5657   6.6627   6.7262   6.7443   6.7887   6.8175   6.8660   6.9558
     7.0130   7.0384   7.0726   7.1155   7.1366   7.1809   7.2037   7.2411
     7.2933   7.3184   7.3831   7.4369   7.4747   7.4914   7.5542   7.5731
     7.6209   7.6905   7.7078   7.7512   7.7882   7.8288   7.8796   7.9183
     7.9615   8.0003   8.0372   8.1029   8.2613   8.2919   8.3486   8.4070
     8.9601   9.0132   9.0298   9.0626   9.0836   9.1406   9.1687   9.2217
     9.2331   9.2538   9.2942   9.3258   9.3650   9.3943   9.4120   9.4739
     9.4974   9.5338   9.6128   9.6437   9.6689   9.7007   9.7413   9.8083
    12.5971  12.6223  12.7280  12.7950  12.8331  12.9879  13.0111  13.0210
    13.0728  13.1515  13.1704  13.1891  13.2345  13.3093  13.3412  13.3942
    13.4686  13.5035  13.6098  13.7498  13.7968  13.8202  13.8769  13.9108
    14.6419  14.7351  15.0619  15.1932  15.3940  15.5990  15.6115  15.6819

          k =-0.5000 0.5000 0.2500 ( 21180 PWs)   bands (ev):

   -46.8266 -46.8100 -46.6882 -46.5601 -46.5284 -46.3428 -46.2729 -46.1562
   -23.1126 -23.0562 -23.0444 -23.0360 -23.0331 -23.0176 -22.9349 -22.9256
   -22.9063 -22.8499 -22.8014 -22.7847 -22.7830 -22.7659 -22.7647 -22.6234
   -22.6048 -22.6022 -22.5944 -22.5515 -22.5091 -22.5085 -22.4953 -22.4006
   -14.8714 -14.7398 -14.7043 -14.6577 -14.6416 -14.5257 -14.4599 -14.3511
    -6.8844  -6.7900  -6.7553  -6.6952  -6.6630  -6.5831  -6.5042  -6.4259
    -6.3287  -6.2430  -6.1976  -6.1808  -6.1141  -6.0769  -6.0674  -6.0149
    -6.0043  -5.9762  -5.9493  -5.9254  -5.8339  -5.7570  -5.7002  -5.6270
    -0.3164  -0.2839  -0.2673  -0.2033  -0.1751  -0.1445  -0.1068  -0.0619
    -0.0519  -0.0274   0.0113   0.0352   0.0812   0.1084   0.1662   0.2177
     0.3108   0.3346   0.3705   0.3858   0.4501   0.5033   0.5487   0.5572
     6.0844   6.1298   6.1881   6.2050   6.3611   6.4683   6.4910   6.5224
     6.5840   6.6678   6.7086   6.7587   6.8111   6.8259   6.8674   6.9192
     6.9796   7.0391   7.0707   7.1132   7.1773   7.1987   7.2321   7.2553
     7.3004   7.3595   7.3931   7.4645   7.4814   7.5157   7.5717   7.5878
     7.6049   7.6905   7.7022   7.7717   7.7949   7.8119   7.8626   7.9088
     7.9813   8.0059   8.0662   8.1656   8.2662   8.2834   8.3091   8.3413
     8.9569   8.9992   9.0320   9.0651   9.0827   9.1253   9.1557   9.1835
     9.2247   9.2339   9.2884   9.3166   9.3619   9.4121   9.4532   9.4730
     9.5184   9.5668   9.5864   9.6150   9.6441   9.6828   9.7327   9.8485
    12.6553  12.7160  12.7406  12.7989  12.8400  12.8711  12.9387  12.9977
    13.0272  13.0700  13.1073  13.1464  13.2275  13.3695  13.4579  13.4874
    13.5577  13.5829  13.6025  13.6815  13.7180  13.7732  13.8335  13.9383
    14.7472  14.8152  14.9357  15.0853  15.3451  15.5836  15.6731  15.6820

     the Fermi energy is    11.4605 ev

!    total energy              =   -5448.92352469 Ry
     estimated scf accuracy    <          2.5E-09 Ry
     smearing contrib. (-TS)   =      -0.00000000 Ry
     internal energy E=F+TS    =   -5448.92352469 Ry

     The total energy is F=E-TS. E is the sum of the following terms:
     one-electron contribution =    -584.09657929 Ry
     hartree contribution      =     489.07014650 Ry
     xc contribution           =    -486.65198678 Ry
     ewald contribution        =   -1639.18173288 Ry
     one-center paw contrib.   =   -3228.06337224 Ry

     convergence has been achieved in  25 iterations

     negative rho (up, down):  9.731E-03 0.000E+00

     Forces acting on atoms (cartesian axes, Ry/au):

     atom    1 type  1   force =    -0.02316983   -0.00328632   -0.01002241
     atom    2 type  1   force =     0.02175532   -0.02120079    0.01715276
     atom    3 type  1   force =    -0.00920737    0.00352760    0.02015557
     atom    4 type  1   force =    -0.02412494   -0.02998721    0.03581256
     atom    5 type  1   force =     0.03267597    0.01018757    0.00510316
     atom    6 type  1   force =     0.01757695    0.00785845   -0.02259994
     atom    7 type  1   force =    -0.01325729   -0.00879378    0.00179314
     atom    8 type  1   force =    -0.01431655   -0.00178230   -0.00550180
     atom    9 type  2   force =     0.04336688   -0.03377530   -0.01664294
     atom   10 type  2   force =    -0.05730273    0.01901247   -0.00845305
     atom   11 type  2   force =    -0.04760629    0.01157252   -0.00929967
     atom   12 type  2   force =     0.02891385   -0.02899806   -0.03790174
     atom   13 type  2   force =     0.00143608    0.03349258   -0.00226205
     atom   14 type  2   force =    -0.04180549   -0.01947452   -0.03163271
     atom   15 type  2   force =     0.02520633   -0.02699634   -0.00749052
     atom   16 type  2   force =    -0.00705123    0.02251938    0.04848781
     atom   17 type  3   force =    -0.05262440    0.01896481    0.01486379
     atom   18 type  3   force =     0.03102434   -0.03054401    0.03535545
     atom   19 type  3   force =     0.00550889    0.01781131   -0.01691597
     atom   20 type  3   force =    -0.04465161    0.01140647   -0.00731753
     atom   21 type  3   force =    -0.02966350    0.00628117    0.05210046
     atom   22 type  3   force =    -0.01073639   -0.01306169   -0.00841261
     atom   23 type  3   force =     0.01105172    0.04926009    0.01408167
     atom   24 type  3   force =    -0.01431726    0.02788212   -0.01516435
     atom   25 type  3   force =     0.02653975    0.00157099   -0.00609103
     atom   26 type  3   force =    -0.00229608    0.01835635   -0.00534929
     atom   27 type  3   force =    -0.00071141   -0.01107091    0.00320664
     atom   28 type  3   force =     0.01639558   -0.03906463    0.00674111
     atom   29 type  3   force =     0.01677998    0.01297265    0.00435537
     atom   30 type  3   force =     0.00396052    0.01233462   -0.00163026
     atom   31 type  3   force =     0.01603642   -0.02174146   -0.01335785
     atom   32 type  3   force =    -0.00151964   -0.04094489    0.00599918
     atom   33 type  3   force =     0.00119366    0.02284320   -0.04817734
     atom   34 type  3   force =     0.02141157    0.01180272   -0.03377929
     atom   35 type  3   force =    -0.00088467    0.01929528   -0.03788086
     atom   36 type  3   force =     0.02472877    0.03565382   -0.03189029
     atom   37 type  3   force =     0.04064355   -0.02875673    0.04190741
     atom   38 type  3   force =     0.00203215    0.00932440   -0.00029299
     atom   39 type  3   force =     0.01251074   -0.00534096    0.00718780
     atom   40 type  3   force =    -0.00550230   -0.01911066    0.06376262

     Total force =     0.266135     Total SCF correction =     0.000057
     Message from routine punch:
     Nothing written, as per user request (disk_io='none')

     init_run     :     49.93s CPU     52.31s WALL (       1 calls)
     electrons    :   3017.00s CPU   3158.50s WALL (       1 calls)
     forces       :     29.75s CPU     30.98s WALL (       1 calls)

     Called by init_run:
     wfcinit      :     42.08s CPU     43.82s WALL (       1 calls)
     potinit      :      4.21s CPU      4.35s WALL (       1 calls)
     hinit0       :      1.14s CPU      1.20s WALL (       1 calls)

     Called by electrons:
     c_bands      :   2511.06s CPU   2614.66s WALL (      25 calls)
     sum_band     :    376.74s CPU    398.58s WALL (      25 calls)
     v_of_rho     :     38.31s CPU     41.04s WALL (      26 calls)
     newd         :     44.11s CPU     57.66s WALL (      26 calls)
     PAW_pot      :     38.36s CPU     38.38s WALL (      26 calls)
     mix_rho      :      5.85s CPU      5.95s WALL (      25 calls)

     Called by c_bands:
     init_us_2    :     66.11s CPU     66.24s WALL (     468 calls)
     cegterg      :   2274.66s CPU   2378.00s WALL (     225 calls)

     Called by *egterg:
     cdiaghg      :     52.07s CPU     52.09s WALL (     898 calls)
     h_psi        :   1067.17s CPU   1123.78s WALL (     907 calls)
     s_psi        :    153.01s CPU    153.03s WALL (     907 calls)
     g_psi        :      6.10s CPU      6.10s WALL (     673 calls)

     Called by h_psi:
     h_psi:calbec :    260.38s CPU    261.25s WALL (     907 calls)
     vloc_psi     :    646.92s CPU    683.25s WALL (     907 calls)
                                        0.00s GPU  (     907 calls)
     add_vuspsi   :    152.94s CPU    152.97s WALL (     907 calls)

     General routines
     calbec       :    378.60s CPU    379.96s WALL (    1168 calls)
     fft          :     51.27s CPU     53.15s WALL (     347 calls)
     ffts         :      2.43s CPU      2.48s WALL (      51 calls)
     fftw         :    724.56s CPU    766.78s WALL (  232460 calls)
     interpolate  :      5.13s CPU      5.29s WALL (      26 calls)

     Parallel routines

     PWSCF        :  51m37.20s CPU  54m 2.46s WALL


   This run was terminated on:   7: 0:58   4Oct2026            

=------------------------------------------------------------------------------=
   JOB DONE.
=------------------------------------------------------------------------------=
