
     Program PWSCF v.7.5 starts on  3Oct2026 at 21:18:58 

     This program is part of the open-source Quantum ESPRESSO suite
     for quantum simulation of materials; please cite
         "P. Giannozzi et al., J. Phys.:Condens. Matter 21 395502 (2009);
         "P. Giannozzi et al., J. Phys.:Condens. Matter 29 465901 (2017);
         "P. Giannozzi et al., J. Chem. Phys. 152 154105 (2020);
          URL http://www.quantum-espresso.org", 
     in publications or presentations arising from this work. More details at
     http://www.quantum-espresso.org/quote

     Parallel version (MPI & OpenMP), running on       8 processor cores
     Number of MPI processes:                 8
     Threads/MPI process:                     1

     MPI processes distributed on     1 nodes
     11374 MiB available memory on the printing compute node when the environment starts

     Reading input from pw.in

     Current dimensions of program PWSCF are:
     Max number of different atomic species (ntypx) = 10
     Max number of k-points (npk) =  40000
     Max angular momentum in pseudopotentials (lmaxx) =  4
     Message from routine setup:
     using ibrav=0 with symmetry is DISCOURAGED, use correct ibrav instead

     K-points division:     npool     =       8
     Subspace diagonalization in iterative solution of the eigenvalue problem:
     a serial algorithm will be used


     G-vector sticks info
     --------------------
     sticks:   dense  smooth     PW     G-vecs:    dense   smooth      PW
     Sum        1245     625    235                19609     6947    1605

     Using Slab Decomposition



     bravais-lattice index     =            0
     lattice parameter (alat)  =      11.7338  a.u.
     unit-cell volume          =     310.9061 (a.u.)^3
     number of atoms/cell      =            2
     number of atomic types    =            1
     number of electrons       =        24.00
     number of Kohn-Sham states=           16
     kinetic-energy cutoff     =      30.0000  Ry
     charge density cutoff     =     240.0000  Ry
     scf convergence threshold =      2.0E-10
     mixing beta               =       0.4000
     number of iterations used =            8  plain     mixing
     Exchange-correlation= SLA  PW   PBE  PBE
                           (   1   4   3   4   0   0   0)

     celldm(1)=  11.733756  celldm(2)=   0.000000  celldm(3)=   0.000000
     celldm(4)=   0.000000  celldm(5)=   0.000000  celldm(6)=   0.000000

     crystal axes: (cart. coord. in units of alat)
               a(1) = (  -0.577350   0.577350   0.577350 )  
               a(2) = (   0.288675  -0.288675   0.288675 )  
               a(3) = (   0.288675   0.288675  -0.288675 )  

     reciprocal axes: (cart. coord. in units 2 pi/alat)
               b(1) = ( -0.000000  0.866025  0.866025 )  
               b(2) = (  1.732051 -0.000000  1.732051 )  
               b(3) = (  1.732051  1.732051 -0.000000 )  


     PseudoPot. # 1 for Zr read from file:
     /root/sssp/Zr_pbe_v1.uspp.F.UPF
     MD5 check sum: 5db81b1e868ab7776c4564c113de050b
     Pseudo is Ultrasoft + core correction, Zval = 12.0
     Generated by new atomic code, or converted to UPF format
     Using radial grid of  887 points,  6 beta functions with: 
                l(1) =   0
                l(2) =   0
                l(3) =   1
                l(4) =   1
                l(5) =   2
                l(6) =   2
     Q(r) pseudized with  6 coefficients,  rinner =    1.200   1.200   1.200
                                                       1.200   1.200

     atomic species   valence    mass     pseudopotential
     Zr               12.00    91.22400     Zr( 1.00)

      8 Sym. Ops., with inversion, found ( 4 have fractional translation)



   Cartesian axes

     site n.     atom                  positions (alat units)
         1        Zr     tau(   1) = (  -0.0000000  -0.0724727   0.0724727  )
         2        Zr     tau(   2) = (  -0.2886751   0.3611478   0.2162025  )

     number of k points=   693  Marzari-Vanderbilt smearing, width (Ry)=  0.0200

     Number of k-points >= 100: set verbosity='high' to print them.

     Dense  grid:    19609 G-vectors     FFT dimensions: (  60,  30,  30)

     Smooth grid:     6947 G-vectors     FFT dimensions: (  48,  24,  24)

     Estimated max dynamical RAM per process >      39.32 MB

     Estimated total dynamical RAM >     281.02 MB

     Check: negative core charge=   -0.000004

     Initial potential from superposition of free atoms

     starting charge      23.9957, renormalised to      24.0000

     negative rho (up, down):  1.205E-01 0.000E+00
     Starting wfcs are   26 randomized atomic wfcs

     total cpu time spent up to now is        2.4 secs

     per-process dynamical memory:    43.1 Mb

     Self-consistent Calculation

     iteration #  1     ecut=    30.00 Ry     beta= 0.40
     Davidson diagonalization with overlap
     ethr =  1.00E-02,  avg # of iterations =  2.0

     Threshold (ethr) on eigenvalues was too large:
     Diagonalizing with lowered threshold

     Davidson diagonalization with overlap
     ethr =  8.70E-05,  avg # of iterations =  2.3

     negative rho (up, down):  1.211E-01 0.000E+00

     total cpu time spent up to now is        6.7 secs

     total energy              =    -198.26864070 Ry
     estimated scf accuracy    <       0.02507558 Ry

     iteration #  2     ecut=    30.00 Ry     beta= 0.40
     Davidson diagonalization with overlap
     ethr =  1.04E-04,  avg # of iterations =  1.4

     negative rho (up, down):  1.221E-01 0.000E+00

     total cpu time spent up to now is        8.6 secs

     total energy              =    -198.26860364 Ry
     estimated scf accuracy    <       0.00448458 Ry

     iteration #  3     ecut=    30.00 Ry     beta= 0.40
     Davidson diagonalization with overlap
     ethr =  1.87E-05,  avg # of iterations =  2.0

     negative rho (up, down):  1.228E-01 0.000E+00

     total cpu time spent up to now is       10.6 secs

     total energy              =    -198.26933656 Ry
     estimated scf accuracy    <       0.00025140 Ry

     iteration #  4     ecut=    30.00 Ry     beta= 0.40
     Davidson diagonalization with overlap
     ethr =  1.05E-06,  avg # of iterations =  2.7

     negative rho (up, down):  1.228E-01 0.000E+00

     total cpu time spent up to now is       13.3 secs

     total energy              =    -198.26937635 Ry
     estimated scf accuracy    <       0.00004217 Ry

     iteration #  5     ecut=    30.00 Ry     beta= 0.40
     Davidson diagonalization with overlap
     ethr =  1.76E-07,  avg # of iterations =  2.6

     negative rho (up, down):  1.228E-01 0.000E+00

     total cpu time spent up to now is       15.5 secs

     total energy              =    -198.26938105 Ry
     estimated scf accuracy    <       0.00000381 Ry

     iteration #  6     ecut=    30.00 Ry     beta= 0.40
     Davidson diagonalization with overlap
     ethr =  1.59E-08,  avg # of iterations =  3.2

     negative rho (up, down):  1.228E-01 0.000E+00

     total cpu time spent up to now is       17.9 secs

     total energy              =    -198.26938202 Ry
     estimated scf accuracy    <       0.00000018 Ry

     iteration #  7     ecut=    30.00 Ry     beta= 0.40
     Davidson diagonalization with overlap
     ethr =  7.61E-10,  avg # of iterations =  3.5

     negative rho (up, down):  1.228E-01 0.000E+00

     total cpu time spent up to now is       20.6 secs

     total energy              =    -198.26938209 Ry
     estimated scf accuracy    <       0.00000002 Ry

     iteration #  8     ecut=    30.00 Ry     beta= 0.40
     Davidson diagonalization with overlap
     ethr =  7.23E-11,  avg # of iterations =  2.7

     negative rho (up, down):  1.228E-01 0.000E+00

     total cpu time spent up to now is       22.8 secs

     total energy              =    -198.26938209 Ry
     estimated scf accuracy    <          1.7E-09 Ry

     iteration #  9     ecut=    30.00 Ry     beta= 0.40
     Davidson diagonalization with overlap
     ethr =  7.08E-12,  avg # of iterations =  2.7

     negative rho (up, down):  1.228E-01 0.000E+00

     total cpu time spent up to now is       24.9 secs

     total energy              =    -198.26938209 Ry
     estimated scf accuracy    <          3.8E-10 Ry

     iteration # 10     ecut=    30.00 Ry     beta= 0.40
     Davidson diagonalization with overlap
     ethr =  1.56E-12,  avg # of iterations =  2.3

     negative rho (up, down):  1.228E-01 0.000E+00

     total cpu time spent up to now is       27.2 secs

     End of self-consistent calculation

     Number of k-points >= 100: set verbosity='high' to print the bands.

     the Fermi energy is    14.1002 ev

!    total energy              =    -198.26938209 Ry
     estimated scf accuracy    <          2.0E-11 Ry
     smearing contrib. (-TS)   =       0.00014706 Ry
     internal energy E=F+TS    =    -198.26952916 Ry

     The total energy is F=E-TS. E is the sum of the following terms:
     one-electron contribution =     -36.98224133 Ry
     hartree contribution      =      27.96079827 Ry
     xc contribution           =     -35.61219553 Ry
     ewald contribution        =    -153.63589057 Ry

     convergence has been achieved in  10 iterations

     negative rho (up, down):  1.228E-01 0.000E+00

     Forces acting on atoms (cartesian axes, Ry/au):

     atom    1 type  1   force =     0.00000000    0.02494309   -0.02494309
     atom    2 type  1   force =    -0.00000000   -0.02494309    0.02494309

     Total force =     0.049886     Total SCF correction =     0.000006
     Message from routine punch:
     Nothing written, as per user request (disk_io='none')

     init_run     :      2.12s CPU      2.16s WALL (       1 calls)
     electrons    :     24.40s CPU     24.84s WALL (       1 calls)
     forces       :      0.15s CPU      0.15s WALL (       1 calls)

     Called by init_run:
     wfcinit      :      1.31s CPU      1.34s WALL (       1 calls)
     potinit      :      0.28s CPU      0.29s WALL (       1 calls)
     hinit0       :      0.47s CPU      0.47s WALL (       1 calls)

     Called by electrons:
     c_bands      :     20.53s CPU     20.86s WALL (      11 calls)
     sum_band     :      3.56s CPU      3.65s WALL (      11 calls)
     v_of_rho     :      0.22s CPU      0.23s WALL (      11 calls)
     newd         :      0.12s CPU      0.12s WALL (      11 calls)
     mix_rho      :      0.01s CPU      0.01s WALL (      11 calls)

     Called by c_bands:
     init_us_2    :      0.55s CPU      0.56s WALL (    2088 calls)
     cegterg      :     17.59s CPU     17.90s WALL (     957 calls)

     Called by *egterg:
     cdiaghg      :      0.85s CPU      0.87s WALL (    3305 calls)
     h_psi        :     15.87s CPU     16.14s WALL (    3479 calls)
     s_psi        :      0.39s CPU      0.40s WALL (    3479 calls)
     g_psi        :      0.14s CPU      0.14s WALL (    2435 calls)

     Called by h_psi:
     h_psi:calbec :      0.42s CPU      0.42s WALL (    3479 calls)
     vloc_psi     :     14.98s CPU     15.24s WALL (    3479 calls)
                                        0.00s GPU  (    3479 calls)
     add_vuspsi   :      0.40s CPU      0.41s WALL (    3479 calls)

     General routines
     calbec       :      0.61s CPU      0.62s WALL (    4784 calls)
     fft          :      0.29s CPU      0.30s WALL (     153 calls)
     ffts         :      0.23s CPU      0.23s WALL (      22 calls)
     fftw         :     15.64s CPU     15.92s WALL (   94882 calls)
     interpolate  :      0.23s CPU      0.24s WALL (      11 calls)

     Parallel routines

     PWSCF        :     26.88s CPU     27.37s WALL


   This run was terminated on:  21:19:25   3Oct2026            

=------------------------------------------------------------------------------=
   JOB DONE.
=------------------------------------------------------------------------------=
