
     Program PWSCF v.7.5 starts on  5Oct2026 at  0:50:55 

     This program is part of the open-source Quantum ESPRESSO suite
     for quantum simulation of materials; please cite
         "P. Giannozzi et al., J. Phys.:Condens. Matter 21 395502 (2009);
         "P. Giannozzi et al., J. Phys.:Condens. Matter 29 465901 (2017);
         "P. Giannozzi et al., J. Chem. Phys. 152 154105 (2020);
          URL http://www.quantum-espresso.org", 
     in publications or presentations arising from this work. More details at
     http://www.quantum-espresso.org/quote

     Parallel version (MPI & OpenMP), running on       8 processor cores
     Number of MPI processes:                 8
     Threads/MPI process:                     1

     MPI processes distributed on     1 nodes
     99570 MiB available memory on the printing compute node when the environment starts

     Reading input from pw.in

     Current dimensions of program PWSCF are:
     Max number of different atomic species (ntypx) = 10
     Max number of k-points (npk) =  40000
     Max angular momentum in pseudopotentials (lmaxx) =  4
     file K.pbe-spn-kjpaw_psl.1.0.0.UPF: wavefunction(s)  3S renormalized
     file Nb.pbe-spn-kjpaw_psl.0.3.0.UPF: wavefunction(s)  4S 4P renormalized
     file O.pbe-n-kjpaw_psl.0.1.UPF: wavefunction(s)  2P renormalized

     K-points division:     npool     =       8
     Subspace diagonalization in iterative solution of the eigenvalue problem:
     a serial algorithm will be used


     G-vector sticks info
     --------------------
     sticks:   dense  smooth     PW     G-vecs:    dense   smooth      PW
     Sum        4491    2243    645               160281    56679    8681

     Using Slab Decomposition



     bravais-lattice index     =            0
     lattice parameter (alat)  =       7.6684  a.u.
     unit-cell volume          =     902.1575 (a.u.)^3
     number of atoms/cell      =           10
     number of atomic types    =            3
     number of electrons       =        80.00
     number of Kohn-Sham states=           48
     kinetic-energy cutoff     =      60.0000  Ry
     charge density cutoff     =     480.0000  Ry
     scf convergence threshold =      1.0E-09
     mixing beta               =       0.4000
     number of iterations used =            8  plain     mixing
     Exchange-correlation= SLA  PW   PBX  PBC
                           (   1   4   3   4   0   0   0)

     celldm(1)=   7.668434  celldm(2)=   0.000000  celldm(3)=   0.000000
     celldm(4)=   0.000000  celldm(5)=   0.000000  celldm(6)=   0.000000

     crystal axes: (cart. coord. in units of alat)
               a(1) = (  -0.000001  -1.000000  -0.000002 )  
               a(2) = (  -2.000074  -0.000001  -0.000004 )  
               a(3) = (  -0.000002  -0.000002  -1.000267 )  

     reciprocal axes: (cart. coord. in units 2 pi/alat)
               b(1) = (  0.000001 -1.000000  0.000002 )  
               b(2) = ( -0.499981  0.000000  0.000001 )  
               b(3) = (  0.000002  0.000002 -0.999733 )  


     PseudoPot. # 1 for K  read from file:
     /root/sssp/K.pbe-spn-kjpaw_psl.1.0.0.UPF
     MD5 check sum: 7d58810084cac21f60fbe77ea2b688fd
     Pseudo is Projector augmented-wave + core cor, Zval =  9.0
     Generated using "atomic" code by A. Dal Corso  v.5.1
     Shape of augmentation charge: PSQ
     Using radial grid of 1165 points,  6 beta functions with: 
                l(1) =   0
                l(2) =   0
                l(3) =   1
                l(4) =   1
                l(5) =   2
                l(6) =   2
     Q(r) pseudized with 0 coefficients 


     PseudoPot. # 2 for Nb read from file:
     /root/sssp/Nb.pbe-spn-kjpaw_psl.0.3.0.UPF
     MD5 check sum: 411d72ad547312f8017e2943ceca08cc
     Pseudo is Projector augmented-wave + core cor, Zval = 13.0
     Generated using "atomic" code by A. Dal Corso  v.5.0.99 svn rev. 10869
     Shape of augmentation charge: PSQ
     Using radial grid of 1227 points,  6 beta functions with: 
                l(1) =   0
                l(2) =   0
                l(3) =   1
                l(4) =   1
                l(5) =   2
                l(6) =   2
     Q(r) pseudized with 0 coefficients 


     PseudoPot. # 3 for O  read from file:
     /root/sssp/O.pbe-n-kjpaw_psl.0.1.UPF
     MD5 check sum: 0234752ac141de4415c5fc33072bef88
     Pseudo is Projector augmented-wave + core cor, Zval =  6.0
     Generated using "atomic" code by A. Dal Corso  v.5.0.99 svn rev. 10869
     Shape of augmentation charge: BESSEL
     Using radial grid of 1095 points,  4 beta functions with: 
                l(1) =   0
                l(2) =   0
                l(3) =   1
                l(4) =   1
     Q(r) pseudized with 0 coefficients 


     atomic species   valence    mass     pseudopotential
     K                 9.00    39.09830     K ( 1.00)
     Nb               13.00    92.90640     Nb( 1.00)
     O                 6.00    15.99900     O ( 1.00)

     No symmetry found



   Cartesian axes

     site n.     atom                  positions (alat units)
         1        K      tau(   1) = (  -0.0000056  -0.9999963  -0.0000052  )
         2        K      tau(   2) = (  -1.0000373  -0.9999933  -0.0000029  )
         3        Nb     tau(   3) = (  -0.5000304  -0.5036141  -0.5056143  )
         4        Nb     tau(   4) = (  -1.5000515  -0.4963935  -0.4946640  )
         5        O      tau(   5) = (  -1.0000355  -0.5000047  -0.5001418  )
         6        O      tau(   6) = (  -2.0000724  -0.4999971  -0.5001353  )
         7        O      tau(   7) = (  -0.5000023   0.0000495  -0.5001140  )
         8        O      tau(   8) = (  -1.5000711  -0.0000569  -0.5001409  )
         9        O      tau(   9) = (  -0.5000007  -0.4999908   0.0000885  )
        10        O      tau(  10) = (  -1.5000743  -0.5000134  -0.0001012  )

     number of k points=    99  Marzari-Vanderbilt smearing, width (Ry)=  0.0050
                       cart. coord. in units 2pi/alat
        k(    1) = (   0.0000000   0.0000000   0.0000000), wk =   0.0102041
        k(    2) = (   0.0000003   0.0000002  -0.1428190), wk =   0.0204082
        k(    3) = (   0.0000006   0.0000005  -0.2856379), wk =   0.0204082
        k(    4) = (   0.0000009   0.0000007  -0.4284569), wk =   0.0204082
        k(    5) = (  -0.1249953   0.0000001   0.0000003), wk =   0.0204082
        k(    6) = (  -0.1249951   0.0000003  -0.1428187), wk =   0.0204082
        k(    7) = (  -0.1249948   0.0000006  -0.2856377), wk =   0.0204082
        k(    8) = (  -0.1249945   0.0000008  -0.4284566), wk =   0.0204082
        k(    9) = (  -0.1249962  -0.0000007   0.4284571), wk =   0.0204082
        k(   10) = (  -0.1249959  -0.0000004   0.2856382), wk =   0.0204082
        k(   11) = (  -0.1249956  -0.0000002   0.1428192), wk =   0.0204082
        k(   12) = (   0.2499907  -0.0000001  -0.0000005), wk =   0.0102041
        k(   13) = (   0.2499910   0.0000001  -0.1428195), wk =   0.0204082
        k(   14) = (   0.2499913   0.0000004  -0.2856384), wk =   0.0204082
        k(   15) = (   0.2499916   0.0000006  -0.4284574), wk =   0.0204082
        k(   16) = (   0.0000001  -0.1428571   0.0000002), wk =   0.0204082
        k(   17) = (   0.0000004  -0.1428569  -0.1428187), wk =   0.0204082
        k(   18) = (   0.0000007  -0.1428567  -0.2856377), wk =   0.0204082
        k(   19) = (   0.0000009  -0.1428564  -0.4284566), wk =   0.0204082
        k(   20) = (  -0.0000008  -0.1428579   0.4284571), wk =   0.0204082
        k(   21) = (  -0.0000005  -0.1428576   0.2856382), wk =   0.0204082
        k(   22) = (  -0.0000002  -0.1428574   0.1428192), wk =   0.0204082
        k(   23) = (  -0.1249953  -0.1428571   0.0000005), wk =   0.0204082
        k(   24) = (  -0.1249950  -0.1428568  -0.1428185), wk =   0.0204082
        k(   25) = (  -0.1249947  -0.1428566  -0.2856374), wk =   0.0204082
        k(   26) = (  -0.1249944  -0.1428563  -0.4284564), wk =   0.0204082
        k(   27) = (  -0.1249961  -0.1428578   0.4284574), wk =   0.0204082
        k(   28) = (  -0.1249958  -0.1428576   0.2856384), wk =   0.0204082
        k(   29) = (  -0.1249956  -0.1428573   0.1428195), wk =   0.0204082
        k(   30) = (   0.2499908  -0.1428573  -0.0000003), wk =   0.0204082
        k(   31) = (   0.2499911  -0.1428570  -0.1428192), wk =   0.0204082
        k(   32) = (   0.2499914  -0.1428568  -0.2856382), wk =   0.0204082
        k(   33) = (   0.2499916  -0.1428565  -0.4284571), wk =   0.0204082
        k(   34) = (   0.2499899  -0.1428580   0.4284566), wk =   0.0204082
        k(   35) = (   0.2499902  -0.1428578   0.2856376), wk =   0.0204082
        k(   36) = (   0.2499905  -0.1428575   0.1428187), wk =   0.0204082
        k(   37) = (   0.1249954  -0.1428572  -0.0000000), wk =   0.0204082
        k(   38) = (   0.1249957  -0.1428570  -0.1428190), wk =   0.0204082
        k(   39) = (   0.1249960  -0.1428567  -0.2856379), wk =   0.0204082
        k(   40) = (   0.1249963  -0.1428565  -0.4284569), wk =   0.0204082
        k(   41) = (   0.1249946  -0.1428579   0.4284569), wk =   0.0204082
        k(   42) = (   0.1249948  -0.1428577   0.2856379), wk =   0.0204082
        k(   43) = (   0.1249951  -0.1428575   0.1428189), wk =   0.0204082
        k(   44) = (   0.0000002  -0.2857143   0.0000005), wk =   0.0204082
        k(   45) = (   0.0000004  -0.2857140  -0.1428185), wk =   0.0204082
        k(   46) = (   0.0000007  -0.2857138  -0.2856374), wk =   0.0204082
        k(   47) = (   0.0000010  -0.2857135  -0.4284564), wk =   0.0204082
        k(   48) = (  -0.0000007  -0.2857150   0.4284574), wk =   0.0204082
        k(   49) = (  -0.0000004  -0.2857148   0.2856384), wk =   0.0204082
        k(   50) = (  -0.0000001  -0.2857145   0.1428194), wk =   0.0204082
        k(   51) = (  -0.1249952  -0.2857142   0.0000007), wk =   0.0204082
        k(   52) = (  -0.1249949  -0.2857140  -0.1428182), wk =   0.0204082
        k(   53) = (  -0.1249946  -0.2857137  -0.2856372), wk =   0.0204082
        k(   54) = (  -0.1249943  -0.2857135  -0.4284561), wk =   0.0204082
        k(   55) = (  -0.1249961  -0.2857150   0.4284576), wk =   0.0204082
        k(   56) = (  -0.1249958  -0.2857147   0.2856387), wk =   0.0204082
        k(   57) = (  -0.1249955  -0.2857145   0.1428197), wk =   0.0204082
        k(   58) = (   0.2499909  -0.2857144  -0.0000000), wk =   0.0204082
        k(   59) = (   0.2499911  -0.2857142  -0.1428190), wk =   0.0204082
        k(   60) = (   0.2499914  -0.2857139  -0.2856379), wk =   0.0204082
        k(   61) = (   0.2499917  -0.2857137  -0.4284569), wk =   0.0204082
        k(   62) = (   0.2499900  -0.2857152   0.4284568), wk =   0.0204082
        k(   63) = (   0.2499903  -0.2857149   0.2856379), wk =   0.0204082
        k(   64) = (   0.2499906  -0.2857147   0.1428189), wk =   0.0204082
        k(   65) = (   0.1249955  -0.2857144   0.0000002), wk =   0.0204082
        k(   66) = (   0.1249958  -0.2857141  -0.1428187), wk =   0.0204082
        k(   67) = (   0.1249961  -0.2857139  -0.2856377), wk =   0.0204082
        k(   68) = (   0.1249964  -0.2857136  -0.4284566), wk =   0.0204082
        k(   69) = (   0.1249946  -0.2857151   0.4284571), wk =   0.0204082
        k(   70) = (   0.1249949  -0.2857148   0.2856381), wk =   0.0204082
        k(   71) = (   0.1249952  -0.2857146   0.1428192), wk =   0.0204082
        k(   72) = (   0.0000002  -0.4285714   0.0000007), wk =   0.0204082
        k(   73) = (   0.0000005  -0.4285712  -0.1428182), wk =   0.0204082
        k(   74) = (   0.0000008  -0.4285709  -0.2856372), wk =   0.0204082
        k(   75) = (   0.0000011  -0.4285707  -0.4284561), wk =   0.0204082
        k(   76) = (  -0.0000006  -0.4285722   0.4284576), wk =   0.0204082
        k(   77) = (  -0.0000003  -0.4285719   0.2856386), wk =   0.0204082
        k(   78) = (  -0.0000001  -0.4285717   0.1428197), wk =   0.0204082
        k(   79) = (  -0.1249951  -0.4285714   0.0000010), wk =   0.0204082
        k(   80) = (  -0.1249948  -0.4285711  -0.1428180), wk =   0.0204082
        k(   81) = (  -0.1249945  -0.4285709  -0.2856369), wk =   0.0204082
        k(   82) = (  -0.1249942  -0.4285706  -0.4284559), wk =   0.0204082
        k(   83) = (  -0.1249960  -0.4285721   0.4284579), wk =   0.0204082
        k(   84) = (  -0.1249957  -0.4285719   0.2856389), wk =   0.0204082
        k(   85) = (  -0.1249954  -0.4285716   0.1428199), wk =   0.0204082
        k(   86) = (   0.2499909  -0.4285716   0.0000002), wk =   0.0204082
        k(   87) = (   0.2499912  -0.4285713  -0.1428187), wk =   0.0204082
        k(   88) = (   0.2499915  -0.4285711  -0.2856377), wk =   0.0204082
        k(   89) = (   0.2499918  -0.4285708  -0.4284566), wk =   0.0204082
        k(   90) = (   0.2499901  -0.4285723   0.4284571), wk =   0.0204082
        k(   91) = (   0.2499903  -0.4285721   0.2856381), wk =   0.0204082
        k(   92) = (   0.2499906  -0.4285718   0.1428192), wk =   0.0204082
        k(   93) = (   0.1249956  -0.4285715   0.0000005), wk =   0.0204082
        k(   94) = (   0.1249959  -0.4285713  -0.1428185), wk =   0.0204082
        k(   95) = (   0.1249962  -0.4285710  -0.2856374), wk =   0.0204082
        k(   96) = (   0.1249965  -0.4285708  -0.4284564), wk =   0.0204082
        k(   97) = (   0.1249947  -0.4285722   0.4284573), wk =   0.0204082
        k(   98) = (   0.1249950  -0.4285720   0.2856384), wk =   0.0204082
        k(   99) = (   0.1249953  -0.4285717   0.1428194), wk =   0.0204082

     Dense  grid:   160281 G-vectors     FFT dimensions: (  54, 108,  54)

     Smooth grid:    56679 G-vectors     FFT dimensions: (  40,  75,  40)

     Estimated max dynamical RAM per process >     251.10 MB

     Estimated total dynamical RAM >       1.69 GB

     Check: negative core charge=   -0.000003

     Initial potential from superposition of free atoms

     starting charge      79.9581, renormalised to      80.0000
     Starting wfcs are   60 randomized atomic wfcs
     Checking if some PAW data can be deallocated... 

     total cpu time spent up to now is       12.9 secs

     per-process dynamical memory:   173.5 Mb

     Self-consistent Calculation

     iteration #  1     ecut=    60.00 Ry     beta= 0.40
     Davidson diagonalization with overlap
     ethr =  1.00E-02,  avg # of iterations =  2.0

     total cpu time spent up to now is       33.2 secs

     total energy              =   -1143.92846284 Ry
     estimated scf accuracy    <       5.17543417 Ry

     iteration #  2     ecut=    60.00 Ry     beta= 0.40
     Davidson diagonalization with overlap
     ethr =  6.47E-03,  avg # of iterations =  4.1

     total cpu time spent up to now is       60.2 secs

     total energy              =   -1145.14573701 Ry
     estimated scf accuracy    <       1.70665348 Ry

     iteration #  3     ecut=    60.00 Ry     beta= 0.40
     Davidson diagonalization with overlap
     ethr =  2.13E-03,  avg # of iterations =  2.5

     total cpu time spent up to now is       83.6 secs

     total energy              =   -1145.53522494 Ry
     estimated scf accuracy    <       0.11783453 Ry

     iteration #  4     ecut=    60.00 Ry     beta= 0.40
     Davidson diagonalization with overlap
     ethr =  1.47E-04,  avg # of iterations =  8.2

     total cpu time spent up to now is      113.4 secs

     total energy              =   -1145.52418821 Ry
     estimated scf accuracy    <       0.04531998 Ry

     iteration #  5     ecut=    60.00 Ry     beta= 0.40
     Davidson diagonalization with overlap
     ethr =  5.66E-05,  avg # of iterations =  5.5

     total cpu time spent up to now is      150.9 secs

     total energy              =   -1145.54116610 Ry
     estimated scf accuracy    <       0.03696212 Ry

     iteration #  6     ecut=    60.00 Ry     beta= 0.40
     Davidson diagonalization with overlap
     ethr =  4.62E-05,  avg # of iterations =  1.0

     total cpu time spent up to now is      188.9 secs

     total energy              =   -1145.53682181 Ry
     estimated scf accuracy    <       0.01828874 Ry

     iteration #  7     ecut=    60.00 Ry     beta= 0.40
     Davidson diagonalization with overlap
     ethr =  2.29E-05,  avg # of iterations =  2.2

     total cpu time spent up to now is      236.2 secs

     total energy              =   -1145.53655528 Ry
     estimated scf accuracy    <       0.00296677 Ry

     iteration #  8     ecut=    60.00 Ry     beta= 0.40
     Davidson diagonalization with overlap
     ethr =  3.71E-06,  avg # of iterations =  5.7

     total cpu time spent up to now is      296.6 secs

     total energy              =   -1145.53761847 Ry
     estimated scf accuracy    <       0.00059254 Ry

     iteration #  9     ecut=    60.00 Ry     beta= 0.40
     Davidson diagonalization with overlap
     ethr =  7.41E-07,  avg # of iterations =  1.4

     total cpu time spent up to now is      335.1 secs

     total energy              =   -1145.53758921 Ry
     estimated scf accuracy    <       0.00030028 Ry

     iteration # 10     ecut=    60.00 Ry     beta= 0.40
     Davidson diagonalization with overlap
     ethr =  3.75E-07,  avg # of iterations =  1.1

     total cpu time spent up to now is      369.1 secs

     total energy              =   -1145.53753358 Ry
     estimated scf accuracy    <       0.00016559 Ry

     iteration # 11     ecut=    60.00 Ry     beta= 0.40
     Davidson diagonalization with overlap
     ethr =  2.07E-07,  avg # of iterations =  2.8

     total cpu time spent up to now is      417.1 secs

     total energy              =   -1145.53755807 Ry
     estimated scf accuracy    <       0.00000239 Ry

     iteration # 12     ecut=    60.00 Ry     beta= 0.40
     Davidson diagonalization with overlap
     ethr =  2.99E-09,  avg # of iterations =  5.5

     total cpu time spent up to now is      489.2 secs

     total energy              =   -1145.53755973 Ry
     estimated scf accuracy    <       0.00000094 Ry

     iteration # 13     ecut=    60.00 Ry     beta= 0.40
     Davidson diagonalization with overlap
     ethr =  1.18E-09,  avg # of iterations =  1.3

     total cpu time spent up to now is      529.0 secs

     total energy              =   -1145.53755967 Ry
     estimated scf accuracy    <       0.00000028 Ry

     iteration # 14     ecut=    60.00 Ry     beta= 0.40
     Davidson diagonalization with overlap
     ethr =  3.47E-10,  avg # of iterations =  3.4

     total cpu time spent up to now is      581.6 secs

     total energy              =   -1145.53755972 Ry
     estimated scf accuracy    <       0.00000001 Ry

     iteration # 15     ecut=    60.00 Ry     beta= 0.40
     Davidson diagonalization with overlap
     ethr =  1.85E-11,  avg # of iterations =  4.1

     total cpu time spent up to now is      646.8 secs

     total energy              =   -1145.53755972 Ry
     estimated scf accuracy    <          2.0E-09 Ry

     iteration # 16     ecut=    60.00 Ry     beta= 0.40
     Davidson diagonalization with overlap
     ethr =  2.45E-12,  avg # of iterations =  2.1

     total cpu time spent up to now is      708.7 secs

     End of self-consistent calculation

          k = 0.0000 0.0000 0.0000 (  7121 PWs)   bands (ev):

   -47.1653 -47.1635 -23.3042 -23.1940 -23.1930 -23.1920 -23.1902 -23.1893
   -19.4297 -19.4082  -9.1102  -9.0644  -8.6704  -8.6685  -8.6510  -7.8454
    -2.9637  -2.9631  -2.9626  -2.9317  -2.9311  -2.8508   2.9791   5.4928
     5.4954   5.6957   5.6963   5.6985   5.8086   5.8096   5.9376   6.5351
     6.9400   6.9438   6.9456   7.0865   7.0986   7.2823   7.2872   7.2906
     9.4126   9.4174   9.4308   9.5325  11.8688  11.8720  12.8943  12.9025

          k = 0.0000 0.0000-0.1428 (  7083 PWs)   bands (ev):

   -47.1649 -47.1631 -23.3031 -23.2154 -23.2112 -23.1924 -23.1913 -23.1887
   -19.4256 -19.4065  -9.0686  -8.9751  -8.6654  -8.5663  -8.5650  -7.8544
    -2.9583  -2.9570  -2.9422  -2.9385  -2.9220  -2.8739   2.9738   4.8130
     5.2305   5.3405   5.4518   5.6686   5.6716   5.7340   6.2702   6.6237
     6.6293   6.7714   6.7855   6.8349   6.8706   6.9544   7.2067   7.2071
     9.4320   9.9814   9.9888  10.0626  11.8731  11.9958  12.9005  13.4313

          k = 0.0000 0.0000-0.2856 (  7083 PWs)   bands (ev):

   -47.1642 -47.1624 -23.3006 -23.2630 -23.2579 -23.1908 -23.1897 -23.1871
   -19.4165 -19.4025  -9.0479  -8.8596  -8.6572  -8.2656  -8.2308  -7.8747
    -2.9568  -2.9443  -2.9427  -2.9247  -2.9006  -2.8942   2.9505   4.0428
     4.1099   4.1110   5.3550   5.4995   5.6005   5.6005   6.1162   6.1163
     6.2420   6.4489   6.5108   6.6044   6.6928   7.1435   7.1455   7.5680
     9.4747  11.0056  11.0092  11.0545  11.8827  12.3790  12.9071  13.9603

          k = 0.0000 0.0000-0.4285 (  7081 PWs)   bands (ev):

   -47.1636 -47.1618 -23.3005 -23.2987 -23.2948 -23.1895 -23.1884 -23.1859
   -19.4093 -19.3993  -9.0604  -8.8123  -8.6506  -7.9482  -7.9013  -7.8912
    -2.9670  -2.9635  -2.9331  -2.9330  -2.8832  -2.8562   2.8357   3.1115
     3.2679   3.7222   5.2786   5.2891   5.5065   5.5108   5.8404   5.8448
     5.9766   6.3987   6.5608   6.5612   6.5795   7.1094   7.1116   7.8690
     9.5097  11.7568  11.7598  11.7861  11.8906  12.8039  12.9118  14.1313

          k =-0.1250 0.0000 0.0000 (  7086 PWs)   bands (ev):

   -47.1650 -47.1637 -23.2881 -23.2087 -23.1934 -23.1925 -23.1908 -23.1899
   -19.4265 -19.4113  -9.0758  -9.0568  -8.6676  -8.6538  -8.5893  -7.9964
    -2.9586  -2.9581  -2.9488  -2.9362  -2.9344  -2.8673   3.3750   5.3403
     5.5427   5.5463   5.6760   5.6767   5.9074   5.9087   6.0412   6.5831
     6.7028   6.7128   6.8787   6.8814   7.1006   7.1125   7.2025   7.2117
     9.4453   9.5172   9.8643   9.8680  11.5458  11.5487  12.9053  12.9170

          k =-0.1250 0.0000-0.1428 (  7112 PWs)   bands (ev):

   -47.1647 -47.1634 -23.2870 -23.2148 -23.2119 -23.2079 -23.1918 -23.1892
   -19.4228 -19.4092  -9.0213  -8.9710  -8.6112  -8.5686  -8.5479  -8.0044
    -2.9665  -2.9523  -2.9485  -2.9277  -2.9196  -2.8778   3.3693   4.9175
     5.2087   5.3145   5.3836   5.5044   5.6477   5.8255   6.1813   6.3311
     6.4968   6.7795   6.7909   6.8513   6.8948   6.9890   7.0369   7.0539
     9.8607  10.0157  10.0501  10.2683  11.5523  11.6888  13.2337  13.4244

          k =-0.1250 0.0000-0.2856 (  7094 PWs)   bands (ev):

   -47.1639 -47.1626 -23.2847 -23.2622 -23.2586 -23.2062 -23.1903 -23.1877
   -19.4145 -19.4045  -8.9843  -8.8670  -8.5932  -8.2641  -8.2347  -8.0216
    -2.9678  -2.9567  -2.9377  -2.9074  -2.9070  -2.8882   3.3355   4.0372
     4.0801   4.3062   5.1682   5.4112   5.5556   5.5942   5.6323   6.0429
     6.4373   6.4488   6.5411   6.6200   6.8610   6.9249   6.9877   7.5298
     9.9082  11.0175  11.0438  11.1475  11.5683  12.1228  13.3174  13.9208

          k =-0.1250 0.0000-0.4285 (  7064 PWs)   bands (ev):

   -47.1633 -47.1620 -23.2997 -23.2956 -23.2828 -23.2048 -23.1890 -23.1864
   -19.4079 -19.4008  -8.9899  -8.8281  -8.5870  -8.0394  -7.9405  -7.9081
    -2.9689  -2.9451  -2.9383  -2.9258  -2.8906  -2.8706   3.0102   3.1073
     3.4943   3.8773   4.9519   5.3138   5.3766   5.4724   5.4763   5.7862
     6.2643   6.4344   6.5166   6.5885   6.8329   6.8854   6.8863   7.7694
     9.9379  11.5743  11.7637  11.7836  11.8551  12.5916  13.3328  14.0770

          k =-0.1250-0.0000 0.4285 (  7064 PWs)   bands (ev):

   -47.1633 -47.1620 -23.2997 -23.2956 -23.2828 -23.2048 -23.1890 -23.1864
   -19.4079 -19.4008  -8.9899  -8.8281  -8.5870  -8.0394  -7.9404  -7.9081
    -2.9688  -2.9457  -2.9378  -2.9258  -2.8906  -2.8707   3.0102   3.1073
     3.4943   3.8773   4.9519   5.3138   5.3766   5.4724   5.4763   5.7862
     6.2643   6.4344   6.5166   6.5886   6.8329   6.8854   6.8863   7.7694
     9.9379  11.5744  11.7637  11.7836  11.8551  12.5916  13.3328  14.0771

          k =-0.1250-0.0000 0.2856 (  7094 PWs)   bands (ev):

   -47.1639 -47.1626 -23.2847 -23.2622 -23.2586 -23.2062 -23.1903 -23.1877
   -19.4145 -19.4045  -8.9843  -8.8670  -8.5932  -8.2641  -8.2347  -8.0216
    -2.9677  -2.9568  -2.9377  -2.9074  -2.9069  -2.8883   3.3355   4.0372
     4.0801   4.3061   5.1682   5.4112   5.5555   5.5942   5.6323   6.0428
     6.4373   6.4488   6.5411   6.6200   6.8610   6.9249   6.9877   7.5298
     9.9082  11.0175  11.0438  11.1475  11.5683  12.1228  13.3174  13.9208

          k =-0.1250-0.0000 0.1428 (  7112 PWs)   bands (ev):

   -47.1647 -47.1634 -23.2870 -23.2148 -23.2119 -23.2079 -23.1918 -23.1892
   -19.4228 -19.4092  -9.0213  -8.9710  -8.6112  -8.5686  -8.5479  -8.0044
    -2.9667  -2.9522  -2.9482  -2.9277  -2.9198  -2.8778   3.3693   4.9175
     5.2087   5.3145   5.3835   5.5044   5.6477   5.8255   6.1814   6.3310
     6.4968   6.7795   6.7909   6.8513   6.8947   6.9888   7.0369   7.0541
     9.8607  10.0157  10.0501  10.2683  11.5523  11.6888  13.2336  13.4244

          k = 0.2500-0.0000-0.0000 (  7078 PWs)   bands (ev):

   -47.1644 -47.1644 -23.2487 -23.2486 -23.1921 -23.1921 -23.1912 -23.1912
   -19.4193 -19.4185  -9.0486  -9.0485  -8.6607  -8.6607  -8.3258  -8.3248
    -2.9484  -2.9476  -2.9476  -2.9468  -2.9071  -2.9063   4.3588   4.3596
     5.6211   5.6211   5.6221   5.6221   6.2307   6.2317   6.2334   6.2344
     6.3502   6.3505   6.7353   6.7354   7.1391   7.1393   7.1504   7.1505
     9.4809   9.4809  10.7523  10.7526  10.7552  10.7554  12.9115  12.9115

          k = 0.2500 0.0000-0.1428 (  7106 PWs)   bands (ev):

   -47.1640 -47.1640 -23.2478 -23.2478 -23.2133 -23.2133 -23.1905 -23.1905
   -19.4164 -19.4156  -8.9739  -8.9738  -8.5752  -8.5752  -8.3282  -8.3272
    -2.9634  -2.9631  -2.9400  -2.9392  -2.8937  -2.8934   4.3486   4.3493
     5.1180   5.1182   5.5881   5.5882   5.6150   5.6157   6.1237   6.1245
     6.5208   6.5209   6.8057   6.8057   6.9025   6.9027   7.0664   7.0668
    10.0191  10.0192  10.7655  10.7658  10.9720  10.9722  13.3904  13.3904

          k = 0.2500 0.0000-0.2856 (  7098 PWs)   bands (ev):

   -47.1633 -47.1633 -23.2605 -23.2605 -23.2457 -23.2456 -23.1890 -23.1890
   -19.4099 -19.4091  -8.8998  -8.8997  -8.3607  -8.3599  -8.2368  -8.2367
    -2.9710  -2.9709  -2.9228  -2.9220  -2.8899  -2.8897   3.9905   3.9907
     4.3716   4.3720   4.7962   4.7965   5.4995   5.4996   5.8163   5.8168
     6.4665   6.4666   6.6378   6.6382   6.6749   6.6752   7.3604   7.3610
    10.7661  10.7664  11.0465  11.0465  11.5805  11.5808  13.7594  13.7595

          k = 0.2500 0.0000-0.4285 (  7090 PWs)   bands (ev):

   -47.1627 -47.1627 -23.2977 -23.2977 -23.2441 -23.2441 -23.1877 -23.1877
   -19.4047 -19.4039  -8.8824  -8.8823  -8.3543  -8.3534  -7.9244  -7.9244
    -2.9575  -2.9570  -2.9091  -2.9085  -2.9055  -2.9050   3.0906   3.0906
     4.2859   4.2862   4.4570   4.4576   5.3910   5.3911   5.6028   5.6033
     6.4157   6.4158   6.5746   6.5752   6.6319   6.6320   7.4353   7.4360
    10.7997  10.7999  11.7734  11.7734  12.1667  12.1670  13.8587  13.8588

          k = 0.0000-0.1429 0.0000 (  7087 PWs)   bands (ev):

   -47.1649 -47.1631 -23.3031 -23.2146 -23.2105 -23.1932 -23.1912 -23.1895
   -19.4256 -19.4065  -9.0684  -8.9748  -8.6652  -8.5662  -8.5651  -7.8543
    -2.9580  -2.9572  -2.9420  -2.9390  -2.9218  -2.8739   2.9738   4.8141
     5.2307   5.3409   5.4496   5.6691   5.6720   5.7330   6.2672   6.6169
     6.6341   6.7556   6.7923   6.8422   6.8790   6.9536   7.2048   7.2071
     9.4356   9.9796   9.9870  10.0606  11.8763  11.9930  12.8987  13.4306

          k = 0.0000-0.1429-0.1428 (  7099 PWs)   bands (ev):

   -47.1646 -47.1628 -23.3021 -23.2146 -23.2138 -23.2105 -23.2097 -23.1906
   -19.4220 -19.4046  -9.0104  -8.8561  -8.5987  -8.5366  -8.5101  -7.8592
    -2.9762  -2.9665  -2.9511  -2.9178  -2.9010  -2.8986   2.9696   4.6932
     5.0264   5.1934   5.2126   5.3011   5.3044   5.6428   6.0864   6.1864
     6.4497   6.7487   6.7799   6.8613   6.9148   7.0090   7.0609   7.0646
     9.9389  10.0472  10.3552  10.4402  11.9855  12.0229  13.2699  14.0843

          k = 0.0000-0.1429-0.2856 (  7073 PWs)   bands (ev):

   -47.1638 -47.1620 -23.2997 -23.2620 -23.2571 -23.2121 -23.2082 -23.1890
   -19.4139 -19.4004  -8.9684  -8.6983  -8.5720  -8.2497  -8.2357  -7.8704
    -3.0063  -2.9594  -2.9565  -2.9368  -2.9053  -2.8875   2.9493   4.0360
     4.1074   4.1598   4.9405   5.0665   5.1397   5.5193   5.5654   5.7466
     6.0181   6.4581   6.8181   6.8659   6.9283   6.9476   7.0472   7.5749
    10.0196  11.0166  11.1946  11.2696  12.0227  12.3963  13.3989  14.8086

          k = 0.0000-0.1429-0.4285 (  7069 PWs)   bands (ev):

   -47.1632 -47.1614 -23.2994 -23.2978 -23.2940 -23.2107 -23.2069 -23.1877
   -19.4074 -19.3971  -8.9715  -8.6454  -8.5662  -7.9358  -7.9100  -7.8797
    -3.0079  -3.0002  -2.9426  -2.9335  -2.9223  -2.8749   2.8381   3.1065
     3.2647   3.8181   4.8459   4.9391   4.9572   5.3617   5.4686   5.6407
     5.7622   6.2963   6.7900   6.8293   6.9644   6.9692   6.9695   7.8749
    10.0487  11.7619  11.8876  11.9417  12.0410  12.8218  13.4234  14.9968

          k =-0.0000-0.1429 0.4285 (  7069 PWs)   bands (ev):

   -47.1632 -47.1614 -23.2994 -23.2978 -23.2940 -23.2107 -23.2069 -23.1877
   -19.4074 -19.3971  -8.9715  -8.6454  -8.5662  -7.9358  -7.9100  -7.8797
    -3.0082  -3.0003  -2.9426  -2.9318  -2.9237  -2.8748   2.8380   3.1060
     3.2641   3.8181   4.8446   4.9391   4.9571   5.3628   5.4685   5.6431
     5.7627   6.2959   6.7900   6.8290   6.9638   6.9695   6.9702   7.8748
    10.0488  11.7617  11.8868  11.9408  12.0411  12.8218  13.4234  14.9974

          k =-0.0000-0.1429 0.2856 (  7073 PWs)   bands (ev):

   -47.1638 -47.1620 -23.2997 -23.2620 -23.2572 -23.2121 -23.2081 -23.1890
   -19.4139 -19.4004  -8.9684  -8.6983  -8.5720  -8.2497  -8.2357  -7.8704
    -3.0068  -2.9622  -2.9537  -2.9357  -2.9059  -2.8876   2.9495   4.0340
     4.1050   4.1597   4.9403   5.0616   5.1393   5.5240   5.5653   5.7544
     6.0191   6.4573   6.8181   6.8652   6.9286   6.9485   7.0473   7.5747
    10.0199  11.0162  11.1923  11.2670  12.0227  12.3963  13.3985  14.8103

          k =-0.0000-0.1429 0.1428 (  7099 PWs)   bands (ev):

   -47.1646 -47.1628 -23.3021 -23.2149 -23.2135 -23.2106 -23.2096 -23.1906
   -19.4220 -19.4046  -9.0104  -8.8561  -8.5987  -8.5366  -8.5101  -7.8592
    -2.9772  -2.9670  -2.9497  -2.9163  -2.9012  -2.8996   2.9697   4.6930
     5.0261   5.1928   5.2050   5.2970   5.3047   5.6431   6.0911   6.1939
     6.4487   6.7574   6.7785   6.8633   6.9181   6.9875   7.0621   7.0784
     9.9420  10.0442  10.3515  10.4362  11.9853  12.0231  13.2693  14.0873

          k =-0.1250-0.1429 0.0000 (  7112 PWs)   bands (ev):

   -47.1647 -47.1634 -23.2870 -23.2140 -23.2111 -23.2079 -23.1927 -23.1900
   -19.4228 -19.4092  -9.0211  -8.9708  -8.6110  -8.5686  -8.5480  -8.0043
    -2.9665  -2.9528  -2.9480  -2.9282  -2.9193  -2.8778   3.3693   4.9189
     5.2090   5.3128   5.3839   5.5045   5.6476   5.8246   6.1834   6.3257
     6.4978   6.7636   6.7874   6.8613   6.8987   6.9908   7.0424   7.0542
     9.8630  10.0147  10.0479  10.2665  11.5554  11.6863  13.2313  13.4236

          k =-0.1250-0.1429-0.1428 (  7105 PWs)   bands (ev):

   -47.1643 -47.1631 -23.2860 -23.2141 -23.2132 -23.2112 -23.2104 -23.2071
   -19.4194 -19.4071  -8.9430  -8.8538  -8.5487  -8.5327  -8.5140  -8.0083
    -2.9747  -2.9678  -2.9668  -2.9413  -2.8905  -2.8703   3.3650   4.7946
     5.0988   5.1466   5.2070   5.2971   5.3502   5.3633   6.0427   6.0851
     6.1712   6.3516   6.8073   6.9264   6.9846   6.9971   7.0927   7.1074
    10.2171  10.3279  10.3863  10.4263  11.6825  11.7177  13.9211  14.0895

          k =-0.1250-0.1429-0.2856 (  7094 PWs)   bands (ev):

   -47.1636 -47.1623 -23.2838 -23.2613 -23.2579 -23.2115 -23.2088 -23.2054
   -19.4119 -19.4024  -8.8789  -8.7064  -8.5338  -8.2514  -8.2364  -8.0166
    -2.9996  -2.9764  -2.9693  -2.9589  -2.8808  -2.8676   3.3350   4.0317
     4.0805   4.3361   4.9913   5.0040   5.1922   5.2327   5.5171   5.6086
     5.7471   6.2544   6.8500   6.9074   6.9507   6.9826   7.1102   7.5356
    10.3114  11.1572  11.2137  11.2551  11.7258  12.1414  13.9613  14.7805

          k =-0.1250-0.1429-0.4285 (  7064 PWs)   bands (ev):

   -47.1630 -47.1617 -23.2987 -23.2948 -23.2820 -23.2101 -23.2075 -23.2041
   -19.4059 -19.3986  -8.8777  -8.6620  -8.5251  -8.0282  -7.9309  -7.9136
    -3.0068  -2.9918  -2.9708  -2.9216  -2.9128  -2.8797   3.0122   3.1032
     3.4906   3.9558   4.7688   4.9486   5.0321   5.0997   5.3353   5.4256
     5.6683   6.2778   6.7155   6.9169   6.9362   6.9785   7.0384   7.7738
    10.3451  11.7422  11.8576  11.9030  11.9353  12.6093  13.9593  14.9469

          k =-0.1250-0.1429 0.4285 (  7064 PWs)   bands (ev):

   -47.1630 -47.1617 -23.2987 -23.2948 -23.2820 -23.2101 -23.2075 -23.2041
   -19.4059 -19.3986  -8.8777  -8.6620  -8.5251  -8.0282  -7.9309  -7.9136
    -3.0068  -2.9924  -2.9703  -2.9209  -2.9134  -2.8797   3.0118   3.1027
     3.4904   3.9558   4.7684   4.9475   5.0295   5.1023   5.3369   5.4259
     5.6701   6.2776   6.7155   6.9156   6.9389   6.9774   7.0383   7.7737
    10.3451  11.7418  11.8574  11.9026  11.9345  12.6093  13.9594  14.9475

          k =-0.1250-0.1429 0.2856 (  7094 PWs)   bands (ev):

   -47.1636 -47.1623 -23.2838 -23.2613 -23.2579 -23.2115 -23.2087 -23.2054
   -19.4119 -19.4024  -8.8789  -8.7063  -8.5338  -8.2514  -8.2364  -8.0166
    -3.0002  -2.9773  -2.9686  -2.9580  -2.8808  -2.8677   3.3352   4.0297
     4.0783   4.3356   4.9909   5.0000   5.1881   5.2359   5.5222   5.6098
     5.7534   6.2540   6.8502   6.9069   6.9537   6.9814   7.1099   7.5352
    10.3116  11.1561  11.2119  11.2523  11.7261  12.1413  13.9614  14.7820

          k =-0.1250-0.1429 0.1428 (  7105 PWs)   bands (ev):

   -47.1643 -47.1631 -23.2860 -23.2144 -23.2130 -23.2112 -23.2102 -23.2071
   -19.4194 -19.4071  -8.9430  -8.8538  -8.5487  -8.5327  -8.5140  -8.0083
    -2.9766  -2.9685  -2.9649  -2.9403  -2.8908  -2.8703   3.3651   4.7948
     5.0950   5.1452   5.2008   5.3004   5.3475   5.3620   6.0471   6.0858
     6.1786   6.3508   6.8079   6.9296   6.9883   6.9963   7.0966   7.1025
    10.2182  10.3248  10.3841  10.4224  11.6828  11.7175  13.9202  14.0913

          k = 0.2500-0.1429-0.0000 (  7106 PWs)   bands (ev):

   -47.1640 -47.1640 -23.2478 -23.2477 -23.2125 -23.2125 -23.1914 -23.1913
   -19.4164 -19.4156  -8.9736  -8.9735  -8.5752  -8.5752  -8.3281  -8.3272
    -2.9635  -2.9632  -2.9401  -2.9393  -2.8936  -2.8933   4.3487   4.3494
     5.1185   5.1186   5.5877   5.5878   5.6157   5.6164   6.1216   6.1225
     6.5200   6.5202   6.7911   6.7912   6.9172   6.9174   7.0683   7.0687
    10.0172  10.0172  10.7682  10.7684  10.9700  10.9702  13.3890  13.3891

          k = 0.2500-0.1429-0.1428 (  7102 PWs)   bands (ev):

   -47.1637 -47.1637 -23.2469 -23.2469 -23.2126 -23.2125 -23.2118 -23.2117
   -19.4137 -19.4128  -8.8654  -8.8654  -8.5234  -8.5234  -8.3264  -8.3255
    -2.9717  -2.9709  -2.9677  -2.9675  -2.8671  -2.8669   4.3402   4.3409
     5.0157   5.0158   5.1825   5.1827   5.6083   5.6088   5.6124   5.6132
     6.1589   6.1590   6.9193   6.9197   6.9622   6.9623   7.1486   7.1490
    10.3884  10.3884  10.9673  10.9676  11.0124  11.0126  14.0914  14.0914

          k = 0.2500-0.1429-0.2856 (  7084 PWs)   bands (ev):

   -47.1629 -47.1629 -23.2596 -23.2596 -23.2449 -23.2448 -23.2101 -23.2101
   -19.4076 -19.4067  -8.7488  -8.7487  -8.3472  -8.3465  -8.2306  -8.2304
    -2.9889  -2.9886  -2.9787  -2.9779  -2.8597  -2.8594   3.9912   3.9914
     4.3586   4.3590   4.7741   4.7743   5.1049   5.1050   5.4004   5.4007
     5.8149   5.8153   6.9214   6.9216   6.9967   6.9969   7.3731   7.3737
    11.0012  11.0015  11.2454  11.2454  11.6019  11.6022  14.6178  14.6178

          k = 0.2500-0.1429-0.4285 (  7070 PWs)   bands (ev):

   -47.1623 -47.1623 -23.2967 -23.2967 -23.2433 -23.2433 -23.2088 -23.2088
   -19.4027 -19.4019  -8.7266  -8.7264  -8.3346  -8.3338  -7.9223  -7.9223
    -3.0002  -3.0000  -2.9537  -2.9529  -2.8895  -2.8891   3.0890   3.0891
     4.3034   4.3037   4.4567   4.4572   4.9603   4.9604   5.2202   5.2203
     5.8125   5.8131   6.8983   6.8984   6.9553   6.9556   7.4465   7.4472
    11.0445  11.0447  11.9136  11.9136  12.1844  12.1847  14.6873  14.6874

          k = 0.2500-0.1429 0.4285 (  7070 PWs)   bands (ev):

   -47.1623 -47.1623 -23.2967 -23.2967 -23.2433 -23.2433 -23.2088 -23.2087
   -19.4027 -19.4019  -8.7266  -8.7264  -8.3346  -8.3337  -7.9223  -7.9223
    -3.0004  -3.0001  -2.9536  -2.9528  -2.8895  -2.8891   3.0885   3.0886
     4.3036   4.3038   4.4563   4.4569   4.9585   4.9586   5.2227   5.2228
     5.8129   5.8135   6.8989   6.8989   6.9549   6.9552   7.4464   7.4471
    11.0444  11.0447  11.9127  11.9127  12.1844  12.1847  14.6878  14.6878

          k = 0.2500-0.1429 0.2856 (  7084 PWs)   bands (ev):

   -47.1629 -47.1629 -23.2596 -23.2596 -23.2449 -23.2448 -23.2101 -23.2101
   -19.4076 -19.4067  -8.7488  -8.7487  -8.3472  -8.3465  -8.2306  -8.2304
    -2.9901  -2.9898  -2.9775  -2.9768  -2.8597  -2.8594   3.9897   3.9899
     4.3580   4.3585   4.7726   4.7728   5.1025   5.1026   5.4051   5.4053
     5.8174   5.8179   6.9224   6.9225   6.9964   6.9967   7.3728   7.3734
    11.0006  11.0009  11.2431  11.2431  11.6021  11.6024  14.6190  14.6190

          k = 0.2500-0.1429 0.1428 (  7102 PWs)   bands (ev):

   -47.1637 -47.1637 -23.2469 -23.2469 -23.2129 -23.2129 -23.2114 -23.2114
   -19.4137 -19.4128  -8.8654  -8.8653  -8.5234  -8.5234  -8.3264  -8.3255
    -2.9740  -2.9733  -2.9653  -2.9650  -2.8671  -2.8669   4.3404   4.3411
     5.0136   5.0136   5.1790   5.1792   5.6077   5.6081   5.6132   5.6139
     6.1643   6.1643   6.9189   6.9192   6.9660   6.9661   7.1481   7.1485
    10.3842  10.3842  10.9650  10.9653  11.0148  11.0150  14.0931  14.0931

          k = 0.1250-0.1429-0.0000 (  7112 PWs)   bands (ev):

   -47.1647 -47.1634 -23.2870 -23.2140 -23.2111 -23.2079 -23.1927 -23.1900
   -19.4228 -19.4092  -9.0211  -8.9708  -8.6110  -8.5686  -8.5480  -8.0043
    -2.9666  -2.9527  -2.9478  -2.9282  -2.9193  -2.8778   3.3693   4.9189
     5.2089   5.3128   5.3839   5.5045   5.6476   5.8246   6.1835   6.3257
     6.4978   6.7636   6.7874   6.8613   6.8987   6.9907   7.0423   7.0544
     9.8630  10.0147  10.0479  10.2665  11.5554  11.6863  13.2312  13.4236

          k = 0.1250-0.1429-0.1428 (  7105 PWs)   bands (ev):

   -47.1643 -47.1631 -23.2860 -23.2141 -23.2132 -23.2112 -23.2104 -23.2071
   -19.4194 -19.4071  -8.9430  -8.8538  -8.5487  -8.5327  -8.5140  -8.0083
    -2.9747  -2.9678  -2.9668  -2.9412  -2.8907  -2.8702   3.3650   4.7946
     5.0988   5.1466   5.2070   5.2972   5.3501   5.3633   6.0427   6.0851
     6.1712   6.3517   6.8072   6.9264   6.9845   6.9971   7.0924   7.1078
    10.2171  10.3279  10.3864  10.4263  11.6825  11.7177  13.9213  14.0891

          k = 0.1250-0.1429-0.2856 (  7094 PWs)   bands (ev):

   -47.1636 -47.1623 -23.2838 -23.2613 -23.2579 -23.2115 -23.2088 -23.2054
   -19.4119 -19.4024  -8.8789  -8.7064  -8.5338  -8.2514  -8.2364  -8.0166
    -2.9996  -2.9763  -2.9693  -2.9589  -2.8807  -2.8677   3.3350   4.0317
     4.0806   4.3361   4.9913   5.0039   5.1923   5.2327   5.5171   5.6086
     5.7470   6.2545   6.8499   6.9073   6.9507   6.9827   7.1102   7.5356
    10.3114  11.1572  11.2137  11.2551  11.7258  12.1414  13.9613  14.7805

          k = 0.1250-0.1429-0.4285 (  7064 PWs)   bands (ev):

   -47.1630 -47.1617 -23.2987 -23.2948 -23.2820 -23.2101 -23.2075 -23.2041
   -19.4059 -19.3986  -8.8777  -8.6620  -8.5251  -8.0282  -7.9309  -7.9136
    -3.0067  -2.9918  -2.9709  -2.9216  -2.9127  -2.8797   3.0122   3.1032
     3.4906   3.9558   4.7688   4.9486   5.0321   5.0997   5.3353   5.4256
     5.6683   6.2778   6.7155   6.9169   6.9362   6.9785   7.0384   7.7738
    10.3451  11.7422  11.8576  11.9030  11.9353  12.6093  13.9593  14.9469

          k = 0.1250-0.1429 0.4285 (  7064 PWs)   bands (ev):

   -47.1630 -47.1617 -23.2987 -23.2948 -23.2820 -23.2101 -23.2075 -23.2041
   -19.4059 -19.3986  -8.8777  -8.6620  -8.5251  -8.0282  -7.9309  -7.9136
    -3.0068  -2.9924  -2.9702  -2.9210  -2.9134  -2.8796   3.0118   3.1027
     3.4904   3.9558   4.7684   4.9475   5.0295   5.1023   5.3369   5.4259
     5.6701   6.2776   6.7155   6.9155   6.9390   6.9774   7.0383   7.7737
    10.3451  11.7418  11.8574  11.9025  11.9345  12.6093  13.9594  14.9475

          k = 0.1250-0.1429 0.2856 (  7094 PWs)   bands (ev):

   -47.1636 -47.1623 -23.2838 -23.2613 -23.2579 -23.2115 -23.2087 -23.2054
   -19.4119 -19.4024  -8.8789  -8.7063  -8.5338  -8.2514  -8.2364  -8.0166
    -3.0003  -2.9771  -2.9685  -2.9582  -2.8808  -2.8677   3.3352   4.0297
     4.0783   4.3357   4.9909   4.9999   5.1880   5.2360   5.5222   5.6098
     5.7534   6.2540   6.8502   6.9067   6.9538   6.9813   7.1099   7.5352
    10.3116  11.1561  11.2119  11.2523  11.7261  12.1413  13.9614  14.7820

          k = 0.1250-0.1429 0.1428 (  7105 PWs)   bands (ev):

   -47.1643 -47.1631 -23.2860 -23.2144 -23.2130 -23.2112 -23.2102 -23.2071
   -19.4194 -19.4071  -8.9430  -8.8538  -8.5487  -8.5327  -8.5140  -8.0083
    -2.9766  -2.9685  -2.9649  -2.9403  -2.8908  -2.8703   3.3651   4.7948
     5.0950   5.1452   5.2008   5.3004   5.3475   5.3620   6.0471   6.0858
     6.1786   6.3508   6.8079   6.9296   6.9883   6.9963   7.0967   7.1023
    10.2182  10.3248  10.3841  10.4224  11.6828  11.7175  13.9202  14.0912

          k = 0.0000-0.2857 0.0000 (  7083 PWs)   bands (ev):

   -47.1642 -47.1624 -23.3006 -23.2623 -23.2573 -23.1916 -23.1897 -23.1880
   -19.4165 -19.4025  -9.0476  -8.8591  -8.6569  -8.2649  -8.2302  -7.8747
    -2.9562  -2.9449  -2.9437  -2.9241  -2.9004  -2.8945   2.9505   4.0423
     4.1102   4.1102   5.3532   5.5022   5.5993   5.6007   6.1152   6.1177
     6.2401   6.4453   6.5092   6.6049   6.6931   7.1411   7.1442   7.5699
     9.4783  11.0059  11.0085  11.0537  11.8860  12.3774  12.9052  13.9572

          k = 0.0000-0.2857-0.1428 (  7073 PWs)   bands (ev):

   -47.1638 -47.1620 -23.2997 -23.2614 -23.2565 -23.2128 -23.2089 -23.1890
   -19.4139 -19.4004  -8.9683  -8.6981  -8.5718  -8.2490  -8.2351  -7.8704
    -3.0064  -2.9608  -2.9552  -2.9369  -2.9052  -2.8876   2.9493   4.0354
     4.1065   4.1601   4.9396   5.0679   5.1429   5.5159   5.5654   5.7446
     6.0186   6.4579   6.8175   6.8550   6.9352   6.9471   7.0470   7.5769
    10.0213  11.0168  11.1949  11.2701  12.0256  12.3948  13.3974  14.8051

          k = 0.0000-0.2857-0.2856 (  7091 PWs)   bands (ev):

   -47.1631 -47.1613 -23.2976 -23.2601 -23.2590 -23.2554 -23.2548 -23.1874
   -19.4080 -19.3958  -8.8835  -8.3517  -8.2906  -8.2174  -8.1719  -7.8609
    -3.0763  -3.0273  -2.9715  -2.9621  -2.9172  -2.8935   2.9376   3.8946
     3.9175   4.1740   4.2001   4.3639   4.4998   4.6198   4.8716   5.4777
     5.7368   6.4634   6.6041   6.6500   7.3315   7.4267   7.4633   7.6476
    10.9693  11.0948  11.7391  11.8332  12.3923  12.4649  13.8197  16.2169

          k = 0.0000-0.2857-0.4285 (  7076 PWs)   bands (ev):

   -47.1625 -47.1607 -23.2970 -23.2960 -23.2922 -23.2575 -23.2534 -23.1862
   -19.4032 -19.3921  -8.8590  -8.2642  -8.2442  -7.9295  -7.9072  -7.8534
    -3.0969  -3.0830  -3.0403  -2.9610  -2.9170  -2.9030   2.8426   3.0811
     3.2142   4.0306   4.0809   4.1738   4.2831   4.4800   4.5391   5.3739
     5.5293   6.4533   6.5191   6.6143   7.5279   7.5511   7.5553   7.8886
    11.0473  11.7735  12.2871  12.3702  12.4539  12.8617  13.9423  16.5257

          k =-0.0000-0.2857 0.4285 (  7076 PWs)   bands (ev):

   -47.1625 -47.1607 -23.2970 -23.2960 -23.2922 -23.2575 -23.2534 -23.1862
   -19.4032 -19.3921  -8.8590  -8.2642  -8.2442  -7.9295  -7.9072  -7.8534
    -3.0972  -3.0831  -3.0399  -2.9610  -2.9169  -2.9030   2.8425   3.0802
     3.2128   4.0304   4.0752   4.1823   4.2802   4.4800   4.5423   5.3734
     5.5301   6.4530   6.5190   6.6145   7.5279   7.5512   7.5553   7.8885
    11.0475  11.7732  12.2867  12.3698  12.4539  12.8616  13.9418  16.5263

          k =-0.0000-0.2857 0.2856 (  7091 PWs)   bands (ev):

   -47.1631 -47.1613 -23.2976 -23.2605 -23.2588 -23.2556 -23.2545 -23.1874
   -19.4080 -19.3958  -8.8835  -8.3516  -8.2906  -8.2174  -8.1719  -7.8609
    -3.0767  -3.0275  -2.9713  -2.9612  -2.9177  -2.8935   2.9378   3.8890
     3.9097   4.1738   4.1997   4.3675   4.4999   4.6248   4.8787   5.4770
     5.7384   6.4628   6.6036   6.6504   7.3317   7.4266   7.4637   7.6471
    10.9721  11.0919  11.7378  11.8317  12.3925  12.4645  13.8187  16.2688

          k =-0.0000-0.2857 0.1428 (  7073 PWs)   bands (ev):

   -47.1638 -47.1620 -23.2997 -23.2614 -23.2565 -23.2128 -23.2089 -23.1890
   -19.4139 -19.4004  -8.9683  -8.6981  -8.5718  -8.2490  -8.2351  -7.8704
    -3.0069  -2.9629  -2.9531  -2.9358  -2.9058  -2.8877   2.9494   4.0334
     4.1040   4.1599   4.9394   5.0630   5.1424   5.5207   5.5653   5.7524
     6.0196   6.4571   6.8176   6.8544   6.9354   6.9481   7.0471   7.5767
    10.0217  11.0164  11.1926  11.2675  12.0256  12.3947  13.3971  14.8068

          k =-0.1250-0.2857 0.0000 (  7092 PWs)   bands (ev):

   -47.1639 -47.1626 -23.2847 -23.2616 -23.2580 -23.2062 -23.1911 -23.1885
   -19.4145 -19.4045  -8.9840  -8.8665  -8.5930  -8.2634  -8.2341  -8.0215
    -2.9679  -2.9570  -2.9378  -2.9073  -2.9071  -2.8882   3.3355   4.0368
     4.0798   4.3061   5.1674   5.4108   5.5621   5.5883   5.6330   6.0412
     6.4325   6.4471   6.5439   6.6180   6.8584   6.9249   6.9884   7.5317
     9.9112  11.0168  11.0428  11.1474  11.5714  12.1216  13.3146  13.9176

          k =-0.1250-0.2857-0.1428 (  7093 PWs)   bands (ev):

   -47.1636 -47.1623 -23.2838 -23.2607 -23.2572 -23.2123 -23.2095 -23.2054
   -19.4119 -19.4024  -8.8788  -8.7062  -8.5337  -8.2508  -8.2358  -8.0165
    -2.9997  -2.9767  -2.9692  -2.9588  -2.8809  -2.8677   3.3350   4.0311
     4.0800   4.3360   4.9900   5.0055   5.1987   5.2291   5.5145   5.6092
     5.7447   6.2526   6.8507   6.9053   6.9494   6.9822   7.1101   7.5374
    10.3134  11.1571  11.2139  11.2556  11.7284  12.1401  13.9588  14.7768

          k =-0.1250-0.2857-0.2856 (  7083 PWs)   bands (ev):

   -47.1628 -47.1615 -23.2818 -23.2594 -23.2584 -23.2561 -23.2554 -23.2038
   -19.4062 -19.3976  -8.7622  -8.3648  -8.2844  -8.2109  -8.1787  -8.0043
    -3.0607  -3.0410  -2.9866  -2.9734  -2.9218  -2.8647   3.3201   3.8970
     3.9126   4.1651   4.1998   4.5072   4.6137   4.6271   4.8464   5.1491
     5.4072   5.9174   6.8602   6.9433   7.3221   7.4096   7.4320   7.6072
    11.1295  11.2479  11.7550  11.8147  12.1466  12.2106  14.5077  16.2464

          k =-0.1250-0.2857-0.4285 (  7073 PWs)   bands (ev):

   -47.1622 -47.1609 -23.2963 -23.2929 -23.2801 -23.2569 -23.2540 -23.2025
   -19.4016 -19.3937  -8.7340  -8.2651  -8.2527  -8.0006  -7.9260  -7.9089
    -3.0910  -3.0714  -2.9979  -2.9919  -2.9574  -2.8930   3.0135   3.0804
     3.4237   4.0843   4.1090   4.2065   4.2899   4.5150   4.6183   5.0351
     5.2363   5.8920   6.8376   6.9072   7.4734   7.5209   7.5598   7.7883
    11.2124  11.8849  12.2018  12.3011  12.3574  12.6494  14.6192  16.5275

          k =-0.1250-0.2857 0.4285 (  7073 PWs)   bands (ev):

   -47.1622 -47.1609 -23.2963 -23.2929 -23.2801 -23.2569 -23.2540 -23.2025
   -19.4016 -19.3937  -8.7340  -8.2651  -8.2527  -8.0006  -7.9260  -7.9089
    -3.0911  -3.0716  -2.9961  -2.9933  -2.9575  -2.8930   3.0128   3.0795
     3.4229   4.0798   4.1089   4.2121   4.2892   4.5179   4.6181   5.0347
     5.2371   5.8919   6.8373   6.9074   7.4736   7.5209   7.5598   7.7882
    11.2125  11.8846  12.2019  12.3007  12.3570  12.6493  14.6187  16.5275

          k =-0.1250-0.2857 0.2856 (  7082 PWs)   bands (ev):

   -47.1628 -47.1615 -23.2818 -23.2598 -23.2582 -23.2562 -23.2551 -23.2038
   -19.4062 -19.3976  -8.7622  -8.3647  -8.2844  -8.2109  -8.1787  -8.0043
    -3.0612  -3.0412  -2.9865  -2.9727  -2.9220  -2.8647   3.3204   3.8910
     3.9051   4.1654   4.1996   4.5122   4.6128   4.6306   4.8535   5.1487
     5.4088   5.9170   6.8597   6.9437   7.3225   7.4098   7.4321   7.6065
    11.1319  11.2451  11.7537  11.8131  12.1473  12.2099  14.5067  16.2372

          k =-0.1250-0.2857 0.1428 (  7093 PWs)   bands (ev):

   -47.1636 -47.1623 -23.2838 -23.2607 -23.2572 -23.2122 -23.2095 -23.2054
   -19.4119 -19.4024  -8.8788  -8.7061  -8.5337  -8.2508  -8.2358  -8.0165
    -3.0004  -2.9773  -2.9684  -2.9582  -2.8809  -2.8677   3.3352   4.0291
     4.0777   4.3357   4.9894   5.0017   5.1934   5.2333   5.5196   5.6104
     5.7511   6.2522   6.8510   6.9046   6.9524   6.9810   7.1098   7.5371
    10.3135  11.1560  11.2121  11.2529  11.7287  12.1400  13.9589  14.7783

          k = 0.2500-0.2857-0.0000 (  7098 PWs)   bands (ev):

   -47.1633 -47.1633 -23.2599 -23.2598 -23.2457 -23.2457 -23.1898 -23.1898
   -19.4099 -19.4091  -8.8993  -8.8992  -8.3606  -8.3597  -8.2362  -8.2361
    -2.9712  -2.9711  -2.9229  -2.9221  -2.8899  -2.8897   3.9902   3.9904
     4.3718   4.3722   4.7956   4.7960   5.5005   5.5005   5.8144   5.8149
     6.4656   6.4657   6.6277   6.6281   6.6823   6.6826   7.3620   7.3626
    10.7685  10.7688  11.0460  11.0461  11.5799  11.5802  13.7560  13.7560

          k = 0.2500-0.2857-0.1428 (  7090 PWs)   bands (ev):

   -47.1629 -47.1629 -23.2590 -23.2590 -23.2449 -23.2449 -23.2109 -23.2108
   -19.4075 -19.4067  -8.7486  -8.7485  -8.3471  -8.3463  -8.2300  -8.2299
    -2.9890  -2.9888  -2.9787  -2.9779  -2.8598  -2.8594   3.9908   3.9909
     4.3589   4.3593   4.7733   4.7735   5.1069   5.1070   5.3992   5.3995
     5.8129   5.8134   6.9203   6.9205   6.9957   6.9959   7.3743   7.3749
    11.0033  11.0035  11.2457  11.2458  11.6013  11.6016  14.6137  14.6137

          k = 0.2500-0.2857-0.2856 (  7088 PWs)   bands (ev):

   -47.1622 -47.1622 -23.2578 -23.2578 -23.2569 -23.2569 -23.2430 -23.2430
   -19.4023 -19.4015  -8.4879  -8.4874  -8.2348  -8.2343  -8.1949  -8.1949
    -3.0273  -3.0270  -3.0236  -3.0228  -2.8741  -2.8738   3.9037   3.9037
     4.0721   4.0725   4.3410   4.3412   4.8083   4.8084   4.9377   4.9382
     4.9872   4.9874   7.2162   7.2168   7.2508   7.2512   7.4902   7.4906
    11.5809  11.5811  11.6800  11.6802  11.8012  11.8013  15.8826  15.8826

          k = 0.2500-0.2857-0.4285 (  7070 PWs)   bands (ev):

   -47.1616 -47.1616 -23.2946 -23.2946 -23.2555 -23.2555 -23.2416 -23.2416
   -19.3981 -19.3972  -8.4334  -8.4327  -8.2077  -8.2074  -7.9177  -7.9177
    -3.0577  -3.0576  -3.0171  -3.0163  -2.9278  -2.9277   3.0736   3.0736
     4.0263   4.0266   4.2414   4.2415   4.5421   4.5425   4.6332   4.6334
     5.0099   5.0102   7.2522   7.2528   7.3581   7.3586   7.5958   7.5960
    11.6675  11.6678  12.2069  12.2072  12.3396  12.3396  15.9279  15.9279

          k = 0.2500-0.2857 0.4285 (  7070 PWs)   bands (ev):

   -47.1616 -47.1616 -23.2946 -23.2946 -23.2555 -23.2555 -23.2416 -23.2416
   -19.3981 -19.3972  -8.4334  -8.4327  -8.2077  -8.2074  -7.9177  -7.9177
    -3.0579  -3.0578  -3.0168  -3.0161  -2.9279  -2.9277   3.0725   3.0726
     4.0252   4.0255   4.2419   4.2420   4.5437   4.5440   4.6338   4.6340
     5.0098   5.0101   7.2521   7.2528   7.3583   7.3588   7.5956   7.5958
    11.6675  11.6678  12.2067  12.2069  12.3393  12.3394  15.9276  15.9276

          k = 0.2500-0.2857 0.2856 (  7088 PWs)   bands (ev):

   -47.1622 -47.1622 -23.2582 -23.2582 -23.2565 -23.2565 -23.2430 -23.2430
   -19.4023 -19.4015  -8.4879  -8.4874  -8.2348  -8.2343  -8.1949  -8.1949
    -3.0299  -3.0294  -3.0211  -3.0204  -2.8741  -2.8738   3.8969   3.8969
     4.0741   4.0745   4.3391   4.3393   4.8177   4.8178   4.9394   4.9398
     4.9839   4.9841   7.2158   7.2163   7.2519   7.2522   7.4896   7.4899
    11.5815  11.5817  11.6778  11.6781  11.8010  11.8011  15.8817  15.8818

          k = 0.2500-0.2857 0.1428 (  7090 PWs)   bands (ev):

   -47.1629 -47.1629 -23.2590 -23.2590 -23.2449 -23.2449 -23.2109 -23.2108
   -19.4075 -19.4067  -8.7486  -8.7485  -8.3471  -8.3463  -8.2300  -8.2298
    -2.9902  -2.9899  -2.9775  -2.9768  -2.8597  -2.8594   3.9892   3.9894
     4.3583   4.3587   4.7719   4.7721   5.1045   5.1045   5.4039   5.4041
     5.8154   5.8159   6.9213   6.9215   6.9955   6.9957   7.3740   7.3746
    11.0027  11.0029  11.2434  11.2435  11.6015  11.6018  14.6148  14.6149

          k = 0.1250-0.2857 0.0000 (  7092 PWs)   bands (ev):

   -47.1639 -47.1626 -23.2847 -23.2616 -23.2580 -23.2062 -23.1911 -23.1885
   -19.4145 -19.4045  -8.9840  -8.8665  -8.5930  -8.2634  -8.2341  -8.0215
    -2.9678  -2.9571  -2.9378  -2.9075  -2.9069  -2.8883   3.3355   4.0368
     4.0798   4.3061   5.1674   5.4108   5.5620   5.5884   5.6330   6.0412
     6.4325   6.4471   6.5439   6.6180   6.8584   6.9249   6.9884   7.5317
     9.9112  11.0168  11.0428  11.1474  11.5714  12.1216  13.3146  13.9176

          k = 0.1250-0.2857-0.1428 (  7093 PWs)   bands (ev):

   -47.1636 -47.1623 -23.2838 -23.2607 -23.2572 -23.2123 -23.2095 -23.2054
   -19.4119 -19.4024  -8.8788  -8.7062  -8.5337  -8.2508  -8.2358  -8.0165
    -2.9997  -2.9765  -2.9693  -2.9589  -2.8808  -2.8677   3.3350   4.0311
     4.0800   4.3360   4.9901   5.0054   5.1987   5.2290   5.5145   5.6092
     5.7447   6.2527   6.8507   6.9052   6.9494   6.9823   7.1101   7.5374
    10.3134  11.1571  11.2138  11.2556  11.7284  12.1401  13.9588  14.7768

          k = 0.1250-0.2857-0.2856 (  7082 PWs)   bands (ev):

   -47.1628 -47.1615 -23.2818 -23.2594 -23.2584 -23.2561 -23.2554 -23.2038
   -19.4062 -19.3976  -8.7622  -8.3648  -8.2844  -8.2109  -8.1787  -8.0043
    -3.0607  -3.0410  -2.9866  -2.9735  -2.9217  -2.8647   3.3201   3.8970
     3.9126   4.1651   4.1998   4.5072   4.6137   4.6270   4.8464   5.1491
     5.4073   5.9175   6.8601   6.9433   7.3221   7.4096   7.4320   7.6072
    11.1296  11.2479  11.7550  11.8147  12.1466  12.2106  14.5077  16.2363

          k = 0.1250-0.2857-0.4285 (  7073 PWs)   bands (ev):

   -47.1622 -47.1609 -23.2963 -23.2929 -23.2801 -23.2569 -23.2540 -23.2025
   -19.4016 -19.3937  -8.7340  -8.2651  -8.2527  -8.0006  -7.9260  -7.9089
    -3.0909  -3.0714  -2.9986  -2.9913  -2.9574  -2.8931   3.0135   3.0804
     3.4237   4.0843   4.1090   4.2065   4.2899   4.5150   4.6182   5.0351
     5.2363   5.8920   6.8376   6.9072   7.4734   7.5210   7.5598   7.7883
    11.2124  11.8849  12.2018  12.3011  12.3574  12.6494  14.6192  16.5275

          k = 0.1250-0.2857 0.4285 (  7073 PWs)   bands (ev):

   -47.1622 -47.1609 -23.2963 -23.2929 -23.2801 -23.2569 -23.2540 -23.2025
   -19.4016 -19.3937  -8.7340  -8.2651  -8.2527  -8.0006  -7.9260  -7.9089
    -3.0910  -3.0716  -2.9967  -2.9927  -2.9576  -2.8930   3.0128   3.0794
     3.4229   4.0798   4.1089   4.2121   4.2892   4.5179   4.6181   5.0347
     5.2371   5.8919   6.8373   6.9074   7.4736   7.5209   7.5598   7.7882
    11.2125  11.8846  12.2019  12.3007  12.3570  12.6493  14.6187  16.5275

          k = 0.1250-0.2857 0.2856 (  7082 PWs)   bands (ev):

   -47.1628 -47.1615 -23.2818 -23.2598 -23.2582 -23.2562 -23.2551 -23.2038
   -19.4062 -19.3976  -8.7622  -8.3647  -8.2844  -8.2109  -8.1787  -8.0043
    -3.0612  -3.0412  -2.9865  -2.9727  -2.9221  -2.8647   3.3204   3.8910
     3.9051   4.1654   4.1995   4.5122   4.6128   4.6306   4.8535   5.1487
     5.4088   5.9170   6.8598   6.9437   7.3225   7.4097   7.4321   7.6065
    11.1319  11.2451  11.7537  11.8131  12.1474  12.2099  14.5067  16.2389

          k = 0.1250-0.2857 0.1428 (  7093 PWs)   bands (ev):

   -47.1636 -47.1623 -23.2838 -23.2607 -23.2572 -23.2122 -23.2095 -23.2054
   -19.4119 -19.4024  -8.8788  -8.7061  -8.5337  -8.2508  -8.2358  -8.0165
    -3.0003  -2.9775  -2.9685  -2.9579  -2.8809  -2.8677   3.3352   4.0291
     4.0777   4.3356   4.9893   5.0018   5.1935   5.2332   5.5196   5.6104
     5.7511   6.2522   6.8510   6.9048   6.9523   6.9810   7.1098   7.5371
    10.3135  11.1560  11.2121  11.2528  11.7287  12.1400  13.9589  14.7783

          k = 0.0000-0.4286 0.0000 (  7081 PWs)   bands (ev):

   -47.1636 -47.1618 -23.3000 -23.2986 -23.2943 -23.1904 -23.1884 -23.1867
   -19.4093 -19.3993  -9.0602  -8.8117  -8.6503  -7.9467  -7.8999  -7.8911
    -2.9671  -2.9641  -2.9336  -2.9327  -2.8830  -2.8564   2.8353   3.1100
     3.2672   3.7222   5.2771   5.2911   5.5077   5.5110   5.8407   5.8423
     5.9758   6.3954   6.5572   6.5606   6.5788   7.1067   7.1100   7.8711
     9.5132  11.7582  11.7609  11.7873  11.8940  12.8035  12.9095  14.1267

          k = 0.0000-0.4286-0.1428 (  7069 PWs)   bands (ev):

   -47.1632 -47.1614 -23.2989 -23.2978 -23.2935 -23.2114 -23.2076 -23.1877
   -19.4074 -19.3971  -8.9714  -8.6452  -8.5660  -7.9343  -7.9086  -7.8796
    -3.0082  -3.0005  -2.9424  -2.9343  -2.9215  -2.8751   2.8376   3.1050
     3.2640   3.8180   4.8469   4.9383   4.9614   5.3570   5.4687   5.6383
     5.7621   6.2956   6.7893   6.8230   6.9624   6.9698   6.9709   7.8769
    10.0504  11.7633  11.8893  11.9437  12.0439  12.8214  13.4215  14.9916

          k = 0.0000-0.4286-0.2856 (  7076 PWs)   bands (ev):

   -47.1625 -47.1607 -23.2965 -23.2960 -23.2917 -23.2581 -23.2540 -23.1862
   -19.4032 -19.3920  -8.8590  -8.2649  -8.2447  -7.9281  -7.9058  -7.8534
    -3.0971  -3.0831  -3.0403  -2.9608  -2.9172  -2.9029   2.8420   3.0796
     3.2137   4.0303   4.0831   4.1811   4.2761   4.4799   4.5368   5.3742
     5.5288   6.4529   6.5184   6.6144   7.5274   7.5491   7.5548   7.8906
    11.0471  11.7749  12.2883  12.3715  12.4555  12.8613  13.9418  16.5216

          k = 0.0000-0.4286-0.4285 (  7070 PWs)   bands (ev):

   -47.1619 -47.1601 -23.2951 -23.2946 -23.2945 -23.2908 -23.2902 -23.1849
   -19.3998 -19.3880  -8.8143  -7.9512  -7.9393  -7.8992  -7.8742  -7.8318
    -3.1569  -3.1496  -3.1349  -2.9692  -2.9539  -2.8859   2.8301   2.9154
     2.9282   3.3229   3.6058   3.7730   4.1859   4.2350   4.2686   5.2954
     5.3180   6.4082   6.5491   6.5887   7.8353   7.8511   7.8783   7.9102
    11.7700  11.7945  12.7279  12.8177  12.8803  12.9020  14.1091  16.8393

          k =-0.0000-0.4286 0.4285 (  7070 PWs)   bands (ev):

   -47.1619 -47.1601 -23.2952 -23.2945 -23.2944 -23.2908 -23.2901 -23.1849
   -19.3998 -19.3880  -8.8143  -7.9510  -7.9397  -7.8988  -7.8744  -7.8318
    -3.1571  -3.1496  -3.1346  -2.9692  -2.9539  -2.8859   2.8303   2.9146
     2.9270   3.3232   3.6066   3.7735   4.1855   4.2354   4.2690   5.2938
     5.3198   6.4081   6.5488   6.5891   7.8353   7.8511   7.8784   7.9100
    11.7729  11.7915  12.7278  12.8177  12.8812  12.9011  14.1089  16.8660

          k =-0.0000-0.4286 0.2856 (  7076 PWs)   bands (ev):

   -47.1625 -47.1607 -23.2965 -23.2960 -23.2917 -23.2581 -23.2540 -23.1862
   -19.4032 -19.3920  -8.8590  -8.2649  -8.2447  -7.9281  -7.9058  -7.8534
    -3.0974  -3.0832  -3.0399  -2.9608  -2.9171  -2.9030   2.8419   3.0787
     3.2123   4.0302   4.0773   4.1907   4.2722   4.4799   4.5400   5.3737
     5.5296   6.4526   6.5183   6.6145   7.5274   7.5491   7.5548   7.8905
    11.0473  11.7746  12.2879  12.3711  12.4555  12.8613  13.9413  16.5223

          k =-0.0000-0.4286 0.1428 (  7069 PWs)   bands (ev):

   -47.1632 -47.1614 -23.2989 -23.2978 -23.2935 -23.2114 -23.2076 -23.1877
   -19.4074 -19.3971  -8.9714  -8.6452  -8.5660  -7.9343  -7.9086  -7.8796
    -3.0085  -3.0006  -2.9423  -2.9328  -2.9227  -2.8750   2.8375   3.1045
     3.2635   3.8179   4.8456   4.9383   4.9612   5.3582   5.4686   5.6408
     5.7625   6.2952   6.7893   6.8226   6.9620   6.9704   6.9712   7.8768
    10.0505  11.7631  11.8886  11.9427  12.0439  12.8214  13.4215  14.9923

          k =-0.1250-0.4286 0.0000 (  7064 PWs)   bands (ev):

   -47.1633 -47.1620 -23.2992 -23.2951 -23.2828 -23.2048 -23.1898 -23.1872
   -19.4078 -19.4007  -8.9895  -8.8275  -8.5867  -8.0393  -7.9390  -7.9066
    -2.9693  -2.9444  -2.9398  -2.9254  -2.8904  -2.8709   3.0093   3.1060
     3.4942   3.8772   4.9514   5.3155   5.3766   5.4731   5.4760   5.7835
     6.2634   6.4318   6.5154   6.5852   6.8302   6.8849   6.8861   7.7712
     9.9410  11.5774  11.7648  11.7846  11.8565  12.5917  13.3295  14.0724

          k =-0.1250-0.4286-0.1428 (  7065 PWs)   bands (ev):

   -47.1629 -47.1617 -23.2982 -23.2943 -23.2820 -23.2109 -23.2082 -23.2041
   -19.4059 -19.3986  -8.8776  -8.6618  -8.5250  -8.0281  -7.9294  -7.9121
    -3.0070  -2.9919  -2.9710  -2.9216  -2.9128  -2.8798   3.0112   3.1018
     3.4905   3.9557   4.7693   4.9518   5.0331   5.0988   5.3308   5.4257
     5.6658   6.2759   6.7154   6.9140   6.9357   6.9774   7.0378   7.7755
    10.3471  11.7449  11.8588  11.9044  11.9374  12.6093  13.9564  14.9417

          k =-0.1250-0.4286-0.2856 (  7073 PWs)   bands (ev):

   -47.1622 -47.1609 -23.2958 -23.2924 -23.2802 -23.2575 -23.2546 -23.2025
   -19.4016 -19.3937  -8.7340  -8.2658  -8.2532  -8.0006  -7.9246  -7.9075
    -3.0909  -3.0717  -2.9988  -2.9909  -2.9577  -2.8930   3.0123   3.0789
     3.4238   4.0873   4.1094   4.2120   4.2834   4.5127   4.6180   5.0348
     5.2363   5.8917   6.8377   6.9064   7.4715   7.5205   7.5593   7.7899
    11.2125  11.8861  12.2033  12.3021  12.3587  12.6494  14.6184  16.5233

          k =-0.1250-0.4286-0.4285 (  7061 PWs)   bands (ev):

   -47.1616 -47.1603 -23.2944 -23.2939 -23.2914 -23.2908 -23.2787 -23.2012
   -19.3981 -19.3897  -8.6852  -8.0007  -7.9427  -7.9300  -7.8986  -7.8839
    -3.1360  -3.1292  -3.0853  -2.9965  -2.9908  -2.9158   2.9172   2.9263
     3.0826   3.3202   3.7545   3.8434   4.1735   4.3202   4.3358   5.0147
     5.0443   5.8039   6.8796   6.9059   7.7541   7.7685   7.8394   7.8653
    11.8896  11.9140  12.6615  12.6849  12.7420  12.8084  14.7957  16.9315

          k =-0.1250-0.4286 0.4285 (  7061 PWs)   bands (ev):

   -47.1616 -47.1603 -23.2946 -23.2938 -23.2914 -23.2907 -23.2787 -23.2012
   -19.3981 -19.3897  -8.6852  -8.0007  -7.9426  -7.9302  -7.8983  -7.8841
    -3.1359  -3.1295  -3.0851  -2.9964  -2.9908  -2.9158   2.9164   2.9252
     3.0829   3.3206   3.7551   3.8436   4.1743   4.3197   4.3360   5.0131
     5.0461   5.8039   6.8792   6.9063   7.7542   7.7685   7.8393   7.8652
    11.8923  11.9113  12.6630  12.6832  12.7420  12.8084  14.7955  16.9304

          k =-0.1250-0.4286 0.2856 (  7073 PWs)   bands (ev):

   -47.1622 -47.1609 -23.2958 -23.2924 -23.2802 -23.2575 -23.2546 -23.2025
   -19.4016 -19.3937  -8.7340  -8.2658  -8.2532  -8.0006  -7.9246  -7.9075
    -3.0909  -3.0719  -2.9982  -2.9910  -2.9579  -2.8930   3.0116   3.0780
     3.4231   4.0824   4.1096   4.2183   4.2820   4.5156   4.6178   5.0344
     5.2370   5.8917   6.8374   6.9067   7.4717   7.5204   7.5592   7.7898
    11.2126  11.8857  12.2034  12.3017  12.3583  12.6493  14.6180  16.5234

          k =-0.1250-0.4286 0.1428 (  7065 PWs)   bands (ev):

   -47.1629 -47.1617 -23.2982 -23.2943 -23.2820 -23.2109 -23.2082 -23.2041
   -19.4059 -19.3986  -8.8776  -8.6618  -8.5250  -8.0281  -7.9294  -7.9121
    -3.0070  -2.9925  -2.9704  -2.9211  -2.9133  -2.8798   3.0109   3.1013
     3.4902   3.9556   4.7689   4.9506   5.0304   5.1015   5.3324   5.4261
     5.6676   6.2758   6.7154   6.9126   6.9383   6.9763   7.0377   7.7755
    10.3471  11.7445  11.8586  11.9039  11.9367  12.6093  13.9565  14.9423

          k = 0.2500-0.4286 0.0000 (  7086 PWs)   bands (ev):

   -47.1627 -47.1627 -23.2972 -23.2972 -23.2441 -23.2440 -23.1885 -23.1885
   -19.4047 -19.4039  -8.8819  -8.8818  -8.3542  -8.3533  -7.9229  -7.9229
    -2.9577  -2.9572  -2.9094  -2.9089  -2.9052  -2.9050   3.0894   3.0895
     4.2870   4.2873   4.4555   4.4561   5.3940   5.3940   5.5994   5.5999
     6.4150   6.4150   6.5694   6.5701   6.6324   6.6326   7.4363   7.4371
    10.8025  10.8027  11.7745  11.7745  12.1674  12.1677  13.8542  13.8543

          k = 0.2500-0.4286-0.1428 (  7072 PWs)   bands (ev):

   -47.1623 -47.1623 -23.2962 -23.2962 -23.2433 -23.2433 -23.2095 -23.2095
   -19.4027 -19.4018  -8.7264  -8.7263  -8.3345  -8.3336  -7.9209  -7.9208
    -3.0002  -3.0000  -2.9540  -2.9532  -2.8895  -2.8892   3.0878   3.0879
     4.3050   4.3052   4.4546   4.4551   4.9639   4.9639   5.2167   5.2167
     5.8106   5.8113   6.8974   6.8975   6.9534   6.9537   7.4474   7.4481
    11.0468  11.0470  11.9153  11.9153  12.1851  12.1854  14.6825  14.6825

          k = 0.2500-0.4286-0.2856 (  7068 PWs)   bands (ev):

   -47.1616 -47.1616 -23.2941 -23.2941 -23.2561 -23.2561 -23.2416 -23.2416
   -19.3980 -19.3972  -8.4336  -8.4329  -8.2081  -8.2078  -7.9163  -7.9162
    -3.0575  -3.0574  -3.0174  -3.0167  -2.9278  -2.9277   3.0722   3.0723
     4.0297   4.0300   4.2382   4.2383   4.5461   4.5464   4.6284   4.6286
     5.0101   5.0105   7.2506   7.2512   7.3589   7.3594   7.5956   7.5958
    11.6684  11.6686  12.2074  12.2077  12.3408  12.3409  15.9255  15.9256

          k = 0.2500-0.4286-0.4285 (  7068 PWs)   bands (ev):

   -47.1610 -47.1609 -23.2929 -23.2929 -23.2924 -23.2924 -23.2402 -23.2402
   -19.3943 -19.3935  -8.3571  -8.3561  -7.9221  -7.9220  -7.9072  -7.9072
    -3.0715  -3.0712  -3.0631  -3.0622  -2.9944  -2.9942   2.9217   2.9217
     3.2901   3.2902   4.0096   4.0097   4.5113   4.5116   4.6259   4.6263
     4.6959   4.6962   7.3919   7.3927   7.4137   7.4145   7.8498   7.8499
    12.2308  12.2311  12.2528  12.2531  12.7749  12.7750  16.1816  16.1817

          k = 0.2500-0.4286 0.4285 (  7068 PWs)   bands (ev):

   -47.1610 -47.1609 -23.2931 -23.2931 -23.2922 -23.2922 -23.2402 -23.2402
   -19.3943 -19.3935  -8.3571  -8.3561  -7.9221  -7.9220  -7.9072  -7.9072
    -3.0722  -3.0721  -3.0621  -3.0615  -2.9945  -2.9943   2.9208   2.9208
     3.2905   3.2906   4.0102   4.0102   4.5105   4.5108   4.6275   4.6278
     4.6953   4.6955   7.3915   7.3923   7.4141   7.4149   7.8497   7.8498
    12.2324  12.2327  12.2511  12.2514  12.7749  12.7749  16.1813  16.1815

          k = 0.2500-0.4286 0.2856 (  7068 PWs)   bands (ev):

   -47.1616 -47.1616 -23.2941 -23.2941 -23.2561 -23.2561 -23.2416 -23.2416
   -19.3980 -19.3972  -8.4336  -8.4329  -8.2081  -8.2078  -7.9163  -7.9162
    -3.0578  -3.0577  -3.0171  -3.0164  -2.9278  -2.9277   3.0712   3.0712
     4.0286   4.0288   4.2388   4.2388   4.5477   4.5480   4.6290   4.6292
     5.0100   5.0104   7.2505   7.2512   7.3591   7.3597   7.5954   7.5956
    11.6683  11.6686  12.2071  12.2074  12.3406  12.3406  15.9252  15.9253

          k = 0.2500-0.4286 0.1428 (  7072 PWs)   bands (ev):

   -47.1623 -47.1623 -23.2962 -23.2962 -23.2433 -23.2433 -23.2095 -23.2095
   -19.4027 -19.4018  -8.7264  -8.7263  -8.3345  -8.3336  -7.9209  -7.9208
    -3.0004  -3.0001  -2.9539  -2.9531  -2.8895  -2.8892   3.0873   3.0874
     4.3051   4.3053   4.4542   4.4548   4.9621   4.9621   5.2192   5.2193
     5.8111   5.8117   6.8980   6.8981   6.9529   6.9532   7.4474   7.4481
    11.0467  11.0469  11.9144  11.9145  12.1851  12.1854  14.6829  14.6830

          k = 0.1250-0.4286 0.0000 (  7064 PWs)   bands (ev):

   -47.1633 -47.1620 -23.2992 -23.2951 -23.2828 -23.2048 -23.1898 -23.1872
   -19.4078 -19.4007  -8.9895  -8.8275  -8.5867  -8.0393  -7.9390  -7.9066
    -2.9692  -2.9450  -2.9393  -2.9254  -2.8904  -2.8709   3.0093   3.1060
     3.4942   3.8772   4.9514   5.3155   5.3766   5.4731   5.4760   5.7835
     6.2634   6.4318   6.5153   6.5852   6.8302   6.8848   6.8861   7.7712
     9.9410  11.5774  11.7648  11.7846  11.8565  12.5917  13.3295  14.0724

          k = 0.1250-0.4286-0.1428 (  7065 PWs)   bands (ev):

   -47.1629 -47.1617 -23.2982 -23.2943 -23.2820 -23.2109 -23.2082 -23.2041
   -19.4059 -19.3986  -8.8776  -8.6618  -8.5250  -8.0281  -7.9294  -7.9122
    -3.0069  -2.9919  -2.9711  -2.9216  -2.9127  -2.8798   3.0112   3.1018
     3.4905   3.9557   4.7693   4.9517   5.0331   5.0988   5.3307   5.4258
     5.6658   6.2760   6.7154   6.9138   6.9357   6.9774   7.0378   7.7755
    10.3471  11.7449  11.8588  11.9044  11.9374  12.6093  13.9564  14.9417

          k = 0.1250-0.4286-0.2856 (  7073 PWs)   bands (ev):

   -47.1622 -47.1609 -23.2958 -23.2924 -23.2802 -23.2575 -23.2546 -23.2025
   -19.4016 -19.3937  -8.7340  -8.2658  -8.2532  -8.0006  -7.9246  -7.9075
    -3.0909  -3.0717  -2.9995  -2.9902  -2.9577  -2.8930   3.0123   3.0789
     3.4238   4.0872   4.1094   4.2120   4.2834   4.5127   4.6180   5.0348
     5.2363   5.8918   6.8377   6.9064   7.4715   7.5205   7.5593   7.7899
    11.2125  11.8861  12.2033  12.3021  12.3587  12.6494  14.6184  16.5233

          k = 0.1250-0.4286-0.4285 (  7061 PWs)   bands (ev):

   -47.1616 -47.1603 -23.2944 -23.2939 -23.2914 -23.2908 -23.2787 -23.2012
   -19.3981 -19.3897  -8.6852  -8.0007  -7.9427  -7.9300  -7.8986  -7.8839
    -3.1360  -3.1292  -3.0853  -2.9965  -2.9907  -2.9158   2.9172   2.9263
     3.0826   3.3202   3.7545   3.8434   4.1735   4.3202   4.3358   5.0147
     5.0443   5.8039   6.8796   6.9059   7.7541   7.7685   7.8394   7.8653
    11.8896  11.9140  12.6615  12.6849  12.7420  12.8084  14.7957  16.9313

          k = 0.1250-0.4286 0.4285 (  7061 PWs)   bands (ev):

   -47.1616 -47.1603 -23.2946 -23.2938 -23.2914 -23.2907 -23.2787 -23.2012
   -19.3981 -19.3897  -8.6852  -8.0007  -7.9426  -7.9302  -7.8983  -7.8841
    -3.1359  -3.1295  -3.0851  -2.9964  -2.9908  -2.9158   2.9164   2.9252
     3.0829   3.3206   3.7551   3.8436   4.1743   4.3197   4.3360   5.0131
     5.0461   5.8039   6.8792   6.9063   7.7542   7.7685   7.8393   7.8652
    11.8923  11.9113  12.6630  12.6832  12.7420  12.8084  14.7955  16.9307

          k = 0.1250-0.4286 0.2856 (  7073 PWs)   bands (ev):

   -47.1622 -47.1609 -23.2958 -23.2924 -23.2802 -23.2575 -23.2546 -23.2025
   -19.4016 -19.3937  -8.7340  -8.2658  -8.2532  -8.0006  -7.9246  -7.9075
    -3.0910  -3.0719  -2.9975  -2.9917  -2.9579  -2.8930   3.0116   3.0780
     3.4231   4.0824   4.1096   4.2183   4.2820   4.5156   4.6179   5.0344
     5.2370   5.8917   6.8374   6.9067   7.4717   7.5204   7.5592   7.7898
    11.2126  11.8857  12.2034  12.3017  12.3583  12.6493  14.6180  16.5233

          k = 0.1250-0.4286 0.1428 (  7065 PWs)   bands (ev):

   -47.1629 -47.1617 -23.2982 -23.2943 -23.2820 -23.2109 -23.2082 -23.2041
   -19.4059 -19.3986  -8.8776  -8.6618  -8.5250  -8.0281  -7.9294  -7.9121
    -3.0070  -2.9925  -2.9705  -2.9210  -2.9134  -2.8798   3.0109   3.1013
     3.4902   3.9556   4.7689   4.9506   5.0305   5.1015   5.3324   5.4261
     5.6676   6.2758   6.7154   6.9128   6.9382   6.9763   7.0377   7.7755
    10.3471  11.7445  11.8585  11.9039  11.9367  12.6093  13.9565  14.9423

     the Fermi energy is     8.4069 ev

!    total energy              =   -1145.53755973 Ry
     total all-electron energy =    -18592.510290 Ry
     estimated scf accuracy    <          2.0E-10 Ry
     smearing contrib. (-TS)   =       0.00000000 Ry
     internal energy E=F+TS    =   -1145.53755973 Ry

     The total energy is F=E-TS. E is the sum of the following terms:
     one-electron contribution =    -145.87579960 Ry
     hartree contribution      =     117.74039740 Ry
     xc contribution           =    -124.94160491 Ry
     ewald contribution        =    -407.55197867 Ry
     one-center paw contrib.   =    -584.90857394 Ry

     convergence has been achieved in  16 iterations

     Forces acting on atoms (cartesian axes, Ry/au):

     atom    1 type  1   force =     0.00000283   -0.00000307    0.00000091
     atom    2 type  1   force =    -0.00000079   -0.00000510   -0.00000123
     atom    3 type  2   force =     0.00008230   -0.00296117   -0.00448875
     atom    4 type  2   force =    -0.00009504    0.00296580    0.00449171
     atom    5 type  3   force =     0.00000446    0.00000213    0.00000100
     atom    6 type  3   force =    -0.00000082   -0.00000578   -0.00000718
     atom    7 type  3   force =    -0.00002775    0.00377015    0.00014354
     atom    8 type  3   force =     0.00003034   -0.00376219   -0.00016092
     atom    9 type  3   force =    -0.00002850    0.00008951    0.00570023
     atom   10 type  3   force =     0.00003297   -0.00009028   -0.00567931

     Total force =     0.012292     Total SCF correction =     0.000011
     Message from routine punch:
     Nothing written, as per user request (disk_io='none')

     init_run     :     11.55s CPU     12.23s WALL (       1 calls)
     electrons    :    683.81s CPU    695.75s WALL (       1 calls)
     forces       :     11.17s CPU     11.52s WALL (       1 calls)

     Called by init_run:
     wfcinit      :      5.10s CPU      5.26s WALL (       1 calls)
     potinit      :      2.33s CPU      2.55s WALL (       1 calls)
     hinit0       :      2.62s CPU      2.67s WALL (       1 calls)

     Called by electrons:
     c_bands      :    527.73s CPU    529.59s WALL (      16 calls)
     sum_band     :     91.37s CPU     96.53s WALL (      16 calls)
     v_of_rho     :      7.91s CPU      8.61s WALL (      17 calls)
     newd         :     17.13s CPU     21.09s WALL (      17 calls)
     PAW_pot      :     38.66s CPU     39.28s WALL (      17 calls)
     mix_rho      :      1.08s CPU      1.08s WALL (      16 calls)

     Called by c_bands:
     init_us_2    :     16.98s CPU     17.02s WALL (     442 calls)
     cegterg      :    235.17s CPU    236.74s WALL (     208 calls)

     Called by *egterg:
     cdiaghg      :      3.65s CPU      3.66s WALL (     886 calls)
     h_psi        :    145.19s CPU    146.09s WALL (     899 calls)
     s_psi        :     18.82s CPU     18.86s WALL (     899 calls)
     g_psi        :      1.28s CPU      1.29s WALL (     678 calls)

     Called by h_psi:
     h_psi:calbec :     21.62s CPU     21.65s WALL (     899 calls)
     vloc_psi     :    100.91s CPU    101.40s WALL (     899 calls)
                                        0.00s GPU  (     899 calls)
     add_vuspsi   :     18.97s CPU     19.01s WALL (     899 calls)

     General routines
     calbec       :     29.63s CPU     29.66s WALL (    1159 calls)
     fft          :      3.07s CPU      3.08s WALL (     230 calls)
     ffts         :      0.37s CPU      0.37s WALL (      33 calls)
     fftw         :     94.13s CPU     94.53s WALL (   58960 calls)
     interpolate  :      0.64s CPU      0.64s WALL (      17 calls)

     Parallel routines

     PWSCF        :  11m48.59s CPU  12m 1.69s WALL


   This run was terminated on:   1: 2:57   5Oct2026            

=------------------------------------------------------------------------------=
   JOB DONE.
=------------------------------------------------------------------------------=
