
     Program PWSCF v.7.5 starts on  9Oct2026 at  2:48:25 

     This program is part of the open-source Quantum ESPRESSO suite
     for quantum simulation of materials; please cite
         "P. Giannozzi et al., J. Phys.:Condens. Matter 21 395502 (2009);
         "P. Giannozzi et al., J. Phys.:Condens. Matter 29 465901 (2017);
         "P. Giannozzi et al., J. Chem. Phys. 152 154105 (2020);
          URL http://www.quantum-espresso.org", 
     in publications or presentations arising from this work. More details at
     http://www.quantum-espresso.org/quote

     Parallel version (MPI & OpenMP), running on       8 processor cores
     Number of MPI processes:                 8
     Threads/MPI process:                     1

     MPI processes distributed on     1 nodes
     62780 MiB available memory on the printing compute node when the environment starts

     Reading input from pw.in

     Current dimensions of program PWSCF are:
     Max number of different atomic species (ntypx) = 10
     Max number of k-points (npk) =  40000
     Max angular momentum in pseudopotentials (lmaxx) =  4
     file K.pbe-spn-kjpaw_psl.1.0.0.UPF: wavefunction(s)  3S renormalized
     file Nb.pbe-spn-kjpaw_psl.0.3.0.UPF: wavefunction(s)  4S 4P renormalized
     file O.pbe-n-kjpaw_psl.0.1.UPF: wavefunction(s)  2P renormalized
     Message from routine setup:
     using ibrav=0 with symmetry is DISCOURAGED, use correct ibrav instead

     K-points division:     npool     =       8
     Subspace diagonalization in iterative solution of the eigenvalue problem:
     a serial algorithm will be used


     G-vector sticks info
     --------------------
     sticks:   dense  smooth     PW     G-vecs:    dense   smooth      PW
     Sum        4421    2217    621               156369    55309    8255

     Using Slab Decomposition



     bravais-lattice index     =            0
     lattice parameter (alat)  =      10.7618  a.u.
     unit-cell volume          =     881.3204 (a.u.)^3
     number of atoms/cell      =           10
     number of atomic types    =            3
     number of electrons       =        80.00
     number of Kohn-Sham states=           48
     kinetic-energy cutoff     =      60.0000  Ry
     charge density cutoff     =     480.0000  Ry
     scf convergence threshold =      1.0E-09
     mixing beta               =       0.4000
     number of iterations used =            8  plain     mixing
     Exchange-correlation= SLA  PW   PBX  PBC
                           (   1   4   3   4   0   0   0)

     celldm(1)=  10.761751  celldm(2)=   0.000000  celldm(3)=   0.000000
     celldm(4)=   0.000000  celldm(5)=   0.000000  celldm(6)=   0.000000

     crystal axes: (cart. coord. in units of alat)
               a(1) = (  -0.000000  -0.707107  -0.707107 )  
               a(2) = (   0.000000  -0.707107   0.707107 )  
               a(3) = (  -0.707107   0.000000   0.000000 )  

     reciprocal axes: (cart. coord. in units 2 pi/alat)
               b(1) = ( -0.000000 -0.707107 -0.707107 )  
               b(2) = (  0.000000 -0.707107  0.707107 )  
               b(3) = ( -1.414214  0.000000  0.000000 )  


     PseudoPot. # 1 for K  read from file:
     /root/sssp/K.pbe-spn-kjpaw_psl.1.0.0.UPF
     MD5 check sum: 7d58810084cac21f60fbe77ea2b688fd
     Pseudo is Projector augmented-wave + core cor, Zval =  9.0
     Generated using "atomic" code by A. Dal Corso  v.5.1
     Shape of augmentation charge: PSQ
     Using radial grid of 1165 points,  6 beta functions with: 
                l(1) =   0
                l(2) =   0
                l(3) =   1
                l(4) =   1
                l(5) =   2
                l(6) =   2
     Q(r) pseudized with 0 coefficients 


     PseudoPot. # 2 for Nb read from file:
     /root/sssp/Nb.pbe-spn-kjpaw_psl.0.3.0.UPF
     MD5 check sum: 411d72ad547312f8017e2943ceca08cc
     Pseudo is Projector augmented-wave + core cor, Zval = 13.0
     Generated using "atomic" code by A. Dal Corso  v.5.0.99 svn rev. 10869
     Shape of augmentation charge: PSQ
     Using radial grid of 1227 points,  6 beta functions with: 
                l(1) =   0
                l(2) =   0
                l(3) =   1
                l(4) =   1
                l(5) =   2
                l(6) =   2
     Q(r) pseudized with 0 coefficients 


     PseudoPot. # 3 for O  read from file:
     /root/sssp/O.pbe-n-kjpaw_psl.0.1.UPF
     MD5 check sum: 0234752ac141de4415c5fc33072bef88
     Pseudo is Projector augmented-wave + core cor, Zval =  6.0
     Generated using "atomic" code by A. Dal Corso  v.5.0.99 svn rev. 10869
     Shape of augmentation charge: BESSEL
     Using radial grid of 1095 points,  4 beta functions with: 
                l(1) =   0
                l(2) =   0
                l(3) =   1
                l(4) =   1
     Q(r) pseudized with 0 coefficients 


     atomic species   valence    mass     pseudopotential
     K                 9.00    39.09830     K ( 1.00)
     Nb               13.00    92.90640     Nb( 1.00)
     O                 6.00    15.99900     O ( 1.00)

     16 Sym. Ops., with inversion, found ( 8 have fractional translation)



   Cartesian axes

     site n.     atom                  positions (alat units)
         1        K      tau(   1) = (   0.0000000  -0.7071068   0.7071068  )
         2        K      tau(   2) = (   0.0000000  -0.7071068   0.0000000  )
         3        Nb     tau(   3) = (  -0.3379448  -0.3535534  -0.3535534  )
         4        Nb     tau(   4) = (  -0.3691620  -0.3535534   0.3535534  )
         5        O      tau(   5) = (  -0.0090947  -0.3535534  -0.3535534  )
         6        O      tau(   6) = (  -0.6980121  -0.3535534   0.3535534  )
         7        O      tau(   7) = (  -0.3535534  -0.7071068  -0.3535534  )
         8        O      tau(   8) = (  -0.3535534  -0.7071068   0.3535534  )
         9        O      tau(   9) = (  -0.3535534  -1.0606602   0.0000000  )
        10        O      tau(  10) = (  -0.3535534  -0.3535534   0.0000000  )

     number of k points=    24  Marzari-Vanderbilt smearing, width (Ry)=  0.0050
                       cart. coord. in units 2pi/alat
        k(    1) = (   0.0000000   0.0000000   0.0000000), wk =   0.0114286
        k(    2) = (  -0.2020305   0.0000000   0.0000000), wk =   0.0228571
        k(    3) = (  -0.4040610   0.0000000   0.0000000), wk =   0.0228571
        k(    4) = (  -0.6060915   0.0000000   0.0000000), wk =   0.0228571
        k(    5) = (   0.0000000  -0.1414214   0.1414214), wk =   0.0457143
        k(    6) = (  -0.2020305  -0.1414214   0.1414214), wk =   0.0914286
        k(    7) = (  -0.4040610  -0.1414214   0.1414214), wk =   0.0914286
        k(    8) = (  -0.6060915  -0.1414214   0.1414214), wk =   0.0914286
        k(    9) = (   0.0000000  -0.2828427   0.2828427), wk =   0.0457143
        k(   10) = (  -0.2020305  -0.2828427   0.2828427), wk =   0.0914286
        k(   11) = (  -0.4040610  -0.2828427   0.2828427), wk =   0.0914286
        k(   12) = (  -0.6060915  -0.2828427   0.2828427), wk =   0.0914286
        k(   13) = (   0.0000000  -0.2828427   0.0000000), wk =   0.0457143
        k(   14) = (  -0.2020305  -0.2828427   0.0000000), wk =   0.0914286
        k(   15) = (  -0.4040610  -0.2828427   0.0000000), wk =   0.0914286
        k(   16) = (  -0.6060915  -0.2828427   0.0000000), wk =   0.0914286
        k(   17) = (   0.0000000  -0.4242641   0.1414214), wk =   0.0914286
        k(   18) = (  -0.2020305  -0.4242641   0.1414214), wk =   0.1828571
        k(   19) = (  -0.4040610  -0.4242641   0.1414214), wk =   0.1828571
        k(   20) = (  -0.6060915  -0.4242641   0.1414214), wk =   0.1828571
        k(   21) = (   0.0000000  -0.5656854   0.0000000), wk =   0.0457143
        k(   22) = (  -0.2020305  -0.5656854   0.0000000), wk =   0.0914286
        k(   23) = (  -0.4040610  -0.5656854   0.0000000), wk =   0.0914286
        k(   24) = (  -0.6060915  -0.5656854   0.0000000), wk =   0.0914286

     Dense  grid:   156369 G-vectors     FFT dimensions: (  80,  80,  54)

     Smooth grid:    55309 G-vectors     FFT dimensions: (  54,  54,  40)

     Estimated max dynamical RAM per process >     197.19 MB

     Estimated total dynamical RAM >       1.28 GB

     Check: negative core charge=   -0.000003

     Initial potential from superposition of free atoms

     starting charge      79.9581, renormalised to      80.0000
     Starting wfcs are   60 randomized atomic wfcs
     Checking if some PAW data can be deallocated... 

     total cpu time spent up to now is       13.2 secs

     per-process dynamical memory:   125.9 Mb

     Self-consistent Calculation

     iteration #  1     ecut=    60.00 Ry     beta= 0.40
     Davidson diagonalization with overlap
     ethr =  1.00E-02,  avg # of iterations =  2.0

     total cpu time spent up to now is       21.6 secs

     total energy              =   -1143.98638044 Ry
     estimated scf accuracy    <       5.01757910 Ry

     iteration #  2     ecut=    60.00 Ry     beta= 0.40
     Davidson diagonalization with overlap
     ethr =  6.27E-03,  avg # of iterations =  4.0

     total cpu time spent up to now is       30.7 secs

     total energy              =   -1145.24982933 Ry
     estimated scf accuracy    <       1.30996832 Ry

     iteration #  3     ecut=    60.00 Ry     beta= 0.40
     Davidson diagonalization with overlap
     ethr =  1.64E-03,  avg # of iterations =  2.8

     total cpu time spent up to now is       39.8 secs

     total energy              =   -1145.53436897 Ry
     estimated scf accuracy    <       0.08049437 Ry

     iteration #  4     ecut=    60.00 Ry     beta= 0.40
     Davidson diagonalization with overlap
     ethr =  1.01E-04,  avg # of iterations =  8.6

     total cpu time spent up to now is       48.8 secs

     total energy              =   -1145.53620131 Ry
     estimated scf accuracy    <       0.02248051 Ry

     iteration #  5     ecut=    60.00 Ry     beta= 0.40
     Davidson diagonalization with overlap
     ethr =  2.81E-05,  avg # of iterations =  5.2

     total cpu time spent up to now is       57.8 secs

     total energy              =   -1145.54104077 Ry
     estimated scf accuracy    <       0.01000190 Ry

     iteration #  6     ecut=    60.00 Ry     beta= 0.40
     Davidson diagonalization with overlap
     ethr =  1.25E-05,  avg # of iterations =  1.3

     total cpu time spent up to now is       65.5 secs

     total energy              =   -1145.53941170 Ry
     estimated scf accuracy    <       0.00294557 Ry

     iteration #  7     ecut=    60.00 Ry     beta= 0.40
     Davidson diagonalization with overlap
     ethr =  3.68E-06,  avg # of iterations =  5.1

     total cpu time spent up to now is       74.2 secs

     total energy              =   -1145.54056809 Ry
     estimated scf accuracy    <       0.00199246 Ry

     iteration #  8     ecut=    60.00 Ry     beta= 0.40
     Davidson diagonalization with overlap
     ethr =  2.49E-06,  avg # of iterations =  2.0

     total cpu time spent up to now is       82.2 secs

     total energy              =   -1145.54072035 Ry
     estimated scf accuracy    <       0.00013068 Ry

     iteration #  9     ecut=    60.00 Ry     beta= 0.40
     Davidson diagonalization with overlap
     ethr =  1.63E-07,  avg # of iterations =  4.2

     total cpu time spent up to now is       91.0 secs

     total energy              =   -1145.54075303 Ry
     estimated scf accuracy    <       0.00000195 Ry

     iteration # 10     ecut=    60.00 Ry     beta= 0.40
     Davidson diagonalization with overlap
     ethr =  2.44E-09,  avg # of iterations =  5.0

     total cpu time spent up to now is      101.7 secs

     total energy              =   -1145.54075498 Ry
     estimated scf accuracy    <       0.00000396 Ry

     iteration # 11     ecut=    60.00 Ry     beta= 0.40
     Davidson diagonalization with overlap
     ethr =  2.44E-09,  avg # of iterations =  1.1

     total cpu time spent up to now is      110.4 secs

     total energy              =   -1145.54075419 Ry
     estimated scf accuracy    <       0.00000181 Ry

     iteration # 12     ecut=    60.00 Ry     beta= 0.40
     Davidson diagonalization with overlap
     ethr =  2.27E-09,  avg # of iterations =  3.0

     total cpu time spent up to now is      119.5 secs

     total energy              =   -1145.54075464 Ry
     estimated scf accuracy    <       0.00000004 Ry

     iteration # 13     ecut=    60.00 Ry     beta= 0.40
     Davidson diagonalization with overlap
     ethr =  5.62E-11,  avg # of iterations =  4.0

     total cpu time spent up to now is      128.2 secs

     total energy              =   -1145.54075463 Ry
     estimated scf accuracy    <       0.00000003 Ry

     iteration # 14     ecut=    60.00 Ry     beta= 0.40
     Davidson diagonalization with overlap
     ethr =  4.30E-11,  avg # of iterations =  2.0

     total cpu time spent up to now is      137.4 secs

     total energy              =   -1145.54075464 Ry
     estimated scf accuracy    <          2.1E-09 Ry

     iteration # 15     ecut=    60.00 Ry     beta= 0.40
     Davidson diagonalization with overlap
     ethr =  2.57E-12,  avg # of iterations =  4.0

     total cpu time spent up to now is      147.3 secs

     total energy              =   -1145.54075464 Ry
     estimated scf accuracy    <          1.0E-09 Ry

     iteration # 16     ecut=    60.00 Ry     beta= 0.40
     Davidson diagonalization with overlap
     ethr =  1.28E-12,  avg # of iterations =  1.8

     total cpu time spent up to now is      156.3 secs

     End of self-consistent calculation

          k = 0.0000 0.0000 0.0000 (  6899 PWs)   bands (ev):

   -46.6445 -46.6404 -22.8123 -22.8123 -22.8057 -22.7982 -22.6938 -22.6938
   -19.1204 -19.0860  -8.8677  -8.6688  -8.4644  -8.3576  -7.5303  -7.5303
    -2.6672  -2.6672  -2.6635  -2.6635  -2.6491  -2.5600   3.0788   3.4889
     3.9348   5.4666   5.4666   6.0270   6.0270   6.0594   6.5375   6.5375
     6.6150   7.1577   7.1577   7.2848   7.5135   7.6023   7.6023   8.2786
     9.8437  10.0374  10.0374  12.5454  12.5454  13.4144  13.4903  13.5649

          k =-0.2020 0.0000 0.0000 (  6919 PWs)   bands (ev):

   -46.6441 -46.6400 -22.8301 -22.8218 -22.8113 -22.8113 -22.6929 -22.6929
   -19.1157 -19.0834  -8.7921  -8.4921  -8.3853  -8.3536  -7.5164  -7.5164
    -2.7092  -2.7092  -2.6574  -2.6574  -2.6254  -2.6224   3.0812   3.4809
     4.0442   5.1148   5.1148   5.5139   5.8990   5.9590   5.9590   6.6395
     6.6395   7.0716   7.1981   7.2299   7.2299   7.5650   7.5650   8.2855
     9.8640  10.5539  10.5539  12.6933  12.6933  13.4336  13.4938  14.3053

          k =-0.4041 0.0000 0.0000 (  6927 PWs)   bands (ev):

   -46.6432 -46.6391 -22.8840 -22.8742 -22.8092 -22.8092 -22.6911 -22.6911
   -19.1053 -19.0778  -8.7484  -8.3446  -8.0676  -8.0517  -7.4847  -7.4847
    -2.8039  -2.8039  -2.7565  -2.6437  -2.6437  -2.5713   3.0864   3.4033
     4.2432   4.2864   4.5613   4.6509   4.6509   5.7800   5.7800   6.3426
     6.3426   6.5817   7.0135   7.5058   7.5058   7.7779   7.7779   8.3013
     9.9103  11.5609  11.5609  13.0979  13.0979  13.4758  13.5007  15.3356

          k =-0.6061 0.0000 0.0000 (  6946 PWs)   bands (ev):

   -46.6425 -46.6384 -22.9265 -22.9155 -22.8074 -22.8074 -22.6896 -22.6896
   -19.0971 -19.0733  -8.7621  -8.3374  -7.7039  -7.6868  -7.4586  -7.4586
    -2.8801  -2.8801  -2.8589  -2.6327  -2.6327  -2.5272   3.0471   3.0906
     3.2982   3.8930   4.3927   4.3927   4.4776   5.5910   5.5910   6.1860
     6.1860   6.3249   6.8741   7.4766   7.4766   8.1331   8.1331   8.3141
     9.9484  12.3276  12.3276  13.5056  13.5085  13.5295  13.5295  15.9596

          k = 0.0000-0.1414 0.1414 (  6913 PWs)   bands (ev):

   -46.6441 -46.6408 -22.8061 -22.8011 -22.8006 -22.7990 -22.7058 -22.7053
   -19.1158 -19.0880  -8.8334  -8.6869  -8.4107  -8.2859  -7.6427  -7.6179
    -2.6696  -2.6656  -2.6440  -2.6375  -2.6346  -2.5706   3.3542   3.7505
     4.1396   5.5264   5.5692   5.7645   5.8279   6.0115   6.4935   6.4937
     6.6284   6.8405   7.0871   7.1069   7.1588   7.3841   7.4155   8.1464
    10.2941  10.3692  10.3912  12.2999  12.3434  13.1218  13.7843  14.1371

          k =-0.2020-0.1414 0.1414 (  6920 PWs)   bands (ev):

   -46.6437 -46.6404 -22.8294 -22.8226 -22.8005 -22.8002 -22.7049 -22.7044
   -19.1116 -19.0856  -8.7307  -8.5106  -8.3560  -8.2812  -7.6328  -7.6053
    -2.7065  -2.6975  -2.6637  -2.6586  -2.5986  -2.5955   3.3564   3.7401
     4.2232   5.1390   5.1987   5.4745   5.6855   5.7765   5.9285   6.3751
     6.4017   6.9553   7.1030   7.1698   7.2506   7.3158   7.3922   8.1503
    10.4008  10.7336  10.7803  12.4606  12.4985  13.1406  14.1402  14.5639

          k =-0.4041-0.1414 0.1414 (  6918 PWs)   bands (ev):

   -46.6428 -46.6395 -22.8831 -22.8750 -22.7984 -22.7981 -22.7029 -22.7026
   -19.1024 -19.0801  -8.6487  -8.2706  -8.0863  -8.0556  -7.6107  -7.5765
    -2.7952  -2.7895  -2.6892  -2.6595  -2.6450  -2.5595   3.3614   3.6272
     4.2340   4.3660   4.5650   4.7197   4.7573   5.3930   5.5779   6.0419
     6.0640   6.8427   7.0482   7.2325   7.3380   7.7052   7.7470   8.1592
    10.4445  11.6541  11.6777  12.8954  12.9262  13.1834  14.1450  15.6700

          k =-0.6061-0.1414 0.1414 (  6913 PWs)   bands (ev):

   -46.6421 -46.6388 -22.9254 -22.9164 -22.7966 -22.7964 -22.7013 -22.7011
   -19.0950 -19.0758  -8.6527  -8.2620  -7.7149  -7.7026  -7.5950  -7.5528
    -2.8566  -2.8394  -2.7931  -2.6563  -2.6160  -2.5474   3.1241   3.2914
     3.3655   4.0719   4.3582   4.4539   4.6204   5.1300   5.3543   5.9094
     5.9707   6.7675   6.9704   7.1417   7.2952   8.0239   8.0691   8.1589
    10.4790  12.3880  12.4084  13.2082  13.3536  13.3801  14.1463  16.2984

          k = 0.0000-0.2828 0.2828 (  6936 PWs)   bands (ev):

   -46.6431 -46.6418 -22.8035 -22.8010 -22.7729 -22.7718 -22.7366 -22.7352
   -19.1050 -19.0945  -8.7760  -8.7282  -8.2189  -8.0918  -7.9187  -7.8374
    -2.6721  -2.6700  -2.6239  -2.5964  -2.5908  -2.5884   4.1002   4.3840
     4.7826   5.0795   5.1232   5.6713   5.7982   5.8587   5.8648   6.2494
     6.4897   6.6785   6.8701   6.8715   6.9005   7.1113   7.5193   7.8342
    10.9228  11.0794  11.3747  11.6881  11.8091  12.3674  14.2160  14.5992

          k =-0.2020-0.2828 0.2828 (  6928 PWs)   bands (ev):

   -46.6427 -46.6414 -22.8274 -22.8247 -22.7720 -22.7709 -22.7356 -22.7343
   -19.1019 -19.0920  -8.6222  -8.5552  -8.2076  -8.0850  -7.9157  -7.8277
    -2.6961  -2.6793  -2.6789  -2.6656  -2.5518  -2.5488   4.1022   4.3644
     4.7824   5.0520   5.0716   5.2559   5.3522   5.4544   5.7925   5.8462
     6.0024   6.2184   7.0978   7.1655   7.1905   7.2274   7.5294   7.8338
    11.2075  11.3444  11.4091  11.8900  11.9950  12.3894  15.0533  15.4593

          k =-0.4041-0.2828 0.2828 (  6924 PWs)   bands (ev):

   -46.6418 -46.6405 -22.8805 -22.8774 -22.7697 -22.7689 -22.7333 -22.7324
   -19.0950 -19.0865  -8.3884  -8.1534  -8.0698  -8.0426  -7.8946  -7.8056
    -2.7506  -2.7434  -2.7006  -2.6814  -2.5835  -2.5387   4.0598   4.1076
     4.2036   4.4455   4.8155   4.9062   5.0130   5.0432   5.0876   5.3409
     5.4730   5.9462   7.3063   7.3566   7.5403   7.5505   7.6395   7.8542
    11.4373  11.9584  12.0248  12.3916  12.4812  12.5071  15.5705  16.4019

          k =-0.6061-0.2828 0.2828 (  6910 PWs)   bands (ev):

   -46.6411 -46.6398 -22.9224 -22.9190 -22.7678 -22.7672 -22.7314 -22.7308
   -19.0894 -19.0821  -8.3548  -8.0574  -7.9605  -7.7876  -7.7216  -7.7137
    -2.7948  -2.7436  -2.7182  -2.6622  -2.6431  -2.5784   3.2212   3.2691
     4.1135   4.3316   4.5349   4.6348   4.7255   4.9605   5.0819   5.1571
     5.3165   5.9680   7.3305   7.3608   7.5806   7.7432   7.7455   7.9197
    11.4799  12.4491  12.6156  12.6583  12.9689  13.0331  15.5632  17.0367

          k = 0.0000-0.2828 0.0000 (  6913 PWs)   bands (ev):

   -46.6438 -46.6411 -22.8147 -22.8046 -22.7996 -22.7703 -22.7377 -22.6923
   -19.1118 -19.0893  -8.8357  -8.7083  -8.4276  -8.1301  -7.8918  -7.5110
    -2.6557  -2.6518  -2.6384  -2.6246  -2.6210  -2.5795   3.2486   4.3140
     4.3287   5.1427   5.5405   5.6873   5.9652   5.9733   6.4292   6.4502
     6.6772   6.7102   6.7647   6.9296   7.0820   7.4114   7.4185   7.9731
    10.0722  10.8392  10.9811  11.7572  12.5355  12.9469  13.5738  14.7411

          k =-0.2020-0.2828 0.0000 (  6934 PWs)   bands (ev):

   -46.6434 -46.6407 -22.8287 -22.8232 -22.8136 -22.7695 -22.7367 -22.6915
   -19.1081 -19.0871  -8.7265  -8.5334  -8.3708  -8.1314  -7.8782  -7.5054
    -2.7091  -2.6632  -2.6581  -2.6443  -2.5925  -2.5912   3.2465   4.3014
     4.3850   5.0983   5.1140   5.3224   5.4275   5.8998   5.9677   5.9939
     6.4232   6.9519   6.9987   7.1286   7.1441   7.2967   7.3472   7.9789
    10.5694  10.8617  11.2522  11.9653  12.6724  12.9659  13.9893  15.1789

          k =-0.4041-0.2828 0.0000 (  6922 PWs)   bands (ev):

   -46.6425 -46.6398 -22.8822 -22.8757 -22.8111 -22.7675 -22.7345 -22.6897
   -19.0999 -19.0819  -8.6240  -8.1534  -8.1178  -8.0532  -7.8419  -7.4929
    -2.7876  -2.7428  -2.6639  -2.6614  -2.6273  -2.5686   3.2275   4.0809
     4.2186   4.4030   4.6305   4.7132   4.9213   5.0476   5.4002   5.7079
     6.1478   6.7960   7.0489   7.0897   7.4575   7.5899   7.7509   8.0006
    10.8741  11.5832  11.9574  12.5045  12.9873  13.0835  14.2417  16.1847

          k =-0.6061-0.2828 0.0000 (  6902 PWs)   bands (ev):

   -46.6418 -46.6391 -22.9243 -22.9171 -22.8092 -22.7659 -22.7326 -22.6882
   -19.0934 -19.0778  -8.6135  -8.1437  -7.8571  -7.7190  -7.7043  -7.4830
    -2.8104  -2.8071  -2.7551  -2.6510  -2.6135  -2.5663   3.0574   3.2828
     3.4560   4.2021   4.4838   4.6304   4.7280   4.7422   5.2763   5.5077
     6.0087   6.6957   7.0191   7.0595   7.4750   7.8240   7.9589   8.1306
    10.9036  12.3384  12.6034  13.0290  13.0309  13.4970  14.3045  16.7590

          k = 0.0000-0.4243 0.1414 (  6913 PWs)   bands (ev):

   -46.6429 -46.6419 -22.8060 -22.8022 -22.8012 -22.7757 -22.7330 -22.7030
   -19.1028 -19.0942  -8.8118  -8.7591  -8.3601  -8.1701  -7.8480  -7.5998
    -2.6526  -2.6507  -2.6230  -2.6008  -2.5814  -2.5794   3.5359   4.2513
     4.8625   5.2411   5.5908   5.6533   5.8220   5.9024   6.0803   6.2222
     6.4089   6.4926   6.8737   6.9346   7.1261   7.2168   7.2435   7.5758
    10.3784  11.0363  11.6667  11.7189  12.3068  12.4333  13.8872  14.4014

          k =-0.2020-0.4243 0.1414 (  6921 PWs)   bands (ev):

   -46.6426 -46.6415 -22.8270 -22.8249 -22.8039 -22.7747 -22.7321 -22.7022
   -19.1000 -19.0920  -8.6747  -8.5939  -8.3203  -8.1507  -7.8530  -7.6012
    -2.6876  -2.6581  -2.6488  -2.6416  -2.5624  -2.5585   3.5308   4.2394
     4.8118   5.1365   5.2133   5.2617   5.5148   5.6117   5.7155   5.9307
     6.1469   6.5749   7.0266   7.1030   7.1604   7.2277   7.3119   7.5917
    10.7983  11.3307  11.6819  11.8967  12.4296  12.4681  14.4519  15.1531

          k =-0.4041-0.4243 0.1414 (  6912 PWs)   bands (ev):

   -46.6417 -46.6406 -22.8800 -22.8775 -22.8013 -22.7722 -22.7302 -22.7004
   -19.0939 -19.0870  -8.4981  -8.2728  -8.0736  -8.0293  -7.8620  -7.6045
    -2.7295  -2.7024  -2.6785  -2.6572  -2.5869  -2.5558   3.4927   4.0630
     4.2825   4.3864   4.4685   4.7454   5.0297   5.1518   5.4475   5.5979
     5.7021   6.4543   7.0580   7.1754   7.3583   7.5188   7.6764   7.7963
    11.6512  11.7580  12.0439  12.4079  12.4907  12.8659  14.9378  16.0673

          k =-0.6061-0.4243 0.1414 (  6909 PWs)   bands (ev):

   -46.6410 -46.6399 -22.9219 -22.9191 -22.7992 -22.7701 -22.7287 -22.6989
   -19.0889 -19.0830  -8.4589  -8.1834  -7.8767  -7.7320  -7.7279  -7.6076
    -2.7497  -2.7225  -2.6897  -2.6484  -2.6356  -2.5849   3.1582   3.2513
     3.6889   4.1162   4.2441   4.3598   4.9062   5.0913   5.2405   5.4984
     5.6140   6.4470   7.0329   7.1621   7.4660   7.5507   7.8387   8.0517
    11.7311  12.4185  12.5145  12.6739  12.9498  13.3157  15.0601  16.2456

          k = 0.0000-0.5657 0.0000 (  6944 PWs)   bands (ev):

   -46.6426 -46.6422 -22.8186 -22.8079 -22.8023 -22.8012 -22.7015 -22.6899
   -19.0981 -19.0948  -8.8552  -8.8265  -8.4142  -8.3548  -7.5820  -7.4801
    -2.6338  -2.6329  -2.6191  -2.6106  -2.5525  -2.5516   3.2802   3.5485
     5.3589   5.6513   5.7175   5.8504   5.8981   6.0093   6.1754   6.2028
     6.2078   6.2166   6.7269   7.0254   7.1024   7.2078   7.3515   7.3528
    10.1305  10.4114  12.1550  12.2913  12.4360  12.5190  13.5933  13.8983

          k =-0.2020-0.5657 0.0000 (  6921 PWs)   bands (ev):

   -46.6422 -46.6418 -22.8261 -22.8254 -22.8173 -22.8061 -22.7007 -22.6892
   -19.0960 -19.0929  -8.7294  -8.6852  -8.3566  -8.3103  -7.5917  -7.4882
    -2.6571  -2.6316  -2.6230  -2.5943  -2.5802  -2.5669   3.2740   3.5408
     4.9449   5.0377   5.4463   5.5899   5.6288   5.7684   5.7928   5.9669
     6.5505   6.6757   6.7934   7.0284   7.0806   7.0975   7.2617   7.3471
    10.6265  10.8334  12.1622  12.4221  12.4437  12.6423  14.0808  14.4609

          k =-0.4041-0.5657 0.0000 (  6901 PWs)   bands (ev):

   -46.6413 -46.6410 -22.8790 -22.8781 -22.8143 -22.8033 -22.6989 -22.6874
   -19.0912 -19.0886  -8.5639  -8.4769  -8.0829  -8.0733  -7.6134  -7.5065
    -2.6753  -2.6562  -2.6411  -2.6027  -2.6004  -2.5904   3.2420   3.4952
     4.2683   4.2763   4.3457   4.4377   5.4127   5.4364   5.6005   5.7411
     6.4306   6.7782   6.8582   6.9544   7.0635   7.0993   7.7722   7.8055
    11.6071  11.7290  12.1788  12.4631  12.8297  13.0187  14.5710  15.0536

          k =-0.6061-0.5657 0.0000 (  6920 PWs)   bands (ev):

   -46.6406 -46.6403 -22.9207 -22.9196 -22.8120 -22.8009 -22.6974 -22.6860
   -19.0875 -19.0852  -8.5114  -8.4123  -7.7485  -7.7464  -7.6309  -7.5215
    -2.6893  -2.6732  -2.6698  -2.6333  -2.6028  -2.5821   3.0607   3.1651
     3.5398   3.7070   3.9026   3.9569   5.2021   5.3653   5.3960   5.6439
     6.3820   6.8070   6.8738   6.9327   7.1117   7.1330   8.0409   8.1085
    12.1881  12.3570  12.4424  12.4797  13.2805  13.4398  14.7304  15.2255

     the Fermi energy is     9.0786 ev

!    total energy              =   -1145.54075464 Ry
     total all-electron energy =    -18592.513485 Ry
     estimated scf accuracy    <          2.0E-10 Ry
     smearing contrib. (-TS)   =       0.00000000 Ry
     internal energy E=F+TS    =   -1145.54075464 Ry

     The total energy is F=E-TS. E is the sum of the following terms:
     one-electron contribution =    -142.52760098 Ry
     hartree contribution      =     117.12208647 Ry
     xc contribution           =    -125.15227875 Ry
     ewald contribution        =    -410.07157707 Ry
     one-center paw contrib.   =    -584.91138431 Ry

     convergence has been achieved in  16 iterations

     Forces acting on atoms (cartesian axes, Ry/au):

     atom    1 type  1   force =     0.00000000    0.00000000    0.00000000
     atom    2 type  1   force =     0.00000000    0.00000000    0.00000000
     atom    3 type  2   force =    -0.00074991    0.00000000    0.00000000
     atom    4 type  2   force =     0.00074991   -0.00000000    0.00000000
     atom    5 type  3   force =     0.01671989   -0.00000000    0.00000000
     atom    6 type  3   force =    -0.01671989    0.00000000    0.00000000
     atom    7 type  3   force =     0.00000000    0.00000000    0.00000000
     atom    8 type  3   force =     0.00000000    0.00000000    0.00000000
     atom    9 type  3   force =    -0.00000000    0.00000000    0.00000000
     atom   10 type  3   force =    -0.00000000   -0.00000000   -0.00000000

     Total force =     0.023669     Total SCF correction =     0.000006
     Message from routine punch:
     Nothing written, as per user request (disk_io='none')

     init_run     :     11.47s CPU     12.31s WALL (       1 calls)
     electrons    :    133.38s CPU    143.15s WALL (       1 calls)
     forces       :      1.86s CPU      2.15s WALL (       1 calls)

     Called by init_run:
     wfcinit      :      1.99s CPU      2.07s WALL (       1 calls)
     potinit      :      2.86s CPU      3.22s WALL (       1 calls)
     hinit0       :      5.08s CPU      5.15s WALL (       1 calls)

     Called by electrons:
     c_bands      :     71.84s CPU     72.46s WALL (      16 calls)
     sum_band     :     19.86s CPU     23.94s WALL (      16 calls)
     v_of_rho     :      8.19s CPU      9.32s WALL (      17 calls)
     newd         :      6.95s CPU     11.11s WALL (      17 calls)
     PAW_pot      :     26.88s CPU     27.25s WALL (      17 calls)
     mix_rho      :      0.93s CPU      0.93s WALL (      16 calls)

     Called by c_bands:
     init_us_2    :      2.14s CPU      2.18s WALL (     102 calls)
     cegterg      :     58.39s CPU     58.98s WALL (      48 calls)

     Called by *egterg:
     cdiaghg      :      1.27s CPU      1.27s WALL (     214 calls)
     h_psi        :     41.59s CPU     41.86s WALL (     217 calls)
     s_psi        :      4.13s CPU      4.15s WALL (     217 calls)
     g_psi        :      0.40s CPU      0.40s WALL (     166 calls)

     Called by h_psi:
     h_psi:calbec :      4.09s CPU      4.10s WALL (     217 calls)
     vloc_psi     :     33.01s CPU     33.19s WALL (     217 calls)
                                        0.00s GPU  (     217 calls)
     add_vuspsi   :      4.19s CPU      4.19s WALL (     217 calls)

     General routines
     calbec       :      5.98s CPU      6.00s WALL (     277 calls)
     fft          :      4.93s CPU      4.94s WALL (     230 calls)
     ffts         :      0.70s CPU      0.70s WALL (      33 calls)
     fftw         :     34.12s CPU     34.27s WALL (   14000 calls)
     interpolate  :      1.05s CPU      1.05s WALL (      17 calls)

     Parallel routines

     PWSCF        :   2m27.77s CPU   2m38.77s WALL


   This run was terminated on:   2:51: 4   9Oct2026            

=------------------------------------------------------------------------------=
   JOB DONE.
=------------------------------------------------------------------------------=
