40
Lattice="11.84109115895902 -1.229677522942451e-07 -5.068285755963959e-07 -1.2296782341790177e-07 11.84109744771912 5.458565046294197e-08 -5.068284921833321e-07 5.4585880806670045e-08 11.84107375221169" Properties=species:S:1:pos:R:3:mode_u:R:3 system=cssnbr3_cubic path_model=chgnet pattern_model=chgnet mlip_model=chgnet role=mode stem=cssnbr3_cubic_chgnet_q1d2-1d2-1d2-b3 q="0.5 0.5 0.5" band=3 dim="2 2 2" m_eff=1395.3843180593367 check_pass=False Q=0.0 index=0 mlip_energy_eV=-139.2700958251953 pbc="T T T"
Cs       0.00000002       5.92054850       0.00000014       0.00001322       0.00000197       1.00000000
Cs       5.92054560       5.92054843      -0.00000011      -0.00001322      -0.00000197      -1.00000000
Cs      -0.00000004      11.84109722       0.00000017      -0.00001322      -0.00000197      -1.00000000
Cs       5.92054554      11.84109716      -0.00000008       0.00001322       0.00000197       1.00000000
Cs      -0.00000023       5.92054852       5.92053702      -0.00001322      -0.00000197      -1.00000000
Cs       5.92054535       5.92054846       5.92053677       0.00001322       0.00000197       1.00000000
Cs      -0.00000029      11.84109725       5.92053705       0.00001322       0.00000197       1.00000000
Cs       5.92054529      11.84109719       5.92053679      -0.00001322      -0.00000197      -1.00000000
Sn       2.96027243       2.96027241       2.96026807       0.00000001      -0.00000001       0.00000000
Sn       8.88081801       2.96027235       2.96026781      -0.00000001       0.00000001      -0.00000000
Sn       2.96027237       8.88082113       2.96026810      -0.00000001       0.00000001      -0.00000000
Sn       8.88081795       8.88082107       2.96026784       0.00000001      -0.00000001       0.00000000
Sn       2.96027218       2.96027244       8.88080494      -0.00000001       0.00000001      -0.00000000
Sn       8.88081776       2.96027238       8.88080469       0.00000001      -0.00000001       0.00000000
Sn       2.96027212       8.88082116       8.88080497       0.00000001      -0.00000001       0.00000000
Sn       8.88081770       8.88082110       8.88080472      -0.00000001       0.00000001      -0.00000000
Br      -0.00000003       2.96027455       2.96026864       0.00000000       0.50970279       0.00000097
Br       5.92054555       2.96027449       2.96026838      -0.00000000      -0.50970279      -0.00000097
Br      -0.00000009       8.88082328       2.96026866      -0.00000000      -0.50970279      -0.00000097
Br       5.92054549       8.88082322       2.96026841       0.00000000       0.50970279       0.00000097
Br      -0.00000028       2.96027458       8.88080551      -0.00000000      -0.50970279      -0.00000097
Br       5.92054530       2.96027452       8.88080526       0.00000000       0.50970279       0.00000097
Br      -0.00000035       8.88082330       8.88080554       0.00000000       0.50970279       0.00000097
Br       5.92054523       8.88082324       8.88080529      -0.00000000      -0.50970279      -0.00000097
Br       2.96027274       0.00000195       2.96026831       0.50970229      -0.00000002       0.00000660
Br       8.88081832       0.00000189       2.96026806      -0.50970229       0.00000002      -0.00000660
Br       2.96027268       5.92055068       2.96026834      -0.50970229       0.00000002      -0.00000660
Br       8.88081826       5.92055062       2.96026809       0.50970229      -0.00000002       0.00000660
Br       2.96027249       0.00000198       8.88080519      -0.50970229       0.00000002      -0.00000660
Br       8.88081807       0.00000192       8.88080493       0.50970229      -0.00000002       0.00000660
Br       2.96027242       5.92055071       8.88080522       0.50970229      -0.00000002       0.00000660
Br       8.88081800       5.92055064       8.88080496      -0.50970229       0.00000002      -0.00000660
Br       2.96027240       2.96027437       5.92053672      -0.00000105      -0.00000688      -0.00000000
Br       8.88081798       2.96027430       5.92053647       0.00000105       0.00000688       0.00000000
Br       2.96027234       8.88082309       5.92053675       0.00000105       0.00000688       0.00000000
Br       8.88081792       8.88082303       5.92053650      -0.00000105      -0.00000688      -0.00000000
Br       2.96027215       2.96027439      11.84107360       0.00000105       0.00000688       0.00000000
Br       8.88081773       2.96027433      11.84107335      -0.00000105      -0.00000688      -0.00000000
Br       2.96027209       8.88082312      11.84107363      -0.00000105      -0.00000688      -0.00000000
Br       8.88081767       8.88082306      11.84107337       0.00000105       0.00000688       0.00000000
40
Lattice="11.84109115895902 -1.229677522942451e-07 -5.068285755963959e-07 -1.2296782341790177e-07 11.84109744771912 5.458565046294197e-08 -5.068284921833321e-07 5.4585880806670045e-08 11.84107375221169" Properties=species:S:1:pos:R:3:mode_u:R:3 system=cssnbr3_cubic path_model=chgnet pattern_model=chgnet mlip_model=chgnet role=mode stem=cssnbr3_cubic_chgnet_q1d2-1d2-1d2-b3 q="0.5 0.5 0.5" band=3 dim="2 2 2" m_eff=1395.3843180593367 check_pass=False Q=0.005555555555555556 index=1 mlip_energy_eV=-139.27011108398438 pbc="T T T"
Cs       0.00000010       5.92054851       0.00555570       0.00001322       0.00000197       1.00000000
Cs       5.92054553       5.92054842      -0.00555566      -0.00001322      -0.00000197      -1.00000000
Cs      -0.00000011      11.84109721      -0.00555538      -0.00001322      -0.00000197      -1.00000000
Cs       5.92054561      11.84109717       0.00555547       0.00001322       0.00000197       1.00000000
Cs      -0.00000030       5.92054851       5.91498147      -0.00001322      -0.00000197      -1.00000000
Cs       5.92054542       5.92054847       5.92609232       0.00001322       0.00000197       1.00000000
Cs      -0.00000022      11.84109726       5.92609260       0.00001322       0.00000197       1.00000000
Cs       5.92054521      11.84109717       5.91498124      -0.00001322      -0.00000197      -1.00000000
Sn       2.96027243       2.96027241       2.96026807       0.00000001      -0.00000001       0.00000000
Sn       8.88081801       2.96027235       2.96026781      -0.00000001       0.00000001      -0.00000000
Sn       2.96027237       8.88082113       2.96026810      -0.00000001       0.00000001      -0.00000000
Sn       8.88081795       8.88082107       2.96026784       0.00000001      -0.00000001       0.00000000
Sn       2.96027218       2.96027244       8.88080494      -0.00000001       0.00000001      -0.00000000
Sn       8.88081776       2.96027238       8.88080469       0.00000001      -0.00000001       0.00000000
Sn       2.96027212       8.88082116       8.88080497       0.00000001      -0.00000001       0.00000000
Sn       8.88081770       8.88082110       8.88080472      -0.00000001       0.00000001      -0.00000000
Br      -0.00000003       2.96310624       2.96026864       0.00000000       0.50970279       0.00000097
Br       5.92054555       2.95744281       2.96026838      -0.00000000      -0.50970279      -0.00000097
Br      -0.00000009       8.87799160       2.96026866      -0.00000000      -0.50970279      -0.00000097
Br       5.92054549       8.88365490       2.96026842       0.00000000       0.50970279       0.00000097
Br      -0.00000028       2.95744290       8.88080551      -0.00000000      -0.50970279      -0.00000097
Br       5.92054530       2.96310620       8.88080527       0.00000000       0.50970279       0.00000097
Br      -0.00000035       8.88365499       8.88080555       0.00000000       0.50970279       0.00000097
Br       5.92054523       8.87799156       8.88080528      -0.00000000      -0.50970279      -0.00000097
Br       2.96310442       0.00000195       2.96026835       0.50970229      -0.00000002       0.00000660
Br       8.87798664       0.00000189       2.96026802      -0.50970229       0.00000002      -0.00000660
Br       2.95744100       5.92055068       2.96026830      -0.50970229       0.00000002      -0.00000660
Br       8.88364994       5.92055062       2.96026812       0.50970229      -0.00000002       0.00000660
Br       2.95744081       0.00000198       8.88080515      -0.50970229       0.00000002      -0.00000660
Br       8.88364975       0.00000192       8.88080497       0.50970229      -0.00000002       0.00000660
Br       2.96310410       5.92055071       8.88080525       0.50970229      -0.00000002       0.00000660
Br       8.87798632       5.92055064       8.88080493      -0.50970229       0.00000002      -0.00000660
Br       2.96027240       2.96027433       5.92053672      -0.00000105      -0.00000688      -0.00000000
Br       8.88081799       2.96027434       5.92053647       0.00000105       0.00000688       0.00000000
Br       2.96027235       8.88082313       5.92053675       0.00000105       0.00000688       0.00000000
Br       8.88081792       8.88082299       5.92053650      -0.00000105      -0.00000688      -0.00000000
Br       2.96027216       2.96027443      11.84107360       0.00000105       0.00000688       0.00000000
Br       8.88081772       2.96027429      11.84107335      -0.00000105      -0.00000688      -0.00000000
Br       2.96027208       8.88082308      11.84107363      -0.00000105      -0.00000688      -0.00000000
Br       8.88081767       8.88082309      11.84107337       0.00000105       0.00000688       0.00000000
40
Lattice="11.84109115895902 -1.229677522942451e-07 -5.068285755963959e-07 -1.2296782341790177e-07 11.84109744771912 5.458565046294197e-08 -5.068284921833321e-07 5.4585880806670045e-08 11.84107375221169" Properties=species:S:1:pos:R:3:mode_u:R:3 system=cssnbr3_cubic path_model=chgnet pattern_model=chgnet mlip_model=chgnet role=mode stem=cssnbr3_cubic_chgnet_q1d2-1d2-1d2-b3 q="0.5 0.5 0.5" band=3 dim="2 2 2" m_eff=1395.3843180593367 check_pass=False Q=0.022222222222222223 index=2 mlip_energy_eV=-139.27066040039062 pbc="T T T"
Cs       0.00000032       5.92054854       0.02222237       0.00001322       0.00000197       1.00000000
Cs       5.92054531       5.92054839      -0.02222233      -0.00001322      -0.00000197      -1.00000000
Cs      -0.00000033      11.84109718      -0.02222205      -0.00001322      -0.00000197      -1.00000000
Cs       5.92054583      11.84109720       0.02222214       0.00001322       0.00000197       1.00000000
Cs      -0.00000052       5.92054848       5.89831480      -0.00001322      -0.00000197      -1.00000000
Cs       5.92054564       5.92054851       5.94275899       0.00001322       0.00000197       1.00000000
Cs       0.00000000      11.84109729       5.94275927       0.00001322       0.00000197       1.00000000
Cs       5.92054499      11.84109714       5.89831457      -0.00001322      -0.00000197      -1.00000000
Sn       2.96027243       2.96027241       2.96026807       0.00000001      -0.00000001       0.00000000
Sn       8.88081801       2.96027235       2.96026781      -0.00000001       0.00000001      -0.00000000
Sn       2.96027237       8.88082113       2.96026810      -0.00000001       0.00000001      -0.00000000
Sn       8.88081795       8.88082107       2.96026784       0.00000001      -0.00000001       0.00000000
Sn       2.96027218       2.96027244       8.88080494      -0.00000001       0.00000001      -0.00000000
Sn       8.88081776       2.96027238       8.88080469       0.00000001      -0.00000001       0.00000000
Sn       2.96027212       8.88082116       8.88080497       0.00000001      -0.00000001       0.00000000
Sn       8.88081770       8.88082110       8.88080472      -0.00000001       0.00000001      -0.00000000
Br      -0.00000003       2.97160128       2.96026866       0.00000000       0.50970279       0.00000097
Br       5.92054555       2.94894776       2.96026836      -0.00000000      -0.50970279      -0.00000097
Br      -0.00000009       8.86949655       2.96026864      -0.00000000      -0.50970279      -0.00000097
Br       5.92054549       8.89214994       2.96026843       0.00000000       0.50970279       0.00000097
Br      -0.00000028       2.94894785       8.88080549      -0.00000000      -0.50970279      -0.00000097
Br       5.92054530       2.97160125       8.88080528       0.00000000       0.50970279       0.00000097
Br      -0.00000035       8.89215003       8.88080556       0.00000000       0.50970279       0.00000097
Br       5.92054523       8.86949651       8.88080527      -0.00000000      -0.50970279      -0.00000097
Br       2.97159946       0.00000195       2.96026846       0.50970229      -0.00000002       0.00000660
Br       8.86949160       0.00000189       2.96026791      -0.50970229       0.00000002      -0.00000660
Br       2.94894596       5.92055068       2.96026819      -0.50970229       0.00000002      -0.00000660
Br       8.89214498       5.92055062       2.96026823       0.50970229      -0.00000002       0.00000660
Br       2.94894577       0.00000198       8.88080504      -0.50970229       0.00000002      -0.00000660
Br       8.89214478       0.00000192       8.88080508       0.50970229      -0.00000002       0.00000660
Br       2.97159914       5.92055071       8.88080536       0.50970229      -0.00000002       0.00000660
Br       8.86949129       5.92055064       8.88080482      -0.50970229       0.00000002      -0.00000660
Br       2.96027238       2.96027421       5.92053672      -0.00000105      -0.00000688      -0.00000000
Br       8.88081801       2.96027446       5.92053647       0.00000105       0.00000688       0.00000000
Br       2.96027236       8.88082324       5.92053675       0.00000105       0.00000688       0.00000000
Br       8.88081790       8.88082288       5.92053650      -0.00000105      -0.00000688      -0.00000000
Br       2.96027217       2.96027455      11.84107360       0.00000105       0.00000688       0.00000000
Br       8.88081771       2.96027418      11.84107335      -0.00000105      -0.00000688      -0.00000000
Br       2.96027206       8.88082296      11.84107363      -0.00000105      -0.00000688      -0.00000000
Br       8.88081769       8.88082321      11.84107337       0.00000105       0.00000688       0.00000000
40
Lattice="11.84109115895902 -1.229677522942451e-07 -5.068285755963959e-07 -1.2296782341790177e-07 11.84109744771912 5.458565046294197e-08 -5.068284921833321e-07 5.4585880806670045e-08 11.84107375221169" Properties=species:S:1:pos:R:3:mode_u:R:3 system=cssnbr3_cubic path_model=chgnet pattern_model=chgnet mlip_model=chgnet role=mode stem=cssnbr3_cubic_chgnet_q1d2-1d2-1d2-b3 q="0.5 0.5 0.5" band=3 dim="2 2 2" m_eff=1395.3843180593367 check_pass=False Q=0.049999999999999996 index=3 mlip_energy_eV=-139.273193359375 pbc="T T T"
Cs       0.00000068       5.92054859       0.05000014       0.00001322       0.00000197       1.00000000
Cs       5.92054494       5.92054834      -0.05000011      -0.00001322      -0.00000197      -1.00000000
Cs      -0.00000070      11.84109712      -0.04999983      -0.00001322      -0.00000197      -1.00000000
Cs       5.92054620      11.84109726       0.04999992       0.00001322       0.00000197       1.00000000
Cs      -0.00000089       5.92054842       5.87053702      -0.00001322      -0.00000197      -1.00000000
Cs       5.92054601       5.92054856       5.97053677       0.00001322       0.00000197       1.00000000
Cs       0.00000037      11.84109735       5.97053705       0.00001322       0.00000197       1.00000000
Cs       5.92054463      11.84109709       5.87053679      -0.00001322      -0.00000197      -1.00000000
Sn       2.96027243       2.96027241       2.96026807       0.00000001      -0.00000001       0.00000000
Sn       8.88081801       2.96027235       2.96026781      -0.00000001       0.00000001      -0.00000000
Sn       2.96027237       8.88082113       2.96026810      -0.00000001       0.00000001      -0.00000000
Sn       8.88081795       8.88082107       2.96026784       0.00000001      -0.00000001       0.00000000
Sn       2.96027218       2.96027244       8.88080494      -0.00000001       0.00000001      -0.00000000
Sn       8.88081776       2.96027238       8.88080469       0.00000001      -0.00000001       0.00000000
Sn       2.96027212       8.88082116       8.88080497       0.00000001      -0.00000001       0.00000000
Sn       8.88081770       8.88082110       8.88080472      -0.00000001       0.00000001      -0.00000000
Br      -0.00000003       2.98575969       2.96026869       0.00000000       0.50970279       0.00000097
Br       5.92054555       2.93478935       2.96026834      -0.00000000      -0.50970279      -0.00000097
Br      -0.00000009       8.85533814       2.96026862      -0.00000000      -0.50970279      -0.00000097
Br       5.92054549       8.90630836       2.96026846       0.00000000       0.50970279       0.00000097
Br      -0.00000028       2.93478944       8.88080546      -0.00000000      -0.50970279      -0.00000097
Br       5.92054530       2.98575966       8.88080531       0.00000000       0.50970279       0.00000097
Br      -0.00000035       8.90630844       8.88080559       0.00000000       0.50970279       0.00000097
Br       5.92054523       8.85533810       8.88080524      -0.00000000      -0.50970279      -0.00000097
Br       2.98575785       0.00000195       2.96026864       0.50970229      -0.00000002       0.00000660
Br       8.85533320       0.00000189       2.96026773      -0.50970229       0.00000002      -0.00000660
Br       2.93478756       5.92055068       2.96026801      -0.50970229       0.00000002      -0.00000660
Br       8.90630337       5.92055062       2.96026842       0.50970229      -0.00000002       0.00000660
Br       2.93478737       0.00000198       8.88080486      -0.50970229       0.00000002      -0.00000660
Br       8.90630318       0.00000192       8.88080527       0.50970229      -0.00000002       0.00000660
Br       2.98575754       5.92055070       8.88080555       0.50970229      -0.00000002       0.00000660
Br       8.85533289       5.92055064       8.88080463      -0.50970229       0.00000002      -0.00000660
Br       2.96027235       2.96027402       5.92053672      -0.00000105      -0.00000688      -0.00000000
Br       8.88081803       2.96027465       5.92053647       0.00000105       0.00000688       0.00000000
Br       2.96027239       8.88082343       5.92053675       0.00000105       0.00000688       0.00000000
Br       8.88081787       8.88082268       5.92053650      -0.00000105      -0.00000688      -0.00000000
Br       2.96027220       2.96027474      11.84107360       0.00000105       0.00000688       0.00000000
Br       8.88081768       2.96027399      11.84107335      -0.00000105      -0.00000688      -0.00000000
Br       2.96027204       8.88082277      11.84107363      -0.00000105      -0.00000688      -0.00000000
Br       8.88081772       8.88082340      11.84107337       0.00000105       0.00000688       0.00000000
40
Lattice="11.84109115895902 -1.229677522942451e-07 -5.068285755963959e-07 -1.2296782341790177e-07 11.84109744771912 5.458565046294197e-08 -5.068284921833321e-07 5.4585880806670045e-08 11.84107375221169" Properties=species:S:1:pos:R:3:mode_u:R:3 system=cssnbr3_cubic path_model=chgnet pattern_model=chgnet mlip_model=chgnet role=mode stem=cssnbr3_cubic_chgnet_q1d2-1d2-1d2-b3 q="0.5 0.5 0.5" band=3 dim="2 2 2" m_eff=1395.3843180593367 check_pass=False Q=0.08888888888888889 index=4 mlip_energy_eV=-139.28074645996094 pbc="T T T"
Cs       0.00000120       5.92054867       0.08888903       0.00001322       0.00000197       1.00000000
Cs       5.92054443       5.92054826      -0.08888900      -0.00001322      -0.00000197      -1.00000000
Cs      -0.00000121      11.84109704      -0.08888872      -0.00001322      -0.00000197      -1.00000000
Cs       5.92054671      11.84109733       0.08888881       0.00001322       0.00000197       1.00000000
Cs      -0.00000141       5.92054835       5.83164813      -0.00001322      -0.00000197      -1.00000000
Cs       5.92054652       5.92054864       6.00942566       0.00001322       0.00000197       1.00000000
Cs       0.00000088      11.84109742       6.00942594       0.00001322       0.00000197       1.00000000
Cs       5.92054411      11.84109701       5.83164791      -0.00001322      -0.00000197      -1.00000000
Sn       2.96027243       2.96027241       2.96026807       0.00000001      -0.00000001       0.00000000
Sn       8.88081801       2.96027235       2.96026781      -0.00000001       0.00000001      -0.00000000
Sn       2.96027237       8.88082113       2.96026810      -0.00000001       0.00000001      -0.00000000
Sn       8.88081795       8.88082107       2.96026784       0.00000001      -0.00000001       0.00000000
Sn       2.96027218       2.96027244       8.88080494      -0.00000001       0.00000001      -0.00000000
Sn       8.88081776       2.96027237       8.88080469       0.00000001      -0.00000001       0.00000000
Sn       2.96027212       8.88082116       8.88080497       0.00000001      -0.00000001       0.00000000
Sn       8.88081770       8.88082110       8.88080472      -0.00000001       0.00000001      -0.00000000
Br      -0.00000003       3.00558147       2.96026872       0.00000000       0.50970279       0.00000097
Br       5.92054555       2.91496758       2.96026830      -0.00000000      -0.50970279      -0.00000097
Br      -0.00000009       8.83551636       2.96026858      -0.00000000      -0.50970279      -0.00000097
Br       5.92054549       8.92613013       2.96026850       0.00000000       0.50970279       0.00000097
Br      -0.00000028       2.91496767       8.88080543      -0.00000000      -0.50970279      -0.00000097
Br       5.92054530       3.00558143       8.88080535       0.00000000       0.50970279       0.00000097
Br      -0.00000035       8.92613022       8.88080563       0.00000000       0.50970279       0.00000097
Br       5.92054523       8.83551633       8.88080520      -0.00000000      -0.50970279      -0.00000097
Br       3.00557961       0.00000195       2.96026890       0.50970229      -0.00000002       0.00000660
Br       8.83551145       0.00000189       2.96026747      -0.50970229       0.00000002      -0.00000660
Br       2.91496581       5.92055068       2.96026775      -0.50970229       0.00000002      -0.00000660
Br       8.92612513       5.92055062       2.96026867       0.50970229      -0.00000002       0.00000660
Br       2.91496562       0.00000198       8.88080460      -0.50970229       0.00000002      -0.00000660
Br       8.92612494       0.00000192       8.88080552       0.50970229      -0.00000002       0.00000660
Br       3.00557930       5.92055070       8.88080580       0.50970229      -0.00000002       0.00000660
Br       8.83551113       5.92055065       8.88080438      -0.50970229       0.00000002      -0.00000660
Br       2.96027231       2.96027375       5.92053672      -0.00000105      -0.00000688      -0.00000000
Br       8.88081808       2.96027492       5.92053647       0.00000105       0.00000688       0.00000000
Br       2.96027243       8.88082370       5.92053675       0.00000105       0.00000688       0.00000000
Br       8.88081783       8.88082242       5.92053650      -0.00000105      -0.00000688      -0.00000000
Br       2.96027224       2.96027500      11.84107360       0.00000105       0.00000688       0.00000000
Br       8.88081764       2.96027372      11.84107335      -0.00000105      -0.00000688      -0.00000000
Br       2.96027200       8.88082251      11.84107363      -0.00000105      -0.00000688      -0.00000000
Br       8.88081776       8.88082367      11.84107337       0.00000105       0.00000688       0.00000000
40
Lattice="11.84109115895902 -1.229677522942451e-07 -5.068285755963959e-07 -1.2296782341790177e-07 11.84109744771912 5.458565046294197e-08 -5.068284921833321e-07 5.4585880806670045e-08 11.84107375221169" Properties=species:S:1:pos:R:3:mode_u:R:3 system=cssnbr3_cubic path_model=chgnet pattern_model=chgnet mlip_model=chgnet role=mode stem=cssnbr3_cubic_chgnet_q1d2-1d2-1d2-b3 q="0.5 0.5 0.5" band=3 dim="2 2 2" m_eff=1395.3843180593367 check_pass=False Q=0.13888888888888892 index=5 mlip_energy_eV=-139.29385375976562 pbc="T T T"
Cs       0.00000186       5.92054877       0.13888903       0.00001322       0.00000197       1.00000000
Cs       5.92054377       5.92054816      -0.13888900      -0.00001322      -0.00000197      -1.00000000
Cs      -0.00000187      11.84109695      -0.13888872      -0.00001322      -0.00000197      -1.00000000
Cs       5.92054738      11.84109743       0.13888881       0.00001322       0.00000197       1.00000000
Cs      -0.00000207       5.92054825       5.78164813      -0.00001322      -0.00000197      -1.00000000
Cs       5.92054718       5.92054874       6.05942566       0.00001322       0.00000197       1.00000000
Cs       0.00000154      11.84109752       6.05942594       0.00001322       0.00000197       1.00000000
Cs       5.92054345      11.84109691       5.78164791      -0.00001322      -0.00000197      -1.00000000
Sn       2.96027243       2.96027241       2.96026807       0.00000001      -0.00000001       0.00000000
Sn       8.88081801       2.96027235       2.96026781      -0.00000001       0.00000001      -0.00000000
Sn       2.96027237       8.88082114       2.96026810      -0.00000001       0.00000001      -0.00000000
Sn       8.88081795       8.88082107       2.96026784       0.00000001      -0.00000001       0.00000000
Sn       2.96027218       2.96027244       8.88080494      -0.00000001       0.00000001      -0.00000000
Sn       8.88081776       2.96027237       8.88080469       0.00000001      -0.00000001       0.00000000
Sn       2.96027212       8.88082116       8.88080497       0.00000001      -0.00000001       0.00000000
Sn       8.88081770       8.88082110       8.88080472      -0.00000001       0.00000001      -0.00000000
Br      -0.00000003       3.03106661       2.96026877       0.00000000       0.50970279       0.00000097
Br       5.92054555       2.88948244       2.96026825      -0.00000000      -0.50970279      -0.00000097
Br      -0.00000009       8.81003122       2.96026853      -0.00000000      -0.50970279      -0.00000097
Br       5.92054549       8.95161527       2.96026855       0.00000000       0.50970279       0.00000097
Br      -0.00000028       2.88948253       8.88080538      -0.00000000      -0.50970279      -0.00000097
Br       5.92054530       3.03106657       8.88080539       0.00000000       0.50970279       0.00000097
Br      -0.00000035       8.95161536       8.88080568       0.00000000       0.50970279       0.00000097
Br       5.92054523       8.81003119       8.88080515      -0.00000000      -0.50970279      -0.00000097
Br       3.03106472       0.00000195       2.96026923       0.50970229      -0.00000002       0.00000660
Br       8.81002633       0.00000190       2.96026714      -0.50970229       0.00000002      -0.00000660
Br       2.88948069       5.92055068       2.96026742      -0.50970229       0.00000002      -0.00000660
Br       8.95161024       5.92055061       2.96026900       0.50970229      -0.00000002       0.00000660
Br       2.88948050       0.00000198       8.88080427      -0.50970229       0.00000002      -0.00000660
Br       8.95161005       0.00000192       8.88080585       0.50970229      -0.00000002       0.00000660
Br       3.03106441       5.92055070       8.88080613       0.50970229      -0.00000002       0.00000660
Br       8.81002602       5.92055065       8.88080405      -0.50970229       0.00000002      -0.00000660
Br       2.96027226       2.96027341       5.92053672      -0.00000105      -0.00000688      -0.00000000
Br       8.88081813       2.96027526       5.92053647       0.00000105       0.00000688       0.00000000
Br       2.96027249       8.88082405       5.92053675       0.00000105       0.00000688       0.00000000
Br       8.88081778       8.88082207       5.92053650      -0.00000105      -0.00000688      -0.00000000
Br       2.96027229       2.96027535      11.84107360       0.00000105       0.00000688       0.00000000
Br       8.88081758       2.96027338      11.84107335      -0.00000105      -0.00000688      -0.00000000
Br       2.96027194       8.88082216      11.84107363      -0.00000105      -0.00000688      -0.00000000
Br       8.88081781       8.88082401      11.84107337       0.00000105       0.00000688       0.00000000
40
Lattice="11.84109115895902 -1.229677522942451e-07 -5.068285755963959e-07 -1.2296782341790177e-07 11.84109744771912 5.458565046294197e-08 -5.068284921833321e-07 5.4585880806670045e-08 11.84107375221169" Properties=species:S:1:pos:R:3:mode_u:R:3 system=cssnbr3_cubic path_model=chgnet pattern_model=chgnet mlip_model=chgnet role=mode stem=cssnbr3_cubic_chgnet_q1d2-1d2-1d2-b3 q="0.5 0.5 0.5" band=3 dim="2 2 2" m_eff=1395.3843180593367 check_pass=False Q=0.19999999999999998 index=6 mlip_energy_eV=-139.30886840820312 pbc="T T T"
Cs       0.00000267       5.92054889       0.20000014       0.00001322       0.00000197       1.00000000
Cs       5.92054296       5.92054804      -0.20000011      -0.00001322      -0.00000197      -1.00000000
Cs      -0.00000268      11.84109683      -0.19999983      -0.00001322      -0.00000197      -1.00000000
Cs       5.92054818      11.84109755       0.19999992       0.00001322       0.00000197       1.00000000
Cs      -0.00000287       5.92054813       5.72053702      -0.00001322      -0.00000197      -1.00000000
Cs       5.92054799       5.92054886       6.12053677       0.00001322       0.00000197       1.00000000
Cs       0.00000235      11.84109764       6.12053705       0.00001322       0.00000197       1.00000000
Cs       5.92054264      11.84109679       5.72053679      -0.00001322      -0.00000197      -1.00000000
Sn       2.96027244       2.96027241       2.96026807       0.00000001      -0.00000001       0.00000000
Sn       8.88081801       2.96027235       2.96026781      -0.00000001       0.00000001      -0.00000000
Sn       2.96027237       8.88082114       2.96026809      -0.00000001       0.00000001      -0.00000000
Sn       8.88081795       8.88082107       2.96026784       0.00000001      -0.00000001       0.00000000
Sn       2.96027218       2.96027244       8.88080494      -0.00000001       0.00000001      -0.00000000
Sn       8.88081776       2.96027237       8.88080469       0.00000001      -0.00000001       0.00000000
Sn       2.96027212       8.88082116       8.88080497       0.00000001      -0.00000001       0.00000000
Sn       8.88081770       8.88082110       8.88080472      -0.00000001       0.00000001      -0.00000000
Br      -0.00000003       3.06221511       2.96026883       0.00000000       0.50970279       0.00000097
Br       5.92054555       2.85833393       2.96026819      -0.00000000      -0.50970279      -0.00000097
Br      -0.00000009       8.77888272       2.96026847      -0.00000000      -0.50970279      -0.00000097
Br       5.92054549       8.98276377       2.96026861       0.00000000       0.50970279       0.00000097
Br      -0.00000029       2.85833402       8.88080532      -0.00000000      -0.50970279      -0.00000097
Br       5.92054530       3.06221508       8.88080545       0.00000000       0.50970279       0.00000097
Br      -0.00000034       8.98276386       8.88080573       0.00000000       0.50970279       0.00000097
Br       5.92054523       8.77888269       8.88080509      -0.00000000      -0.50970279      -0.00000097
Br       3.06221320       0.00000195       2.96026963       0.50970229      -0.00000002       0.00000660
Br       8.77887786       0.00000190       2.96026674      -0.50970229       0.00000002      -0.00000660
Br       2.85833222       5.92055068       2.96026702      -0.50970229       0.00000002      -0.00000660
Br       8.98275872       5.92055061       2.96026941       0.50970229      -0.00000002       0.00000660
Br       2.85833203       0.00000199       8.88080387      -0.50970229       0.00000002      -0.00000660
Br       8.98275852       0.00000192       8.88080626       0.50970229      -0.00000002       0.00000660
Br       3.06221288       5.92055070       8.88080654       0.50970229      -0.00000002       0.00000660
Br       8.77887755       5.92055065       8.88080364      -0.50970229       0.00000002      -0.00000660
Br       2.96027219       2.96027299       5.92053672      -0.00000105      -0.00000688      -0.00000000
Br       8.88081819       2.96027568       5.92053647       0.00000105       0.00000688       0.00000000
Br       2.96027255       8.88082447       5.92053675       0.00000105       0.00000688       0.00000000
Br       8.88081771       8.88082165       5.92053650      -0.00000105      -0.00000688      -0.00000000
Br       2.96027236       2.96027577      11.84107360       0.00000105       0.00000688       0.00000000
Br       8.88081752       2.96027296      11.84107334      -0.00000105      -0.00000688      -0.00000000
Br       2.96027188       8.88082174      11.84107363      -0.00000105      -0.00000688      -0.00000000
Br       8.88081788       8.88082443      11.84107337       0.00000105       0.00000688       0.00000000
40
Lattice="11.84109115895902 -1.229677522942451e-07 -5.068285755963959e-07 -1.2296782341790177e-07 11.84109744771912 5.458565046294197e-08 -5.068284921833321e-07 5.4585880806670045e-08 11.84107375221169" Properties=species:S:1:pos:R:3:mode_u:R:3 system=cssnbr3_cubic path_model=chgnet pattern_model=chgnet mlip_model=chgnet role=mode stem=cssnbr3_cubic_chgnet_q1d2-1d2-1d2-b3 q="0.5 0.5 0.5" band=3 dim="2 2 2" m_eff=1395.3843180593367 check_pass=False Q=0.27222222222222214 index=7 mlip_energy_eV=-139.32020568847656 pbc="T T T"
Cs       0.00000362       5.92054903       0.27222237       0.00001322       0.00000197       1.00000000
Cs       5.92054200       5.92054790      -0.27222233      -0.00001322      -0.00000197      -1.00000000
Cs      -0.00000364      11.84109668      -0.27222205      -0.00001322      -0.00000197      -1.00000000
Cs       5.92054914      11.84109770       0.27222214       0.00001322       0.00000197       1.00000000
Cs      -0.00000383       5.92054799       5.64831480      -0.00001322      -0.00000197      -1.00000000
Cs       5.92054895       5.92054900       6.19275899       0.00001322       0.00000197       1.00000000
Cs       0.00000331      11.84109778       6.19275927       0.00001322       0.00000197       1.00000000
Cs       5.92054169      11.84109665       5.64831457      -0.00001322      -0.00000197      -1.00000000
Sn       2.96027244       2.96027241       2.96026807       0.00000001      -0.00000001       0.00000000
Sn       8.88081801       2.96027235       2.96026781      -0.00000001       0.00000001      -0.00000000
Sn       2.96027237       8.88082114       2.96026809      -0.00000001       0.00000001      -0.00000000
Sn       8.88081795       8.88082107       2.96026784       0.00000001      -0.00000001       0.00000000
Sn       2.96027218       2.96027244       8.88080494      -0.00000001       0.00000001      -0.00000000
Sn       8.88081776       2.96027237       8.88080469       0.00000001      -0.00000001       0.00000000
Sn       2.96027212       8.88082116       8.88080497       0.00000001      -0.00000001       0.00000000
Sn       8.88081770       8.88082110       8.88080472      -0.00000001       0.00000001      -0.00000000
Br      -0.00000003       3.09902698       2.96026890       0.00000000       0.50970279       0.00000097
Br       5.92054555       2.82152207       2.96026812      -0.00000000      -0.50970279      -0.00000097
Br      -0.00000009       8.74207085       2.96026840      -0.00000000      -0.50970279      -0.00000097
Br       5.92054549       9.01957564       2.96026868       0.00000000       0.50970279       0.00000097
Br      -0.00000029       2.82152216       8.88080525      -0.00000000      -0.50970279      -0.00000097
Br       5.92054530       3.09902695       8.88080552       0.00000000       0.50970279       0.00000097
Br      -0.00000034       9.01957573       8.88080580       0.00000000       0.50970279       0.00000097
Br       5.92054523       8.74207082       8.88080502      -0.00000000      -0.50970279      -0.00000097
Br       3.09902503       0.00000195       2.96027011       0.50970229      -0.00000002       0.00000660
Br       8.74206603       0.00000190       2.96026626      -0.50970229       0.00000002      -0.00000660
Br       2.82152039       5.92055068       2.96026654      -0.50970229       0.00000002      -0.00000660
Br       9.01957055       5.92055061       2.96026988       0.50970229      -0.00000002       0.00000660
Br       2.82152020       0.00000199       8.88080339      -0.50970229       0.00000002      -0.00000660
Br       9.01957036       0.00000192       8.88080673       0.50970229      -0.00000002       0.00000660
Br       3.09902472       5.92055070       8.88080701       0.50970229      -0.00000002       0.00000660
Br       8.74206571       5.92055065       8.88080317      -0.50970229       0.00000002      -0.00000660
Br       2.96027212       2.96027249       5.92053672      -0.00000105      -0.00000688      -0.00000000
Br       8.88081827       2.96027618       5.92053647       0.00000105       0.00000688       0.00000000
Br       2.96027263       8.88082496       5.92053675       0.00000105       0.00000688       0.00000000
Br       8.88081764       8.88082115       5.92053650      -0.00000105      -0.00000688      -0.00000000
Br       2.96027243       2.96027627      11.84107360       0.00000105       0.00000688       0.00000000
Br       8.88081744       2.96027246      11.84107334      -0.00000105      -0.00000688      -0.00000000
Br       2.96027180       8.88082124      11.84107363      -0.00000105      -0.00000688      -0.00000000
Br       8.88081795       8.88082493      11.84107337       0.00000105       0.00000688       0.00000000
40
Lattice="11.84109115895902 -1.229677522942451e-07 -5.068285755963959e-07 -1.2296782341790177e-07 11.84109744771912 5.458565046294197e-08 -5.068284921833321e-07 5.4585880806670045e-08 11.84107375221169" Properties=species:S:1:pos:R:3:mode_u:R:3 system=cssnbr3_cubic path_model=chgnet pattern_model=chgnet mlip_model=chgnet role=mode stem=cssnbr3_cubic_chgnet_q1d2-1d2-1d2-b3 q="0.5 0.5 0.5" band=3 dim="2 2 2" m_eff=1395.3843180593367 check_pass=False Q=0.35555555555555557 index=8 mlip_energy_eV=-139.30239868164062 pbc="T T T"
Cs       0.00000472       5.92054920       0.35555570       0.00001322       0.00000197       1.00000000
Cs       5.92054090       5.92054773      -0.35555566      -0.00001322      -0.00000197      -1.00000000
Cs      -0.00000474      11.84109652      -0.35555538      -0.00001322      -0.00000197      -1.00000000
Cs       5.92055024      11.84109786       0.35555547       0.00001322       0.00000197       1.00000000
Cs      -0.00000493       5.92054782       5.56498147      -0.00001322      -0.00000197      -1.00000000
Cs       5.92055005       5.92054916       6.27609232       0.00001322       0.00000197       1.00000000
Cs       0.00000441      11.84109795       6.27609260       0.00001322       0.00000197       1.00000000
Cs       5.92054059      11.84109648       5.56498124      -0.00001322      -0.00000197      -1.00000000
Sn       2.96027244       2.96027241       2.96026807       0.00000001      -0.00000001       0.00000000
Sn       8.88081801       2.96027235       2.96026781      -0.00000001       0.00000001      -0.00000000
Sn       2.96027237       8.88082114       2.96026809      -0.00000001       0.00000001      -0.00000000
Sn       8.88081796       8.88082107       2.96026784       0.00000001      -0.00000001       0.00000000
Sn       2.96027218       2.96027244       8.88080494      -0.00000001       0.00000001      -0.00000000
Sn       8.88081776       2.96027237       8.88080469       0.00000001      -0.00000001       0.00000000
Sn       2.96027212       8.88082116       8.88080497       0.00000001      -0.00000001       0.00000000
Sn       8.88081769       8.88082110       8.88080472      -0.00000001       0.00000001      -0.00000000
Br      -0.00000003       3.14150221       2.96026898       0.00000000       0.50970279       0.00000097
Br       5.92054555       2.77904683       2.96026804      -0.00000000      -0.50970279      -0.00000097
Br      -0.00000009       8.69959562       2.96026832      -0.00000000      -0.50970279      -0.00000097
Br       5.92054549       9.06205087       2.96026876       0.00000000       0.50970279       0.00000097
Br      -0.00000029       2.77904692       8.88080517      -0.00000000      -0.50970279      -0.00000097
Br       5.92054530       3.14150218       8.88080561       0.00000000       0.50970279       0.00000097
Br      -0.00000034       9.06205096       8.88080589       0.00000000       0.50970279       0.00000097
Br       5.92054523       8.69959559       8.88080494      -0.00000000      -0.50970279      -0.00000097
Br       3.14150022       0.00000195       2.96027066       0.50970229      -0.00000002       0.00000660
Br       8.69959084       0.00000190       2.96026571      -0.50970229       0.00000002      -0.00000660
Br       2.77904520       5.92055068       2.96026599      -0.50970229       0.00000002      -0.00000660
Br       9.06204574       5.92055061       2.96027043       0.50970229      -0.00000002       0.00000660
Br       2.77904500       0.00000199       8.88080284      -0.50970229       0.00000002      -0.00000660
Br       9.06204555       0.00000191       8.88080728       0.50970229      -0.00000002       0.00000660
Br       3.14149991       5.92055070       8.88080756       0.50970229      -0.00000002       0.00000660
Br       8.69959052       5.92055065       8.88080261      -0.50970229       0.00000002      -0.00000660
Br       2.96027203       2.96027192       5.92053672      -0.00000105      -0.00000688      -0.00000000
Br       8.88081835       2.96027675       5.92053647       0.00000105       0.00000688       0.00000000
Br       2.96027271       8.88082554       5.92053675       0.00000105       0.00000688       0.00000000
Br       8.88081755       8.88082058       5.92053650      -0.00000105      -0.00000688      -0.00000000
Br       2.96027252       2.96027684      11.84107360       0.00000105       0.00000688       0.00000000
Br       8.88081736       2.96027188      11.84107334      -0.00000105      -0.00000688      -0.00000000
Br       2.96027172       8.88082067      11.84107362      -0.00000105      -0.00000688      -0.00000000
Br       8.88081804       8.88082550      11.84107337       0.00000105       0.00000688       0.00000000
40
Lattice="11.84109115895902 -1.229677522942451e-07 -5.068285755963959e-07 -1.2296782341790177e-07 11.84109744771912 5.458565046294197e-08 -5.068284921833321e-07 5.4585880806670045e-08 11.84107375221169" Properties=species:S:1:pos:R:3:mode_u:R:3 system=cssnbr3_cubic path_model=chgnet pattern_model=chgnet mlip_model=chgnet role=mode stem=cssnbr3_cubic_chgnet_q1d2-1d2-1d2-b3 q="0.5 0.5 0.5" band=3 dim="2 2 2" m_eff=1395.3843180593367 check_pass=False Q=0.45 index=9 mlip_energy_eV=-139.20220947265625 pbc="T T T"
Cs       0.00000597       5.92054938       0.45000014       0.00001322       0.00000197       1.00000000
Cs       5.92053965       5.92054755      -0.45000011      -0.00001322      -0.00000197      -1.00000000
Cs      -0.00000599      11.84109633      -0.44999983      -0.00001322      -0.00000197      -1.00000000
Cs       5.92055149      11.84109805       0.44999992       0.00001322       0.00000197       1.00000000
Cs      -0.00000618       5.92054764       5.47053702      -0.00001322      -0.00000197      -1.00000000
Cs       5.92055130       5.92054935       6.37053677       0.00001322       0.00000197       1.00000000
Cs       0.00000565      11.84109813       6.37053705       0.00001322       0.00000197       1.00000000
Cs       5.92053934      11.84109630       5.47053679      -0.00001322      -0.00000197      -1.00000000
Sn       2.96027244       2.96027241       2.96026807       0.00000001      -0.00000001       0.00000000
Sn       8.88081801       2.96027235       2.96026781      -0.00000001       0.00000001      -0.00000000
Sn       2.96027237       8.88082114       2.96026809      -0.00000001       0.00000001      -0.00000000
Sn       8.88081796       8.88082107       2.96026784       0.00000001      -0.00000001       0.00000000
Sn       2.96027218       2.96027244       8.88080494      -0.00000001       0.00000001      -0.00000000
Sn       8.88081776       2.96027237       8.88080469       0.00000001      -0.00000001       0.00000000
Sn       2.96027212       8.88082116       8.88080497       0.00000001      -0.00000001       0.00000000
Sn       8.88081769       8.88082110       8.88080472      -0.00000001       0.00000001      -0.00000000
Br      -0.00000003       3.18964081       2.96026907       0.00000000       0.50970279       0.00000097
Br       5.92054555       2.73090824       2.96026795      -0.00000000      -0.50970279      -0.00000097
Br      -0.00000009       8.65145702       2.96026823      -0.00000000      -0.50970279      -0.00000097
Br       5.92054549       9.11018947       2.96026885       0.00000000       0.50970279       0.00000097
Br      -0.00000029       2.73090833       8.88080508      -0.00000000      -0.50970279      -0.00000097
Br       5.92054530       3.18964077       8.88080570       0.00000000       0.50970279       0.00000097
Br      -0.00000034       9.11018956       8.88080598       0.00000000       0.50970279       0.00000097
Br       5.92054523       8.65145699       8.88080485      -0.00000000      -0.50970279      -0.00000097
Br       3.18963877       0.00000195       2.96027128       0.50970229      -0.00000002       0.00000660
Br       8.65145229       0.00000190       2.96026509      -0.50970229       0.00000002      -0.00000660
Br       2.73090665       5.92055069       2.96026537      -0.50970229       0.00000002      -0.00000660
Br       9.11018429       5.92055061       2.96027106       0.50970229      -0.00000002       0.00000660
Br       2.73090646       0.00000199       8.88080222      -0.50970229       0.00000002      -0.00000660
Br       9.11018410       0.00000191       8.88080791       0.50970229      -0.00000002       0.00000660
Br       3.18963846       5.92055070       8.88080819       0.50970229      -0.00000002       0.00000660
Br       8.65145197       5.92055065       8.88080199      -0.50970229       0.00000002      -0.00000660
Br       2.96027193       2.96027127       5.92053672      -0.00000105      -0.00000688      -0.00000000
Br       8.88081845       2.96027740       5.92053647       0.00000105       0.00000688       0.00000000
Br       2.96027281       8.88082619       5.92053675       0.00000105       0.00000688       0.00000000
Br       8.88081745       8.88081993       5.92053650      -0.00000105      -0.00000688      -0.00000000
Br       2.96027262       2.96027749      11.84107360       0.00000105       0.00000688       0.00000000
Br       8.88081726       2.96027123      11.84107334      -0.00000105      -0.00000688      -0.00000000
Br       2.96027162       8.88082002      11.84107362      -0.00000105      -0.00000688      -0.00000000
Br       8.88081814       8.88082615      11.84107337       0.00000105       0.00000688       0.00000000
