10
Lattice="-2.260745310067591e-06 -4.057960650099206 -6.978708544345668e-06 -4.058111759106734 -2.2607406631180993e-06 -8.238752842531098e-06 -1.6477859846375512e-05 -1.3957556465271637e-05 -8.118091375832947" Properties=species:S:1:pos:R:3:mode_u:R:3 system=knbo3_cubic path_model=orb_v2 pattern_model=orb_v2 mlip_model=orb_v2 role=mode stem=knbo3_cubic_orb_v2_q0-0-1d2-b0 q="0.0 0.0 0.5" band=0 dim="1 1 2" m_eff=235.81988295221828 check_pass=False Q=0.0 index=0 mlip_energy_eV=-76.42578125 pbc="T T T"
K       -0.00001152      -4.05793849      -0.00001235       0.00067767       0.00051791      -0.00017608
K       -0.00001976      -4.05794547      -4.05905804      -0.00067761      -0.00051794       0.00017607
Nb      -2.02907110      -2.02899479      -2.02954086       0.52104965      -1.00000000      -0.00566177
Nb      -2.02907934      -2.02900177      -6.08858655      -0.51998492       0.99810780       0.00565071
O       -4.05810404      -2.02898285      -2.02953834      -0.00869145       0.00217846      -0.00334164
O       -4.05811228      -2.02898983      -6.08858402       0.00869516      -0.00217887       0.00334287
O       -2.02905377      -0.00001385      -2.02949338      -0.00304916       0.01291818       0.00000602
O       -2.02906201      -0.00002083      -6.08853907       0.00304966      -0.01292369      -0.00000514
O       -2.02905698      -2.02898776      -0.00002165      -0.00006437      -0.00031651      -0.00013811
O       -2.02906522      -2.02899474      -4.05906734       0.00006431       0.00031718       0.00013843
10
Lattice="-2.260745310067591e-06 -4.057960650099206 -6.978708544345668e-06 -4.058111759106734 -2.2607406631180993e-06 -8.238752842531098e-06 -1.6477859846375512e-05 -1.3957556465271637e-05 -8.118091375832947" Properties=species:S:1:pos:R:3:mode_u:R:3 system=knbo3_cubic path_model=orb_v2 pattern_model=orb_v2 mlip_model=orb_v2 role=mode stem=knbo3_cubic_orb_v2_q0-0-1d2-b0 q="0.0 0.0 0.5" band=0 dim="1 1 2" m_eff=235.81988295221828 check_pass=False Q=0.005555555555555556 index=1 mlip_energy_eV=-76.42577743530273 pbc="T T T"
K       -0.00000776      -4.05793562      -0.00001333       0.00067767       0.00051791      -0.00017608
K       -0.00002353      -4.05794835      -4.05905706      -0.00067761      -0.00051794       0.00017607
Nb      -2.02617638      -2.03455035      -2.02957231       0.52104965      -1.00000000      -0.00566177
Nb      -2.03196815      -2.02345673      -6.08855515      -0.51998492       0.99810780       0.00565071
O       -4.05815232      -2.02897075      -2.02955690      -0.00869145       0.00217846      -0.00334164
O       -4.05806397      -2.02900194      -6.08856545       0.00869516      -0.00217887       0.00334287
O       -2.02907071       0.00005792      -2.02949334      -0.00304916       0.01291818       0.00000602
O       -2.02904506      -0.00009262      -6.08853909       0.00304966      -0.01292369      -0.00000514
O       -2.02905734      -2.02898952      -0.00002242      -0.00006437      -0.00031651      -0.00013811
O       -2.02906486      -2.02899298      -4.05906657       0.00006431       0.00031718       0.00013843
10
Lattice="-2.260745310067591e-06 -4.057960650099206 -6.978708544345668e-06 -4.058111759106734 -2.2607406631180993e-06 -8.238752842531098e-06 -1.6477859846375512e-05 -1.3957556465271637e-05 -8.118091375832947" Properties=species:S:1:pos:R:3:mode_u:R:3 system=knbo3_cubic path_model=orb_v2 pattern_model=orb_v2 mlip_model=orb_v2 role=mode stem=knbo3_cubic_orb_v2_q0-0-1d2-b0 q="0.0 0.0 0.5" band=0 dim="1 1 2" m_eff=235.81988295221828 check_pass=False Q=0.022222222222222223 index=2 mlip_energy_eV=-76.43046379089355 pbc="T T T"
K        0.00000354      -4.05792698      -0.00001626       0.00067767       0.00051791      -0.00017608
K       -0.00003482      -4.05795698      -4.05905413      -0.00067761      -0.00051794       0.00017607
Nb      -2.01749222      -2.05121701      -2.02966668       0.52104965      -1.00000000      -0.00566177
Nb      -2.04063456      -2.00682160      -6.08846097      -0.51998492       0.99810780       0.00565071
O       -4.05829718      -2.02893444      -2.02961259      -0.00869145       0.00217846      -0.00334164
O       -4.05791905      -2.02903825      -6.08850974       0.00869516      -0.00217887       0.00334287
O       -2.02912153       0.00027322      -2.02949324      -0.00304916       0.01291818       0.00000602
O       -2.02899424      -0.00030802      -6.08853918       0.00304966      -0.01292369      -0.00000514
O       -2.02905841      -2.02899479      -0.00002472      -0.00006437      -0.00031651      -0.00013811
O       -2.02906379      -2.02898769      -4.05906427       0.00006431       0.00031718       0.00013843
10
Lattice="-2.260745310067591e-06 -4.057960650099206 -6.978708544345668e-06 -4.058111759106734 -2.2607406631180993e-06 -8.238752842531098e-06 -1.6477859846375512e-05 -1.3957556465271637e-05 -8.118091375832947" Properties=species:S:1:pos:R:3:mode_u:R:3 system=knbo3_cubic path_model=orb_v2 pattern_model=orb_v2 mlip_model=orb_v2 role=mode stem=knbo3_cubic_orb_v2_q0-0-1d2-b0 q="0.0 0.0 0.5" band=0 dim="1 1 2" m_eff=235.81988295221828 check_pass=False Q=0.049999999999999996 index=3 mlip_energy_eV=-76.44201850891113 pbc="T T T"
K        0.00002236      -4.05791260      -0.00002116       0.00067767       0.00051791      -0.00017608
K       -0.00005364      -4.05797137      -4.05904924      -0.00067761      -0.00051794       0.00017607
Nb      -2.00301862      -2.07899479      -2.02982395       0.52104965      -1.00000000      -0.00566177
Nb      -2.05507859      -1.97909638      -6.08830401      -0.51998492       0.99810780       0.00565071
O       -4.05853861      -2.02887393      -2.02970542      -0.00869145       0.00217846      -0.00334164
O       -4.05767752      -2.02909877      -6.08841688       0.00869516      -0.00217887       0.00334287
O       -2.02920623       0.00063206      -2.02949308      -0.00304916       0.01291818       0.00000602
O       -2.02890952      -0.00066701      -6.08853932       0.00304966      -0.01292369      -0.00000514
O       -2.02906020      -2.02900358      -0.00002856      -0.00006437      -0.00031651      -0.00013811
O       -2.02906200      -2.02897888      -4.05906042       0.00006431       0.00031718       0.00013843
10
Lattice="-2.260745310067591e-06 -4.057960650099206 -6.978708544345668e-06 -4.058111759106734 -2.2607406631180993e-06 -8.238752842531098e-06 -1.6477859846375512e-05 -1.3957556465271637e-05 -8.118091375832947" Properties=species:S:1:pos:R:3:mode_u:R:3 system=knbo3_cubic path_model=orb_v2 pattern_model=orb_v2 mlip_model=orb_v2 role=mode stem=knbo3_cubic_orb_v2_q0-0-1d2-b0 q="0.0 0.0 0.5" band=0 dim="1 1 2" m_eff=235.81988295221828 check_pass=False Q=0.08888888888888889 index=4 mlip_energy_eV=-76.45401000976562 pbc="T T T"
K        0.00004872      -4.05789246      -0.00002800       0.00067767       0.00051791      -0.00017608
K       -0.00007999      -4.05799151      -4.05904239      -0.00067761      -0.00051794       0.00017607
Nb      -1.98275558      -2.11788368      -2.03004413       0.52104965      -1.00000000      -0.00566177
Nb      -2.07530022      -1.94028108      -6.08808426      -0.51998492       0.99810780       0.00565071
O       -4.05887661      -2.02878921      -2.02983537      -0.00869145       0.00217846      -0.00334164
O       -4.05733937      -2.02918351      -6.08828688       0.00869516      -0.00217887       0.00334287
O       -2.02932480       0.00113444      -2.02949284      -0.00304916       0.01291818       0.00000602
O       -2.02879093      -0.00116960      -6.08853952       0.00304966      -0.01292369      -0.00000514
O       -2.02906270      -2.02901589      -0.00003393      -0.00006437      -0.00031651      -0.00013811
O       -2.02905950      -2.02896654      -4.05905504       0.00006431       0.00031718       0.00013843
10
Lattice="-2.260745310067591e-06 -4.057960650099206 -6.978708544345668e-06 -4.058111759106734 -2.2607406631180993e-06 -8.238752842531098e-06 -1.6477859846375512e-05 -1.3957556465271637e-05 -8.118091375832947" Properties=species:S:1:pos:R:3:mode_u:R:3 system=knbo3_cubic path_model=orb_v2 pattern_model=orb_v2 mlip_model=orb_v2 role=mode stem=knbo3_cubic_orb_v2_q0-0-1d2-b0 q="0.0 0.0 0.5" band=0 dim="1 1 2" m_eff=235.81988295221828 check_pass=False Q=0.13888888888888892 index=5 mlip_energy_eV=-76.44320487976074 pbc="T T T"
K        0.00008260      -4.05786656      -0.00003681       0.00067767       0.00051791      -0.00017608
K       -0.00011387      -4.05801741      -4.05903359      -0.00067761      -0.00051794       0.00017607
Nb      -1.95670309      -2.16788368      -2.03032722       0.52104965      -1.00000000      -0.00566177
Nb      -2.10129947      -1.89037569      -6.08780173      -0.51998492       0.99810780       0.00565071
O       -4.05931118      -2.02868029      -2.03000245      -0.00869145       0.00217846      -0.00334164
O       -4.05690461      -2.02929245      -6.08811974       0.00869516      -0.00217887       0.00334287
O       -2.02947726       0.00178034      -2.02949254      -0.00304916       0.01291818       0.00000602
O       -2.02863844      -0.00181578      -6.08853978       0.00304966      -0.01292369      -0.00000514
O       -2.02906592      -2.02903172      -0.00004084      -0.00006437      -0.00031651      -0.00013811
O       -2.02905629      -2.02895069      -4.05904812       0.00006431       0.00031718       0.00013843
10
Lattice="-2.260745310067591e-06 -4.057960650099206 -6.978708544345668e-06 -4.058111759106734 -2.2607406631180993e-06 -8.238752842531098e-06 -1.6477859846375512e-05 -1.3957556465271637e-05 -8.118091375832947" Properties=species:S:1:pos:R:3:mode_u:R:3 system=knbo3_cubic path_model=orb_v2 pattern_model=orb_v2 mlip_model=orb_v2 role=mode stem=knbo3_cubic_orb_v2_q0-0-1d2-b0 q="0.0 0.0 0.5" band=0 dim="1 1 2" m_eff=235.81988295221828 check_pass=False Q=0.19999999999999998 index=6 mlip_energy_eV=-76.33541679382324 pbc="T T T"
K        0.00012401      -4.05783491      -0.00004757       0.00067767       0.00051791      -0.00017608
K       -0.00015528      -4.05804906      -4.05902283      -0.00067761      -0.00051794       0.00017607
Nb      -1.92486117      -2.22899479      -2.03067321       0.52104965      -1.00000000      -0.00566177
Nb      -2.13307632      -1.82938021      -6.08745640      -0.51998492       0.99810780       0.00565071
O       -4.05984233      -2.02854716      -2.03020666      -0.00869145       0.00217846      -0.00334164
O       -4.05637324      -2.02942560      -6.08791545       0.00869516      -0.00217887       0.00334287
O       -2.02966360       0.00256979      -2.02949217      -0.00304916       0.01291818       0.00000602
O       -2.02845208      -0.00260556      -6.08854009       0.00304966      -0.01292369      -0.00000514
O       -2.02906985      -2.02905106      -0.00004928      -0.00006437      -0.00031651      -0.00013811
O       -2.02905236      -2.02893130      -4.05903966       0.00006431       0.00031718       0.00013843
10
Lattice="-2.260745310067591e-06 -4.057960650099206 -6.978708544345668e-06 -4.058111759106734 -2.2607406631180993e-06 -8.238752842531098e-06 -1.6477859846375512e-05 -1.3957556465271637e-05 -8.118091375832947" Properties=species:S:1:pos:R:3:mode_u:R:3 system=knbo3_cubic path_model=orb_v2 pattern_model=orb_v2 mlip_model=orb_v2 role=mode stem=knbo3_cubic_orb_v2_q0-0-1d2-b0 q="0.0 0.0 0.5" band=0 dim="1 1 2" m_eff=235.81988295221828 check_pass=False Q=0.27222222222222214 index=7 mlip_energy_eV=-75.94912528991699 pbc="T T T"
K        0.00017296      -4.05779751      -0.00006028       0.00067767       0.00051791      -0.00017608
K       -0.00020422      -4.05808647      -4.05901011      -0.00067761      -0.00051794       0.00017607
Nb      -1.88722981      -2.30121701      -2.03108212       0.52104965      -1.00000000      -0.00566177
Nb      -2.17063079      -1.75729465      -6.08704830      -0.51998492       0.99810780       0.00565071
O       -4.06047004      -2.02838983      -2.03044800      -0.00869145       0.00217846      -0.00334164
O       -4.05574526      -2.02958297      -6.08767402       0.00869516      -0.00217887       0.00334287
O       -2.02988382       0.00350277      -2.02949174      -0.00304916       0.01291818       0.00000602
O       -2.02823182      -0.00353894      -6.08854047       0.00304966      -0.01292369      -0.00000514
O       -2.02907450      -2.02907392      -0.00005925      -0.00006437      -0.00031651      -0.00013811
O       -2.02904771      -2.02890839      -4.05902966       0.00006431       0.00031718       0.00013843
10
Lattice="-2.260745310067591e-06 -4.057960650099206 -6.978708544345668e-06 -4.058111759106734 -2.2607406631180993e-06 -8.238752842531098e-06 -1.6477859846375512e-05 -1.3957556465271637e-05 -8.118091375832947" Properties=species:S:1:pos:R:3:mode_u:R:3 system=knbo3_cubic path_model=orb_v2 pattern_model=orb_v2 mlip_model=orb_v2 role=mode stem=knbo3_cubic_orb_v2_q0-0-1d2-b0 q="0.0 0.0 0.5" band=0 dim="1 1 2" m_eff=235.81988295221828 check_pass=False Q=0.35555555555555557 index=8 mlip_energy_eV=-74.83615493774414 pbc="T T T"
K        0.00022943      -4.05775435      -0.00007496       0.00067767       0.00051791      -0.00017608
K       -0.00026069      -4.05812963      -4.05899544      -0.00067761      -0.00051794       0.00017607
Nb      -1.84380900      -2.38455035      -2.03155393       0.52104965      -1.00000000      -0.00566177
Nb      -2.21396287      -1.67411900      -6.08657741      -0.51998492       0.99810780       0.00565071
O       -4.06119433      -2.02820829      -2.03072648      -0.00869145       0.00217846      -0.00334164
O       -4.05502066      -2.02976454      -6.08739545       0.00869516      -0.00217887       0.00334287
O       -2.03013791       0.00457928      -2.02949124      -0.00304916       0.01291818       0.00000602
O       -2.02797768      -0.00461591      -6.08854089       0.00304966      -0.01292369      -0.00000514
O       -2.02907986      -2.02910030      -0.00007076      -0.00006437      -0.00031651      -0.00013811
O       -2.02904235      -2.02888196      -4.05901812       0.00006431       0.00031718       0.00013843
10
Lattice="-2.260745310067591e-06 -4.057960650099206 -6.978708544345668e-06 -4.058111759106734 -2.2607406631180993e-06 -8.238752842531098e-06 -1.6477859846375512e-05 -1.3957556465271637e-05 -8.118091375832947" Properties=species:S:1:pos:R:3:mode_u:R:3 system=knbo3_cubic path_model=orb_v2 pattern_model=orb_v2 mlip_model=orb_v2 role=mode stem=knbo3_cubic_orb_v2_q0-0-1d2-b0 q="0.0 0.0 0.5" band=0 dim="1 1 2" m_eff=235.81988295221828 check_pass=False Q=0.45 index=9 mlip_energy_eV=-72.25105047225952 pbc="T T T"
K        0.00029343      -4.05770543      -0.00009159       0.00067767       0.00051791      -0.00017608
K       -0.00032469      -4.05817854      -4.05897881      -0.00067761      -0.00051794       0.00017607
Nb      -1.79459876      -2.47899479      -2.03208865       0.52104965      -1.00000000      -0.00566177
Nb      -2.26307255      -1.57985326      -6.08604373      -0.51998492       0.99810780       0.00565071
O       -4.06201519      -2.02800255      -2.03104207      -0.00869145       0.00217846      -0.00334164
O       -4.05419945      -2.02997032      -6.08707973       0.00869516      -0.00217887       0.00334287
O       -2.03042589       0.00579933      -2.02949067      -0.00304916       0.01291818       0.00000602
O       -2.02768966      -0.00583648      -6.08854138       0.00304966      -0.01292369      -0.00000514
O       -2.02908594      -2.02913019      -0.00008380      -0.00006437      -0.00031651      -0.00013811
O       -2.02903628      -2.02885201      -4.05900505       0.00006431       0.00031718       0.00013843
