5
Lattice="4.057435042413947 8.702003871903476e-09 -1.5690108422462895e-07 8.702009209782852e-09 4.057435293396912 -5.78147970715904e-08 -1.569010867530831e-07 -5.781479528924158e-08 4.0574351894382925" Properties=species:S:1:pos:R:3:mode_u:R:3 system=knbo3_cubic path_model=chgnet pattern_model=chgnet mlip_model=chgnet role=decide stem=knbo3_cubic_chgnet_q0-0-0-b0 q="0.0 0.0 0.0" band=0 dim="1 1 1" m_eff=144.99082158928317 check_pass=True Q=0.0 index=0 mlip_energy_eV=-40.22401428222656 pbc="T T T"
K        0.00000019       0.00000013       4.05743494      -0.01651604       0.06165474       0.06161056
Nb       2.02871834       2.02871819       2.02871710      -0.13097644       0.48893695       0.48858582
O        4.05743484       2.02871695       2.02871721       0.26516372      -0.99999981      -0.99928154
O        2.02871712       4.05743492       2.02871796       0.26788007      -0.98985965      -0.99928134
O        2.02871675       2.02871791       0.00000022       0.26788013      -1.00000000      -0.98914851
5
Lattice="4.057435042413947 8.702003871903476e-09 -1.5690108422462895e-07 8.702009209782852e-09 4.057435293396912 -5.78147970715904e-08 -1.569010867530831e-07 -5.781479528924158e-08 4.0574351894382925" Properties=species:S:1:pos:R:3:mode_u:R:3 system=knbo3_cubic path_model=chgnet pattern_model=chgnet mlip_model=chgnet role=decide stem=knbo3_cubic_chgnet_q0-0-0-b0 q="0.0 0.0 0.0" band=0 dim="1 1 1" m_eff=144.99082158928317 check_pass=True Q=0.005555555555555556 index=1 mlip_energy_eV=-40.22404479980469 pbc="T T T"
K       -0.00009157       0.00034266       4.05777723      -0.01651604       0.06165474       0.06161056
Nb       2.02799069       2.03143450       2.03143146      -0.13097644       0.48893695       0.48858582
O        4.05890797       2.02316139       2.02316564       0.26516372      -0.99999981      -0.99928154
O        2.03020534       4.05193570       2.02316640       0.26788007      -0.98985965      -0.99928134
O        2.03020497       2.02316235      -0.00549505       0.26788013      -1.00000000      -0.98914851
5
Lattice="4.057435042413947 8.702003871903476e-09 -1.5690108422462895e-07 8.702009209782852e-09 4.057435293396912 -5.78147970715904e-08 -1.569010867530831e-07 -5.781479528924158e-08 4.0574351894382925" Properties=species:S:1:pos:R:3:mode_u:R:3 system=knbo3_cubic path_model=chgnet pattern_model=chgnet mlip_model=chgnet role=decide stem=knbo3_cubic_chgnet_q0-0-0-b0 q="0.0 0.0 0.0" band=0 dim="1 1 1" m_eff=144.99082158928317 check_pass=True Q=0.022222222222222223 index=2 mlip_energy_eV=-40.22698974609375 pbc="T T T"
K       -0.00036684       0.00137024       4.05880407      -0.01651604       0.06165474       0.06161056
Nb       2.02580775       2.03958345       2.03957456      -0.13097644       0.48893695       0.48858582
O        4.06332737       2.00649473       2.00651095       0.26516372      -0.99999981      -0.99928154
O        2.03467001       4.03543804       2.00651171       0.26788007      -0.98985965      -0.99928134
O        2.03466964       2.00649569      -0.02198086       0.26788013      -1.00000000      -0.98914851
5
Lattice="4.057435042413947 8.702003871903476e-09 -1.5690108422462895e-07 8.702009209782852e-09 4.057435293396912 -5.78147970715904e-08 -1.569010867530831e-07 -5.781479528924158e-08 4.0574351894382925" Properties=species:S:1:pos:R:3:mode_u:R:3 system=knbo3_cubic path_model=chgnet pattern_model=chgnet mlip_model=chgnet role=decide stem=knbo3_cubic_chgnet_q0-0-0-b0 q="0.0 0.0 0.0" band=0 dim="1 1 1" m_eff=144.99082158928317 check_pass=True Q=0.049999999999999996 index=3 mlip_energy_eV=-40.24152755737305 pbc="T T T"
K       -0.00082562       0.00308287       4.06051547      -0.01651604       0.06165474       0.06161056
Nb       2.02216952       2.05316504       2.05314639      -0.13097644       0.48893695       0.48858582
O        4.07069303       1.97871696       1.97875313       0.26516372      -0.99999981      -0.99928154
O        2.04211112       4.00794194       1.97875389       0.26788007      -0.98985965      -0.99928134
O        2.04211076       1.97871791      -0.04945720       0.26788013      -1.00000000      -0.98914851
5
Lattice="4.057435042413947 8.702003871903476e-09 -1.5690108422462895e-07 8.702009209782852e-09 4.057435293396912 -5.78147970715904e-08 -1.569010867530831e-07 -5.781479528924158e-08 4.0574351894382925" Properties=species:S:1:pos:R:3:mode_u:R:3 system=knbo3_cubic path_model=chgnet pattern_model=chgnet mlip_model=chgnet role=decide stem=knbo3_cubic_chgnet_q0-0-0-b0 q="0.0 0.0 0.0" band=0 dim="1 1 1" m_eff=144.99082158928317 check_pass=True Q=0.08888888888888889 index=4 mlip_energy_eV=-40.25432586669922 pbc="T T T"
K       -0.00146791       0.00548056       4.06291144      -0.01651604       0.06165474       0.06161056
Nb       2.01707599       2.07217925       2.07214695      -0.13097644       0.48893695       0.48858582
O        4.08100495       1.93982807       1.93989218       0.26516372      -0.99999981      -0.99928154
O        2.05252868       3.96944740       1.93989295       0.26788007      -0.98985965      -0.99928134
O        2.05252832       1.93982902      -0.08792409       0.26788013      -1.00000000      -0.98914851
5
Lattice="4.057435042413947 8.702003871903476e-09 -1.5690108422462895e-07 8.702009209782852e-09 4.057435293396912 -5.78147970715904e-08 -1.569010867530831e-07 -5.781479528924158e-08 4.0574351894382925" Properties=species:S:1:pos:R:3:mode_u:R:3 system=knbo3_cubic path_model=chgnet pattern_model=chgnet mlip_model=chgnet role=decide stem=knbo3_cubic_chgnet_q0-0-0-b0 q="0.0 0.0 0.0" band=0 dim="1 1 1" m_eff=144.99082158928317 check_pass=True Q=0.13888888888888892 index=5 mlip_energy_eV=-40.17021179199219 pbc="T T T"
K       -0.00229371       0.00856329       4.06599197      -0.01651604       0.06165474       0.06161056
Nb       2.01052717       2.09662610       2.09657624      -0.13097644       0.48893695       0.48858582
O        4.09426313       1.88982808       1.88992810       0.26516372      -0.99999981      -0.99928154
O        2.06592268       3.91995442       1.88992888       0.26788007      -0.98985965      -0.99928134
O        2.06592232       1.88982902      -0.13738152       0.26788013      -1.00000000      -0.98914851
5
Lattice="4.057435042413947 8.702003871903476e-09 -1.5690108422462895e-07 8.702009209782852e-09 4.057435293396912 -5.78147970715904e-08 -1.569010867530831e-07 -5.781479528924158e-08 4.0574351894382925" Properties=species:S:1:pos:R:3:mode_u:R:3 system=knbo3_cubic path_model=chgnet pattern_model=chgnet mlip_model=chgnet role=decide stem=knbo3_cubic_chgnet_q0-0-0-b0 q="0.0 0.0 0.0" band=0 dim="1 1 1" m_eff=144.99082158928317 check_pass=True Q=0.19999999999999998 index=6 mlip_energy_eV=-39.71969985961914 pbc="T T T"
K       -0.00330302       0.01233108       4.06975706      -0.01651604       0.06165474       0.06161056
Nb       2.00252305       2.12650558       2.12643426      -0.13097644       0.48893695       0.48858582
O        4.11046758       1.82871698       1.82886090       0.26516372      -0.99999981      -0.99928154
O        2.08229313       3.85946299       1.82886169       0.26788007      -0.98985965      -0.99928134
O        2.08229277       1.82871791      -0.19782948       0.26788013      -1.00000000      -0.98914851
5
Lattice="4.057435042413947 8.702003871903476e-09 -1.5690108422462895e-07 8.702009209782852e-09 4.057435293396912 -5.78147970715904e-08 -1.569010867530831e-07 -5.781479528924158e-08 4.0574351894382925" Properties=species:S:1:pos:R:3:mode_u:R:3 system=knbo3_cubic path_model=chgnet pattern_model=chgnet mlip_model=chgnet role=decide stem=knbo3_cubic_chgnet_q0-0-0-b0 q="0.0 0.0 0.0" band=0 dim="1 1 1" m_eff=144.99082158928317 check_pass=True Q=0.27222222222222214 index=7 mlip_energy_eV=-38.43537902832031 pbc="T T T"
K       -0.00449585       0.01678392       4.07420671      -0.01651604       0.06165474       0.06161056
Nb       1.99306364       2.16181769       2.16172102      -0.13097644       0.48893695       0.48858582
O        4.12961830       1.75649478       1.75669057       0.26516372      -0.99999981      -0.99928154
O        2.10164003       3.78797313       1.75669137       0.26788007      -0.98985965      -0.99928134
O        2.10163967       1.75649569      -0.26926798       0.26788013      -1.00000000      -0.98914851
5
Lattice="4.057435042413947 8.702003871903476e-09 -1.5690108422462895e-07 8.702009209782852e-09 4.057435293396912 -5.78147970715904e-08 -1.569010867530831e-07 -5.781479528924158e-08 4.0574351894382925" Properties=species:S:1:pos:R:3:mode_u:R:3 system=knbo3_cubic path_model=chgnet pattern_model=chgnet mlip_model=chgnet role=decide stem=knbo3_cubic_chgnet_q0-0-0-b0 q="0.0 0.0 0.0" band=0 dim="1 1 1" m_eff=144.99082158928317 check_pass=True Q=0.35555555555555557 index=8 mlip_energy_eV=-35.602699279785156 pbc="T T T"
K       -0.00587218       0.02192182       4.07934092      -0.01651604       0.06165474       0.06161056
Nb       1.98214894       2.20256244       2.20243650      -0.13097644       0.48893695       0.48858582
O        4.15171527       1.67316146       1.67341710       0.26516372      -0.99999981      -0.99928154
O        2.12396337       3.70548482       1.67341793       0.26788007      -0.98985965      -0.99928134
O        2.12396302       1.67316235      -0.35169703       0.26788013      -1.00000000      -0.98914851
5
Lattice="4.057435042413947 8.702003871903476e-09 -1.5690108422462895e-07 8.702009209782852e-09 4.057435293396912 -5.78147970715904e-08 -1.569010867530831e-07 -5.781479528924158e-08 4.0574351894382925" Properties=species:S:1:pos:R:3:mode_u:R:3 system=knbo3_cubic path_model=chgnet pattern_model=chgnet mlip_model=chgnet role=decide stem=knbo3_cubic_chgnet_q0-0-0-b0 q="0.0 0.0 0.0" band=0 dim="1 1 1" m_eff=144.99082158928317 check_pass=True Q=0.45 index=9 mlip_energy_eV=-30.698841094970703 pbc="T T T"
K       -0.00743203       0.02774477       4.08515970      -0.01651604       0.06165474       0.06161056
Nb       1.96977894       2.24873982       2.24858072      -0.13097644       0.48893695       0.48858582
O        4.17675851       1.57871703       1.57904051       0.26516372      -0.99999981      -0.99928154
O        2.14926315       3.61199808       1.57904135       0.26788007      -0.98985965      -0.99928134
O        2.14926281       1.57871791      -0.44511661       0.26788013      -1.00000000      -0.98914851
