108
Lattice="-5.377356501055379 5.377356433855448 5.377356389513249 10.75471321732783 -10.754712714258055 10.75471284079072 10.754713064099535 10.754712776246816 -10.754712625573656" Properties=species:S:1:pos:R:3:mode_u:R:3 system=zr_bcc path_model=mattersim pattern_model=mattersim mlip_model=mattersim role=mode stem=zr_bcc_mattersim_q1d3-1d6-1d6-b0 q="0.3333333333333333 0.16666666666666666 0.16666666666666666" band=0 dim="3 6 6" m_eff=9852.191871979077 check_pass=True Q=0.0 index=0 mlip_energy_eV=-914.7783813476562 pbc="T T T"
Zr       0.00000000       0.00000000       0.00000000       0.00000000       0.49999999      -0.50000000
Zr      -1.79245217       1.79245214       1.79245213       0.00000000       0.49999999      -0.50000000
Zr      -3.58490433       3.58490429       3.58490426      -0.00000000      -0.99999999       1.00000000
Zr       1.79245220      -1.79245212       1.79245214       0.00000000       0.99999999      -1.00000000
Zr       0.00000004       0.00000003       3.58490427      -0.00000000      -0.49999999       0.50000000
Zr      -1.79245213       1.79245217       5.37735640      -0.00000000      -0.49999999       0.50000000
Zr       3.58490441      -3.58490424       3.58490428       0.00000000       0.49999999      -0.50000000
Zr       1.79245224      -1.79245209       5.37735641      -0.00000000      -0.99999999       1.00000000
Zr       0.00000007       0.00000005       7.16980854       0.00000000       0.49999999      -0.50000000
Zr       5.37735661      -5.37735636       5.37735642      -0.00000000      -0.49999999       0.50000000
Zr       3.58490444      -3.58490421       7.16980855      -0.00000000      -0.49999999       0.50000000
Zr       1.79245227      -1.79245207       8.96226068       0.00000000       0.99999999      -1.00000000
Zr       7.16980881      -7.16980848       7.16980856      -0.00000000      -0.99999999       1.00000000
Zr       5.37735664      -5.37735633       8.96226069       0.00000000       0.49999999      -0.50000000
Zr       3.58490448      -3.58490419      10.75471282       0.00000000       0.49999999      -0.50000000
Zr       8.96226101      -8.96226060       8.96226070      -0.00000000      -0.49999999       0.50000000
Zr       7.16980885      -7.16980845      10.75471283       0.00000000       0.99999999      -1.00000000
Zr       5.37735668      -5.37735631      12.54716496      -0.00000000      -0.49999999       0.50000000
Zr       1.79245218       1.79245213      -1.79245210       0.00000000       0.99999999      -1.00000000
Zr       0.00000001       3.58490427       0.00000003      -0.00000000      -0.49999999       0.50000000
Zr      -1.79245216       5.37735642       1.79245216      -0.00000000      -0.49999999       0.50000000
Zr       3.58490438       0.00000001       0.00000004       0.00000000       0.49999999      -0.50000000
Zr       1.79245221       1.79245215       1.79245217      -0.00000000      -0.99999999       1.00000000
Zr       0.00000005       3.58490430       3.58490430       0.00000000       0.49999999      -0.50000000
Zr       5.37735658      -1.79245211       1.79245218      -0.00000000      -0.49999999       0.50000000
Zr       3.58490442       0.00000004       3.58490431      -0.00000000      -0.49999999       0.50000000
Zr       1.79245225       1.79245218       5.37735644       0.00000000       0.99999999      -1.00000000
Zr       7.16980879      -3.58490423       3.58490432      -0.00000000      -0.99999999       1.00000000
Zr       5.37735662      -1.79245208       5.37735645       0.00000000       0.49999999      -0.50000000
Zr       3.58490445       0.00000006       7.16980858       0.00000000       0.49999999      -0.50000000
Zr       8.96226099      -5.37735635       5.37735646      -0.00000000      -0.49999999       0.50000000
Zr       7.16980882      -3.58490420       7.16980859       0.00000000       0.99999999      -1.00000000
Zr       5.37735665      -1.79245206       8.96226072      -0.00000000      -0.49999999       0.50000000
Zr      10.75471319      -7.16980847       7.16980860       0.00000000       0.49999999      -0.50000000
Zr       8.96226102      -5.37735632       8.96226073       0.00000000       0.49999999      -0.50000000
Zr       7.16980886      -3.58490418      10.75471286      -0.00000000      -0.99999999       1.00000000
Zr       3.58490435       3.58490426      -3.58490421       0.00000000       0.49999999      -0.50000000
Zr       1.79245219       5.37735640      -1.79245208      -0.00000000      -0.99999999       1.00000000
Zr       0.00000002       7.16980855       0.00000005       0.00000000       0.49999999      -0.50000000
Zr       5.37735656       1.79245214      -1.79245207      -0.00000000      -0.49999999       0.50000000
Zr       3.58490439       3.58490428       0.00000006      -0.00000000      -0.49999999       0.50000000
Zr       1.79245222       5.37735643       1.79245219       0.00000000       0.99999999      -1.00000000
Zr       7.16980876       0.00000002       0.00000007      -0.00000000      -0.99999999       1.00000000
Zr       5.37735659       1.79245217       1.79245220       0.00000000       0.49999999      -0.50000000
Zr       3.58490443       3.58490431       3.58490433       0.00000000       0.49999999      -0.50000000
Zr       8.96226096      -1.79245210       1.79245221      -0.00000000      -0.49999999       0.50000000
Zr       7.16980880       0.00000005       3.58490434       0.00000000       0.99999999      -1.00000000
Zr       5.37735663       1.79245219       5.37735647      -0.00000000      -0.49999999       0.50000000
Zr      10.75471317      -3.58490422       3.58490435       0.00000000       0.49999999      -0.50000000
Zr       8.96226100      -1.79245207       5.37735648       0.00000000       0.49999999      -0.50000000
Zr       7.16980883       0.00000007       7.16980861      -0.00000000      -0.99999999       1.00000000
Zr      12.54716537      -5.37735634       5.37735649       0.00000000       0.99999999      -1.00000000
Zr      10.75471320      -3.58490419       7.16980862      -0.00000000      -0.49999999       0.50000000
Zr       8.96226104      -1.79245205       8.96226075      -0.00000000      -0.49999999       0.50000000
Zr       5.37735653       5.37735639      -5.37735631      -0.00000000      -0.49999999       0.50000000
Zr       3.58490437       7.16980853      -3.58490418      -0.00000000      -0.49999999       0.50000000
Zr       1.79245220       8.96226068      -1.79245205       0.00000000       0.99999999      -1.00000000
Zr       7.16980873       3.58490427      -3.58490417      -0.00000000      -0.99999999       1.00000000
Zr       5.37735657       5.37735641      -1.79245204       0.00000000       0.49999999      -0.50000000
Zr       3.58490440       7.16980856       0.00000009       0.00000000       0.49999999      -0.50000000
Zr       8.96226094       1.79245215      -1.79245203      -0.00000000      -0.49999999       0.50000000
Zr       7.16980877       3.58490429       0.00000010       0.00000000       0.99999999      -1.00000000
Zr       5.37735660       5.37735644       1.79245223      -0.00000000      -0.49999999       0.50000000
Zr      10.75471314       0.00000003       0.00000011       0.00000000       0.49999999      -0.50000000
Zr       8.96226097       1.79245218       1.79245224       0.00000000       0.49999999      -0.50000000
Zr       7.16980881       3.58490432       3.58490437      -0.00000000      -0.99999999       1.00000000
Zr      12.54716534      -1.79245209       1.79245225       0.00000000       0.99999999      -1.00000000
Zr      10.75471318       0.00000006       3.58490438      -0.00000000      -0.49999999       0.50000000
Zr       8.96226101       1.79245220       5.37735651      -0.00000000      -0.49999999       0.50000000
Zr      14.33961755      -3.58490421       3.58490439       0.00000000       0.49999999      -0.50000000
Zr      12.54716538      -1.79245206       5.37735652      -0.00000000      -0.99999999       1.00000000
Zr      10.75471321       0.00000008       7.16980865       0.00000000       0.49999999      -0.50000000
Zr       7.16980871       7.16980852      -7.16980842      -0.00000000      -0.99999999       1.00000000
Zr       5.37735654       8.96226066      -5.37735629       0.00000000       0.49999999      -0.50000000
Zr       3.58490438      10.75471281      -3.58490416       0.00000000       0.49999999      -0.50000000
Zr       8.96226091       5.37735640      -5.37735628      -0.00000000      -0.49999999       0.50000000
Zr       7.16980875       7.16980854      -3.58490415       0.00000000       0.99999999      -1.00000000
Zr       5.37735658       8.96226069      -1.79245202      -0.00000000      -0.49999999       0.50000000
Zr      10.75471312       3.58490428      -3.58490414       0.00000000       0.49999999      -0.50000000
Zr       8.96226095       5.37735642      -1.79245201       0.00000000       0.49999999      -0.50000000
Zr       7.16980878       7.16980857       0.00000012      -0.00000000      -0.99999999       1.00000000
Zr      12.54716532       1.79245216      -1.79245200       0.00000000       0.99999999      -1.00000000
Zr      10.75471315       3.58490430       0.00000013      -0.00000000      -0.49999999       0.50000000
Zr       8.96226098       5.37735645       1.79245226      -0.00000000      -0.49999999       0.50000000
Zr      14.33961752       0.00000004       0.00000014       0.00000000       0.49999999      -0.50000000
Zr      12.54716535       1.79245219       1.79245227      -0.00000000      -0.99999999       1.00000000
Zr      10.75471319       3.58490433       3.58490440       0.00000000       0.49999999      -0.50000000
Zr      16.13206972      -1.79245208       1.79245228      -0.00000000      -0.49999999       0.50000000
Zr      14.33961756       0.00000007       3.58490441      -0.00000000      -0.49999999       0.50000000
Zr      12.54716539       1.79245221       5.37735654       0.00000000       0.99999999      -1.00000000
Zr       8.96226089       8.96226065      -8.96226052      -0.00000000      -0.49999999       0.50000000
Zr       7.16980872      10.75471279      -7.16980839       0.00000000       0.99999999      -1.00000000
Zr       5.37735655      12.54716494      -5.37735626      -0.00000000      -0.49999999       0.50000000
Zr      10.75471309       7.16980853      -7.16980838       0.00000000       0.49999999      -0.50000000
Zr       8.96226092       8.96226067      -5.37735625       0.00000000       0.49999999      -0.50000000
Zr       7.16980876      10.75471282      -3.58490412      -0.00000000      -0.99999999       1.00000000
Zr      12.54716529       5.37735641      -5.37735624       0.00000000       0.99999999      -1.00000000
Zr      10.75471313       7.16980855      -3.58490411      -0.00000000      -0.49999999       0.50000000
Zr       8.96226096       8.96226070      -1.79245198      -0.00000000      -0.49999999       0.50000000
Zr      14.33961750       3.58490429      -3.58490410       0.00000000       0.49999999      -0.50000000
Zr      12.54716533       5.37735643      -1.79245197      -0.00000000      -0.99999999       1.00000000
Zr      10.75471316       7.16980858       0.00000016       0.00000000       0.49999999      -0.50000000
Zr      16.13206970       1.79245217      -1.79245196      -0.00000000      -0.49999999       0.50000000
Zr      14.33961753       3.58490432       0.00000017      -0.00000000      -0.49999999       0.50000000
Zr      12.54716536       5.37735646       1.79245230       0.00000000       0.99999999      -1.00000000
Zr      17.92452190       0.00000005       0.00000018      -0.00000000      -0.99999999       1.00000000
Zr      16.13206973       1.79245220       1.79245231       0.00000000       0.49999999      -0.50000000
Zr      14.33961757       3.58490434       3.58490444       0.00000000       0.49999999      -0.50000000
108
Lattice="-5.377356501055379 5.377356433855448 5.377356389513249 10.75471321732783 -10.754712714258055 10.75471284079072 10.754713064099535 10.754712776246816 -10.754712625573656" Properties=species:S:1:pos:R:3:mode_u:R:3 system=zr_bcc path_model=mattersim pattern_model=mattersim mlip_model=mattersim role=mode stem=zr_bcc_mattersim_q1d3-1d6-1d6-b0 q="0.3333333333333333 0.16666666666666666 0.16666666666666666" band=0 dim="3 6 6" m_eff=9852.191871979077 check_pass=True Q=0.005555555555555556 index=1 mlip_energy_eV=-914.781982421875 pbc="T T T"
Zr       0.00000000       0.00277778      -0.00277778       0.00000000       0.49999999      -0.50000000
Zr      -1.79245217       1.79522992       1.78967435       0.00000000       0.49999999      -0.50000000
Zr      -3.58490433       3.57934873       3.59045982      -0.00000000      -0.99999999       1.00000000
Zr       1.79245220      -1.78689656       1.78689658       0.00000000       0.99999999      -1.00000000
Zr       0.00000004      -0.00277775       3.58768205      -0.00000000      -0.49999999       0.50000000
Zr      -1.79245213       1.78967439       5.38013418      -0.00000000      -0.49999999       0.50000000
Zr       3.58490441      -3.58212646       3.58212650       0.00000000       0.49999999      -0.50000000
Zr       1.79245224      -1.79800765       5.38291197      -0.00000000      -0.99999999       1.00000000
Zr       0.00000007       0.00277783       7.16703076       0.00000000       0.49999999      -0.50000000
Zr       5.37735661      -5.38013413       5.38013420      -0.00000000      -0.49999999       0.50000000
Zr       3.58490444      -3.58768199       7.17258633      -0.00000000      -0.49999999       0.50000000
Zr       1.79245227      -1.78689651       8.95670512       0.00000000       0.99999999      -1.00000000
Zr       7.16980881      -7.17536403       7.17536412      -0.00000000      -0.99999999       1.00000000
Zr       5.37735664      -5.37457855       8.95948291       0.00000000       0.49999999      -0.50000000
Zr       3.58490448      -3.58212641      10.75193504       0.00000000       0.49999999      -0.50000000
Zr       8.96226101      -8.96503837       8.96503848      -0.00000000      -0.49999999       0.50000000
Zr       7.16980885      -7.16425290      10.74915727       0.00000000       0.99999999      -1.00000000
Zr       5.37735668      -5.38013408      12.54994274      -0.00000000      -0.49999999       0.50000000
Zr       1.79245218       1.79800768      -1.79800766       0.00000000       0.99999999      -1.00000000
Zr       0.00000001       3.58212650       0.00277780      -0.00000000      -0.49999999       0.50000000
Zr      -1.79245216       5.37457864       1.79522993      -0.00000000      -0.49999999       0.50000000
Zr       3.58490438       0.00277779      -0.00277774       0.00000000       0.49999999      -0.50000000
Zr       1.79245221       1.78689660       1.79800772      -0.00000000      -0.99999999       1.00000000
Zr       0.00000005       3.58768208       3.58212652       0.00000000       0.49999999      -0.50000000
Zr       5.37735658      -1.79522989       1.79522995      -0.00000000      -0.49999999       0.50000000
Zr       3.58490442      -0.00277774       3.58768208      -0.00000000      -0.49999999       0.50000000
Zr       1.79245225       1.79800774       5.37180088       0.00000000       0.99999999      -1.00000000
Zr       7.16980879      -3.59045978       3.59045987      -0.00000000      -0.99999999       1.00000000
Zr       5.37735662      -1.78967431       5.37457867       0.00000000       0.49999999      -0.50000000
Zr       3.58490445       0.00277784       7.16703080       0.00000000       0.49999999      -0.50000000
Zr       8.96226099      -5.38013412       5.38013423      -0.00000000      -0.49999999       0.50000000
Zr       7.16980882      -3.57934865       7.16425303       0.00000000       0.99999999      -1.00000000
Zr       5.37735665      -1.79522984       8.96503849      -0.00000000      -0.49999999       0.50000000
Zr      10.75471319      -7.16703069       7.16703082       0.00000000       0.49999999      -0.50000000
Zr       8.96226102      -5.37457854       8.95948295       0.00000000       0.49999999      -0.50000000
Zr       7.16980886      -3.59045973      10.76026841      -0.00000000      -0.99999999       1.00000000
Zr       3.58490435       3.58768204      -3.58768199       0.00000000       0.49999999      -0.50000000
Zr       1.79245219       5.37180085      -1.78689652      -0.00000000      -0.99999999       1.00000000
Zr       0.00000002       7.17258633      -0.00277773       0.00000000       0.49999999      -0.50000000
Zr       5.37735656       1.78967436      -1.78967429      -0.00000000      -0.49999999       0.50000000
Zr       3.58490439       3.58212651       0.00277784      -0.00000000      -0.49999999       0.50000000
Zr       1.79245222       5.38291198       1.78689664       0.00000000       0.99999999      -1.00000000
Zr       7.16980876      -0.00555553       0.00555563      -0.00000000      -0.99999999       1.00000000
Zr       5.37735659       1.79522994       1.78967442       0.00000000       0.49999999      -0.50000000
Zr       3.58490443       3.58768209       3.58212655       0.00000000       0.49999999      -0.50000000
Zr       8.96226096      -1.79522988       1.79522999      -0.00000000      -0.49999999       0.50000000
Zr       7.16980880       0.00555560       3.57934879       0.00000000       0.99999999      -1.00000000
Zr       5.37735663       1.78967441       5.38013425      -0.00000000      -0.49999999       0.50000000
Zr      10.75471317      -3.58212644       3.58212657       0.00000000       0.49999999      -0.50000000
Zr       8.96226100      -1.78967430       5.37457870       0.00000000       0.49999999      -0.50000000
Zr       7.16980883      -0.00555548       7.17536417      -0.00000000      -0.99999999       1.00000000
Zr      12.54716537      -5.37180078       5.37180094       0.00000000       0.99999999      -1.00000000
Zr      10.75471320      -3.58768197       7.17258640      -0.00000000      -0.49999999       0.50000000
Zr       8.96226104      -1.79522982       8.96503853      -0.00000000      -0.49999999       0.50000000
Zr       5.37735653       5.37457861      -5.37457854      -0.00000000      -0.49999999       0.50000000
Zr       3.58490437       7.16703076      -3.58212641      -0.00000000      -0.49999999       0.50000000
Zr       1.79245220       8.96781623      -1.79800761       0.00000000       0.99999999      -1.00000000
Zr       7.16980873       3.57934871      -3.57934862      -0.00000000      -0.99999999       1.00000000
Zr       5.37735657       5.38013419      -1.79522982       0.00000000       0.49999999      -0.50000000
Zr       3.58490440       7.17258634      -0.00277769       0.00000000       0.49999999      -0.50000000
Zr       8.96226094       1.78967437      -1.78967425      -0.00000000      -0.49999999       0.50000000
Zr       7.16980877       3.59045985      -0.00555546       0.00000000       0.99999999      -1.00000000
Zr       5.37735660       5.37457866       1.79523000      -0.00000000      -0.49999999       0.50000000
Zr      10.75471314       0.00277781      -0.00277767       0.00000000       0.49999999      -0.50000000
Zr       8.96226097       1.79522995       1.78967446       0.00000000       0.49999999      -0.50000000
Zr       7.16980881       3.57934876       3.59045992      -0.00000000      -0.99999999       1.00000000
Zr      12.54716534      -1.78689653       1.78689669       0.00000000       0.99999999      -1.00000000
Zr      10.75471318      -0.00277772       3.58768216      -0.00000000      -0.49999999       0.50000000
Zr       8.96226101       1.78967442       5.38013429      -0.00000000      -0.49999999       0.50000000
Zr      14.33961755      -3.58212643       3.58212661       0.00000000       0.49999999      -0.50000000
Zr      12.54716538      -1.79800762       5.38291207      -0.00000000      -0.99999999       1.00000000
Zr      10.75471321       0.00277786       7.16703087       0.00000000       0.49999999      -0.50000000
Zr       7.16980871       7.16425296      -7.16425286      -0.00000000      -0.99999999       1.00000000
Zr       5.37735654       8.96503844      -5.38013406       0.00000000       0.49999999      -0.50000000
Zr       3.58490438      10.75749058      -3.58768194       0.00000000       0.49999999      -0.50000000
Zr       8.96226091       5.37457862      -5.37457850      -0.00000000      -0.49999999       0.50000000
Zr       7.16980875       7.17536410      -3.59045970       0.00000000       0.99999999      -1.00000000
Zr       5.37735658       8.95948291      -1.78967424      -0.00000000      -0.49999999       0.50000000
Zr      10.75471312       3.58768206      -3.58768191       0.00000000       0.49999999      -0.50000000
Zr       8.96226095       5.38013420      -1.79522978       0.00000000       0.49999999      -0.50000000
Zr       7.16980878       7.16425301       0.00555568      -0.00000000      -0.99999999       1.00000000
Zr      12.54716532       1.79800772      -1.79800755       0.00000000       0.99999999      -1.00000000
Zr      10.75471315       3.58212653       0.00277791      -0.00000000      -0.49999999       0.50000000
Zr       8.96226098       5.37457867       1.79523004      -0.00000000      -0.49999999       0.50000000
Zr      14.33961752       0.00277782      -0.00277763       0.00000000       0.49999999      -0.50000000
Zr      12.54716535       1.78689663       1.79800783      -0.00000000      -0.99999999       1.00000000
Zr      10.75471319       3.58768211       3.58212663       0.00000000       0.49999999      -0.50000000
Zr      16.13206972      -1.79522986       1.79523006      -0.00000000      -0.49999999       0.50000000
Zr      14.33961756      -0.00277771       3.58768219      -0.00000000      -0.49999999       0.50000000
Zr      12.54716539       1.79800777       5.37180099       0.00000000       0.99999999      -1.00000000
Zr       8.96226089       8.95948287      -8.95948274      -0.00000000      -0.49999999       0.50000000
Zr       7.16980872      10.76026835      -7.17536395       0.00000000       0.99999999      -1.00000000
Zr       5.37735655      12.54438716      -5.37457848      -0.00000000      -0.49999999       0.50000000
Zr      10.75471309       7.17258631      -7.17258616       0.00000000       0.49999999      -0.50000000
Zr       8.96226092       8.96503845      -5.38013403       0.00000000       0.49999999      -0.50000000
Zr       7.16980876      10.74915726      -3.57934857      -0.00000000      -0.99999999       1.00000000
Zr      12.54716529       5.38291196      -5.38291180       0.00000000       0.99999999      -1.00000000
Zr      10.75471313       7.16703078      -3.58212633      -0.00000000      -0.49999999       0.50000000
Zr       8.96226096       8.95948292      -1.78967420      -0.00000000      -0.49999999       0.50000000
Zr      14.33961750       3.58768207      -3.58768188       0.00000000       0.49999999      -0.50000000
Zr      12.54716533       5.37180088      -1.78689642      -0.00000000      -0.99999999       1.00000000
Zr      10.75471316       7.17258636      -0.00277762       0.00000000       0.49999999      -0.50000000
Zr      16.13206970       1.78967439      -1.78967418      -0.00000000      -0.49999999       0.50000000
Zr      14.33961753       3.58212654       0.00277795      -0.00000000      -0.49999999       0.50000000
Zr      12.54716536       5.38291202       1.78689674       0.00000000       0.99999999      -1.00000000
Zr      17.92452190      -0.00555550       0.00555573      -0.00000000      -0.99999999       1.00000000
Zr      16.13206973       1.79522997       1.78967453       0.00000000       0.49999999      -0.50000000
Zr      14.33961757       3.58768212       3.58212666       0.00000000       0.49999999      -0.50000000
108
Lattice="-5.377356501055379 5.377356433855448 5.377356389513249 10.75471321732783 -10.754712714258055 10.75471284079072 10.754713064099535 10.754712776246816 -10.754712625573656" Properties=species:S:1:pos:R:3:mode_u:R:3 system=zr_bcc path_model=mattersim pattern_model=mattersim mlip_model=mattersim role=mode stem=zr_bcc_mattersim_q1d3-1d6-1d6-b0 q="0.3333333333333333 0.16666666666666666 0.16666666666666666" band=0 dim="3 6 6" m_eff=9852.191871979077 check_pass=True Q=0.022222222222222223 index=2 mlip_energy_eV=-914.8110961914062 pbc="T T T"
Zr       0.00000000       0.01111111      -0.01111111       0.00000000       0.49999999      -0.50000000
Zr      -1.79245217       1.80356326       1.78134102       0.00000000       0.49999999      -0.50000000
Zr      -3.58490433       3.56268207       3.60712648      -0.00000000      -0.99999999       1.00000000
Zr       1.79245220      -1.77022990       1.77022992       0.00000000       0.99999999      -1.00000000
Zr       0.00000004      -0.01111109       3.59601538      -0.00000000      -0.49999999       0.50000000
Zr      -1.79245213       1.78134106       5.38846751      -0.00000000      -0.49999999       0.50000000
Zr       3.58490441      -3.57379313       3.57379317       0.00000000       0.49999999      -0.50000000
Zr       1.79245224      -1.81467432       5.39957863      -0.00000000      -0.99999999       1.00000000
Zr       0.00000007       0.01111116       7.15869743       0.00000000       0.49999999      -0.50000000
Zr       5.37735661      -5.38846747       5.38846753      -0.00000000      -0.49999999       0.50000000
Zr       3.58490444      -3.59601532       7.18091966      -0.00000000      -0.49999999       0.50000000
Zr       1.79245227      -1.77022985       8.94003846       0.00000000       0.99999999      -1.00000000
Zr       7.16980881      -7.19203070       7.19203078      -0.00000000      -0.99999999       1.00000000
Zr       5.37735664      -5.36624522       8.95114958       0.00000000       0.49999999      -0.50000000
Zr       3.58490448      -3.57379308      10.74360171       0.00000000       0.49999999      -0.50000000
Zr       8.96226101      -8.97337171       8.97337181      -0.00000000      -0.49999999       0.50000000
Zr       7.16980885      -7.14758623      10.73249061       0.00000000       0.99999999      -1.00000000
Zr       5.37735668      -5.38846742      12.55827607      -0.00000000      -0.49999999       0.50000000
Zr       1.79245218       1.81467435      -1.81467433       0.00000000       0.99999999      -1.00000000
Zr       0.00000001       3.57379316       0.01111114      -0.00000000      -0.49999999       0.50000000
Zr      -1.79245216       5.36624531       1.80356327      -0.00000000      -0.49999999       0.50000000
Zr       3.58490438       0.01111112      -0.01111108       0.00000000       0.49999999      -0.50000000
Zr       1.79245221       1.77022993       1.81467439      -0.00000000      -0.99999999       1.00000000
Zr       0.00000005       3.59601541       3.57379318       0.00000000       0.49999999      -0.50000000
Zr       5.37735658      -1.80356322       1.80356329      -0.00000000      -0.49999999       0.50000000
Zr       3.58490442      -0.01111108       3.59601542      -0.00000000      -0.49999999       0.50000000
Zr       1.79245225       1.81467440       5.35513421       0.00000000       0.99999999      -1.00000000
Zr       7.16980879      -3.60712645       3.60712654      -0.00000000      -0.99999999       1.00000000
Zr       5.37735662      -1.78134097       5.36624533       0.00000000       0.49999999      -0.50000000
Zr       3.58490445       0.01111117       7.15869746       0.00000000       0.49999999      -0.50000000
Zr       8.96226099      -5.38846746       5.38846757      -0.00000000      -0.49999999       0.50000000
Zr       7.16980882      -3.56268198       7.14758636       0.00000000       0.99999999      -1.00000000
Zr       5.37735665      -1.80356317       8.97337183      -0.00000000      -0.49999999       0.50000000
Zr      10.75471319      -7.15869735       7.15869749       0.00000000       0.49999999      -0.50000000
Zr       8.96226102      -5.36624521       8.95114962       0.00000000       0.49999999      -0.50000000
Zr       7.16980886      -3.60712640      10.77693508      -0.00000000      -0.99999999       1.00000000
Zr       3.58490435       3.59601537      -3.59601532       0.00000000       0.49999999      -0.50000000
Zr       1.79245219       5.35513418      -1.77022986      -0.00000000      -0.99999999       1.00000000
Zr       0.00000002       7.18091966      -0.01111106       0.00000000       0.49999999      -0.50000000
Zr       5.37735656       1.78134103      -1.78134096      -0.00000000      -0.49999999       0.50000000
Zr       3.58490439       3.57379317       0.01111117      -0.00000000      -0.49999999       0.50000000
Zr       1.79245222       5.39957865       1.77022997       0.00000000       0.99999999      -1.00000000
Zr       7.16980876      -0.02222220       0.02222229      -0.00000000      -0.99999999       1.00000000
Zr       5.37735659       1.80356328       1.78134109       0.00000000       0.49999999      -0.50000000
Zr       3.58490443       3.59601542       3.57379322       0.00000000       0.49999999      -0.50000000
Zr       8.96226096      -1.80356321       1.80356332      -0.00000000      -0.49999999       0.50000000
Zr       7.16980880       0.02222227       3.56268212       0.00000000       0.99999999      -1.00000000
Zr       5.37735663       1.78134108       5.38846758      -0.00000000      -0.49999999       0.50000000
Zr      10.75471317      -3.57379311       3.57379324       0.00000000       0.49999999      -0.50000000
Zr       8.96226100      -1.78134096       5.36624537       0.00000000       0.49999999      -0.50000000
Zr       7.16980883      -0.02222215       7.19203083      -0.00000000      -0.99999999       1.00000000
Zr      12.54716537      -5.35513411       5.35513427       0.00000000       0.99999999      -1.00000000
Zr      10.75471320      -3.59601530       7.18091973      -0.00000000      -0.49999999       0.50000000
Zr       8.96226104      -1.80356316       8.97337186      -0.00000000      -0.49999999       0.50000000
Zr       5.37735653       5.36624528      -5.36624520      -0.00000000      -0.49999999       0.50000000
Zr       3.58490437       7.15869742      -3.57379307      -0.00000000      -0.49999999       0.50000000
Zr       1.79245220       8.98448290      -1.81467428       0.00000000       0.99999999      -1.00000000
Zr       7.16980873       3.56268205      -3.56268195      -0.00000000      -0.99999999       1.00000000
Zr       5.37735657       5.38846752      -1.80356315       0.00000000       0.49999999      -0.50000000
Zr       3.58490440       7.18091967      -0.01111102       0.00000000       0.49999999      -0.50000000
Zr       8.96226094       1.78134104      -1.78134092      -0.00000000      -0.49999999       0.50000000
Zr       7.16980877       3.60712652      -0.02222212       0.00000000       0.99999999      -1.00000000
Zr       5.37735660       5.36624533       1.80356334      -0.00000000      -0.49999999       0.50000000
Zr      10.75471314       0.01111114      -0.01111100       0.00000000       0.49999999      -0.50000000
Zr       8.96226097       1.80356329       1.78134113       0.00000000       0.49999999      -0.50000000
Zr       7.16980881       3.56268210       3.60712659      -0.00000000      -0.99999999       1.00000000
Zr      12.54716534      -1.77022987       1.77023003       0.00000000       0.99999999      -1.00000000
Zr      10.75471318      -0.01111105       3.59601549      -0.00000000      -0.49999999       0.50000000
Zr       8.96226101       1.78134109       5.38846762      -0.00000000      -0.49999999       0.50000000
Zr      14.33961755      -3.57379310       3.57379328       0.00000000       0.49999999      -0.50000000
Zr      12.54716538      -1.81467428       5.39957874      -0.00000000      -0.99999999       1.00000000
Zr      10.75471321       0.01111119       7.15869754       0.00000000       0.49999999      -0.50000000
Zr       7.16980871       7.14758630      -7.14758619      -0.00000000      -0.99999999       1.00000000
Zr       5.37735654       8.97337177      -5.38846740       0.00000000       0.49999999      -0.50000000
Zr       3.58490438      10.76582392      -3.59601527       0.00000000       0.49999999      -0.50000000
Zr       8.96226091       5.36624529      -5.36624517      -0.00000000      -0.49999999       0.50000000
Zr       7.16980875       7.19203077      -3.60712637       0.00000000       0.99999999      -1.00000000
Zr       5.37735658       8.95114958      -1.78134091      -0.00000000      -0.49999999       0.50000000
Zr      10.75471312       3.59601539      -3.59601525       0.00000000       0.49999999      -0.50000000
Zr       8.96226095       5.38846753      -1.80356312       0.00000000       0.49999999      -0.50000000
Zr       7.16980878       7.14758635       0.02222235      -0.00000000      -0.99999999       1.00000000
Zr      12.54716532       1.81467438      -1.81467422       0.00000000       0.99999999      -1.00000000
Zr      10.75471315       3.57379319       0.01111124      -0.00000000      -0.49999999       0.50000000
Zr       8.96226098       5.36624534       1.80356337      -0.00000000      -0.49999999       0.50000000
Zr      14.33961752       0.01111115      -0.01111097       0.00000000       0.49999999      -0.50000000
Zr      12.54716535       1.77022996       1.81467450      -0.00000000      -0.99999999       1.00000000
Zr      10.75471319       3.59601544       3.57379329       0.00000000       0.49999999      -0.50000000
Zr      16.13206972      -1.80356319       1.80356339      -0.00000000      -0.49999999       0.50000000
Zr      14.33961756      -0.01111104       3.59601552      -0.00000000      -0.49999999       0.50000000
Zr      12.54716539       1.81467443       5.35513432       0.00000000       0.99999999      -1.00000000
Zr       8.96226089       8.95114954      -8.95114941      -0.00000000      -0.49999999       0.50000000
Zr       7.16980872      10.77693501      -7.19203061       0.00000000       0.99999999      -1.00000000
Zr       5.37735655      12.53605383      -5.36624515      -0.00000000      -0.49999999       0.50000000
Zr      10.75471309       7.18091964      -7.18091949       0.00000000       0.49999999      -0.50000000
Zr       8.96226092       8.97337178      -5.38846736       0.00000000       0.49999999      -0.50000000
Zr       7.16980876      10.73249060      -3.56268190      -0.00000000      -0.99999999       1.00000000
Zr      12.54716529       5.39957863      -5.39957846       0.00000000       0.99999999      -1.00000000
Zr      10.75471313       7.15869744      -3.57379300      -0.00000000      -0.49999999       0.50000000
Zr       8.96226096       8.95114959      -1.78134087      -0.00000000      -0.49999999       0.50000000
Zr      14.33961750       3.59601540      -3.59601521       0.00000000       0.49999999      -0.50000000
Zr      12.54716533       5.35513421      -1.77022975      -0.00000000      -0.99999999       1.00000000
Zr      10.75471316       7.18091969      -0.01111095       0.00000000       0.49999999      -0.50000000
Zr      16.13206970       1.78134106      -1.78134085      -0.00000000      -0.49999999       0.50000000
Zr      14.33961753       3.57379320       0.01111128      -0.00000000      -0.49999999       0.50000000
Zr      12.54716536       5.39957868       1.77023008       0.00000000       0.99999999      -1.00000000
Zr      17.92452190      -0.02222217       0.02222240      -0.00000000      -0.99999999       1.00000000
Zr      16.13206973       1.80356331       1.78134120       0.00000000       0.49999999      -0.50000000
Zr      14.33961757       3.59601545       3.57379333       0.00000000       0.49999999      -0.50000000
108
Lattice="-5.377356501055379 5.377356433855448 5.377356389513249 10.75471321732783 -10.754712714258055 10.75471284079072 10.754713064099535 10.754712776246816 -10.754712625573656" Properties=species:S:1:pos:R:3:mode_u:R:3 system=zr_bcc path_model=mattersim pattern_model=mattersim mlip_model=mattersim role=mode stem=zr_bcc_mattersim_q1d3-1d6-1d6-b0 q="0.3333333333333333 0.16666666666666666 0.16666666666666666" band=0 dim="3 6 6" m_eff=9852.191871979077 check_pass=True Q=0.049999999999999996 index=3 mlip_energy_eV=-914.9247436523438 pbc="T T T"
Zr       0.00000000       0.02500000      -0.02500000       0.00000000       0.49999999      -0.50000000
Zr      -1.79245217       1.81745214       1.76745213       0.00000000       0.49999999      -0.50000000
Zr      -3.58490433       3.53490429       3.63490426      -0.00000000      -0.99999999       1.00000000
Zr       1.79245220      -1.74245212       1.74245214       0.00000000       0.99999999      -1.00000000
Zr       0.00000004      -0.02499997       3.60990427      -0.00000000      -0.49999999       0.50000000
Zr      -1.79245213       1.76745217       5.40235640      -0.00000000      -0.49999999       0.50000000
Zr       3.58490441      -3.55990424       3.55990428       0.00000000       0.49999999      -0.50000000
Zr       1.79245224      -1.84245209       5.42735641      -0.00000000      -0.99999999       1.00000000
Zr       0.00000007       0.02500005       7.14480854       0.00000000       0.49999999      -0.50000000
Zr       5.37735661      -5.40235636       5.40235642      -0.00000000      -0.49999999       0.50000000
Zr       3.58490444      -3.60990421       7.19480855      -0.00000000      -0.49999999       0.50000000
Zr       1.79245227      -1.74245207       8.91226068       0.00000000       0.99999999      -1.00000000
Zr       7.16980881      -7.21980848       7.21980856      -0.00000000      -0.99999999       1.00000000
Zr       5.37735664      -5.35235633       8.93726069       0.00000000       0.49999999      -0.50000000
Zr       3.58490448      -3.55990419      10.72971282       0.00000000       0.49999999      -0.50000000
Zr       8.96226101      -8.98726059       8.98726070      -0.00000000      -0.49999999       0.50000000
Zr       7.16980885      -7.11980845      10.70471283       0.00000000       0.99999999      -1.00000000
Zr       5.37735668      -5.40235631      12.57216496      -0.00000000      -0.49999999       0.50000000
Zr       1.79245218       1.84245213      -1.84245210       0.00000000       0.99999999      -1.00000000
Zr       0.00000001       3.55990427       0.02500003      -0.00000000      -0.49999999       0.50000000
Zr      -1.79245216       5.35235642       1.81745216      -0.00000000      -0.49999999       0.50000000
Zr       3.58490438       0.02500001      -0.02499996       0.00000000       0.49999999      -0.50000000
Zr       1.79245221       1.74245216       1.84245217      -0.00000000      -0.99999999       1.00000000
Zr       0.00000005       3.60990430       3.55990430       0.00000000       0.49999999      -0.50000000
Zr       5.37735658      -1.81745211       1.81745218      -0.00000000      -0.49999999       0.50000000
Zr       3.58490442      -0.02499996       3.60990431      -0.00000000      -0.49999999       0.50000000
Zr       1.79245225       1.84245218       5.32735644       0.00000000       0.99999999      -1.00000000
Zr       7.16980879      -3.63490423       3.63490432      -0.00000000      -0.99999999       1.00000000
Zr       5.37735662      -1.76745208       5.35235645       0.00000000       0.49999999      -0.50000000
Zr       3.58490445       0.02500006       7.14480858       0.00000000       0.49999999      -0.50000000
Zr       8.96226099      -5.40235635       5.40235646      -0.00000000      -0.49999999       0.50000000
Zr       7.16980882      -3.53490420       7.11980859       0.00000000       0.99999999      -1.00000000
Zr       5.37735665      -1.81745206       8.98726072      -0.00000000      -0.49999999       0.50000000
Zr      10.75471319      -7.14480847       7.14480860       0.00000000       0.49999999      -0.50000000
Zr       8.96226102      -5.35235632       8.93726073       0.00000000       0.49999999      -0.50000000
Zr       7.16980886      -3.63490418      10.80471286      -0.00000000      -0.99999999       1.00000000
Zr       3.58490435       3.60990426      -3.60990421       0.00000000       0.49999999      -0.50000000
Zr       1.79245219       5.32735640      -1.74245208      -0.00000000      -0.99999999       1.00000000
Zr       0.00000002       7.19480855      -0.02499995       0.00000000       0.49999999      -0.50000000
Zr       5.37735656       1.76745214      -1.76745207      -0.00000000      -0.49999999       0.50000000
Zr       3.58490439       3.55990428       0.02500006      -0.00000000      -0.49999999       0.50000000
Zr       1.79245222       5.42735643       1.74245219       0.00000000       0.99999999      -1.00000000
Zr       7.16980876      -0.04999998       0.05000007      -0.00000000      -0.99999999       1.00000000
Zr       5.37735659       1.81745216       1.76745220       0.00000000       0.49999999      -0.50000000
Zr       3.58490443       3.60990431       3.55990433       0.00000000       0.49999999      -0.50000000
Zr       8.96226096      -1.81745210       1.81745221      -0.00000000      -0.49999999       0.50000000
Zr       7.16980880       0.05000005       3.53490434       0.00000000       0.99999999      -1.00000000
Zr       5.37735663       1.76745219       5.40235647      -0.00000000      -0.49999999       0.50000000
Zr      10.75471317      -3.55990422       3.55990435       0.00000000       0.49999999      -0.50000000
Zr       8.96226100      -1.76745207       5.35235648       0.00000000       0.49999999      -0.50000000
Zr       7.16980883      -0.04999993       7.21980861      -0.00000000      -0.99999999       1.00000000
Zr      12.54716537      -5.32735634       5.32735649       0.00000000       0.99999999      -1.00000000
Zr      10.75471320      -3.60990419       7.19480862      -0.00000000      -0.49999999       0.50000000
Zr       8.96226104      -1.81745205       8.98726075      -0.00000000      -0.49999999       0.50000000
Zr       5.37735653       5.35235639      -5.35235631      -0.00000000      -0.49999999       0.50000000
Zr       3.58490436       7.14480853      -3.55990418      -0.00000000      -0.49999999       0.50000000
Zr       1.79245220       9.01226068      -1.84245205       0.00000000       0.99999999      -1.00000000
Zr       7.16980873       3.53490427      -3.53490417      -0.00000000      -0.99999999       1.00000000
Zr       5.37735657       5.40235641      -1.81745204       0.00000000       0.49999999      -0.50000000
Zr       3.58490440       7.19480856      -0.02499991       0.00000000       0.49999999      -0.50000000
Zr       8.96226094       1.76745215      -1.76745203      -0.00000000      -0.49999999       0.50000000
Zr       7.16980877       3.63490429      -0.04999990       0.00000000       0.99999999      -1.00000000
Zr       5.37735660       5.35235644       1.81745223      -0.00000000      -0.49999999       0.50000000
Zr      10.75471314       0.02500003      -0.02499989       0.00000000       0.49999999      -0.50000000
Zr       8.96226097       1.81745218       1.76745224       0.00000000       0.49999999      -0.50000000
Zr       7.16980881       3.53490432       3.63490437      -0.00000000      -0.99999999       1.00000000
Zr      12.54716534      -1.74245209       1.74245225       0.00000000       0.99999999      -1.00000000
Zr      10.75471318      -0.02499994       3.60990438      -0.00000000      -0.49999999       0.50000000
Zr       8.96226101       1.76745220       5.40235651      -0.00000000      -0.49999999       0.50000000
Zr      14.33961755      -3.55990421       3.55990439       0.00000000       0.49999999      -0.50000000
Zr      12.54716538      -1.84245206       5.42735652      -0.00000000      -0.99999999       1.00000000
Zr      10.75471321       0.02500008       7.14480865       0.00000000       0.49999999      -0.50000000
Zr       7.16980871       7.11980852      -7.11980842      -0.00000000      -0.99999999       1.00000000
Zr       5.37735654       8.98726066      -5.40235629       0.00000000       0.49999999      -0.50000000
Zr       3.58490438      10.77971281      -3.60990416       0.00000000       0.49999999      -0.50000000
Zr       8.96226091       5.35235640      -5.35235628      -0.00000000      -0.49999999       0.50000000
Zr       7.16980875       7.21980854      -3.63490415       0.00000000       0.99999999      -1.00000000
Zr       5.37735658       8.93726069      -1.76745202      -0.00000000      -0.49999999       0.50000000
Zr      10.75471312       3.60990428      -3.60990414       0.00000000       0.49999999      -0.50000000
Zr       8.96226095       5.40235642      -1.81745201       0.00000000       0.49999999      -0.50000000
Zr       7.16980878       7.11980857       0.05000012      -0.00000000      -0.99999999       1.00000000
Zr      12.54716532       1.84245216      -1.84245200       0.00000000       0.99999999      -1.00000000
Zr      10.75471315       3.55990431       0.02500013      -0.00000000      -0.49999999       0.50000000
Zr       8.96226098       5.35235645       1.81745226      -0.00000000      -0.49999999       0.50000000
Zr      14.33961752       0.02500004      -0.02499986       0.00000000       0.49999999      -0.50000000
Zr      12.54716535       1.74245219       1.84245227      -0.00000000      -0.99999999       1.00000000
Zr      10.75471319       3.60990433       3.55990440       0.00000000       0.49999999      -0.50000000
Zr      16.13206972      -1.81745208       1.81745228      -0.00000000      -0.49999999       0.50000000
Zr      14.33961756      -0.02499993       3.60990441      -0.00000000      -0.49999999       0.50000000
Zr      12.54716539       1.84245221       5.32735654       0.00000000       0.99999999      -1.00000000
Zr       8.96226089       8.93726065      -8.93726052      -0.00000000      -0.49999999       0.50000000
Zr       7.16980872      10.80471279      -7.21980839       0.00000000       0.99999999      -1.00000000
Zr       5.37735655      12.52216494      -5.35235626      -0.00000000      -0.49999999       0.50000000
Zr      10.75471309       7.19480853      -7.19480838       0.00000000       0.49999999      -0.50000000
Zr       8.96226092       8.98726067      -5.40235625       0.00000000       0.49999999      -0.50000000
Zr       7.16980876      10.70471282      -3.53490412      -0.00000000      -0.99999999       1.00000000
Zr      12.54716529       5.42735641      -5.42735624       0.00000000       0.99999999      -1.00000000
Zr      10.75471313       7.14480855      -3.55990411      -0.00000000      -0.49999999       0.50000000
Zr       8.96226096       8.93726070      -1.76745198      -0.00000000      -0.49999999       0.50000000
Zr      14.33961750       3.60990429      -3.60990410       0.00000000       0.49999999      -0.50000000
Zr      12.54716533       5.32735644      -1.74245197      -0.00000000      -0.99999999       1.00000000
Zr      10.75471316       7.19480858      -0.02499984       0.00000000       0.49999999      -0.50000000
Zr      16.13206970       1.76745217      -1.76745196      -0.00000000      -0.49999999       0.50000000
Zr      14.33961753       3.55990432       0.02500017      -0.00000000      -0.49999999       0.50000000
Zr      12.54716536       5.42735646       1.74245230       0.00000000       0.99999999      -1.00000000
Zr      17.92452190      -0.04999995       0.05000018      -0.00000000      -0.99999999       1.00000000
Zr      16.13206973       1.81745220       1.76745231       0.00000000       0.49999999      -0.50000000
Zr      14.33961757       3.60990434       3.55990444       0.00000000       0.49999999      -0.50000000
108
Lattice="-5.377356501055379 5.377356433855448 5.377356389513249 10.75471321732783 -10.754712714258055 10.75471284079072 10.754713064099535 10.754712776246816 -10.754712625573656" Properties=species:S:1:pos:R:3:mode_u:R:3 system=zr_bcc path_model=mattersim pattern_model=mattersim mlip_model=mattersim role=mode stem=zr_bcc_mattersim_q1d3-1d6-1d6-b0 q="0.3333333333333333 0.16666666666666666 0.16666666666666666" band=0 dim="3 6 6" m_eff=9852.191871979077 check_pass=True Q=0.08888888888888889 index=4 mlip_energy_eV=-915.1560668945312 pbc="T T T"
Zr       0.00000000       0.04444444      -0.04444444       0.00000000       0.49999999      -0.50000000
Zr      -1.79245217       1.83689659       1.74800769       0.00000000       0.49999999      -0.50000000
Zr      -3.58490433       3.49601540       3.67379315      -0.00000000      -0.99999999       1.00000000
Zr       1.79245220      -1.70356323       1.70356325       0.00000000       0.99999999      -1.00000000
Zr       0.00000004      -0.04444442       3.62934871      -0.00000000      -0.49999999       0.50000000
Zr      -1.79245213       1.74800773       5.42180084      -0.00000000      -0.49999999       0.50000000
Zr       3.58490441      -3.54045979       3.54045984       0.00000000       0.49999999      -0.50000000
Zr       1.79245224      -1.88134098       5.46624530      -0.00000000      -0.99999999       1.00000000
Zr       0.00000007       0.04444450       7.12536410       0.00000000       0.49999999      -0.50000000
Zr       5.37735661      -5.42180080       5.42180086      -0.00000000      -0.49999999       0.50000000
Zr       3.58490444      -3.62934866       7.21425299      -0.00000000      -0.49999999       0.50000000
Zr       1.79245227      -1.70356318       8.87337179       0.00000000       0.99999999      -1.00000000
Zr       7.16980881      -7.25869736       7.25869745      -0.00000000      -0.99999999       1.00000000
Zr       5.37735664      -5.33291189       8.91781625       0.00000000       0.49999999      -0.50000000
Zr       3.58490448      -3.54045974      10.71026838       0.00000000       0.49999999      -0.50000000
Zr       8.96226101      -9.00670504       9.00670515      -0.00000000      -0.49999999       0.50000000
Zr       7.16980885      -7.08091956      10.66582394       0.00000000       0.99999999      -1.00000000
Zr       5.37735668      -5.42180075      12.59160940      -0.00000000      -0.49999999       0.50000000
Zr       1.79245218       1.88134102      -1.88134099       0.00000000       0.99999999      -1.00000000
Zr       0.00000001       3.54045983       0.04444447      -0.00000000      -0.49999999       0.50000000
Zr      -1.79245216       5.33291197       1.83689660      -0.00000000      -0.49999999       0.50000000
Zr       3.58490438       0.04444445      -0.04444441       0.00000000       0.49999999      -0.50000000
Zr       1.79245221       1.70356327       1.88134105      -0.00000000      -0.99999999       1.00000000
Zr       0.00000005       3.62934874       3.54045985       0.00000000       0.49999999      -0.50000000
Zr       5.37735658      -1.83689655       1.83689662      -0.00000000      -0.49999999       0.50000000
Zr       3.58490442      -0.04444441       3.62934875      -0.00000000      -0.49999999       0.50000000
Zr       1.79245225       1.88134107       5.28846755       0.00000000       0.99999999      -1.00000000
Zr       7.16980879      -3.67379312       3.67379321      -0.00000000      -0.99999999       1.00000000
Zr       5.37735662      -1.74800764       5.33291200       0.00000000       0.49999999      -0.50000000
Zr       3.58490445       0.04444451       7.12536413       0.00000000       0.49999999      -0.50000000
Zr       8.96226099      -5.42180079       5.42180090      -0.00000000      -0.49999999       0.50000000
Zr       7.16980882      -3.49601531       7.08091970       0.00000000       0.99999999      -1.00000000
Zr       5.37735665      -1.83689650       9.00670516      -0.00000000      -0.49999999       0.50000000
Zr      10.75471319      -7.12536402       7.12536415       0.00000000       0.49999999      -0.50000000
Zr       8.96226102      -5.33291188       8.91781628       0.00000000       0.49999999      -0.50000000
Zr       7.16980886      -3.67379306      10.84360174      -0.00000000      -0.99999999       1.00000000
Zr       3.58490435       3.62934870      -3.62934865       0.00000000       0.49999999      -0.50000000
Zr       1.79245219       5.28846752      -1.70356319      -0.00000000      -0.99999999       1.00000000
Zr       0.00000002       7.21425299      -0.04444439       0.00000000       0.49999999      -0.50000000
Zr       5.37735656       1.74800770      -1.74800762      -0.00000000      -0.49999999       0.50000000
Zr       3.58490439       3.54045984       0.04444451      -0.00000000      -0.49999999       0.50000000
Zr       1.79245222       5.46624532       1.70356330       0.00000000       0.99999999      -1.00000000
Zr       7.16980876      -0.08888887       0.08888896      -0.00000000      -0.99999999       1.00000000
Zr       5.37735659       1.83689661       1.74800776       0.00000000       0.49999999      -0.50000000
Zr       3.58490443       3.62934875       3.54045989       0.00000000       0.49999999      -0.50000000
Zr       8.96226096      -1.83689654       1.83689666      -0.00000000      -0.49999999       0.50000000
Zr       7.16980880       0.08888893       3.49601545       0.00000000       0.99999999      -1.00000000
Zr       5.37735663       1.74800775       5.42180092      -0.00000000      -0.49999999       0.50000000
Zr      10.75471317      -3.54045977       3.54045991       0.00000000       0.49999999      -0.50000000
Zr       8.96226100      -1.74800763       5.33291204       0.00000000       0.49999999      -0.50000000
Zr       7.16980883      -0.08888882       7.25869750      -0.00000000      -0.99999999       1.00000000
Zr      12.54716537      -5.28846745       5.28846760       0.00000000       0.99999999      -1.00000000
Zr      10.75471320      -3.62934864       7.21425307      -0.00000000      -0.49999999       0.50000000
Zr       8.96226104      -1.83689649       9.00670520      -0.00000000      -0.49999999       0.50000000
Zr       5.37735653       5.33291194      -5.33291187      -0.00000000      -0.49999999       0.50000000
Zr       3.58490436       7.12536409      -3.54045974      -0.00000000      -0.49999999       0.50000000
Zr       1.79245220       9.05114957      -1.88134094       0.00000000       0.99999999      -1.00000000
Zr       7.16980873       3.49601538      -3.49601528      -0.00000000      -0.99999999       1.00000000
Zr       5.37735657       5.42180086      -1.83689649       0.00000000       0.49999999      -0.50000000
Zr       3.58490440       7.21425300      -0.04444436       0.00000000       0.49999999      -0.50000000
Zr       8.96226094       1.74800771      -1.74800759      -0.00000000      -0.49999999       0.50000000
Zr       7.16980877       3.67379318      -0.08888879       0.00000000       0.99999999      -1.00000000
Zr       5.37735660       5.33291200       1.83689667      -0.00000000      -0.49999999       0.50000000
Zr      10.75471314       0.04444447      -0.04444434       0.00000000       0.49999999      -0.50000000
Zr       8.96226097       1.83689662       1.74800779       0.00000000       0.49999999      -0.50000000
Zr       7.16980881       3.49601543       3.67379326      -0.00000000      -0.99999999       1.00000000
Zr      12.54716534      -1.70356320       1.70356336       0.00000000       0.99999999      -1.00000000
Zr      10.75471318      -0.04444439       3.62934882      -0.00000000      -0.49999999       0.50000000
Zr       8.96226101       1.74800776       5.42180095      -0.00000000      -0.49999999       0.50000000
Zr      14.33961755      -3.54045976       3.54045994       0.00000000       0.49999999      -0.50000000
Zr      12.54716538      -1.88134095       5.46624541      -0.00000000      -0.99999999       1.00000000
Zr      10.75471321       0.04444453       7.12536420       0.00000000       0.49999999      -0.50000000
Zr       7.16980871       7.08091963      -7.08091953      -0.00000000      -0.99999999       1.00000000
Zr       5.37735654       9.00670511      -5.42180073       0.00000000       0.49999999      -0.50000000
Zr       3.58490438      10.79915725      -3.62934860       0.00000000       0.49999999      -0.50000000
Zr       8.96226091       5.33291195      -5.33291183      -0.00000000      -0.49999999       0.50000000
Zr       7.16980875       7.25869743      -3.67379304       0.00000000       0.99999999      -1.00000000
Zr       5.37735658       8.91781624      -1.74800757      -0.00000000      -0.49999999       0.50000000
Zr      10.75471312       3.62934872      -3.62934858       0.00000000       0.49999999      -0.50000000
Zr       8.96226095       5.42180087      -1.83689645       0.00000000       0.49999999      -0.50000000
Zr       7.16980878       7.08091968       0.08888901      -0.00000000      -0.99999999       1.00000000
Zr      12.54716532       1.88134105      -1.88134089       0.00000000       0.99999999      -1.00000000
Zr      10.75471315       3.54045986       0.04444458      -0.00000000      -0.49999999       0.50000000
Zr       8.96226098       5.33291201       1.83689671      -0.00000000      -0.49999999       0.50000000
Zr      14.33961752       0.04444449      -0.04444430       0.00000000       0.49999999      -0.50000000
Zr      12.54716535       1.70356330       1.88134116      -0.00000000      -0.99999999       1.00000000
Zr      10.75471319       3.62934877       3.54045996       0.00000000       0.49999999      -0.50000000
Zr      16.13206972      -1.83689652       1.83689673      -0.00000000      -0.49999999       0.50000000
Zr      14.33961756      -0.04444438       3.62934886      -0.00000000      -0.49999999       0.50000000
Zr      12.54716539       1.88134110       5.28846765       0.00000000       0.99999999      -1.00000000
Zr       8.96226089       8.91781620      -8.91781608      -0.00000000      -0.49999999       0.50000000
Zr       7.16980872      10.84360168      -7.25869728       0.00000000       0.99999999      -1.00000000
Zr       5.37735655      12.50272049      -5.33291182      -0.00000000      -0.49999999       0.50000000
Zr      10.75471309       7.21425297      -7.21425283       0.00000000       0.49999999      -0.50000000
Zr       8.96226092       9.00670512      -5.42180070       0.00000000       0.49999999      -0.50000000
Zr       7.16980876      10.66582393      -3.49601523      -0.00000000      -0.99999999       1.00000000
Zr      12.54716529       5.46624530      -5.46624513       0.00000000       0.99999999      -1.00000000
Zr      10.75471313       7.12536411      -3.54045967      -0.00000000      -0.49999999       0.50000000
Zr       8.96226096       8.91781625      -1.74800754      -0.00000000      -0.49999999       0.50000000
Zr      14.33961750       3.62934873      -3.62934855       0.00000000       0.49999999      -0.50000000
Zr      12.54716533       5.28846755      -1.70356308      -0.00000000      -0.99999999       1.00000000
Zr      10.75471316       7.21425302      -0.04444429       0.00000000       0.49999999      -0.50000000
Zr      16.13206970       1.74800773      -1.74800752      -0.00000000      -0.49999999       0.50000000
Zr      14.33961753       3.54045987       0.04444461      -0.00000000      -0.49999999       0.50000000
Zr      12.54716536       5.46624535       1.70356341       0.00000000       0.99999999      -1.00000000
Zr      17.92452190      -0.08888884       0.08888907      -0.00000000      -0.99999999       1.00000000
Zr      16.13206973       1.83689664       1.74800786       0.00000000       0.49999999      -0.50000000
Zr      14.33961757       3.62934878       3.54045999       0.00000000       0.49999999      -0.50000000
108
Lattice="-5.377356501055379 5.377356433855448 5.377356389513249 10.75471321732783 -10.754712714258055 10.75471284079072 10.754713064099535 10.754712776246816 -10.754712625573656" Properties=species:S:1:pos:R:3:mode_u:R:3 system=zr_bcc path_model=mattersim pattern_model=mattersim mlip_model=mattersim role=mode stem=zr_bcc_mattersim_q1d3-1d6-1d6-b0 q="0.3333333333333333 0.16666666666666666 0.16666666666666666" band=0 dim="3 6 6" m_eff=9852.191871979077 check_pass=True Q=0.13888888888888892 index=5 mlip_energy_eV=-915.2994384765625 pbc="T T T"
Zr       0.00000000       0.06944444      -0.06944444       0.00000000       0.49999999      -0.50000000
Zr      -1.79245217       1.86189659       1.72300769       0.00000000       0.49999999      -0.50000000
Zr      -3.58490433       3.44601540       3.72379315      -0.00000000      -0.99999999       1.00000000
Zr       1.79245220      -1.65356323       1.65356325       0.00000000       0.99999999      -1.00000000
Zr       0.00000004      -0.06944442       3.65434871      -0.00000000      -0.49999999       0.50000000
Zr      -1.79245213       1.72300773       5.44680084      -0.00000000      -0.49999999       0.50000000
Zr       3.58490441      -3.51545979       3.51545984       0.00000000       0.49999999      -0.50000000
Zr       1.79245224      -1.93134098       5.51624530      -0.00000000      -0.99999999       1.00000000
Zr       0.00000007       0.06944449       7.10036410       0.00000000       0.49999999      -0.50000000
Zr       5.37735661      -5.44680080       5.44680086      -0.00000000      -0.49999999       0.50000000
Zr       3.58490444      -3.65434866       7.23925299      -0.00000000      -0.49999999       0.50000000
Zr       1.79245227      -1.65356318       8.82337179       0.00000000       0.99999999      -1.00000000
Zr       7.16980881      -7.30869736       7.30869745      -0.00000000      -0.99999999       1.00000000
Zr       5.37735664      -5.30791189       8.89281625       0.00000000       0.49999999      -0.50000000
Zr       3.58490448      -3.51545974      10.68526838       0.00000000       0.49999999      -0.50000000
Zr       8.96226101      -9.03170504       9.03170515      -0.00000000      -0.49999999       0.50000000
Zr       7.16980885      -7.03091956      10.61582394       0.00000000       0.99999999      -1.00000000
Zr       5.37735668      -5.44680075      12.61660940      -0.00000000      -0.49999999       0.50000000
Zr       1.79245218       1.93134102      -1.93134099       0.00000000       0.99999999      -1.00000000
Zr       0.00000001       3.51545983       0.06944447      -0.00000000      -0.49999999       0.50000000
Zr      -1.79245216       5.30791198       1.86189660      -0.00000000      -0.49999999       0.50000000
Zr       3.58490438       0.06944445      -0.06944441       0.00000000       0.49999999      -0.50000000
Zr       1.79245221       1.65356327       1.93134105      -0.00000000      -0.99999999       1.00000000
Zr       0.00000005       3.65434874       3.51545985       0.00000000       0.49999999      -0.50000000
Zr       5.37735658      -1.86189655       1.86189662      -0.00000000      -0.49999999       0.50000000
Zr       3.58490442      -0.06944441       3.65434875      -0.00000000      -0.49999999       0.50000000
Zr       1.79245225       1.93134107       5.23846755       0.00000000       0.99999999      -1.00000000
Zr       7.16980879      -3.72379311       3.72379321      -0.00000000      -0.99999999       1.00000000
Zr       5.37735662      -1.72300764       5.30791200       0.00000000       0.49999999      -0.50000000
Zr       3.58490445       0.06944451       7.10036413       0.00000000       0.49999999      -0.50000000
Zr       8.96226099      -5.44680079       5.44680090      -0.00000000      -0.49999999       0.50000000
Zr       7.16980882      -3.44601532       7.03091970       0.00000000       0.99999999      -1.00000000
Zr       5.37735665      -1.86189650       9.03170516      -0.00000000      -0.49999999       0.50000000
Zr      10.75471319      -7.10036402       7.10036415       0.00000000       0.49999999      -0.50000000
Zr       8.96226102      -5.30791188       8.89281628       0.00000000       0.49999999      -0.50000000
Zr       7.16980886      -3.72379306      10.89360174      -0.00000000      -0.99999999       1.00000000
Zr       3.58490435       3.65434870      -3.65434865       0.00000000       0.49999999      -0.50000000
Zr       1.79245219       5.23846752      -1.65356319      -0.00000000      -0.99999999       1.00000000
Zr       0.00000002       7.23925299      -0.06944439       0.00000000       0.49999999      -0.50000000
Zr       5.37735656       1.72300770      -1.72300762      -0.00000000      -0.49999999       0.50000000
Zr       3.58490439       3.51545984       0.06944451      -0.00000000      -0.49999999       0.50000000
Zr       1.79245222       5.51624532       1.65356330       0.00000000       0.99999999      -1.00000000
Zr       7.16980876      -0.13888887       0.13888896      -0.00000000      -0.99999999       1.00000000
Zr       5.37735659       1.86189661       1.72300776       0.00000000       0.49999999      -0.50000000
Zr       3.58490443       3.65434875       3.51545989       0.00000000       0.49999999      -0.50000000
Zr       8.96226096      -1.86189654       1.86189666      -0.00000000      -0.49999999       0.50000000
Zr       7.16980880       0.13888893       3.44601545       0.00000000       0.99999999      -1.00000000
Zr       5.37735663       1.72300775       5.44680092      -0.00000000      -0.49999999       0.50000000
Zr      10.75471317      -3.51545977       3.51545991       0.00000000       0.49999999      -0.50000000
Zr       8.96226100      -1.72300763       5.30791204       0.00000000       0.49999999      -0.50000000
Zr       7.16980883      -0.13888882       7.30869750      -0.00000000      -0.99999999       1.00000000
Zr      12.54716537      -5.23846745       5.23846760       0.00000000       0.99999999      -1.00000000
Zr      10.75471320      -3.65434864       7.23925307      -0.00000000      -0.49999999       0.50000000
Zr       8.96226104      -1.86189649       9.03170520      -0.00000000      -0.49999999       0.50000000
Zr       5.37735653       5.30791194      -5.30791187      -0.00000000      -0.49999999       0.50000000
Zr       3.58490436       7.10036409      -3.51545974      -0.00000000      -0.49999999       0.50000000
Zr       1.79245220       9.10114956      -1.93134094       0.00000000       0.99999999      -1.00000000
Zr       7.16980873       3.44601538      -3.44601528      -0.00000000      -0.99999999       1.00000000
Zr       5.37735657       5.44680086      -1.86189649       0.00000000       0.49999999      -0.50000000
Zr       3.58490440       7.23925300      -0.06944436       0.00000000       0.49999999      -0.50000000
Zr       8.96226094       1.72300771      -1.72300759      -0.00000000      -0.49999999       0.50000000
Zr       7.16980877       3.72379318      -0.13888879       0.00000000       0.99999999      -1.00000000
Zr       5.37735660       5.30791200       1.86189667      -0.00000000      -0.49999999       0.50000000
Zr      10.75471314       0.06944447      -0.06944434       0.00000000       0.49999999      -0.50000000
Zr       8.96226097       1.86189662       1.72300779       0.00000000       0.49999999      -0.50000000
Zr       7.16980881       3.44601543       3.72379326      -0.00000000      -0.99999999       1.00000000
Zr      12.54716534      -1.65356320       1.65356336       0.00000000       0.99999999      -1.00000000
Zr      10.75471318      -0.06944439       3.65434882      -0.00000000      -0.49999999       0.50000000
Zr       8.96226101       1.72300776       5.44680095      -0.00000000      -0.49999999       0.50000000
Zr      14.33961755      -3.51545976       3.51545994       0.00000000       0.49999999      -0.50000000
Zr      12.54716538      -1.93134095       5.51624541      -0.00000000      -0.99999999       1.00000000
Zr      10.75471321       0.06944453       7.10036420       0.00000000       0.49999999      -0.50000000
Zr       7.16980871       7.03091963      -7.03091953      -0.00000000      -0.99999999       1.00000000
Zr       5.37735654       9.03170511      -5.44680073       0.00000000       0.49999999      -0.50000000
Zr       3.58490438      10.82415725      -3.65434860       0.00000000       0.49999999      -0.50000000
Zr       8.96226091       5.30791195      -5.30791183      -0.00000000      -0.49999999       0.50000000
Zr       7.16980875       7.30869743      -3.72379304       0.00000000       0.99999999      -1.00000000
Zr       5.37735658       8.89281624      -1.72300757      -0.00000000      -0.49999999       0.50000000
Zr      10.75471312       3.65434872      -3.65434858       0.00000000       0.49999999      -0.50000000
Zr       8.96226095       5.44680087      -1.86189645       0.00000000       0.49999999      -0.50000000
Zr       7.16980878       7.03091968       0.13888901      -0.00000000      -0.99999999       1.00000000
Zr      12.54716532       1.93134105      -1.93134089       0.00000000       0.99999999      -1.00000000
Zr      10.75471315       3.51545986       0.06944458      -0.00000000      -0.49999999       0.50000000
Zr       8.96226098       5.30791201       1.86189671      -0.00000000      -0.49999999       0.50000000
Zr      14.33961752       0.06944448      -0.06944430       0.00000000       0.49999999      -0.50000000
Zr      12.54716535       1.65356330       1.93134116      -0.00000000      -0.99999999       1.00000000
Zr      10.75471319       3.65434877       3.51545996       0.00000000       0.49999999      -0.50000000
Zr      16.13206972      -1.86189652       1.86189673      -0.00000000      -0.49999999       0.50000000
Zr      14.33961756      -0.06944438       3.65434886      -0.00000000      -0.49999999       0.50000000
Zr      12.54716539       1.93134110       5.23846765       0.00000000       0.99999999      -1.00000000
Zr       8.96226089       8.89281620      -8.89281608      -0.00000000      -0.49999999       0.50000000
Zr       7.16980872      10.89360168      -7.30869728       0.00000000       0.99999999      -1.00000000
Zr       5.37735655      12.47772049      -5.30791182      -0.00000000      -0.49999999       0.50000000
Zr      10.75471309       7.23925297      -7.23925283       0.00000000       0.49999999      -0.50000000
Zr       8.96226092       9.03170512      -5.44680070       0.00000000       0.49999999      -0.50000000
Zr       7.16980876      10.61582393      -3.44601523      -0.00000000      -0.99999999       1.00000000
Zr      12.54716529       5.51624530      -5.51624513       0.00000000       0.99999999      -1.00000000
Zr      10.75471313       7.10036411      -3.51545967      -0.00000000      -0.49999999       0.50000000
Zr       8.96226096       8.89281625      -1.72300754      -0.00000000      -0.49999999       0.50000000
Zr      14.33961750       3.65434873      -3.65434855       0.00000000       0.49999999      -0.50000000
Zr      12.54716533       5.23846755      -1.65356308      -0.00000000      -0.99999999       1.00000000
Zr      10.75471316       7.23925302      -0.06944429       0.00000000       0.49999999      -0.50000000
Zr      16.13206970       1.72300773      -1.72300752      -0.00000000      -0.49999999       0.50000000
Zr      14.33961753       3.51545987       0.06944461      -0.00000000      -0.49999999       0.50000000
Zr      12.54716536       5.51624535       1.65356341       0.00000000       0.99999999      -1.00000000
Zr      17.92452190      -0.13888884       0.13888907      -0.00000000      -0.99999999       1.00000000
Zr      16.13206973       1.86189664       1.72300786       0.00000000       0.49999999      -0.50000000
Zr      14.33961757       3.65434878       3.51545999       0.00000000       0.49999999      -0.50000000
108
Lattice="-5.377356501055379 5.377356433855448 5.377356389513249 10.75471321732783 -10.754712714258055 10.75471284079072 10.754713064099535 10.754712776246816 -10.754712625573656" Properties=species:S:1:pos:R:3:mode_u:R:3 system=zr_bcc path_model=mattersim pattern_model=mattersim mlip_model=mattersim role=mode stem=zr_bcc_mattersim_q1d3-1d6-1d6-b0 q="0.3333333333333333 0.16666666666666666 0.16666666666666666" band=0 dim="3 6 6" m_eff=9852.191871979077 check_pass=True Q=0.19999999999999998 index=6 mlip_energy_eV=-914.6832275390625 pbc="T T T"
Zr       0.00000000       0.10000000      -0.10000000       0.00000000       0.49999999      -0.50000000
Zr      -1.79245217       1.89245214       1.69245213       0.00000000       0.49999999      -0.50000000
Zr      -3.58490433       3.38490429       3.78490426      -0.00000000      -0.99999999       1.00000000
Zr       1.79245220      -1.59245212       1.59245214       0.00000000       0.99999999      -1.00000000
Zr       0.00000004      -0.09999997       3.68490427      -0.00000000      -0.49999999       0.50000000
Zr      -1.79245213       1.69245217       5.47735640      -0.00000000      -0.49999999       0.50000000
Zr       3.58490441      -3.48490424       3.48490428       0.00000000       0.49999999      -0.50000000
Zr       1.79245224      -1.99245209       5.57735641      -0.00000000      -0.99999999       1.00000000
Zr       0.00000007       0.10000005       7.06980854       0.00000000       0.49999999      -0.50000000
Zr       5.37735661      -5.47735636       5.47735642      -0.00000000      -0.49999999       0.50000000
Zr       3.58490444      -3.68490421       7.26980855      -0.00000000      -0.49999999       0.50000000
Zr       1.79245227      -1.59245207       8.76226068       0.00000000       0.99999999      -1.00000000
Zr       7.16980881      -7.36980847       7.36980856      -0.00000000      -0.99999999       1.00000000
Zr       5.37735664      -5.27735633       8.86226069       0.00000000       0.49999999      -0.50000000
Zr       3.58490448      -3.48490419      10.65471282       0.00000000       0.49999999      -0.50000000
Zr       8.96226101      -9.06226059       9.06226070      -0.00000000      -0.49999999       0.50000000
Zr       7.16980885      -6.96980845      10.55471283       0.00000000       0.99999999      -1.00000000
Zr       5.37735668      -5.47735630      12.64716496      -0.00000000      -0.49999999       0.50000000
Zr       1.79245218       1.99245213      -1.99245210       0.00000000       0.99999999      -1.00000000
Zr       0.00000001       3.48490428       0.10000003      -0.00000000      -0.49999999       0.50000000
Zr      -1.79245216       5.27735642       1.89245216      -0.00000000      -0.49999999       0.50000000
Zr       3.58490438       0.10000001      -0.09999996       0.00000000       0.49999999      -0.50000000
Zr       1.79245221       1.59245216       1.99245217      -0.00000000      -0.99999999       1.00000000
Zr       0.00000005       3.68490430       3.48490430       0.00000000       0.49999999      -0.50000000
Zr       5.37735658      -1.89245211       1.89245218      -0.00000000      -0.49999999       0.50000000
Zr       3.58490442      -0.09999996       3.68490431      -0.00000000      -0.49999999       0.50000000
Zr       1.79245225       1.99245218       5.17735644       0.00000000       0.99999999      -1.00000000
Zr       7.16980879      -3.78490423       3.78490432      -0.00000000      -0.99999999       1.00000000
Zr       5.37735662      -1.69245208       5.27735645       0.00000000       0.49999999      -0.50000000
Zr       3.58490445       0.10000006       7.06980858       0.00000000       0.49999999      -0.50000000
Zr       8.96226099      -5.47735635       5.47735646      -0.00000000      -0.49999999       0.50000000
Zr       7.16980882      -3.38490420       6.96980859       0.00000000       0.99999999      -1.00000000
Zr       5.37735665      -1.89245206       9.06226072      -0.00000000      -0.49999999       0.50000000
Zr      10.75471319      -7.06980847       7.06980860       0.00000000       0.49999999      -0.50000000
Zr       8.96226102      -5.27735632       8.86226073       0.00000000       0.49999999      -0.50000000
Zr       7.16980886      -3.78490417      10.95471286      -0.00000000      -0.99999999       1.00000000
Zr       3.58490435       3.68490426      -3.68490421       0.00000000       0.49999999      -0.50000000
Zr       1.79245219       5.17735641      -1.59245208      -0.00000000      -0.99999999       1.00000000
Zr       0.00000002       7.26980855      -0.09999995       0.00000000       0.49999999      -0.50000000
Zr       5.37735656       1.69245214      -1.69245207      -0.00000000      -0.49999999       0.50000000
Zr       3.58490439       3.48490429       0.10000006      -0.00000000      -0.49999999       0.50000000
Zr       1.79245222       5.57735643       1.59245219       0.00000000       0.99999999      -1.00000000
Zr       7.16980876      -0.19999998       0.20000007      -0.00000000      -0.99999999       1.00000000
Zr       5.37735659       1.89245216       1.69245220       0.00000000       0.49999999      -0.50000000
Zr       3.58490443       3.68490431       3.48490433       0.00000000       0.49999999      -0.50000000
Zr       8.96226096      -1.89245210       1.89245221      -0.00000000      -0.49999999       0.50000000
Zr       7.16980880       0.20000004       3.38490434       0.00000000       0.99999999      -1.00000000
Zr       5.37735663       1.69245219       5.47735647      -0.00000000      -0.49999999       0.50000000
Zr      10.75471317      -3.48490422       3.48490435       0.00000000       0.49999999      -0.50000000
Zr       8.96226100      -1.69245207       5.27735648       0.00000000       0.49999999      -0.50000000
Zr       7.16980883      -0.19999993       7.36980861      -0.00000000      -0.99999999       1.00000000
Zr      12.54716537      -5.17735634       5.17735649       0.00000000       0.99999999      -1.00000000
Zr      10.75471320      -3.68490419       7.26980862      -0.00000000      -0.49999999       0.50000000
Zr       8.96226103      -1.89245205       9.06226075      -0.00000000      -0.49999999       0.50000000
Zr       5.37735653       5.27735639      -5.27735631      -0.00000000      -0.49999999       0.50000000
Zr       3.58490436       7.06980853      -3.48490418      -0.00000000      -0.49999999       0.50000000
Zr       1.79245220       9.16226067      -1.99245205       0.00000000       0.99999999      -1.00000000
Zr       7.16980873       3.38490427      -3.38490417      -0.00000000      -0.99999999       1.00000000
Zr       5.37735657       5.47735641      -1.89245204       0.00000000       0.49999999      -0.50000000
Zr       3.58490440       7.26980856      -0.09999991       0.00000000       0.49999999      -0.50000000
Zr       8.96226094       1.69245215      -1.69245203      -0.00000000      -0.49999999       0.50000000
Zr       7.16980877       3.78490429      -0.19999990       0.00000000       0.99999999      -1.00000000
Zr       5.37735660       5.27735644       1.89245223      -0.00000000      -0.49999999       0.50000000
Zr      10.75471314       0.10000003      -0.09999989       0.00000000       0.49999999      -0.50000000
Zr       8.96226097       1.89245217       1.69245224       0.00000000       0.49999999      -0.50000000
Zr       7.16980881       3.38490432       3.78490437      -0.00000000      -0.99999999       1.00000000
Zr      12.54716534      -1.59245209       1.59245225       0.00000000       0.99999999      -1.00000000
Zr      10.75471318      -0.09999994       3.68490438      -0.00000000      -0.49999999       0.50000000
Zr       8.96226101       1.69245220       5.47735651      -0.00000000      -0.49999999       0.50000000
Zr      14.33961755      -3.48490421       3.48490439       0.00000000       0.49999999      -0.50000000
Zr      12.54716538      -1.99245206       5.57735652      -0.00000000      -0.99999999       1.00000000
Zr      10.75471321       0.10000008       7.06980865       0.00000000       0.49999999      -0.50000000
Zr       7.16980871       6.96980852      -6.96980842      -0.00000000      -0.99999999       1.00000000
Zr       5.37735654       9.06226066      -5.47735629       0.00000000       0.49999999      -0.50000000
Zr       3.58490438      10.85471281      -3.68490416       0.00000000       0.49999999      -0.50000000
Zr       8.96226091       5.27735640      -5.27735628      -0.00000000      -0.49999999       0.50000000
Zr       7.16980875       7.36980854      -3.78490415       0.00000000       0.99999999      -1.00000000
Zr       5.37735658       8.86226069      -1.69245202      -0.00000000      -0.49999999       0.50000000
Zr      10.75471312       3.68490428      -3.68490414       0.00000000       0.49999999      -0.50000000
Zr       8.96226095       5.47735642      -1.89245201       0.00000000       0.49999999      -0.50000000
Zr       7.16980878       6.96980857       0.20000012      -0.00000000      -0.99999999       1.00000000
Zr      12.54716532       1.99245216      -1.99245200       0.00000000       0.99999999      -1.00000000
Zr      10.75471315       3.48490431       0.10000013      -0.00000000      -0.49999999       0.50000000
Zr       8.96226098       5.27735645       1.89245226      -0.00000000      -0.49999999       0.50000000
Zr      14.33961752       0.10000004      -0.09999986       0.00000000       0.49999999      -0.50000000
Zr      12.54716535       1.59245219       1.99245227      -0.00000000      -0.99999999       1.00000000
Zr      10.75471319       3.68490433       3.48490440       0.00000000       0.49999999      -0.50000000
Zr      16.13206972      -1.89245208       1.89245228      -0.00000000      -0.49999999       0.50000000
Zr      14.33961756      -0.09999993       3.68490441      -0.00000000      -0.49999999       0.50000000
Zr      12.54716539       1.99245221       5.17735654       0.00000000       0.99999999      -1.00000000
Zr       8.96226089       8.86226065      -8.86226052      -0.00000000      -0.49999999       0.50000000
Zr       7.16980872      10.95471279      -7.36980839       0.00000000       0.99999999      -1.00000000
Zr       5.37735655      12.44716494      -5.27735626      -0.00000000      -0.49999999       0.50000000
Zr      10.75471309       7.26980853      -7.26980838       0.00000000       0.49999999      -0.50000000
Zr       8.96226092       9.06226067      -5.47735625       0.00000000       0.49999999      -0.50000000
Zr       7.16980876      10.55471282      -3.38490412      -0.00000000      -0.99999999       1.00000000
Zr      12.54716529       5.57735641      -5.57735624       0.00000000       0.99999999      -1.00000000
Zr      10.75471313       7.06980855      -3.48490411      -0.00000000      -0.49999999       0.50000000
Zr       8.96226096       8.86226070      -1.69245198      -0.00000000      -0.49999999       0.50000000
Zr      14.33961750       3.68490429      -3.68490410       0.00000000       0.49999999      -0.50000000
Zr      12.54716533       5.17735644      -1.59245197      -0.00000000      -0.99999999       1.00000000
Zr      10.75471316       7.26980858      -0.09999984       0.00000000       0.49999999      -0.50000000
Zr      16.13206970       1.69245217      -1.69245196      -0.00000000      -0.49999999       0.50000000
Zr      14.33961753       3.48490432       0.10000017      -0.00000000      -0.49999999       0.50000000
Zr      12.54716536       5.57735646       1.59245230       0.00000000       0.99999999      -1.00000000
Zr      17.92452190      -0.19999995       0.20000018      -0.00000000      -0.99999999       1.00000000
Zr      16.13206973       1.89245219       1.69245231       0.00000000       0.49999999      -0.50000000
Zr      14.33961757       3.68490434       3.48490444       0.00000000       0.49999999      -0.50000000
108
Lattice="-5.377356501055379 5.377356433855448 5.377356389513249 10.75471321732783 -10.754712714258055 10.75471284079072 10.754713064099535 10.754712776246816 -10.754712625573656" Properties=species:S:1:pos:R:3:mode_u:R:3 system=zr_bcc path_model=mattersim pattern_model=mattersim mlip_model=mattersim role=mode stem=zr_bcc_mattersim_q1d3-1d6-1d6-b0 q="0.3333333333333333 0.16666666666666666 0.16666666666666666" band=0 dim="3 6 6" m_eff=9852.191871979077 check_pass=True Q=0.27222222222222214 index=7 mlip_energy_eV=-912.2467041015625 pbc="T T T"
Zr       0.00000000       0.13611111      -0.13611111       0.00000000       0.49999999      -0.50000000
Zr      -1.79245217       1.92856325       1.65634102       0.00000000       0.49999999      -0.50000000
Zr      -3.58490433       3.31268207       3.85712648      -0.00000000      -0.99999999       1.00000000
Zr       1.79245220      -1.52022990       1.52022992       0.00000000       0.99999999      -1.00000000
Zr       0.00000004      -0.13611108       3.72101538      -0.00000000      -0.49999999       0.50000000
Zr      -1.79245213       1.65634106       5.51346751      -0.00000000      -0.49999999       0.50000000
Zr       3.58490441      -3.44879313       3.44879317       0.00000000       0.49999999      -0.50000000
Zr       1.79245224      -2.06467431       5.64957863      -0.00000000      -0.99999999       1.00000000
Zr       0.00000007       0.13611116       7.03369743       0.00000000       0.49999999      -0.50000000
Zr       5.37735661      -5.51346747       5.51346753      -0.00000000      -0.49999999       0.50000000
Zr       3.58490444      -3.72101532       7.30591966      -0.00000000      -0.49999999       0.50000000
Zr       1.79245227      -1.52022985       8.69003846       0.00000000       0.99999999      -1.00000000
Zr       7.16980881      -7.44203069       7.44203078      -0.00000000      -0.99999999       1.00000000
Zr       5.37735664      -5.24124522       8.82614958       0.00000000       0.49999999      -0.50000000
Zr       3.58490448      -3.44879308      10.61860171       0.00000000       0.49999999      -0.50000000
Zr       8.96226101      -9.09837170       9.09837181      -0.00000000      -0.49999999       0.50000000
Zr       7.16980885      -6.89758623      10.48249061       0.00000000       0.99999999      -1.00000000
Zr       5.37735668      -5.51346742      12.68327607      -0.00000000      -0.49999999       0.50000000
Zr       1.79245218       2.06467435      -2.06467433       0.00000000       0.99999999      -1.00000000
Zr       0.00000001       3.44879316       0.13611114      -0.00000000      -0.49999999       0.50000000
Zr      -1.79245216       5.24124531       1.92856327      -0.00000000      -0.49999999       0.50000000
Zr       3.58490438       0.13611112      -0.13611108       0.00000000       0.49999999      -0.50000000
Zr       1.79245221       1.52022994       2.06467439      -0.00000000      -0.99999999       1.00000000
Zr       0.00000005       3.72101541       3.44879318       0.00000000       0.49999999      -0.50000000
Zr       5.37735658      -1.92856322       1.92856329      -0.00000000      -0.49999999       0.50000000
Zr       3.58490442      -0.13611107       3.72101542      -0.00000000      -0.49999999       0.50000000
Zr       1.79245225       2.06467440       5.10513421       0.00000000       0.99999999      -1.00000000
Zr       7.16980879      -3.85712645       3.85712654      -0.00000000      -0.99999999       1.00000000
Zr       5.37735662      -1.65634097       5.24124533       0.00000000       0.49999999      -0.50000000
Zr       3.58490445       0.13611117       7.03369746       0.00000000       0.49999999      -0.50000000
Zr       8.96226099      -5.51346746       5.51346757      -0.00000000      -0.49999999       0.50000000
Zr       7.16980882      -3.31268198       6.89758636       0.00000000       0.99999999      -1.00000000
Zr       5.37735665      -1.92856317       9.09837183      -0.00000000      -0.49999999       0.50000000
Zr      10.75471319      -7.03369736       7.03369749       0.00000000       0.49999999      -0.50000000
Zr       8.96226102      -5.24124521       8.82614962       0.00000000       0.49999999      -0.50000000
Zr       7.16980886      -3.85712640      11.02693508      -0.00000000      -0.99999999       1.00000000
Zr       3.58490435       3.72101537      -3.72101532       0.00000000       0.49999999      -0.50000000
Zr       1.79245219       5.10513418      -1.52022986      -0.00000000      -0.99999999       1.00000000
Zr       0.00000002       7.30591966      -0.13611106       0.00000000       0.49999999      -0.50000000
Zr       5.37735656       1.65634103      -1.65634096      -0.00000000      -0.49999999       0.50000000
Zr       3.58490439       3.44879317       0.13611117      -0.00000000      -0.49999999       0.50000000
Zr       1.79245222       5.64957865       1.52022997       0.00000000       0.99999999      -1.00000000
Zr       7.16980876      -0.27222220       0.27222229      -0.00000000      -0.99999999       1.00000000
Zr       5.37735659       1.92856327       1.65634109       0.00000000       0.49999999      -0.50000000
Zr       3.58490443       3.72101542       3.44879322       0.00000000       0.49999999      -0.50000000
Zr       8.96226096      -1.92856321       1.92856332      -0.00000000      -0.49999999       0.50000000
Zr       7.16980880       0.27222226       3.31268212       0.00000000       0.99999999      -1.00000000
Zr       5.37735663       1.65634108       5.51346758      -0.00000000      -0.49999999       0.50000000
Zr      10.75471317      -3.44879311       3.44879324       0.00000000       0.49999999      -0.50000000
Zr       8.96226100      -1.65634096       5.24124537       0.00000000       0.49999999      -0.50000000
Zr       7.16980883      -0.27222215       7.44203083      -0.00000000      -0.99999999       1.00000000
Zr      12.54716537      -5.10513412       5.10513427       0.00000000       0.99999999      -1.00000000
Zr      10.75471320      -3.72101530       7.30591973      -0.00000000      -0.49999999       0.50000000
Zr       8.96226103      -1.92856316       9.09837186      -0.00000000      -0.49999999       0.50000000
Zr       5.37735653       5.24124528      -5.24124520      -0.00000000      -0.49999999       0.50000000
Zr       3.58490436       7.03369742      -3.44879307      -0.00000000      -0.49999999       0.50000000
Zr       1.79245220       9.23448290      -2.06467428       0.00000000       0.99999999      -1.00000000
Zr       7.16980873       3.31268205      -3.31268195      -0.00000000      -0.99999999       1.00000000
Zr       5.37735657       5.51346752      -1.92856315       0.00000000       0.49999999      -0.50000000
Zr       3.58490440       7.30591967      -0.13611102       0.00000000       0.49999999      -0.50000000
Zr       8.96226094       1.65634104      -1.65634092      -0.00000000      -0.49999999       0.50000000
Zr       7.16980877       3.85712651      -0.27222212       0.00000000       0.99999999      -1.00000000
Zr       5.37735660       5.24124533       1.92856334      -0.00000000      -0.49999999       0.50000000
Zr      10.75471314       0.13611114      -0.13611100       0.00000000       0.49999999      -0.50000000
Zr       8.96226097       1.92856328       1.65634113       0.00000000       0.49999999      -0.50000000
Zr       7.16980881       3.31268210       3.85712659      -0.00000000      -0.99999999       1.00000000
Zr      12.54716534      -1.52022987       1.52023003       0.00000000       0.99999999      -1.00000000
Zr      10.75471318      -0.13611105       3.72101549      -0.00000000      -0.49999999       0.50000000
Zr       8.96226101       1.65634109       5.51346762      -0.00000000      -0.49999999       0.50000000
Zr      14.33961755      -3.44879310       3.44879328       0.00000000       0.49999999      -0.50000000
Zr      12.54716538      -2.06467428       5.64957874      -0.00000000      -0.99999999       1.00000000
Zr      10.75471321       0.13611119       7.03369754       0.00000000       0.49999999      -0.50000000
Zr       7.16980871       6.89758630      -6.89758619      -0.00000000      -0.99999999       1.00000000
Zr       5.37735654       9.09837177      -5.51346740       0.00000000       0.49999999      -0.50000000
Zr       3.58490438      10.89082392      -3.72101527       0.00000000       0.49999999      -0.50000000
Zr       8.96226091       5.24124529      -5.24124517      -0.00000000      -0.49999999       0.50000000
Zr       7.16980875       7.44203076      -3.85712637       0.00000000       0.99999999      -1.00000000
Zr       5.37735658       8.82614958      -1.65634091      -0.00000000      -0.49999999       0.50000000
Zr      10.75471312       3.72101539      -3.72101525       0.00000000       0.49999999      -0.50000000
Zr       8.96226095       5.51346753      -1.92856312       0.00000000       0.49999999      -0.50000000
Zr       7.16980878       6.89758635       0.27222235      -0.00000000      -0.99999999       1.00000000
Zr      12.54716532       2.06467438      -2.06467422       0.00000000       0.99999999      -1.00000000
Zr      10.75471315       3.44879320       0.13611124      -0.00000000      -0.49999999       0.50000000
Zr       8.96226098       5.24124534       1.92856337      -0.00000000      -0.49999999       0.50000000
Zr      14.33961752       0.13611115      -0.13611097       0.00000000       0.49999999      -0.50000000
Zr      12.54716535       1.52022997       2.06467450      -0.00000000      -0.99999999       1.00000000
Zr      10.75471319       3.72101544       3.44879329       0.00000000       0.49999999      -0.50000000
Zr      16.13206972      -1.92856319       1.92856339      -0.00000000      -0.49999999       0.50000000
Zr      14.33961756      -0.13611104       3.72101552      -0.00000000      -0.49999999       0.50000000
Zr      12.54716539       2.06467443       5.10513432       0.00000000       0.99999999      -1.00000000
Zr       8.96226089       8.82614954      -8.82614941      -0.00000000      -0.49999999       0.50000000
Zr       7.16980872      11.02693501      -7.44203061       0.00000000       0.99999999      -1.00000000
Zr       5.37735655      12.41105383      -5.24124515      -0.00000000      -0.49999999       0.50000000
Zr      10.75471309       7.30591964      -7.30591949       0.00000000       0.49999999      -0.50000000
Zr       8.96226092       9.09837178      -5.51346736       0.00000000       0.49999999      -0.50000000
Zr       7.16980876      10.48249060      -3.31268190      -0.00000000      -0.99999999       1.00000000
Zr      12.54716529       5.64957863      -5.64957846       0.00000000       0.99999999      -1.00000000
Zr      10.75471313       7.03369744      -3.44879300      -0.00000000      -0.49999999       0.50000000
Zr       8.96226096       8.82614959      -1.65634087      -0.00000000      -0.49999999       0.50000000
Zr      14.33961750       3.72101540      -3.72101521       0.00000000       0.49999999      -0.50000000
Zr      12.54716533       5.10513422      -1.52022975      -0.00000000      -0.99999999       1.00000000
Zr      10.75471316       7.30591969      -0.13611095       0.00000000       0.49999999      -0.50000000
Zr      16.13206970       1.65634106      -1.65634085      -0.00000000      -0.49999999       0.50000000
Zr      14.33961753       3.44879321       0.13611128      -0.00000000      -0.49999999       0.50000000
Zr      12.54716536       5.64957868       1.52023008       0.00000000       0.99999999      -1.00000000
Zr      17.92452190      -0.27222217       0.27222240      -0.00000000      -0.99999999       1.00000000
Zr      16.13206973       1.92856331       1.65634120       0.00000000       0.49999999      -0.50000000
Zr      14.33961757       3.72101545       3.44879333       0.00000000       0.49999999      -0.50000000
108
Lattice="-5.377356501055379 5.377356433855448 5.377356389513249 10.75471321732783 -10.754712714258055 10.75471284079072 10.754713064099535 10.754712776246816 -10.754712625573656" Properties=species:S:1:pos:R:3:mode_u:R:3 system=zr_bcc path_model=mattersim pattern_model=mattersim mlip_model=mattersim role=mode stem=zr_bcc_mattersim_q1d3-1d6-1d6-b0 q="0.3333333333333333 0.16666666666666666 0.16666666666666666" band=0 dim="3 6 6" m_eff=9852.191871979077 check_pass=True Q=0.35555555555555557 index=8 mlip_energy_eV=-906.1958618164062 pbc="T T T"
Zr       0.00000000       0.17777778      -0.17777778       0.00000000       0.49999999      -0.50000000
Zr      -1.79245217       1.97022992       1.61467435       0.00000000       0.49999999      -0.50000000
Zr      -3.58490433       3.22934874       3.94045982      -0.00000000      -0.99999999       1.00000000
Zr       1.79245220      -1.43689657       1.43689658       0.00000000       0.99999999      -1.00000000
Zr       0.00000004      -0.17777775       3.76268205      -0.00000000      -0.49999999       0.50000000
Zr      -1.79245213       1.61467439       5.55513418      -0.00000000      -0.49999999       0.50000000
Zr       3.58490441      -3.40712646       3.40712650       0.00000000       0.49999999      -0.50000000
Zr       1.79245224      -2.14800764       5.73291197      -0.00000000      -0.99999999       1.00000000
Zr       0.00000007       0.17777783       6.99203076       0.00000000       0.49999999      -0.50000000
Zr       5.37735661      -5.55513413       5.55513420      -0.00000000      -0.49999999       0.50000000
Zr       3.58490444      -3.76268199       7.34758633      -0.00000000      -0.49999999       0.50000000
Zr       1.79245228      -1.43689652       8.60670512       0.00000000       0.99999999      -1.00000000
Zr       7.16980881      -7.52536403       7.52536412      -0.00000000      -0.99999999       1.00000000
Zr       5.37735664      -5.19957856       8.78448291       0.00000000       0.49999999      -0.50000000
Zr       3.58490448      -3.40712641      10.57693504       0.00000000       0.49999999      -0.50000000
Zr       8.96226101      -9.14003837       9.14003848      -0.00000000      -0.49999999       0.50000000
Zr       7.16980885      -6.81425290      10.39915727       0.00000000       0.99999999      -1.00000000
Zr       5.37735668      -5.55513408      12.72494274      -0.00000000      -0.49999999       0.50000000
Zr       1.79245218       2.14800768      -2.14800766       0.00000000       0.99999999      -1.00000000
Zr       0.00000001       3.40712650       0.17777780      -0.00000000      -0.49999999       0.50000000
Zr      -1.79245216       5.19957864       1.97022993      -0.00000000      -0.49999999       0.50000000
Zr       3.58490438       0.17777779      -0.17777774       0.00000000       0.49999999      -0.50000000
Zr       1.79245221       1.43689660       2.14800772      -0.00000000      -0.99999999       1.00000000
Zr       0.00000005       3.76268208       3.40712652       0.00000000       0.49999999      -0.50000000
Zr       5.37735658      -1.97022988       1.97022995      -0.00000000      -0.49999999       0.50000000
Zr       3.58490442      -0.17777774       3.76268208      -0.00000000      -0.49999999       0.50000000
Zr       1.79245225       2.14800773       5.02180088       0.00000000       0.99999999      -1.00000000
Zr       7.16980879      -3.94045978       3.94045987      -0.00000000      -0.99999999       1.00000000
Zr       5.37735662      -1.61467431       5.19957867       0.00000000       0.49999999      -0.50000000
Zr       3.58490445       0.17777784       6.99203080       0.00000000       0.49999999      -0.50000000
Zr       8.96226099      -5.55513412       5.55513423      -0.00000000      -0.49999999       0.50000000
Zr       7.16980882      -3.22934865       6.81425303       0.00000000       0.99999999      -1.00000000
Zr       5.37735665      -1.97022983       9.14003849      -0.00000000      -0.49999999       0.50000000
Zr      10.75471319      -6.99203069       6.99203082       0.00000000       0.49999999      -0.50000000
Zr       8.96226102      -5.19957855       8.78448295       0.00000000       0.49999999      -0.50000000
Zr       7.16980886      -3.94045973      11.11026841      -0.00000000      -0.99999999       1.00000000
Zr       3.58490435       3.76268203      -3.76268199       0.00000000       0.49999999      -0.50000000
Zr       1.79245219       5.02180085      -1.43689652      -0.00000000      -0.99999999       1.00000000
Zr       0.00000002       7.34758632      -0.17777773       0.00000000       0.49999999      -0.50000000
Zr       5.37735656       1.61467436      -1.61467429      -0.00000000      -0.49999999       0.50000000
Zr       3.58490439       3.40712651       0.17777784      -0.00000000      -0.49999999       0.50000000
Zr       1.79245222       5.73291198       1.43689664       0.00000000       0.99999999      -1.00000000
Zr       7.16980876      -0.35555553       0.35555563      -0.00000000      -0.99999999       1.00000000
Zr       5.37735659       1.97022994       1.61467442       0.00000000       0.49999999      -0.50000000
Zr       3.58490443       3.76268209       3.40712655       0.00000000       0.49999999      -0.50000000
Zr       8.96226096      -1.97022987       1.97022999      -0.00000000      -0.49999999       0.50000000
Zr       7.16980880       0.35555560       3.22934879       0.00000000       0.99999999      -1.00000000
Zr       5.37735663       1.61467442       5.55513425      -0.00000000      -0.49999999       0.50000000
Zr      10.75471317      -3.40712644       3.40712657       0.00000000       0.49999999      -0.50000000
Zr       8.96226100      -1.61467430       5.19957870       0.00000000       0.49999999      -0.50000000
Zr       7.16980883      -0.35555548       7.52536417      -0.00000000      -0.99999999       1.00000000
Zr      12.54716537      -5.02180079       5.02180094       0.00000000       0.99999999      -1.00000000
Zr      10.75471320      -3.76268197       7.34758640      -0.00000000      -0.49999999       0.50000000
Zr       8.96226103      -1.97022982       9.14003853      -0.00000000      -0.49999999       0.50000000
Zr       5.37735653       5.19957861      -5.19957854      -0.00000000      -0.49999999       0.50000000
Zr       3.58490436       6.99203076      -3.40712641      -0.00000000      -0.49999999       0.50000000
Zr       1.79245220       9.31781623      -2.14800761       0.00000000       0.99999999      -1.00000000
Zr       7.16980873       3.22934872      -3.22934862      -0.00000000      -0.99999999       1.00000000
Zr       5.37735657       5.55513419      -1.97022982       0.00000000       0.49999999      -0.50000000
Zr       3.58490440       7.34758633      -0.17777769       0.00000000       0.49999999      -0.50000000
Zr       8.96226094       1.61467437      -1.61467425      -0.00000000      -0.49999999       0.50000000
Zr       7.16980877       3.94045985      -0.35555546       0.00000000       0.99999999      -1.00000000
Zr       5.37735660       5.19957866       1.97023000      -0.00000000      -0.49999999       0.50000000
Zr      10.75471314       0.17777781      -0.17777767       0.00000000       0.49999999      -0.50000000
Zr       8.96226097       1.97022995       1.61467446       0.00000000       0.49999999      -0.50000000
Zr       7.16980881       3.22934877       3.94045992      -0.00000000      -0.99999999       1.00000000
Zr      12.54716534      -1.43689654       1.43689669       0.00000000       0.99999999      -1.00000000
Zr      10.75471318      -0.17777772       3.76268216      -0.00000000      -0.49999999       0.50000000
Zr       8.96226101       1.61467443       5.55513429      -0.00000000      -0.49999999       0.50000000
Zr      14.33961755      -3.40712643       3.40712661       0.00000000       0.49999999      -0.50000000
Zr      12.54716538      -2.14800761       5.73291207      -0.00000000      -0.99999999       1.00000000
Zr      10.75471321       0.17777786       6.99203087       0.00000000       0.49999999      -0.50000000
Zr       7.16980871       6.81425297      -6.81425286      -0.00000000      -0.99999999       1.00000000
Zr       5.37735654       9.14003844      -5.55513406       0.00000000       0.49999999      -0.50000000
Zr       3.58490438      10.93249058      -3.76268194       0.00000000       0.49999999      -0.50000000
Zr       8.96226091       5.19957862      -5.19957850      -0.00000000      -0.49999999       0.50000000
Zr       7.16980875       7.52536409      -3.94045970       0.00000000       0.99999999      -1.00000000
Zr       5.37735658       8.78448291      -1.61467424      -0.00000000      -0.49999999       0.50000000
Zr      10.75471312       3.76268205      -3.76268191       0.00000000       0.49999999      -0.50000000
Zr       8.96226095       5.55513420      -1.97022978       0.00000000       0.49999999      -0.50000000
Zr       7.16980878       6.81425302       0.35555568      -0.00000000      -0.99999999       1.00000000
Zr      12.54716532       2.14800771      -2.14800755       0.00000000       0.99999999      -1.00000000
Zr      10.75471315       3.40712653       0.17777791      -0.00000000      -0.49999999       0.50000000
Zr       8.96226098       5.19957867       1.97023004      -0.00000000      -0.49999999       0.50000000
Zr      14.33961752       0.17777782      -0.17777763       0.00000000       0.49999999      -0.50000000
Zr      12.54716535       1.43689664       2.14800783      -0.00000000      -0.99999999       1.00000000
Zr      10.75471319       3.76268211       3.40712663       0.00000000       0.49999999      -0.50000000
Zr      16.13206972      -1.97022985       1.97023006      -0.00000000      -0.49999999       0.50000000
Zr      14.33961756      -0.17777771       3.76268219      -0.00000000      -0.49999999       0.50000000
Zr      12.54716539       2.14800776       5.02180099       0.00000000       0.99999999      -1.00000000
Zr       8.96226089       8.78448287      -8.78448274      -0.00000000      -0.49999999       0.50000000
Zr       7.16980872      11.11026834      -7.52536395       0.00000000       0.99999999      -1.00000000
Zr       5.37735655      12.36938716      -5.19957848      -0.00000000      -0.49999999       0.50000000
Zr      10.75471309       7.34758630      -7.34758616       0.00000000       0.49999999      -0.50000000
Zr       8.96226092       9.14003845      -5.55513403       0.00000000       0.49999999      -0.50000000
Zr       7.16980876      10.39915727      -3.22934857      -0.00000000      -0.99999999       1.00000000
Zr      12.54716529       5.73291196      -5.73291180       0.00000000       0.99999999      -1.00000000
Zr      10.75471313       6.99203078      -3.40712633      -0.00000000      -0.49999999       0.50000000
Zr       8.96226096       8.78448292      -1.61467420      -0.00000000      -0.49999999       0.50000000
Zr      14.33961750       3.76268207      -3.76268188       0.00000000       0.49999999      -0.50000000
Zr      12.54716533       5.02180088      -1.43689642      -0.00000000      -0.99999999       1.00000000
Zr      10.75471316       7.34758635      -0.17777762       0.00000000       0.49999999      -0.50000000
Zr      16.13206970       1.61467440      -1.61467418      -0.00000000      -0.49999999       0.50000000
Zr      14.33961753       3.40712654       0.17777795      -0.00000000      -0.49999999       0.50000000
Zr      12.54716536       5.73291201       1.43689674       0.00000000       0.99999999      -1.00000000
Zr      17.92452190      -0.35555550       0.35555573      -0.00000000      -0.99999999       1.00000000
Zr      16.13206973       1.97022997       1.61467453       0.00000000       0.49999999      -0.50000000
Zr      14.33961757       3.76268212       3.40712666       0.00000000       0.49999999      -0.50000000
108
Lattice="-5.377356501055379 5.377356433855448 5.377356389513249 10.75471321732783 -10.754712714258055 10.75471284079072 10.754713064099535 10.754712776246816 -10.754712625573656" Properties=species:S:1:pos:R:3:mode_u:R:3 system=zr_bcc path_model=mattersim pattern_model=mattersim mlip_model=mattersim role=mode stem=zr_bcc_mattersim_q1d3-1d6-1d6-b0 q="0.3333333333333333 0.16666666666666666 0.16666666666666666" band=0 dim="3 6 6" m_eff=9852.191871979077 check_pass=True Q=0.45 index=9 mlip_energy_eV=-893.8070678710938 pbc="T T T"
Zr       0.00000000       0.22500000      -0.22500000       0.00000000       0.49999999      -0.50000000
Zr      -1.79245217       2.01745214       1.56745213       0.00000000       0.49999999      -0.50000000
Zr      -3.58490433       3.13490430       4.03490426      -0.00000000      -0.99999999       1.00000000
Zr       1.79245220      -1.34245212       1.34245214       0.00000000       0.99999999      -1.00000000
Zr       0.00000004      -0.22499997       3.80990427      -0.00000000      -0.49999999       0.50000000
Zr      -1.79245213       1.56745217       5.60235640      -0.00000000      -0.49999999       0.50000000
Zr       3.58490441      -3.35990424       3.35990428       0.00000000       0.49999999      -0.50000000
Zr       1.79245224      -2.24245209       5.82735641      -0.00000000      -0.99999999       1.00000000
Zr       0.00000007       0.22500005       6.94480854       0.00000000       0.49999999      -0.50000000
Zr       5.37735661      -5.60235635       5.60235642      -0.00000000      -0.49999999       0.50000000
Zr       3.58490444      -3.80990421       7.39480855      -0.00000000      -0.49999999       0.50000000
Zr       1.79245228      -1.34245207       8.51226068       0.00000000       0.99999999      -1.00000000
Zr       7.16980881      -7.61980847       7.61980856      -0.00000000      -0.99999999       1.00000000
Zr       5.37735664      -5.15235633       8.73726069       0.00000000       0.49999999      -0.50000000
Zr       3.58490448      -3.35990419      10.52971282       0.00000000       0.49999999      -0.50000000
Zr       8.96226101      -9.18726059       9.18726070      -0.00000000      -0.49999999       0.50000000
Zr       7.16980885      -6.71980846      10.30471283       0.00000000       0.99999999      -1.00000000
Zr       5.37735668      -5.60235630      12.77216496      -0.00000000      -0.49999999       0.50000000
Zr       1.79245218       2.24245212      -2.24245210       0.00000000       0.99999999      -1.00000000
Zr       0.00000001       3.35990428       0.22500003      -0.00000000      -0.49999999       0.50000000
Zr      -1.79245216       5.15235642       2.01745216      -0.00000000      -0.49999999       0.50000000
Zr       3.58490438       0.22500001      -0.22499996       0.00000000       0.49999999      -0.50000000
Zr       1.79245221       1.34245216       2.24245217      -0.00000000      -0.99999999       1.00000000
Zr       0.00000005       3.80990430       3.35990430       0.00000000       0.49999999      -0.50000000
Zr       5.37735658      -2.01745211       2.01745218      -0.00000000      -0.49999999       0.50000000
Zr       3.58490442      -0.22499996       3.80990431      -0.00000000      -0.49999999       0.50000000
Zr       1.79245225       2.24245217       4.92735644       0.00000000       0.99999999      -1.00000000
Zr       7.16980879      -4.03490422       4.03490432      -0.00000000      -0.99999999       1.00000000
Zr       5.37735662      -1.56745209       5.15235645       0.00000000       0.49999999      -0.50000000
Zr       3.58490445       0.22500006       6.94480858       0.00000000       0.49999999      -0.50000000
Zr       8.96226099      -5.60235634       5.60235646      -0.00000000      -0.49999999       0.50000000
Zr       7.16980882      -3.13490421       6.71980859       0.00000000       0.99999999      -1.00000000
Zr       5.37735665      -2.01745205       9.18726072      -0.00000000      -0.49999999       0.50000000
Zr      10.75471319      -6.94480847       6.94480860       0.00000000       0.49999999      -0.50000000
Zr       8.96226103      -5.15235632       8.73726073       0.00000000       0.49999999      -0.50000000
Zr       7.16980886      -4.03490417      11.20471286      -0.00000000      -0.99999999       1.00000000
Zr       3.58490435       3.80990426      -3.80990421       0.00000000       0.49999999      -0.50000000
Zr       1.79245219       4.92735641      -1.34245208      -0.00000000      -0.99999999       1.00000000
Zr       0.00000002       7.39480855      -0.22499995       0.00000000       0.49999999      -0.50000000
Zr       5.37735656       1.56745214      -1.56745207      -0.00000000      -0.49999999       0.50000000
Zr       3.58490439       3.35990429       0.22500006      -0.00000000      -0.49999999       0.50000000
Zr       1.79245222       5.82735642       1.34245219       0.00000000       0.99999999      -1.00000000
Zr       7.16980876      -0.44999997       0.45000007      -0.00000000      -0.99999999       1.00000000
Zr       5.37735659       2.01745216       1.56745220       0.00000000       0.49999999      -0.50000000
Zr       3.58490443       3.80990431       3.35990433       0.00000000       0.49999999      -0.50000000
Zr       8.96226096      -2.01745210       2.01745221      -0.00000000      -0.49999999       0.50000000
Zr       7.16980880       0.45000004       3.13490434       0.00000000       0.99999999      -1.00000000
Zr       5.37735663       1.56745219       5.60235647      -0.00000000      -0.49999999       0.50000000
Zr      10.75471317      -3.35990422       3.35990435       0.00000000       0.49999999      -0.50000000
Zr       8.96226100      -1.56745208       5.15235648       0.00000000       0.49999999      -0.50000000
Zr       7.16980883      -0.44999992       7.61980861      -0.00000000      -0.99999999       1.00000000
Zr      12.54716537      -4.92735634       4.92735649       0.00000000       0.99999999      -1.00000000
Zr      10.75471320      -3.80990419       7.39480862      -0.00000000      -0.49999999       0.50000000
Zr       8.96226103      -2.01745204       9.18726075      -0.00000000      -0.49999999       0.50000000
Zr       5.37735653       5.15235639      -5.15235631      -0.00000000      -0.49999999       0.50000000
Zr       3.58490436       6.94480854      -3.35990418      -0.00000000      -0.49999999       0.50000000
Zr       1.79245220       9.41226067      -2.24245205       0.00000000       0.99999999      -1.00000000
Zr       7.16980873       3.13490427      -3.13490417      -0.00000000      -0.99999999       1.00000000
Zr       5.37735657       5.60235641      -2.01745204       0.00000000       0.49999999      -0.50000000
Zr       3.58490440       7.39480856      -0.22499991       0.00000000       0.49999999      -0.50000000
Zr       8.96226094       1.56745215      -1.56745203      -0.00000000      -0.49999999       0.50000000
Zr       7.16980877       4.03490429      -0.44999990       0.00000000       0.99999999      -1.00000000
Zr       5.37735660       5.15235644       2.01745223      -0.00000000      -0.49999999       0.50000000
Zr      10.75471314       0.22500003      -0.22499989       0.00000000       0.49999999      -0.50000000
Zr       8.96226097       2.01745217       1.56745224       0.00000000       0.49999999      -0.50000000
Zr       7.16980881       3.13490433       4.03490437      -0.00000000      -0.99999999       1.00000000
Zr      12.54716534      -1.34245209       1.34245225       0.00000000       0.99999999      -1.00000000
Zr      10.75471318      -0.22499994       3.80990438      -0.00000000      -0.49999999       0.50000000
Zr       8.96226101       1.56745220       5.60235651      -0.00000000      -0.49999999       0.50000000
Zr      14.33961755      -3.35990421       3.35990439       0.00000000       0.49999999      -0.50000000
Zr      12.54716538      -2.24245206       5.82735652      -0.00000000      -0.99999999       1.00000000
Zr      10.75471321       0.22500008       6.94480865       0.00000000       0.49999999      -0.50000000
Zr       7.16980871       6.71980852      -6.71980842      -0.00000000      -0.99999999       1.00000000
Zr       5.37735654       9.18726066      -5.60235629       0.00000000       0.49999999      -0.50000000
Zr       3.58490438      10.97971280      -3.80990416       0.00000000       0.49999999      -0.50000000
Zr       8.96226091       5.15235640      -5.15235628      -0.00000000      -0.49999999       0.50000000
Zr       7.16980875       7.61980854      -4.03490415       0.00000000       0.99999999      -1.00000000
Zr       5.37735658       8.73726069      -1.56745202      -0.00000000      -0.49999999       0.50000000
Zr      10.75471312       3.80990428      -3.80990414       0.00000000       0.49999999      -0.50000000
Zr       8.96226095       5.60235642      -2.01745201       0.00000000       0.49999999      -0.50000000
Zr       7.16980878       6.71980857       0.45000012      -0.00000000      -0.99999999       1.00000000
Zr      12.54716532       2.24245215      -2.24245200       0.00000000       0.99999999      -1.00000000
Zr      10.75471315       3.35990431       0.22500013      -0.00000000      -0.49999999       0.50000000
Zr       8.96226098       5.15235645       2.01745226      -0.00000000      -0.49999999       0.50000000
Zr      14.33961752       0.22500004      -0.22499986       0.00000000       0.49999999      -0.50000000
Zr      12.54716535       1.34245219       2.24245227      -0.00000000      -0.99999999       1.00000000
Zr      10.75471319       3.80990433       3.35990440       0.00000000       0.49999999      -0.50000000
Zr      16.13206972      -2.01745207       2.01745228      -0.00000000      -0.49999999       0.50000000
Zr      14.33961756      -0.22499993       3.80990441      -0.00000000      -0.49999999       0.50000000
Zr      12.54716539       2.24245221       4.92735654       0.00000000       0.99999999      -1.00000000
Zr       8.96226089       8.73726065      -8.73726052      -0.00000000      -0.49999999       0.50000000
Zr       7.16980872      11.20471279      -7.61980839       0.00000000       0.99999999      -1.00000000
Zr       5.37735655      12.32216494      -5.15235626      -0.00000000      -0.49999999       0.50000000
Zr      10.75471309       7.39480852      -7.39480838       0.00000000       0.49999999      -0.50000000
Zr       8.96226092       9.18726067      -5.60235625       0.00000000       0.49999999      -0.50000000
Zr       7.16980876      10.30471282      -3.13490412      -0.00000000      -0.99999999       1.00000000
Zr      12.54716529       5.82735640      -5.82735624       0.00000000       0.99999999      -1.00000000
Zr      10.75471313       6.94480856      -3.35990411      -0.00000000      -0.49999999       0.50000000
Zr       8.96226096       8.73726070      -1.56745198      -0.00000000      -0.49999999       0.50000000
Zr      14.33961750       3.80990429      -3.80990410       0.00000000       0.49999999      -0.50000000
Zr      12.54716533       4.92735644      -1.34245197      -0.00000000      -0.99999999       1.00000000
Zr      10.75471316       7.39480858      -0.22499984       0.00000000       0.49999999      -0.50000000
Zr      16.13206970       1.56745217      -1.56745196      -0.00000000      -0.49999999       0.50000000
Zr      14.33961753       3.35990432       0.22500017      -0.00000000      -0.49999999       0.50000000
Zr      12.54716536       5.82735645       1.34245230       0.00000000       0.99999999      -1.00000000
Zr      17.92452190      -0.44999994       0.45000018      -0.00000000      -0.99999999       1.00000000
Zr      16.13206973       2.01745219       1.56745231       0.00000000       0.49999999      -0.50000000
Zr      14.33961757       3.80990434       3.35990444       0.00000000       0.49999999      -0.50000000
