216
Lattice="-10.754713002110758 10.754712867710897 10.754712779026498 10.75471321732783 -10.754712714258055 10.75471284079072 10.754713064099535 10.754712776246816 -10.754712625573656" Properties=species:S:1:pos:R:3:mode_u:R:3 system=zr_bcc path_model=mattersim pattern_model=mattersim mlip_model=mattersim role=mode stem=zr_bcc_mattersim_q1d6-1d6-1d6-b0 q="0.16666666666666666 0.16666666666666666 0.16666666666666666" band=0 dim="6 6 6" m_eff=17700.95745654944 check_pass=False Q=0.0 index=0 mlip_energy_eV=-1829.560791015625 pbc="T T T"
Zr       0.00000000       0.00000000       0.00000000      -0.05743452      -0.44256547       0.50000000
Zr      -1.79245217       1.79245214       1.79245213       0.05743452       0.44256548      -0.50000000
Zr      -3.58490433       3.58490429       3.58490426       0.11486904       0.88513095      -1.00000000
Zr      -5.37735650       5.37735643       5.37735639       0.05743452       0.44256547      -0.50000000
Zr      -7.16980867       7.16980858       7.16980852      -0.05743452      -0.44256548       0.50000000
Zr      -8.96226084       8.96226072       8.96226065      -0.11486904      -0.88513095       1.00000000
Zr       1.79245220      -1.79245212       1.79245214       0.05743452       0.44256548      -0.50000000
Zr       0.00000004       0.00000003       3.58490427       0.11486904       0.88513095      -1.00000000
Zr      -1.79245213       1.79245217       5.37735640       0.05743452       0.44256547      -0.50000000
Zr      -3.58490430       3.58490431       7.16980853      -0.05743452      -0.44256548       0.50000000
Zr      -5.37735647       5.37735646       8.96226066      -0.11486904      -0.88513095       1.00000000
Zr      -7.16980863       7.16980860      10.75471279      -0.05743452      -0.44256547       0.50000000
Zr       3.58490441      -3.58490424       3.58490428       0.11486904       0.88513095      -1.00000000
Zr       1.79245224      -1.79245209       5.37735641       0.05743452       0.44256547      -0.50000000
Zr       0.00000007       0.00000005       7.16980854      -0.05743452      -0.44256548       0.50000000
Zr      -1.79245210       1.79245220       8.96226067      -0.11486904      -0.88513095       1.00000000
Zr      -3.58490426       3.58490434      10.75471280      -0.05743452      -0.44256547       0.50000000
Zr      -5.37735643       5.37735649      12.54716493       0.05743452       0.44256548      -0.50000000
Zr       5.37735661      -5.37735636       5.37735642       0.05743452       0.44256547      -0.50000000
Zr       3.58490444      -3.58490421       7.16980855      -0.05743452      -0.44256548       0.50000000
Zr       1.79245227      -1.79245207       8.96226068      -0.11486904      -0.88513095       1.00000000
Zr       0.00000011       0.00000008      10.75471281      -0.05743452      -0.44256547       0.50000000
Zr      -1.79245206       1.79245222      12.54716494       0.05743452       0.44256548      -0.50000000
Zr      -3.58490423       3.58490437      14.33961707       0.11486904       0.88513095      -1.00000000
Zr       7.16980881      -7.16980848       7.16980856      -0.05743452      -0.44256548       0.50000000
Zr       5.37735664      -5.37735633       8.96226069      -0.11486904      -0.88513095       1.00000000
Zr       3.58490448      -3.58490419      10.75471282      -0.05743452      -0.44256547       0.50000000
Zr       1.79245231      -1.79245204      12.54716495       0.05743452       0.44256548      -0.50000000
Zr       0.00000014       0.00000010      14.33961708       0.11486904       0.88513095      -1.00000000
Zr      -1.79245202       1.79245225      16.13206921       0.05743452       0.44256547      -0.50000000
Zr       8.96226101      -8.96226060       8.96226070      -0.11486904      -0.88513095       1.00000000
Zr       7.16980885      -7.16980845      10.75471283      -0.05743452      -0.44256547       0.50000000
Zr       5.37735668      -5.37735631      12.54716496       0.05743452       0.44256548      -0.50000000
Zr       3.58490451      -3.58490416      14.33961709       0.11486904       0.88513095      -1.00000000
Zr       1.79245235      -1.79245202      16.13206922       0.05743452       0.44256547      -0.50000000
Zr       0.00000018       0.00000013      17.92452135      -0.05743452      -0.44256548       0.50000000
Zr       1.79245218       1.79245213      -1.79245210       0.05743452       0.44256548      -0.50000000
Zr       0.00000001       3.58490427       0.00000003       0.11486904       0.88513095      -1.00000000
Zr      -1.79245216       5.37735642       1.79245216       0.05743452       0.44256547      -0.50000000
Zr      -3.58490432       7.16980856       3.58490429      -0.05743452      -0.44256548       0.50000000
Zr      -5.37735649       8.96226071       5.37735642      -0.11486904      -0.88513095       1.00000000
Zr      -7.16980866      10.75471285       7.16980854      -0.05743452      -0.44256547       0.50000000
Zr       3.58490438       0.00000001       0.00000004       0.11486904       0.88513095      -1.00000000
Zr       1.79245221       1.79245215       1.79245217       0.05743452       0.44256547      -0.50000000
Zr       0.00000005       3.58490430       3.58490430      -0.05743452      -0.44256548       0.50000000
Zr      -1.79245212       5.37735644       5.37735643      -0.11486904      -0.88513095       1.00000000
Zr      -3.58490429       7.16980859       7.16980856      -0.05743452      -0.44256547       0.50000000
Zr      -5.37735645       8.96226073       8.96226069       0.05743452       0.44256548      -0.50000000
Zr       5.37735658      -1.79245211       1.79245218       0.05743452       0.44256547      -0.50000000
Zr       3.58490442       0.00000004       3.58490431      -0.05743452      -0.44256548       0.50000000
Zr       1.79245225       1.79245218       5.37735644      -0.11486904      -0.88513095       1.00000000
Zr       0.00000008       3.58490433       7.16980857      -0.05743452      -0.44256547       0.50000000
Zr      -1.79245208       5.37735647       8.96226070       0.05743452       0.44256548      -0.50000000
Zr      -3.58490425       7.16980861      10.75471283       0.11486904       0.88513095      -1.00000000
Zr       7.16980879      -3.58490423       3.58490432      -0.05743452      -0.44256548       0.50000000
Zr       5.37735662      -1.79245208       5.37735645      -0.11486904      -0.88513095       1.00000000
Zr       3.58490445       0.00000006       7.16980858      -0.05743452      -0.44256547       0.50000000
Zr       1.79245228       1.79245221       8.96226071       0.05743452       0.44256548      -0.50000000
Zr       0.00000012       3.58490435      10.75471284       0.11486904       0.88513095      -1.00000000
Zr      -1.79245205       5.37735650      12.54716497       0.05743452       0.44256547      -0.50000000
Zr       8.96226099      -5.37735635       5.37735646      -0.11486904      -0.88513095       1.00000000
Zr       7.16980882      -3.58490420       7.16980859      -0.05743452      -0.44256547       0.50000000
Zr       5.37735665      -1.79245206       8.96226072       0.05743452       0.44256548      -0.50000000
Zr       3.58490449       0.00000009      10.75471285       0.11486904       0.88513095      -1.00000000
Zr       1.79245232       1.79245223      12.54716498       0.05743452       0.44256547      -0.50000000
Zr       0.00000015       3.58490438      14.33961711      -0.05743452      -0.44256548       0.50000000
Zr      10.75471319      -7.16980847       7.16980860      -0.05743452      -0.44256547       0.50000000
Zr       8.96226102      -5.37735632       8.96226073       0.05743452       0.44256548      -0.50000000
Zr       7.16980886      -3.58490418      10.75471286       0.11486904       0.88513095      -1.00000000
Zr       5.37735669      -1.79245203      12.54716499       0.05743452       0.44256547      -0.50000000
Zr       3.58490452       0.00000011      14.33961712      -0.05743452      -0.44256548       0.50000000
Zr       1.79245236       1.79245226      16.13206925      -0.11486904      -0.88513095       1.00000000
Zr       3.58490435       3.58490426      -3.58490421       0.11486904       0.88513095      -1.00000000
Zr       1.79245219       5.37735640      -1.79245208       0.05743452       0.44256547      -0.50000000
Zr       0.00000002       7.16980855       0.00000005      -0.05743452      -0.44256548       0.50000000
Zr      -1.79245215       8.96226069       1.79245218      -0.11486904      -0.88513095       1.00000000
Zr      -3.58490431      10.75471284       3.58490431      -0.05743452      -0.44256547       0.50000000
Zr      -5.37735648      12.54716498       5.37735644       0.05743452       0.44256548      -0.50000000
Zr       5.37735656       1.79245214      -1.79245207       0.05743452       0.44256547      -0.50000000
Zr       3.58490439       3.58490428       0.00000006      -0.05743452      -0.44256548       0.50000000
Zr       1.79245222       5.37735643       1.79245219      -0.11486904      -0.88513095       1.00000000
Zr       0.00000006       7.16980857       3.58490432      -0.05743452      -0.44256547       0.50000000
Zr      -1.79245211       8.96226072       5.37735645       0.05743452       0.44256548      -0.50000000
Zr      -3.58490428      10.75471286       7.16980858       0.11486904       0.88513095      -1.00000000
Zr       7.16980876       0.00000002       0.00000007      -0.05743452      -0.44256548       0.50000000
Zr       5.37735659       1.79245217       1.79245220      -0.11486904      -0.88513095       1.00000000
Zr       3.58490443       3.58490431       3.58490433      -0.05743452      -0.44256547       0.50000000
Zr       1.79245226       5.37735645       5.37735646       0.05743452       0.44256548      -0.50000000
Zr       0.00000009       7.16980860       7.16980859       0.11486904       0.88513095      -1.00000000
Zr      -1.79245207       8.96226074       8.96226072       0.05743452       0.44256547      -0.50000000
Zr       8.96226096      -1.79245210       1.79245221      -0.11486904      -0.88513095       1.00000000
Zr       7.16980880       0.00000005       3.58490434      -0.05743452      -0.44256547       0.50000000
Zr       5.37735663       1.79245219       5.37735647       0.05743452       0.44256548      -0.50000000
Zr       3.58490446       3.58490434       7.16980860       0.11486904       0.88513095      -1.00000000
Zr       1.79245230       5.37735648       8.96226073       0.05743452       0.44256547      -0.50000000
Zr       0.00000013       7.16980862      10.75471286      -0.05743452      -0.44256548       0.50000000
Zr      10.75471317      -3.58490422       3.58490435      -0.05743452      -0.44256547       0.50000000
Zr       8.96226100      -1.79245207       5.37735648       0.05743452       0.44256548      -0.50000000
Zr       7.16980883       0.00000007       7.16980861       0.11486904       0.88513095      -1.00000000
Zr       5.37735667       1.79245222       8.96226074       0.05743452       0.44256547      -0.50000000
Zr       3.58490450       3.58490436      10.75471287      -0.05743452      -0.44256548       0.50000000
Zr       1.79245233       5.37735651      12.54716500      -0.11486904      -0.88513095       1.00000000
Zr      12.54716537      -5.37735634       5.37735649       0.05743452       0.44256548      -0.50000000
Zr      10.75471320      -3.58490419       7.16980862       0.11486904       0.88513095      -1.00000000
Zr       8.96226104      -1.79245205       8.96226075       0.05743452       0.44256547      -0.50000000
Zr       7.16980887       0.00000010      10.75471288      -0.05743452      -0.44256548       0.50000000
Zr       5.37735670       1.79245224      12.54716501      -0.11486904      -0.88513095       1.00000000
Zr       3.58490453       3.58490439      14.33961714      -0.05743452      -0.44256547       0.50000000
Zr       5.37735653       5.37735639      -5.37735631       0.05743452       0.44256547      -0.50000000
Zr       3.58490437       7.16980853      -3.58490418      -0.05743452      -0.44256548       0.50000000
Zr       1.79245220       8.96226068      -1.79245205      -0.11486904      -0.88513095       1.00000000
Zr       0.00000003      10.75471282       0.00000008      -0.05743452      -0.44256547       0.50000000
Zr      -1.79245214      12.54716497       1.79245221       0.05743452       0.44256548      -0.50000000
Zr      -3.58490430      14.33961711       3.58490434       0.11486904       0.88513095      -1.00000000
Zr       7.16980873       3.58490427      -3.58490417      -0.05743452      -0.44256548       0.50000000
Zr       5.37735657       5.37735641      -1.79245204      -0.11486904      -0.88513095       1.00000000
Zr       3.58490440       7.16980856       0.00000009      -0.05743452      -0.44256547       0.50000000
Zr       1.79245223       8.96226070       1.79245222       0.05743452       0.44256548      -0.50000000
Zr       0.00000007      10.75471285       3.58490435       0.11486904       0.88513095      -1.00000000
Zr      -1.79245210      12.54716499       5.37735648       0.05743452       0.44256547      -0.50000000
Zr       8.96226094       1.79245215      -1.79245203      -0.11486904      -0.88513095       1.00000000
Zr       7.16980877       3.58490429       0.00000010      -0.05743452      -0.44256547       0.50000000
Zr       5.37735660       5.37735644       1.79245223       0.05743452       0.44256548      -0.50000000
Zr       3.58490444       7.16980858       3.58490436       0.11486904       0.88513095      -1.00000000
Zr       1.79245227       8.96226073       5.37735649       0.05743452       0.44256547      -0.50000000
Zr       0.00000010      10.75471287       7.16980862      -0.05743452      -0.44256548       0.50000000
Zr      10.75471314       0.00000003       0.00000011      -0.05743452      -0.44256547       0.50000000
Zr       8.96226097       1.79245218       1.79245224       0.05743452       0.44256548      -0.50000000
Zr       7.16980881       3.58490432       3.58490437       0.11486904       0.88513095      -1.00000000
Zr       5.37735664       5.37735646       5.37735650       0.05743452       0.44256547      -0.50000000
Zr       3.58490447       7.16980861       7.16980863      -0.05743452      -0.44256548       0.50000000
Zr       1.79245231       8.96226075       8.96226076      -0.11486904      -0.88513095       1.00000000
Zr      12.54716534      -1.79245209       1.79245225       0.05743452       0.44256548      -0.50000000
Zr      10.75471318       0.00000006       3.58490438       0.11486904       0.88513095      -1.00000000
Zr       8.96226101       1.79245220       5.37735651       0.05743452       0.44256547      -0.50000000
Zr       7.16980884       3.58490435       7.16980864      -0.05743452      -0.44256548       0.50000000
Zr       5.37735668       5.37735649       8.96226077      -0.11486904      -0.88513095       1.00000000
Zr       3.58490451       7.16980864      10.75471290      -0.05743452      -0.44256547       0.50000000
Zr      14.33961755      -3.58490421       3.58490439       0.11486904       0.88513095      -1.00000000
Zr      12.54716538      -1.79245206       5.37735652       0.05743452       0.44256547      -0.50000000
Zr      10.75471321       0.00000008       7.16980865      -0.05743452      -0.44256548       0.50000000
Zr       8.96226105       1.79245223       8.96226078      -0.11486904      -0.88513095       1.00000000
Zr       7.16980888       3.58490437      10.75471291      -0.05743452      -0.44256547       0.50000000
Zr       5.37735671       5.37735652      12.54716504       0.05743452       0.44256548      -0.50000000
Zr       7.16980871       7.16980852      -7.16980842      -0.05743452      -0.44256548       0.50000000
Zr       5.37735654       8.96226066      -5.37735629      -0.11486904      -0.88513095       1.00000000
Zr       3.58490438      10.75471281      -3.58490416      -0.05743452      -0.44256547       0.50000000
Zr       1.79245221      12.54716495      -1.79245203       0.05743452       0.44256548      -0.50000000
Zr       0.00000004      14.33961710       0.00000010       0.11486904       0.88513095      -1.00000000
Zr      -1.79245213      16.13206924       1.79245223       0.05743452       0.44256547      -0.50000000
Zr       8.96226091       5.37735640      -5.37735628      -0.11486904      -0.88513095       1.00000000
Zr       7.16980875       7.16980854      -3.58490415      -0.05743452      -0.44256547       0.50000000
Zr       5.37735658       8.96226069      -1.79245202       0.05743452       0.44256548      -0.50000000
Zr       3.58490441      10.75471283       0.00000011       0.11486904       0.88513095      -1.00000000
Zr       1.79245224      12.54716498       1.79245224       0.05743452       0.44256547      -0.50000000
Zr       0.00000008      14.33961712       3.58490437      -0.05743452      -0.44256548       0.50000000
Zr      10.75471312       3.58490428      -3.58490414      -0.05743452      -0.44256547       0.50000000
Zr       8.96226095       5.37735642      -1.79245201       0.05743452       0.44256548      -0.50000000
Zr       7.16980878       7.16980857       0.00000012       0.11486904       0.88513095      -1.00000000
Zr       5.37735661       8.96226071       1.79245225       0.05743452       0.44256547      -0.50000000
Zr       3.58490445      10.75471286       3.58490438      -0.05743452      -0.44256548       0.50000000
Zr       1.79245228      12.54716500       5.37735651      -0.11486904      -0.88513095       1.00000000
Zr      12.54716532       1.79245216      -1.79245200       0.05743452       0.44256548      -0.50000000
Zr      10.75471315       3.58490430       0.00000013       0.11486904       0.88513095      -1.00000000
Zr       8.96226098       5.37735645       1.79245226       0.05743452       0.44256547      -0.50000000
Zr       7.16980882       7.16980859       3.58490439      -0.05743452      -0.44256548       0.50000000
Zr       5.37735665       8.96226074       5.37735652      -0.11486904      -0.88513095       1.00000000
Zr       3.58490448      10.75471288       7.16980865      -0.05743452      -0.44256547       0.50000000
Zr      14.33961752       0.00000004       0.00000014       0.11486904       0.88513095      -1.00000000
Zr      12.54716535       1.79245219       1.79245227       0.05743452       0.44256547      -0.50000000
Zr      10.75471319       3.58490433       3.58490440      -0.05743452      -0.44256548       0.50000000
Zr       8.96226102       5.37735648       5.37735653      -0.11486904      -0.88513095       1.00000000
Zr       7.16980885       7.16980862       7.16980866      -0.05743452      -0.44256547       0.50000000
Zr       5.37735669       8.96226076       8.96226079       0.05743452       0.44256548      -0.50000000
Zr      16.13206972      -1.79245208       1.79245228       0.05743452       0.44256547      -0.50000000
Zr      14.33961756       0.00000007       3.58490441      -0.05743452      -0.44256548       0.50000000
Zr      12.54716539       1.79245221       5.37735654      -0.11486904      -0.88513095       1.00000000
Zr      10.75471322       3.58490436       7.16980867      -0.05743452      -0.44256547       0.50000000
Zr       8.96226106       5.37735650       8.96226080       0.05743452       0.44256548      -0.50000000
Zr       7.16980889       7.16980865      10.75471293       0.11486904       0.88513095      -1.00000000
Zr       8.96226089       8.96226065      -8.96226052      -0.11486904      -0.88513095       1.00000000
Zr       7.16980872      10.75471279      -7.16980839      -0.05743452      -0.44256547       0.50000000
Zr       5.37735655      12.54716494      -5.37735626       0.05743452       0.44256548      -0.50000000
Zr       3.58490439      14.33961708      -3.58490413       0.11486904       0.88513095      -1.00000000
Zr       1.79245222      16.13206923      -1.79245200       0.05743452       0.44256547      -0.50000000
Zr       0.00000005      17.92452137       0.00000013      -0.05743452      -0.44256548       0.50000000
Zr      10.75471309       7.16980853      -7.16980838      -0.05743452      -0.44256547       0.50000000
Zr       8.96226092       8.96226067      -5.37735625       0.05743452       0.44256548      -0.50000000
Zr       7.16980876      10.75471282      -3.58490412       0.11486904       0.88513095      -1.00000000
Zr       5.37735659      12.54716496      -1.79245199       0.05743452       0.44256547      -0.50000000
Zr       3.58490442      14.33961711       0.00000014      -0.05743452      -0.44256548       0.50000000
Zr       1.79245225      16.13206925       1.79245227      -0.11486904      -0.88513095       1.00000000
Zr      12.54716529       5.37735641      -5.37735624       0.05743452       0.44256548      -0.50000000
Zr      10.75471313       7.16980855      -3.58490411       0.11486904       0.88513095      -1.00000000
Zr       8.96226096       8.96226070      -1.79245198       0.05743452       0.44256547      -0.50000000
Zr       7.16980879      10.75471284       0.00000015      -0.05743452      -0.44256548       0.50000000
Zr       5.37735662      12.54716499       1.79245228      -0.11486904      -0.88513095       1.00000000
Zr       3.58490446      14.33961713       3.58490441      -0.05743452      -0.44256547       0.50000000
Zr      14.33961750       3.58490429      -3.58490410       0.11486904       0.88513095      -1.00000000
Zr      12.54716533       5.37735643      -1.79245197       0.05743452       0.44256547      -0.50000000
Zr      10.75471316       7.16980858       0.00000016      -0.05743452      -0.44256548       0.50000000
Zr       8.96226099       8.96226072       1.79245229      -0.11486904      -0.88513095       1.00000000
Zr       7.16980883      10.75471287       3.58490442      -0.05743452      -0.44256547       0.50000000
Zr       5.37735666      12.54716501       5.37735655       0.05743452       0.44256548      -0.50000000
Zr      16.13206970       1.79245217      -1.79245196       0.05743452       0.44256547      -0.50000000
Zr      14.33961753       3.58490432       0.00000017      -0.05743452      -0.44256548       0.50000000
Zr      12.54716536       5.37735646       1.79245230      -0.11486904      -0.88513095       1.00000000
Zr      10.75471320       7.16980860       3.58490443      -0.05743452      -0.44256547       0.50000000
Zr       8.96226103       8.96226075       5.37735656       0.05743452       0.44256548      -0.50000000
Zr       7.16980886      10.75471289       7.16980869       0.11486904       0.88513095      -1.00000000
Zr      17.92452190       0.00000005       0.00000018      -0.05743452      -0.44256548       0.50000000
Zr      16.13206973       1.79245220       1.79245231      -0.11486904      -0.88513095       1.00000000
Zr      14.33961757       3.58490434       3.58490444      -0.05743452      -0.44256547       0.50000000
Zr      12.54716540       5.37735649       5.37735657       0.05743452       0.44256548      -0.50000000
Zr      10.75471323       7.16980863       7.16980870       0.11486904       0.88513095      -1.00000000
Zr       8.96226107       8.96226077       8.96226083       0.05743452       0.44256547      -0.50000000
216
Lattice="-10.754713002110758 10.754712867710897 10.754712779026498 10.75471321732783 -10.754712714258055 10.75471284079072 10.754713064099535 10.754712776246816 -10.754712625573656" Properties=species:S:1:pos:R:3:mode_u:R:3 system=zr_bcc path_model=mattersim pattern_model=mattersim mlip_model=mattersim role=mode stem=zr_bcc_mattersim_q1d6-1d6-1d6-b0 q="0.16666666666666666 0.16666666666666666 0.16666666666666666" band=0 dim="6 6 6" m_eff=17700.95745654944 check_pass=False Q=0.005555555555555556 index=1 mlip_energy_eV=-1829.5645751953125 pbc="T T T"
Zr      -0.00031908      -0.00245870       0.00277778      -0.05743452      -0.44256547       0.50000000
Zr      -1.79213309       1.79491084       1.78967435       0.05743452       0.44256548      -0.50000000
Zr      -3.58426617       3.58982168       3.57934870       0.11486904       0.88513095      -1.00000000
Zr      -5.37703742       5.37981513       5.37457861       0.05743452       0.44256547      -0.50000000
Zr      -7.17012775       7.16734988       7.17258630      -0.05743452      -0.44256548       0.50000000
Zr      -8.96289900       8.95734333       8.96781620      -0.11486904      -0.88513095       1.00000000
Zr       1.79277128      -1.78999342       1.78967436       0.05743452       0.44256548      -0.50000000
Zr       0.00063820       0.00491742       3.57934871       0.11486904       0.88513095      -1.00000000
Zr      -1.79213305       1.79491087       5.37457862       0.05743452       0.44256547      -0.50000000
Zr      -3.58522338       3.58244562       7.17258631      -0.05743452      -0.44256548       0.50000000
Zr      -5.37799463       5.37243907       8.96781622      -0.11486904      -0.88513095       1.00000000
Zr      -7.17012771       7.16734991      10.75749057      -0.05743452      -0.44256547       0.50000000
Zr       3.58554257      -3.57998684       3.57934872       0.11486904       0.88513095      -1.00000000
Zr       1.79277132      -1.78999340       5.37457863       0.05743452       0.44256547      -0.50000000
Zr      -0.00031901      -0.00245865       7.17258632      -0.05743452      -0.44256548       0.50000000
Zr      -1.79309026       1.78753480       8.96781623      -0.11486904      -0.88513095       1.00000000
Zr      -3.58522334       3.58244564      10.75749058      -0.05743452      -0.44256547       0.50000000
Zr      -5.37703735       5.37981518      12.54438715       0.05743452       0.44256548      -0.50000000
Zr       5.37767569      -5.37489766       5.37457864       0.05743452       0.44256547      -0.50000000
Zr       3.58458536      -3.58736291       7.17258633      -0.05743452      -0.44256548       0.50000000
Zr       1.79181411      -1.79736946       8.96781624      -0.11486904      -0.88513095       1.00000000
Zr      -0.00031897      -0.00245862      10.75749059      -0.05743452      -0.44256547       0.50000000
Zr      -1.79213298       1.79491092      12.54438716       0.05743452       0.44256548      -0.50000000
Zr      -3.58426607       3.58982176      14.33406151       0.11486904       0.88513095      -1.00000000
Zr       7.16948973      -7.17226717       7.17258634      -0.05743452      -0.44256548       0.50000000
Zr       5.37671848      -5.38227373       8.96781625      -0.11486904      -0.88513095       1.00000000
Zr       3.58458540      -3.58736288      10.75749060      -0.05743452      -0.44256547       0.50000000
Zr       1.79277139      -1.78999335      12.54438717       0.05743452       0.44256548      -0.50000000
Zr       0.00063830       0.00491750      14.33406152       0.11486904       0.88513095      -1.00000000
Zr      -1.79213294       1.79491094      16.12929143       0.05743452       0.44256547      -0.50000000
Zr       8.96162285      -8.96717799       8.96781626      -0.11486904      -0.88513095       1.00000000
Zr       7.16948977      -7.17226715      10.75749061      -0.05743452      -0.44256547       0.50000000
Zr       5.37767576      -5.37489761      12.54438718       0.05743452       0.44256548      -0.50000000
Zr       3.58554267      -3.57998677      14.33406153       0.11486904       0.88513095      -1.00000000
Zr       1.79277143      -1.78999332      16.12929144       0.05743452       0.44256547      -0.50000000
Zr      -0.00031890      -0.00245857      17.92729913      -0.05743452      -0.44256548       0.50000000
Zr       1.79277126       1.79491083      -1.79522988       0.05743452       0.44256548      -0.50000000
Zr       0.00063817       3.58982167      -0.00555553       0.11486904       0.88513095      -1.00000000
Zr      -1.79213308       5.37981512       1.78967438       0.05743452       0.44256547      -0.50000000
Zr      -3.58522340       7.16734987       3.58768206      -0.05743452      -0.44256548       0.50000000
Zr      -5.37799465       8.95734331       5.38291197      -0.11486904      -0.88513095       1.00000000
Zr      -7.17012774      10.75225416       7.17258632      -0.05743452      -0.44256547       0.50000000
Zr       3.58554254       0.00491740      -0.00555552       0.11486904       0.88513095      -1.00000000
Zr       1.79277129       1.79491085       1.78967439       0.05743452       0.44256547      -0.50000000
Zr      -0.00031903       3.58244560       3.58768207      -0.05743452      -0.44256548       0.50000000
Zr      -1.79309028       5.37243905       5.38291198      -0.11486904      -0.88513095       1.00000000
Zr      -3.58522337       7.16734989       7.17258633      -0.05743452      -0.44256547       0.50000000
Zr      -5.37703737       8.96471943       8.95948291       0.05743452       0.44256548      -0.50000000
Zr       5.37767566      -1.78999341       1.78967440       0.05743452       0.44256547      -0.50000000
Zr       3.58458534      -0.00245866       3.58768208      -0.05743452      -0.44256548       0.50000000
Zr       1.79181409       1.78753479       5.38291199      -0.11486904      -0.88513095       1.00000000
Zr      -0.00031900       3.58244563       7.17258634      -0.05743452      -0.44256547       0.50000000
Zr      -1.79213300       5.37981517       8.95948292       0.05743452       0.44256548      -0.50000000
Zr      -3.58426609       7.17472601      10.74915727       0.11486904       0.88513095      -1.00000000
Zr       7.16948971      -3.58736292       3.58768209      -0.05743452      -0.44256548       0.50000000
Zr       5.37671846      -1.79736948       5.38291200      -0.11486904      -0.88513095       1.00000000
Zr       3.58458537      -0.00245864       7.17258635      -0.05743452      -0.44256547       0.50000000
Zr       1.79277137       1.79491090       8.95948293       0.05743452       0.44256548      -0.50000000
Zr       0.00063828       3.58982174      10.74915728       0.11486904       0.88513095      -1.00000000
Zr      -1.79213297       5.37981519      12.54438719       0.05743452       0.44256547      -0.50000000
Zr       8.96162283      -5.38227374       5.38291201      -0.11486904      -0.88513095       1.00000000
Zr       7.16948974      -3.58736290       7.17258636      -0.05743452      -0.44256547       0.50000000
Zr       5.37767574      -1.78999336       8.95948294       0.05743452       0.44256548      -0.50000000
Zr       3.58554265       0.00491748      10.74915729       0.11486904       0.88513095      -1.00000000
Zr       1.79277140       1.79491093      12.54438720       0.05743452       0.44256547      -0.50000000
Zr      -0.00031893       3.58244568      14.34239488      -0.05743452      -0.44256548       0.50000000
Zr      10.75439411      -7.17226716       7.17258637      -0.05743452      -0.44256547       0.50000000
Zr       8.96258011      -5.37489762       8.95948295       0.05743452       0.44256548      -0.50000000
Zr       7.17044702      -3.57998678      10.74915730       0.11486904       0.88513095      -1.00000000
Zr       5.37767577      -1.78999333      12.54438721       0.05743452       0.44256547      -0.50000000
Zr       3.58458544      -0.00245858      14.34239489      -0.05743452      -0.44256548       0.50000000
Zr       1.79181420       1.78753486      16.13762480      -0.11486904      -0.88513095       1.00000000
Zr       3.58554252       3.58982165      -3.59045976       0.11486904       0.88513095      -1.00000000
Zr       1.79277127       5.37981510      -1.79522986       0.05743452       0.44256547      -0.50000000
Zr      -0.00031906       7.16734985       0.00277783      -0.05743452      -0.44256548       0.50000000
Zr      -1.79309031       8.95734330       1.79800774      -0.11486904      -0.88513095       1.00000000
Zr      -3.58522339      10.75225414       3.58768209      -0.05743452      -0.44256547       0.50000000
Zr      -5.37703740      12.54962368       5.37457866       0.05743452       0.44256548      -0.50000000
Zr       5.37767564       1.79491084      -1.79522985       0.05743452       0.44256547      -0.50000000
Zr       3.58458531       3.58244559       0.00277784      -0.05743452      -0.44256548       0.50000000
Zr       1.79181406       5.37243903       1.79800775      -0.11486904      -0.88513095       1.00000000
Zr      -0.00031902       7.16734988       3.58768210      -0.05743452      -0.44256547       0.50000000
Zr      -1.79213303       8.96471942       5.37457867       0.05743452       0.44256548      -0.50000000
Zr      -3.58426612      10.75963026       7.16425303       0.11486904       0.88513095      -1.00000000
Zr       7.16948968      -0.00245868       0.00277785      -0.05743452      -0.44256548       0.50000000
Zr       5.37671843       1.78753477       1.79800776      -0.11486904      -0.88513095       1.00000000
Zr       3.58458535       3.58244561       3.58768211      -0.05743452      -0.44256547       0.50000000
Zr       1.79277134       5.37981515       5.37457868       0.05743452       0.44256548      -0.50000000
Zr       0.00063825       7.17472599       7.16425304       0.11486904       0.88513095      -1.00000000
Zr      -1.79213299       8.96471944       8.95948294       0.05743452       0.44256547      -0.50000000
Zr       8.96162280      -1.79736949       1.79800777      -0.11486904      -0.88513095       1.00000000
Zr       7.16948972      -0.00245865       3.58768212      -0.05743452      -0.44256547       0.50000000
Zr       5.37767571       1.79491089       5.37457869       0.05743452       0.44256548      -0.50000000
Zr       3.58554262       3.58982173       7.16425305       0.11486904       0.88513095      -1.00000000
Zr       1.79277138       5.37981518       8.95948295       0.05743452       0.44256547      -0.50000000
Zr      -0.00031895       7.16734993      10.75749064      -0.05743452      -0.44256548       0.50000000
Zr      10.75439409      -3.58736291       3.58768213      -0.05743452      -0.44256547       0.50000000
Zr       8.96258008      -1.78999338       5.37457870       0.05743452       0.44256548      -0.50000000
Zr       7.17044699       0.00491747       7.16425306       0.11486904       0.88513095      -1.00000000
Zr       5.37767575       1.79491091       8.95948296       0.05743452       0.44256547      -0.50000000
Zr       3.58458542       3.58244566      10.75749065      -0.05743452      -0.44256548       0.50000000
Zr       1.79181417       5.37243911      12.55272056      -0.11486904      -0.88513095       1.00000000
Zr      12.54748445      -5.37489764       5.37457871       0.05743452       0.44256548      -0.50000000
Zr      10.75535136      -3.57998680       7.16425307       0.11486904       0.88513095      -1.00000000
Zr       8.96258012      -1.78999335       8.95948297       0.05743452       0.44256547      -0.50000000
Zr       7.16948979      -0.00245860      10.75749066      -0.05743452      -0.44256548       0.50000000
Zr       5.37671854       1.78753485      12.55272057      -0.11486904      -0.88513095       1.00000000
Zr       3.58458545       3.58244569      14.34239492      -0.05743452      -0.44256547       0.50000000
Zr       5.37767561       5.37981509      -5.38013409       0.05743452       0.44256547      -0.50000000
Zr       3.58458528       7.16734984      -3.58212641      -0.05743452      -0.44256548       0.50000000
Zr       1.79181404       8.95734328      -1.78689650      -0.11486904      -0.88513095       1.00000000
Zr      -0.00031905      10.75225412       0.00277785      -0.05743452      -0.44256547       0.50000000
Zr      -1.79213306      12.54962366       1.78967443       0.05743452       0.44256548      -0.50000000
Zr      -3.58426614      14.34453451       3.57934878       0.11486904       0.88513095      -1.00000000
Zr       7.16948965       3.58244557      -3.58212639      -0.05743452      -0.44256548       0.50000000
Zr       5.37671841       5.37243902      -1.78689649      -0.11486904      -0.88513095       1.00000000
Zr       3.58458532       7.16734986       0.00277786      -0.05743452      -0.44256547       0.50000000
Zr       1.79277131       8.96471940       1.78967444       0.05743452       0.44256548      -0.50000000
Zr       0.00063823      10.75963024       3.57934879       0.11486904       0.88513095      -1.00000000
Zr      -1.79213302      12.54962369       5.37457870       0.05743452       0.44256547      -0.50000000
Zr       8.96162278       1.78753476      -1.78689648      -0.11486904      -0.88513095       1.00000000
Zr       7.16948969       3.58244560       0.00277788      -0.05743452      -0.44256547       0.50000000
Zr       5.37767568       5.37981514       1.78967445       0.05743452       0.44256548      -0.50000000
Zr       3.58554260       7.17472598       3.57934880       0.11486904       0.88513095      -1.00000000
Zr       1.79277135       8.96471943       5.37457871       0.05743452       0.44256547      -0.50000000
Zr      -0.00031898      10.75225418       7.17258639      -0.05743452      -0.44256548       0.50000000
Zr      10.75439406      -0.00245867       0.00277789      -0.05743452      -0.44256547       0.50000000
Zr       8.96258005       1.79491087       1.78967446       0.05743452       0.44256548      -0.50000000
Zr       7.17044697       3.58982171       3.57934881       0.11486904       0.88513095      -1.00000000
Zr       5.37767572       5.37981516       5.37457872       0.05743452       0.44256547      -0.50000000
Zr       3.58458539       7.16734991       7.17258640      -0.05743452      -0.44256548       0.50000000
Zr       1.79181414       8.95734336       8.96781631      -0.11486904      -0.88513095       1.00000000
Zr      12.54748442      -1.78999339       1.78967447       0.05743452       0.44256548      -0.50000000
Zr      10.75535134       0.00491745       3.57934882       0.11486904       0.88513095      -1.00000000
Zr       8.96258009       1.79491090       5.37457873       0.05743452       0.44256547      -0.50000000
Zr       7.16948976       3.58244565       7.17258642      -0.05743452      -0.44256548       0.50000000
Zr       5.37671851       5.37243910       8.96781632      -0.11486904      -0.88513095       1.00000000
Zr       3.58458543       7.16734994      10.75749067      -0.05743452      -0.44256547       0.50000000
Zr      14.34025571      -3.57998681       3.57934883       0.11486904       0.88513095      -1.00000000
Zr      12.54748446      -1.78999337       5.37457874       0.05743452       0.44256547      -0.50000000
Zr      10.75439413      -0.00245861       7.17258643      -0.05743452      -0.44256548       0.50000000
Zr       8.96162288       1.78753483       8.96781633      -0.11486904      -0.88513095       1.00000000
Zr       7.16948980       3.58244567      10.75749069      -0.05743452      -0.44256547       0.50000000
Zr       5.37767579       5.37981521      12.54438726       0.05743452       0.44256548      -0.50000000
Zr       7.16948963       7.16734982      -7.16703064      -0.05743452      -0.44256548       0.50000000
Zr       5.37671838       8.95734327      -5.37180073      -0.11486904      -0.88513095       1.00000000
Zr       3.58458529      10.75225411      -3.58212638      -0.05743452      -0.44256547       0.50000000
Zr       1.79277129      12.54962365      -1.79522981       0.05743452       0.44256548      -0.50000000
Zr       0.00063820      14.34453449      -0.00555545       0.11486904       0.88513095      -1.00000000
Zr      -1.79213305      16.13452794       1.78967445       0.05743452       0.44256547      -0.50000000
Zr       8.96162275       5.37243900      -5.37180072      -0.11486904      -0.88513095       1.00000000
Zr       7.16948966       7.16734985      -3.58212637      -0.05743452      -0.44256547       0.50000000
Zr       5.37767566       8.96471938      -1.79522980       0.05743452       0.44256548      -0.50000000
Zr       3.58554257      10.75963023      -0.00555544       0.11486904       0.88513095      -1.00000000
Zr       1.79277132      12.54962367       1.78967446       0.05743452       0.44256547      -0.50000000
Zr      -0.00031900      14.33715842       3.58768215      -0.05743452      -0.44256548       0.50000000
Zr      10.75439403       3.58244558      -3.58212636      -0.05743452      -0.44256547       0.50000000
Zr       8.96258003       5.37981512      -1.79522978       0.05743452       0.44256548      -0.50000000
Zr       7.17044694       7.17472596      -0.00555543       0.11486904       0.88513095      -1.00000000
Zr       5.37767569       8.96471941       1.78967447       0.05743452       0.44256547      -0.50000000
Zr       3.58458537      10.75225416       3.58768216      -0.05743452      -0.44256548       0.50000000
Zr       1.79181412      12.54224761       5.38291207      -0.11486904      -0.88513095       1.00000000
Zr      12.54748440       1.79491086      -1.79522977       0.05743452       0.44256548      -0.50000000
Zr      10.75535131       3.58982170      -0.00555542       0.11486904       0.88513095      -1.00000000
Zr       8.96258006       5.37981515       1.78967449       0.05743452       0.44256547      -0.50000000
Zr       7.16948974       7.16734990       3.58768217      -0.05743452      -0.44256548       0.50000000
Zr       5.37671849       8.95734334       5.38291208      -0.11486904      -0.88513095       1.00000000
Zr       3.58458540      10.75225419       7.17258643      -0.05743452      -0.44256547       0.50000000
Zr      14.34025568       0.00491744      -0.00555541       0.11486904       0.88513095      -1.00000000
Zr      12.54748443       1.79491088       1.78967450       0.05743452       0.44256547      -0.50000000
Zr      10.75439411       3.58244563       3.58768218      -0.05743452      -0.44256548       0.50000000
Zr       8.96162286       5.37243908       5.38291209      -0.11486904      -0.88513095       1.00000000
Zr       7.16948977       7.16734992       7.17258644      -0.05743452      -0.44256547       0.50000000
Zr       5.37767577       8.96471946       8.95948301       0.05743452       0.44256548      -0.50000000
Zr      16.13238880      -1.78999338       1.78967451       0.05743452       0.44256547      -0.50000000
Zr      14.33929848      -0.00245863       3.58768219      -0.05743452      -0.44256548       0.50000000
Zr      12.54652723       1.78753482       5.38291210      -0.11486904      -0.88513095       1.00000000
Zr      10.75439414       3.58244566       7.17258645      -0.05743452      -0.44256547       0.50000000
Zr       8.96258014       5.37981520       8.95948303       0.05743452       0.44256548      -0.50000000
Zr       7.17044705       7.17472604      10.74915738       0.11486904       0.88513095      -1.00000000
Zr       8.96162273       8.95734325      -8.95670497      -0.11486904      -0.88513095       1.00000000
Zr       7.16948964      10.75225409      -7.16703061      -0.05743452      -0.44256547       0.50000000
Zr       5.37767563      12.54962363      -5.38013404       0.05743452       0.44256548      -0.50000000
Zr       3.58554255      14.34453447      -3.59045969       0.11486904       0.88513095      -1.00000000
Zr       1.79277130      16.13452792      -1.79522978       0.05743452       0.44256547      -0.50000000
Zr      -0.00031903      17.92206267       0.00277791      -0.05743452      -0.44256548       0.50000000
Zr      10.75439401       7.16734983      -7.16703060      -0.05743452      -0.44256547       0.50000000
Zr       8.96258000       8.96471937      -5.38013403       0.05743452       0.44256548      -0.50000000
Zr       7.17044692      10.75963021      -3.59045968       0.11486904       0.88513095      -1.00000000
Zr       5.37767567      12.54962366      -1.79522977       0.05743452       0.44256547      -0.50000000
Zr       3.58458534      14.33715841       0.00277792      -0.05743452      -0.44256548       0.50000000
Zr       1.79181409      16.12715186       1.79800782      -0.11486904      -0.88513095       1.00000000
Zr      12.54748437       5.37981511      -5.38013402       0.05743452       0.44256548      -0.50000000
Zr      10.75535129       7.17472595      -3.59045967       0.11486904       0.88513095      -1.00000000
Zr       8.96258004       8.96471940      -1.79522976       0.05743452       0.44256547      -0.50000000
Zr       7.16948971      10.75225415       0.00277793      -0.05743452      -0.44256548       0.50000000
Zr       5.37671846      12.54224759       1.79800783      -0.11486904      -0.88513095       1.00000000
Zr       3.58458538      14.33715843       3.58768219      -0.05743452      -0.44256547       0.50000000
Zr      14.34025566       3.58982168      -3.59045966       0.11486904       0.88513095      -1.00000000
Zr      12.54748441       5.37981513      -1.79522975       0.05743452       0.44256547      -0.50000000
Zr      10.75439408       7.16734988       0.00277794      -0.05743452      -0.44256548       0.50000000
Zr       8.96162283       8.95734333       1.79800784      -0.11486904      -0.88513095       1.00000000
Zr       7.16948975      10.75225417       3.58768220      -0.05743452      -0.44256547       0.50000000
Zr       5.37767574      12.54962371       5.37457877       0.05743452       0.44256548      -0.50000000
Zr      16.13238878       1.79491087      -1.79522974       0.05743452       0.44256547      -0.50000000
Zr      14.33929845       3.58244562       0.00277795      -0.05743452      -0.44256548       0.50000000
Zr      12.54652720       5.37243907       1.79800785      -0.11486904      -0.88513095       1.00000000
Zr      10.75439412       7.16734991       3.58768221      -0.05743452      -0.44256547       0.50000000
Zr       8.96258011       8.96471945       5.37457878       0.05743452       0.44256548      -0.50000000
Zr       7.17044702      10.75963029       7.16425313       0.11486904       0.88513095      -1.00000000
Zr      17.92420282      -0.00245865       0.00277796      -0.05743452      -0.44256548       0.50000000
Zr      16.13143157       1.78753480       1.79800786      -0.11486904      -0.88513095       1.00000000
Zr      14.33929849       3.58244564       3.58768222      -0.05743452      -0.44256547       0.50000000
Zr      12.54748448       5.37981518       5.37457879       0.05743452       0.44256548      -0.50000000
Zr      10.75535139       7.17472602       7.16425314       0.11486904       0.88513095      -1.00000000
Zr       8.96258015       8.96471947       8.95948305       0.05743452       0.44256547      -0.50000000
216
Lattice="-10.754713002110758 10.754712867710897 10.754712779026498 10.75471321732783 -10.754712714258055 10.75471284079072 10.754713064099535 10.754712776246816 -10.754712625573656" Properties=species:S:1:pos:R:3:mode_u:R:3 system=zr_bcc path_model=mattersim pattern_model=mattersim mlip_model=mattersim role=mode stem=zr_bcc_mattersim_q1d6-1d6-1d6-b0 q="0.16666666666666666 0.16666666666666666 0.16666666666666666" band=0 dim="6 6 6" m_eff=17700.95745654944 check_pass=False Q=0.022222222222222223 index=2 mlip_energy_eV=-1829.5899658203125 pbc="T T T"
Zr      -0.00127632      -0.00983479       0.01111111      -0.05743452      -0.44256547       0.50000000
Zr      -1.79117584       1.80228693       1.78134102       0.05743452       0.44256548      -0.50000000
Zr      -3.58235169       3.60457387       3.56268204       0.11486904       0.88513095      -1.00000000
Zr      -5.37608018       5.38719122       5.36624528       0.05743452       0.44256547      -0.50000000
Zr      -7.17108499       7.15997379       7.18091963      -0.05743452      -0.44256548       0.50000000
Zr      -8.96481348       8.94259115       8.98448287      -0.11486904      -0.88513095       1.00000000
Zr       1.79372853      -1.78261733       1.78134103       0.05743452       0.44256548      -0.50000000
Zr       0.00255268       0.01966960       3.56268205       0.11486904       0.88513095      -1.00000000
Zr      -1.79117581       1.80228696       5.36624529       0.05743452       0.44256547      -0.50000000
Zr      -3.58618062       3.57506953       7.18091964      -0.05743452      -0.44256548       0.50000000
Zr      -5.37990911       5.35768688       8.98448288      -0.11486904      -0.88513095       1.00000000
Zr      -7.17108495       7.15997382      10.76582390      -0.05743452      -0.44256547       0.50000000
Zr       3.58745705      -3.56523466       3.56268206       0.11486904       0.88513095      -1.00000000
Zr       1.79372856      -1.78261731       5.36624530       0.05743452       0.44256547      -0.50000000
Zr      -0.00127625      -0.00983474       7.18091965      -0.05743452      -0.44256548       0.50000000
Zr      -1.79500474       1.77278262       8.98448289      -0.11486904      -0.88513095       1.00000000
Zr      -3.58618058       3.57506955      10.76582391      -0.05743452      -0.44256547       0.50000000
Zr      -5.37608011       5.38719127      12.53605382       0.05743452       0.44256548      -0.50000000
Zr       5.37863293      -5.36752157       5.36624531       0.05743452       0.44256547      -0.50000000
Zr       3.58362812      -3.59473900       7.18091966      -0.05743452      -0.44256548       0.50000000
Zr       1.78989963      -1.81212164       8.98448290      -0.11486904      -0.88513095       1.00000000
Zr      -0.00127622      -0.00983471      10.76582392      -0.05743452      -0.44256547       0.50000000
Zr      -1.79117574       1.80228701      12.53605383       0.05743452       0.44256548      -0.50000000
Zr      -3.58235158       3.60457394      14.31739485       0.11486904       0.88513095      -1.00000000
Zr       7.16853249      -7.17964326       7.18091967      -0.05743452      -0.44256548       0.50000000
Zr       5.37480400      -5.39702591       8.98448291      -0.11486904      -0.88513095       1.00000000
Zr       3.58362815      -3.59473898      10.76582393      -0.05743452      -0.44256547       0.50000000
Zr       1.79372863      -1.78261725      12.53605384       0.05743452       0.44256548      -0.50000000
Zr       0.00255279       0.01966968      14.31739486       0.11486904       0.88513095      -1.00000000
Zr      -1.79117570       1.80228704      16.12095810       0.05743452       0.44256547      -0.50000000
Zr       8.95970837      -8.98193017       8.98448292      -0.11486904      -0.88513095       1.00000000
Zr       7.16853252      -7.17964324      10.76582394      -0.05743452      -0.44256547       0.50000000
Zr       5.37863300      -5.36752152      12.53605385       0.05743452       0.44256548      -0.50000000
Zr       3.58745716      -3.56523458      14.31739487       0.11486904       0.88513095      -1.00000000
Zr       1.79372867      -1.78261723      16.12095811       0.05743452       0.44256547      -0.50000000
Zr      -0.00127614      -0.00983466      17.93563246      -0.05743452      -0.44256548       0.50000000
Zr       1.79372850       1.80228692      -1.80356322       0.05743452       0.44256548      -0.50000000
Zr       0.00255266       3.60457385      -0.02222220       0.11486904       0.88513095      -1.00000000
Zr      -1.79117583       5.38719121       1.78134104       0.05743452       0.44256547      -0.50000000
Zr      -3.58618065       7.15997377       3.59601540      -0.05743452      -0.44256548       0.50000000
Zr      -5.37990914       8.94259113       5.39957864      -0.11486904      -0.88513095       1.00000000
Zr      -7.17108498      10.74487806       7.18091966      -0.05743452      -0.44256547       0.50000000
Zr       3.58745703       0.01966959      -0.02222219       0.11486904       0.88513095      -1.00000000
Zr       1.79372854       1.80228694       1.78134105       0.05743452       0.44256547      -0.50000000
Zr      -0.00127628       3.57506951       3.59601541      -0.05743452      -0.44256548       0.50000000
Zr      -1.79500477       5.35768687       5.39957865      -0.11486904      -0.88513095       1.00000000
Zr      -3.58618061       7.15997380       7.18091967      -0.05743452      -0.44256547       0.50000000
Zr      -5.37608013       8.97209552       8.95114957       0.05743452       0.44256548      -0.50000000
Zr       5.37863291      -1.78261732       1.78134106       0.05743452       0.44256547      -0.50000000
Zr       3.58362809      -0.00983475       3.59601542      -0.05743452      -0.44256548       0.50000000
Zr       1.78989960       1.77278260       5.39957866      -0.11486904      -0.88513095       1.00000000
Zr      -0.00127624       3.57506954       7.18091968      -0.05743452      -0.44256547       0.50000000
Zr      -1.79117576       5.38719126       8.95114958       0.05743452       0.44256548      -0.50000000
Zr      -3.58235161       7.18947819      10.73249060       0.11486904       0.88513095      -1.00000000
Zr       7.16853246      -3.59473902       3.59601543      -0.05743452      -0.44256548       0.50000000
Zr       5.37480397      -1.81212166       5.39957867      -0.11486904      -0.88513095       1.00000000
Zr       3.58362813      -0.00983473       7.18091969      -0.05743452      -0.44256547       0.50000000
Zr       1.79372861       1.80228699       8.95114959       0.05743452       0.44256548      -0.50000000
Zr       0.00255276       3.60457393      10.73249061       0.11486904       0.88513095      -1.00000000
Zr      -1.79117573       5.38719128      12.53605385       0.05743452       0.44256547      -0.50000000
Zr       8.95970834      -5.39702592       5.39957868      -0.11486904      -0.88513095       1.00000000
Zr       7.16853250      -3.59473899       7.18091970      -0.05743452      -0.44256547       0.50000000
Zr       5.37863298      -1.78261727       8.95114960       0.05743452       0.44256548      -0.50000000
Zr       3.58745713       0.01966966      10.73249062       0.11486904       0.88513095      -1.00000000
Zr       1.79372864       1.80228702      12.53605386       0.05743452       0.44256547      -0.50000000
Zr      -0.00127617       3.57506959      14.35072822      -0.05743452      -0.44256548       0.50000000
Zr      10.75343687      -7.17964325       7.18091971      -0.05743452      -0.44256547       0.50000000
Zr       8.96353735      -5.36752153       8.95114962       0.05743452       0.44256548      -0.50000000
Zr       7.17236150      -3.56523460      10.73249063       0.11486904       0.88513095      -1.00000000
Zr       5.37863301      -1.78261724      12.53605387       0.05743452       0.44256547      -0.50000000
Zr       3.58362820      -0.00983468      14.35072823      -0.05743452      -0.44256548       0.50000000
Zr       1.78989971       1.77278268      16.15429147      -0.11486904      -0.88513095       1.00000000
Zr       3.58745700       3.60457384      -3.60712643       0.11486904       0.88513095      -1.00000000
Zr       1.79372851       5.38719119      -1.80356319       0.05743452       0.44256547      -0.50000000
Zr      -0.00127630       7.15997376       0.01111116      -0.05743452      -0.44256548       0.50000000
Zr      -1.79500479       8.94259112       1.81467440      -0.11486904      -0.88513095       1.00000000
Zr      -3.58618064      10.74487805       3.59601542      -0.05743452      -0.44256547       0.50000000
Zr      -5.37608016      12.55699977       5.36624533       0.05743452       0.44256548      -0.50000000
Zr       5.37863288       1.80228693      -1.80356318       0.05743452       0.44256547      -0.50000000
Zr       3.58362807       3.57506950       0.01111117      -0.05743452      -0.44256548       0.50000000
Zr       1.78989958       5.35768685       1.81467441      -0.11486904      -0.88513095       1.00000000
Zr      -0.00127627       7.15997379       3.59601543      -0.05743452      -0.44256547       0.50000000
Zr      -1.79117579       8.97209551       5.36624534       0.05743452       0.44256548      -0.50000000
Zr      -3.58235163      10.77438244       7.14758636       0.11486904       0.88513095      -1.00000000
Zr       7.16853244      -0.00983477       0.01111118      -0.05743452      -0.44256548       0.50000000
Zr       5.37480395       1.77278259       1.81467442      -0.11486904      -0.88513095       1.00000000
Zr       3.58362810       3.57506952       3.59601544      -0.05743452      -0.44256547       0.50000000
Zr       1.79372858       5.38719124       5.36624535       0.05743452       0.44256548      -0.50000000
Zr       0.00255274       7.18947818       7.14758637       0.11486904       0.88513095      -1.00000000
Zr      -1.79117575       8.97209553       8.95114961       0.05743452       0.44256547      -0.50000000
Zr       8.95970832      -1.81212168       1.81467443      -0.11486904      -0.88513095       1.00000000
Zr       7.16853247      -0.00983474       3.59601545      -0.05743452      -0.44256547       0.50000000
Zr       5.37863295       1.80228698       5.36624536       0.05743452       0.44256548      -0.50000000
Zr       3.58745711       3.60457391       7.14758638       0.11486904       0.88513095      -1.00000000
Zr       1.79372862       5.38719127       8.95114962       0.05743452       0.44256547      -0.50000000
Zr      -0.00127619       7.15997384      10.76582397      -0.05743452      -0.44256548       0.50000000
Zr      10.75343684      -3.59473901       3.59601546      -0.05743452      -0.44256547       0.50000000
Zr       8.96353732      -1.78261728       5.36624537       0.05743452       0.44256548      -0.50000000
Zr       7.17236148       0.01966965       7.14758639       0.11486904       0.88513095      -1.00000000
Zr       5.37863299       1.80228700       8.95114963       0.05743452       0.44256547      -0.50000000
Zr       3.58362818       3.57506957      10.76582398      -0.05743452      -0.44256548       0.50000000
Zr       1.78989969       5.35768693      12.56938722      -0.11486904      -0.88513095       1.00000000
Zr      12.54844169      -5.36752155       5.36624538       0.05743452       0.44256548      -0.50000000
Zr      10.75726585      -3.56523462       7.14758640       0.11486904       0.88513095      -1.00000000
Zr       8.96353736      -1.78261726       8.95114964       0.05743452       0.44256547      -0.50000000
Zr       7.16853255      -0.00983469      10.76582399      -0.05743452      -0.44256548       0.50000000
Zr       5.37480406       1.77278267      12.56938723      -0.11486904      -0.88513095       1.00000000
Zr       3.58362821       3.57506960      14.35072825      -0.05743452      -0.44256547       0.50000000
Zr       5.37863285       5.38719118      -5.38846742       0.05743452       0.44256547      -0.50000000
Zr       3.58362804       7.15997374      -3.57379307      -0.05743452      -0.44256548       0.50000000
Zr       1.78989955       8.94259110      -1.77022983      -0.11486904      -0.88513095       1.00000000
Zr      -0.00127629      10.74487803       0.01111119      -0.05743452      -0.44256547       0.50000000
Zr      -1.79117581      12.55699975       1.78134110       0.05743452       0.44256548      -0.50000000
Zr      -3.58235166      14.35928669       3.56268211       0.11486904       0.88513095      -1.00000000
Zr       7.16853241       3.57506948      -3.57379306      -0.05743452      -0.44256548       0.50000000
Zr       5.37480392       5.35768684      -1.77022982      -0.11486904      -0.88513095       1.00000000
Zr       3.58362808       7.15997377       0.01111120      -0.05743452      -0.44256547       0.50000000
Zr       1.79372856       8.97209549       1.78134111       0.05743452       0.44256548      -0.50000000
Zr       0.00255271      10.77438242       3.56268212       0.11486904       0.88513095      -1.00000000
Zr      -1.79117578      12.55699978       5.36624537       0.05743452       0.44256547      -0.50000000
Zr       8.95970829       1.77278257      -1.77022981      -0.11486904      -0.88513095       1.00000000
Zr       7.16853245       3.57506951       0.01111121      -0.05743452      -0.44256547       0.50000000
Zr       5.37863293       5.38719123       1.78134112       0.05743452       0.44256548      -0.50000000
Zr       3.58745708       7.18947816       3.56268213       0.11486904       0.88513095      -1.00000000
Zr       1.79372859       8.97209552       5.36624538       0.05743452       0.44256547      -0.50000000
Zr      -0.00127622      10.74487808       7.18091973      -0.05743452      -0.44256548       0.50000000
Zr      10.75343682      -0.00983476       0.01111122      -0.05743452      -0.44256547       0.50000000
Zr       8.96353730       1.80228696       1.78134113       0.05743452       0.44256548      -0.50000000
Zr       7.17236145       3.60457390       3.56268215       0.11486904       0.88513095      -1.00000000
Zr       5.37863296       5.38719125       5.36624539       0.05743452       0.44256547      -0.50000000
Zr       3.58362815       7.15997382       7.18091974      -0.05743452      -0.44256548       0.50000000
Zr       1.78989966       8.94259118       8.98448298      -0.11486904      -0.88513095       1.00000000
Zr      12.54844167      -1.78261730       1.78134114       0.05743452       0.44256548      -0.50000000
Zr      10.75726582       0.01966963       3.56268216       0.11486904       0.88513095      -1.00000000
Zr       8.96353733       1.80228699       5.36624540       0.05743452       0.44256547      -0.50000000
Zr       7.16853252       3.57506956       7.18091975      -0.05743452      -0.44256548       0.50000000
Zr       5.37480403       5.35768691       8.98448299      -0.11486904      -0.88513095       1.00000000
Zr       3.58362819       7.15997385      10.76582401      -0.05743452      -0.44256547       0.50000000
Zr      14.34217019      -3.56523463       3.56268217       0.11486904       0.88513095      -1.00000000
Zr      12.54844170      -1.78261727       5.36624541       0.05743452       0.44256547      -0.50000000
Zr      10.75343689      -0.00983471       7.18091976      -0.05743452      -0.44256548       0.50000000
Zr       8.95970840       1.77278265       8.98448300      -0.11486904      -0.88513095       1.00000000
Zr       7.16853256       3.57506958      10.76582402      -0.05743452      -0.44256547       0.50000000
Zr       5.37863303       5.38719130      12.53605393       0.05743452       0.44256548      -0.50000000
Zr       7.16853239       7.15997373      -7.15869731      -0.05743452      -0.44256548       0.50000000
Zr       5.37480390       8.94259109      -5.35513406      -0.11486904      -0.88513095       1.00000000
Zr       3.58362805      10.74487802      -3.57379305      -0.05743452      -0.44256547       0.50000000
Zr       1.79372853      12.55699974      -1.80356314       0.05743452       0.44256548      -0.50000000
Zr       0.00255269      14.35928667      -0.02222212       0.11486904       0.88513095      -1.00000000
Zr      -1.79117580      16.14190403       1.78134112       0.05743452       0.44256547      -0.50000000
Zr       8.95970827       5.35768682      -5.35513405      -0.11486904      -0.88513095       1.00000000
Zr       7.16853242       7.15997375      -3.57379304      -0.05743452      -0.44256547       0.50000000
Zr       5.37863290       8.97209548      -1.80356313       0.05743452       0.44256548      -0.50000000
Zr       3.58745706      10.77438241      -0.02222211       0.11486904       0.88513095      -1.00000000
Zr       1.79372857      12.55699977       1.78134113       0.05743452       0.44256547      -0.50000000
Zr      -0.00127625      14.32978233       3.59601548      -0.05743452      -0.44256548       0.50000000
Zr      10.75343679       3.57506949      -3.57379303      -0.05743452      -0.44256547       0.50000000
Zr       8.96353727       5.38719121      -1.80356312       0.05743452       0.44256548      -0.50000000
Zr       7.17236143       7.18947815      -0.02222210       0.11486904       0.88513095      -1.00000000
Zr       5.37863294       8.97209550       1.78134114       0.05743452       0.44256547      -0.50000000
Zr       3.58362812      10.74487807       3.59601549      -0.05743452      -0.44256548       0.50000000
Zr       1.78989963      12.52749543       5.39957873      -0.11486904      -0.88513095       1.00000000
Zr      12.54844164       1.80228695      -1.80356311       0.05743452       0.44256548      -0.50000000
Zr      10.75726580       3.60457388      -0.02222209       0.11486904       0.88513095      -1.00000000
Zr       8.96353731       5.38719124       1.78134115       0.05743452       0.44256547      -0.50000000
Zr       7.16853249       7.15997381       3.59601550      -0.05743452      -0.44256548       0.50000000
Zr       5.37480400       8.94259116       5.39957874      -0.11486904      -0.88513095       1.00000000
Zr       3.58362816      10.74487810       7.18091976      -0.05743452      -0.44256547       0.50000000
Zr      14.34217017       0.01966962      -0.02222208       0.11486904       0.88513095      -1.00000000
Zr      12.54844168       1.80228697       1.78134116       0.05743452       0.44256547      -0.50000000
Zr      10.75343686       3.57506954       3.59601551      -0.05743452      -0.44256548       0.50000000
Zr       8.95970837       5.35768690       5.39957876      -0.11486904      -0.88513095       1.00000000
Zr       7.16853253       7.15997383       7.18091977      -0.05743452      -0.44256547       0.50000000
Zr       5.37863301       8.97209555       8.95114968       0.05743452       0.44256548      -0.50000000
Zr      16.13334605      -1.78261729       1.78134117       0.05743452       0.44256547      -0.50000000
Zr      14.33834123      -0.00983472       3.59601552      -0.05743452      -0.44256548       0.50000000
Zr      12.54461274       1.77278263       5.39957877      -0.11486904      -0.88513095       1.00000000
Zr      10.75343690       3.57506957       7.18091978      -0.05743452      -0.44256547       0.50000000
Zr       8.96353738       5.38719129       8.95114969       0.05743452       0.44256548      -0.50000000
Zr       7.17236153       7.18947822      10.73249071       0.11486904       0.88513095      -1.00000000
Zr       8.95970824       8.94259107      -8.94003830      -0.11486904      -0.88513095       1.00000000
Zr       7.16853240      10.74487800      -7.15869728      -0.05743452      -0.44256547       0.50000000
Zr       5.37863288      12.55699972      -5.38846737       0.05743452       0.44256548      -0.50000000
Zr       3.58745703      14.35928666      -3.60712635       0.11486904       0.88513095      -1.00000000
Zr       1.79372854      16.14190401      -1.80356311       0.05743452       0.44256547      -0.50000000
Zr      -0.00127627      17.91468658       0.01111124      -0.05743452      -0.44256548       0.50000000
Zr      10.75343677       7.15997374      -7.15869727      -0.05743452      -0.44256547       0.50000000
Zr       8.96353725       8.97209546      -5.38846736       0.05743452       0.44256548      -0.50000000
Zr       7.17236140      10.77438239      -3.60712634       0.11486904       0.88513095      -1.00000000
Zr       5.37863291      12.55699975      -1.80356310       0.05743452       0.44256547      -0.50000000
Zr       3.58362810      14.32978232       0.01111125      -0.05743452      -0.44256548       0.50000000
Zr       1.78989961      16.11239967       1.81467449      -0.11486904      -0.88513095       1.00000000
Zr      12.54844162       5.38719120      -5.38846735       0.05743452       0.44256548      -0.50000000
Zr      10.75726577       7.18947813      -3.60712633       0.11486904       0.88513095      -1.00000000
Zr       8.96353728       8.97209549      -1.80356309       0.05743452       0.44256547      -0.50000000
Zr       7.16853247      10.74487805       0.01111126      -0.05743452      -0.44256548       0.50000000
Zr       5.37480398      12.52749541       1.81467450      -0.11486904      -0.88513095       1.00000000
Zr       3.58362813      14.32978234       3.59601552      -0.05743452      -0.44256547       0.50000000
Zr      14.34217014       3.60457387      -3.60712632       0.11486904       0.88513095      -1.00000000
Zr      12.54844165       5.38719122      -1.80356308       0.05743452       0.44256547      -0.50000000
Zr      10.75343684       7.15997379       0.01111127      -0.05743452      -0.44256548       0.50000000
Zr       8.95970835       8.94259115       1.81467451      -0.11486904      -0.88513095       1.00000000
Zr       7.16853250      10.74487808       3.59601553      -0.05743452      -0.44256547       0.50000000
Zr       5.37863298      12.55699980       5.36624544       0.05743452       0.44256548      -0.50000000
Zr      16.13334602       1.80228696      -1.80356307       0.05743452       0.44256547      -0.50000000
Zr      14.33834121       3.57506953       0.01111128      -0.05743452      -0.44256548       0.50000000
Zr      12.54461272       5.35768688       1.81467452      -0.11486904      -0.88513095       1.00000000
Zr      10.75343687       7.15997382       3.59601554      -0.05743452      -0.44256547       0.50000000
Zr       8.96353735       8.97209554       5.36624545       0.05743452       0.44256548      -0.50000000
Zr       7.17236151      10.77438247       7.14758647       0.11486904       0.88513095      -1.00000000
Zr      17.92324558      -0.00983474       0.01111129      -0.05743452      -0.44256548       0.50000000
Zr      16.12951709       1.77278262       1.81467453      -0.11486904      -0.88513095       1.00000000
Zr      14.33834124       3.57506955       3.59601555      -0.05743452      -0.44256547       0.50000000
Zr      12.54844172       5.38719127       5.36624546       0.05743452       0.44256548      -0.50000000
Zr      10.75726588       7.18947821       7.14758648       0.11486904       0.88513095      -1.00000000
Zr       8.96353739       8.97209556       8.95114972       0.05743452       0.44256547      -0.50000000
216
Lattice="-10.754713002110758 10.754712867710897 10.754712779026498 10.75471321732783 -10.754712714258055 10.75471284079072 10.754713064099535 10.754712776246816 -10.754712625573656" Properties=species:S:1:pos:R:3:mode_u:R:3 system=zr_bcc path_model=mattersim pattern_model=mattersim mlip_model=mattersim role=mode stem=zr_bcc_mattersim_q1d6-1d6-1d6-b0 q="0.16666666666666666 0.16666666666666666 0.16666666666666666" band=0 dim="6 6 6" m_eff=17700.95745654944 check_pass=False Q=0.049999999999999996 index=3 mlip_energy_eV=-1829.685546875 pbc="T T T"
Zr      -0.00287173      -0.02212827       0.02500000      -0.05743452      -0.44256547       0.50000000
Zr      -1.78958044       1.81458042       1.76745213       0.05743452       0.44256548      -0.50000000
Zr      -3.57916088       3.62916084       3.53490426       0.11486904       0.88513095      -1.00000000
Zr      -5.37448478       5.39948471       5.35235639       0.05743452       0.44256547      -0.50000000
Zr      -7.17268039       7.14768030       7.19480852      -0.05743452      -0.44256548       0.50000000
Zr      -8.96800429       8.91800418       9.01226065      -0.11486904      -0.88513095       1.00000000
Zr       1.79532393      -1.77032385       1.76745214       0.05743452       0.44256548      -0.50000000
Zr       0.00574349       0.04425657       3.53490427       0.11486904       0.88513095      -1.00000000
Zr      -1.78958041       1.81458044       5.35235640       0.05743452       0.44256547      -0.50000000
Zr      -3.58777602       3.56277604       7.19480853      -0.05743452      -0.44256548       0.50000000
Zr      -5.38309992       5.33309991       9.01226066      -0.11486904      -0.88513095       1.00000000
Zr      -7.17268036       7.14768033      10.77971279      -0.05743452      -0.44256547       0.50000000
Zr       3.59064786      -3.54064769       3.53490428       0.11486904       0.88513095      -1.00000000
Zr       1.79532396      -1.77032382       5.35235641       0.05743452       0.44256547      -0.50000000
Zr      -0.00287165      -0.02212822       7.19480854      -0.05743452      -0.44256548       0.50000000
Zr      -1.79819555       1.74819565       9.01226067      -0.11486904      -0.88513095       1.00000000
Zr      -3.58777599       3.56277607      10.77971280      -0.05743452      -0.44256547       0.50000000
Zr      -5.37448470       5.39948476      12.52216493       0.05743452       0.44256548      -0.50000000
Zr       5.38022833      -5.35522808       5.35235642       0.05743452       0.44256547      -0.50000000
Zr       3.58203272      -3.60703249       7.19480855      -0.05743452      -0.44256548       0.50000000
Zr       1.78670882      -1.83670862       9.01226068      -0.11486904      -0.88513095       1.00000000
Zr      -0.00287162      -0.02212820      10.77971281      -0.05743452      -0.44256547       0.50000000
Zr      -1.78958033       1.81458050      12.52216494       0.05743452       0.44256548      -0.50000000
Zr      -3.57916077       3.62916091      14.28961707       0.11486904       0.88513095      -1.00000000
Zr       7.16693709      -7.19193675       7.19480856      -0.05743452      -0.44256548       0.50000000
Zr       5.37161319      -5.42161288       9.01226069      -0.11486904      -0.88513095       1.00000000
Zr       3.58203275      -3.60703246      10.77971282      -0.05743452      -0.44256547       0.50000000
Zr       1.79532404      -1.77032377      12.52216495       0.05743452       0.44256548      -0.50000000
Zr       0.00574360       0.04425665      14.28961708       0.11486904       0.88513095      -1.00000000
Zr      -1.78958030       1.81458052      16.10706921       0.05743452       0.44256547      -0.50000000
Zr       8.95651756      -9.00651714       9.01226070      -0.11486904      -0.88513095       1.00000000
Zr       7.16693712      -7.19193672      10.77971283      -0.05743452      -0.44256547       0.50000000
Zr       5.38022841      -5.35522803      12.52216496       0.05743452       0.44256548      -0.50000000
Zr       3.59064797      -3.54064761      14.28961709       0.11486904       0.88513095      -1.00000000
Zr       1.79532407      -1.77032374      16.10706922       0.05743452       0.44256547      -0.50000000
Zr      -0.00287155      -0.02212815      17.94952135      -0.05743452      -0.44256548       0.50000000
Zr       1.79532390       1.81458040      -1.81745210       0.05743452       0.44256548      -0.50000000
Zr       0.00574346       3.62916082      -0.04999997       0.11486904       0.88513095      -1.00000000
Zr      -1.78958043       5.39948469       1.76745216       0.05743452       0.44256547      -0.50000000
Zr      -3.58777605       7.14768029       3.60990429      -0.05743452      -0.44256548       0.50000000
Zr      -5.38309994       8.91800416       5.42735642      -0.11486904      -0.88513095       1.00000000
Zr      -7.17268038      10.73258458       7.19480854      -0.05743452      -0.44256547       0.50000000
Zr       3.59064783       0.04425656      -0.04999996       0.11486904       0.88513095      -1.00000000
Zr       1.79532394       1.81458043       1.76745217       0.05743452       0.44256547      -0.50000000
Zr      -0.00287168       3.56277603       3.60990430      -0.05743452      -0.44256548       0.50000000
Zr      -1.79819557       5.33309990       5.42735643      -0.11486904      -0.88513095       1.00000000
Zr      -3.58777601       7.14768032       7.19480856      -0.05743452      -0.44256547       0.50000000
Zr      -5.37448473       8.98438901       8.93726069       0.05743452       0.44256548      -0.50000000
Zr       5.38022831      -1.77032383       1.76745218       0.05743452       0.44256547      -0.50000000
Zr       3.58203269      -0.02212824       3.60990431      -0.05743452      -0.44256548       0.50000000
Zr       1.78670880       1.74819563       5.42735644      -0.11486904      -0.88513095       1.00000000
Zr      -0.00287164       3.56277605       7.19480857      -0.05743452      -0.44256547       0.50000000
Zr      -1.78958036       5.39948474       8.93726070       0.05743452       0.44256548      -0.50000000
Zr      -3.57916080       7.21406516      10.70471283       0.11486904       0.88513095      -1.00000000
Zr       7.16693706      -3.60703250       3.60990432      -0.05743452      -0.44256548       0.50000000
Zr       5.37161317      -1.83670863       5.42735645      -0.11486904      -0.88513095       1.00000000
Zr       3.58203273      -0.02212821       7.19480858      -0.05743452      -0.44256547       0.50000000
Zr       1.79532401       1.81458048       8.93726071       0.05743452       0.44256548      -0.50000000
Zr       0.00574357       3.62916090      10.70471284       0.11486904       0.88513095      -1.00000000
Zr      -1.78958032       5.39948477      12.52216497       0.05743452       0.44256547      -0.50000000
Zr       8.95651754      -5.42161289       5.42735646      -0.11486904      -0.88513095       1.00000000
Zr       7.16693710      -3.60703248       7.19480859      -0.05743452      -0.44256547       0.50000000
Zr       5.38022838      -1.77032378       8.93726072       0.05743452       0.44256548      -0.50000000
Zr       3.59064794       0.04425663      10.70471285       0.11486904       0.88513095      -1.00000000
Zr       1.79532405       1.81458051      12.52216498       0.05743452       0.44256547      -0.50000000
Zr      -0.00287157       3.56277610      14.36461711      -0.05743452      -0.44256548       0.50000000
Zr      10.75184147      -7.19193674       7.19480860      -0.05743452      -0.44256547       0.50000000
Zr       8.96513275      -5.35522805       8.93726073       0.05743452       0.44256548      -0.50000000
Zr       7.17555231      -3.54064763      10.70471286       0.11486904       0.88513095      -1.00000000
Zr       5.38022842      -1.77032376      12.52216499       0.05743452       0.44256547      -0.50000000
Zr       3.58203280      -0.02212816      14.36461712      -0.05743452      -0.44256548       0.50000000
Zr       1.78670890       1.74819571      16.18206925      -0.11486904      -0.88513095       1.00000000
Zr       3.59064781       3.62916081      -3.63490421       0.11486904       0.88513095      -1.00000000
Zr       1.79532391       5.39948468      -1.81745208       0.05743452       0.44256547      -0.50000000
Zr      -0.00287171       7.14768027       0.02500005      -0.05743452      -0.44256548       0.50000000
Zr      -1.79819560       8.91800415       1.84245218      -0.11486904      -0.88513095       1.00000000
Zr      -3.58777604      10.73258456       3.60990431      -0.05743452      -0.44256547       0.50000000
Zr      -5.37448475      12.56929326       5.35235644       0.05743452       0.44256548      -0.50000000
Zr       5.38022828       1.81458041      -1.81745207       0.05743452       0.44256547      -0.50000000
Zr       3.58203266       3.56277601       0.02500006      -0.05743452      -0.44256548       0.50000000
Zr       1.78670877       5.33309988       1.84245219      -0.11486904      -0.88513095       1.00000000
Zr      -0.00287167       7.14768030       3.60990432      -0.05743452      -0.44256547       0.50000000
Zr      -1.78958038       8.98438899       5.35235645       0.05743452       0.44256548      -0.50000000
Zr      -3.57916083      10.79896941       7.11980858       0.11486904       0.88513095      -1.00000000
Zr       7.16693703      -0.02212825       0.02500007      -0.05743452      -0.44256548       0.50000000
Zr       5.37161314       1.74819562       1.84245220      -0.11486904      -0.88513095       1.00000000
Zr       3.58203270       3.56277604       3.60990433      -0.05743452      -0.44256547       0.50000000
Zr       1.79532399       5.39948473       5.35235646       0.05743452       0.44256548      -0.50000000
Zr       0.00574354       7.21406515       7.11980859       0.11486904       0.88513095      -1.00000000
Zr      -1.78958035       8.98438902       8.93726072       0.05743452       0.44256547      -0.50000000
Zr       8.95651751      -1.83670865       1.84245221      -0.11486904      -0.88513095       1.00000000
Zr       7.16693707      -0.02212823       3.60990434      -0.05743452      -0.44256547       0.50000000
Zr       5.38022836       1.81458046       5.35235647       0.05743452       0.44256548      -0.50000000
Zr       3.59064791       3.62916088       7.11980860       0.11486904       0.88513095      -1.00000000
Zr       1.79532402       5.39948475       8.93726073       0.05743452       0.44256547      -0.50000000
Zr      -0.00287160       7.14768035      10.77971286      -0.05743452      -0.44256548       0.50000000
Zr      10.75184144      -3.60703249       3.60990435      -0.05743452      -0.44256547       0.50000000
Zr       8.96513273      -1.77032380       5.35235648       0.05743452       0.44256548      -0.50000000
Zr       7.17555228       0.04425662       7.11980861       0.11486904       0.88513095      -1.00000000
Zr       5.38022839       1.81458049       8.93726074       0.05743452       0.44256547      -0.50000000
Zr       3.58203277       3.56277609      10.77971287      -0.05743452      -0.44256548       0.50000000
Zr       1.78670888       5.33309996      12.59716500      -0.11486904      -0.88513095       1.00000000
Zr      12.55003710      -5.35522806       5.35235649       0.05743452       0.44256548      -0.50000000
Zr      10.76045665      -3.54064764       7.11980862       0.11486904       0.88513095      -1.00000000
Zr       8.96513276      -1.77032377       8.93726075       0.05743452       0.44256547      -0.50000000
Zr       7.16693714      -0.02212818      10.77971288      -0.05743452      -0.44256548       0.50000000
Zr       5.37161325       1.74819569      12.59716501      -0.11486904      -0.88513095       1.00000000
Zr       3.58203281       3.56277611      14.36461714      -0.05743452      -0.44256547       0.50000000
Zr       5.38022826       5.39948466      -5.40235631       0.05743452       0.44256547      -0.50000000
Zr       3.58203264       7.14768026      -3.55990418      -0.05743452      -0.44256548       0.50000000
Zr       1.78670875       8.91800413      -1.74245205      -0.11486904      -0.88513095       1.00000000
Zr      -0.00287169      10.73258455       0.02500008      -0.05743452      -0.44256547       0.50000000
Zr      -1.78958041      12.56929324       1.76745221       0.05743452       0.44256548      -0.50000000
Zr      -3.57916085      14.38387366       3.53490434       0.11486904       0.88513095      -1.00000000
Zr       7.16693701       3.56277600      -3.55990417      -0.05743452      -0.44256548       0.50000000
Zr       5.37161312       5.33309987      -1.74245204      -0.11486904      -0.88513095       1.00000000
Zr       3.58203267       7.14768028       0.02500009      -0.05743452      -0.44256547       0.50000000
Zr       1.79532396       8.98438898       1.76745222       0.05743452       0.44256548      -0.50000000
Zr       0.00574352      10.79896940       3.53490435       0.11486904       0.88513095      -1.00000000
Zr      -1.78958037      12.56929327       5.35235648       0.05743452       0.44256547      -0.50000000
Zr       8.95651749       1.74819560      -1.74245203      -0.11486904      -0.88513095       1.00000000
Zr       7.16693704       3.56277602       0.02500010      -0.05743452      -0.44256547       0.50000000
Zr       5.38022833       5.39948471       1.76745223       0.05743452       0.44256548      -0.50000000
Zr       3.59064789       7.21406513       3.53490436       0.11486904       0.88513095      -1.00000000
Zr       1.79532400       8.98438900       5.35235649       0.05743452       0.44256547      -0.50000000
Zr      -0.00287162      10.73258460       7.19480862      -0.05743452      -0.44256548       0.50000000
Zr      10.75184141      -0.02212824       0.02500011      -0.05743452      -0.44256547       0.50000000
Zr       8.96513270       1.81458045       1.76745224       0.05743452       0.44256548      -0.50000000
Zr       7.17555226       3.62916087       3.53490437       0.11486904       0.88513095      -1.00000000
Zr       5.38022837       5.39948474       5.35235650       0.05743452       0.44256547      -0.50000000
Zr       3.58203275       7.14768034       7.19480863      -0.05743452      -0.44256548       0.50000000
Zr       1.78670885       8.91800421       9.01226076      -0.11486904      -0.88513095       1.00000000
Zr      12.55003707      -1.77032381       1.76745225       0.05743452       0.44256548      -0.50000000
Zr      10.76045663       0.04425660       3.53490438       0.11486904       0.88513095      -1.00000000
Zr       8.96513274       1.81458047       5.35235651       0.05743452       0.44256547      -0.50000000
Zr       7.16693712       3.56277607       7.19480864      -0.05743452      -0.44256548       0.50000000
Zr       5.37161322       5.33309994       9.01226077      -0.11486904      -0.88513095       1.00000000
Zr       3.58203278       7.14768036      10.77971290      -0.05743452      -0.44256547       0.50000000
Zr      14.34536100      -3.54064766       3.53490439       0.11486904       0.88513095      -1.00000000
Zr      12.55003711      -1.77032379       5.35235652       0.05743452       0.44256547      -0.50000000
Zr      10.75184149      -0.02212819       7.19480865      -0.05743452      -0.44256548       0.50000000
Zr       8.95651759       1.74819568       9.01226078      -0.11486904      -0.88513095       1.00000000
Zr       7.16693715       3.56277610      10.77971291      -0.05743452      -0.44256547       0.50000000
Zr       5.38022844       5.39948479      12.52216504       0.05743452       0.44256548      -0.50000000
Zr       7.16693698       7.14768024      -7.14480842      -0.05743452      -0.44256548       0.50000000
Zr       5.37161309       8.91800411      -5.32735629      -0.11486904      -0.88513095       1.00000000
Zr       3.58203265      10.73258453      -3.55990416      -0.05743452      -0.44256547       0.50000000
Zr       1.79532393      12.56929323      -1.81745203       0.05743452       0.44256548      -0.50000000
Zr       0.00574349      14.38387364      -0.04999990       0.11486904       0.88513095      -1.00000000
Zr      -1.78958040      16.15419751       1.76745223       0.05743452       0.44256547      -0.50000000
Zr       8.95651746       5.33309985      -5.32735628      -0.11486904      -0.88513095       1.00000000
Zr       7.16693702       7.14768027      -3.55990415      -0.05743452      -0.44256547       0.50000000
Zr       5.38022830       8.98438896      -1.81745202       0.05743452       0.44256548      -0.50000000
Zr       3.59064786      10.79896938      -0.04999989       0.11486904       0.88513095      -1.00000000
Zr       1.79532397      12.56929325       1.76745224       0.05743452       0.44256547      -0.50000000
Zr      -0.00287165      14.31748885       3.60990437      -0.05743452      -0.44256548       0.50000000
Zr      10.75184139       3.56277601      -3.55990414      -0.05743452      -0.44256547       0.50000000
Zr       8.96513267       5.39948470      -1.81745201       0.05743452       0.44256548      -0.50000000
Zr       7.17555223       7.21406512      -0.04999988       0.11486904       0.88513095      -1.00000000
Zr       5.38022834       8.98438899       1.76745225       0.05743452       0.44256547      -0.50000000
Zr       3.58203272      10.73258458       3.60990438      -0.05743452      -0.44256548       0.50000000
Zr       1.78670883      12.50290845       5.42735651      -0.11486904      -0.88513095       1.00000000
Zr      12.55003704       1.81458043      -1.81745200       0.05743452       0.44256548      -0.50000000
Zr      10.76045660       3.62916085      -0.04999987       0.11486904       0.88513095      -1.00000000
Zr       8.96513271       5.39948472       1.76745226       0.05743452       0.44256547      -0.50000000
Zr       7.16693709       7.14768032       3.60990439      -0.05743452      -0.44256548       0.50000000
Zr       5.37161320       8.91800419       5.42735652      -0.11486904      -0.88513095       1.00000000
Zr       3.58203276      10.73258461       7.19480865      -0.05743452      -0.44256547       0.50000000
Zr      14.34536097       0.04425659      -0.04999986       0.11486904       0.88513095      -1.00000000
Zr      12.55003708       1.81458046       1.76745227       0.05743452       0.44256547      -0.50000000
Zr      10.75184146       3.56277606       3.60990440      -0.05743452      -0.44256548       0.50000000
Zr       8.95651757       5.33309993       5.42735653      -0.11486904      -0.88513095       1.00000000
Zr       7.16693713       7.14768035       7.19480866      -0.05743452      -0.44256547       0.50000000
Zr       5.38022841       8.98438904       8.93726079       0.05743452       0.44256548      -0.50000000
Zr      16.13494145      -1.77032380       1.76745228       0.05743452       0.44256547      -0.50000000
Zr      14.33674583      -0.02212821       3.60990441      -0.05743452      -0.44256548       0.50000000
Zr      12.54142194       1.74819566       5.42735654      -0.11486904      -0.88513095       1.00000000
Zr      10.75184150       3.56277608       7.19480867      -0.05743452      -0.44256547       0.50000000
Zr       8.96513278       5.39948477       8.93726080       0.05743452       0.44256548      -0.50000000
Zr       7.17555234       7.21406519      10.70471293       0.11486904       0.88513095      -1.00000000
Zr       8.95651743       8.91800410      -8.91226052      -0.11486904      -0.88513095       1.00000000
Zr       7.16693699      10.73258452      -7.14480839      -0.05743452      -0.44256547       0.50000000
Zr       5.38022828      12.56929321      -5.40235626       0.05743452       0.44256548      -0.50000000
Zr       3.59064784      14.38387363      -3.63490413       0.11486904       0.88513095      -1.00000000
Zr       1.79532394      16.15419750      -1.81745200       0.05743452       0.44256547      -0.50000000
Zr      -0.00287167      17.90239310       0.02500013      -0.05743452      -0.44256548       0.50000000
Zr      10.75184136       7.14768025      -7.14480838      -0.05743452      -0.44256547       0.50000000
Zr       8.96513265       8.98438895      -5.40235625       0.05743452       0.44256548      -0.50000000
Zr       7.17555221      10.79896936      -3.63490412       0.11486904       0.88513095      -1.00000000
Zr       5.38022831      12.56929324      -1.81745199       0.05743452       0.44256547      -0.50000000
Zr       3.58203270      14.31748883       0.02500014      -0.05743452      -0.44256548       0.50000000
Zr       1.78670880      16.08781270       1.84245227      -0.11486904      -0.88513095       1.00000000
Zr      12.55003702       5.39948468      -5.40235624       0.05743452       0.44256548      -0.50000000
Zr      10.76045658       7.21406510      -3.63490411       0.11486904       0.88513095      -1.00000000
Zr       8.96513268       8.98438897      -1.81745198       0.05743452       0.44256547      -0.50000000
Zr       7.16693707      10.73258457       0.02500015      -0.05743452      -0.44256548       0.50000000
Zr       5.37161317      12.50290844       1.84245228      -0.11486904      -0.88513095       1.00000000
Zr       3.58203273      14.31748886       3.60990441      -0.05743452      -0.44256547       0.50000000
Zr      14.34536095       3.62916084      -3.63490410       0.11486904       0.88513095      -1.00000000
Zr      12.55003705       5.39948471      -1.81745197       0.05743452       0.44256547      -0.50000000
Zr      10.75184144       7.14768031       0.02500016      -0.05743452      -0.44256548       0.50000000
Zr       8.95651754       8.91800418       1.84245229      -0.11486904      -0.88513095       1.00000000
Zr       7.16693710      10.73258459       3.60990442      -0.05743452      -0.44256547       0.50000000
Zr       5.38022839      12.56929329       5.35235655       0.05743452       0.44256548      -0.50000000
Zr      16.13494142       1.81458044      -1.81745196       0.05743452       0.44256547      -0.50000000
Zr      14.33674581       3.56277604       0.02500017      -0.05743452      -0.44256548       0.50000000
Zr      12.54142191       5.33309991       1.84245230      -0.11486904      -0.88513095       1.00000000
Zr      10.75184147       7.14768033       3.60990443      -0.05743452      -0.44256547       0.50000000
Zr       8.96513276       8.98438902       5.35235656       0.05743452       0.44256548      -0.50000000
Zr       7.17555232      10.79896944       7.11980869       0.11486904       0.88513095      -1.00000000
Zr      17.92165018      -0.02212822       0.02500018      -0.05743452      -0.44256548       0.50000000
Zr      16.12632628       1.74819565       1.84245231      -0.11486904      -0.88513095       1.00000000
Zr      14.33674584       3.56277607       3.60990444      -0.05743452      -0.44256547       0.50000000
Zr      12.55003713       5.39948476       5.35235657       0.05743452       0.44256548      -0.50000000
Zr      10.76045669       7.21406518       7.11980870       0.11486904       0.88513095      -1.00000000
Zr       8.96513279       8.98438905       8.93726083       0.05743452       0.44256547      -0.50000000
216
Lattice="-10.754713002110758 10.754712867710897 10.754712779026498 10.75471321732783 -10.754712714258055 10.75471284079072 10.754713064099535 10.754712776246816 -10.754712625573656" Properties=species:S:1:pos:R:3:mode_u:R:3 system=zr_bcc path_model=mattersim pattern_model=mattersim mlip_model=mattersim role=mode stem=zr_bcc_mattersim_q1d6-1d6-1d6-b0 q="0.16666666666666666 0.16666666666666666 0.16666666666666666" band=0 dim="6 6 6" m_eff=17700.95745654944 check_pass=False Q=0.08888888888888889 index=4 mlip_energy_eV=-1829.8758544921875 pbc="T T T"
Zr      -0.00510529      -0.03933915       0.04444444      -0.05743452      -0.44256547       0.50000000
Zr      -1.78734688       1.83179130       1.74800769       0.05743452       0.44256548      -0.50000000
Zr      -3.57469375       3.66358260       3.49601537       0.11486904       0.88513095      -1.00000000
Zr      -5.37225121       5.41669559       5.33291195       0.05743452       0.44256547      -0.50000000
Zr      -7.17491396       7.13046943       7.21425296      -0.05743452      -0.44256548       0.50000000
Zr      -8.97247142       8.88358242       9.05114954      -0.11486904      -0.88513095       1.00000000
Zr       1.79755749      -1.75311297       1.74800770       0.05743452       0.44256548      -0.50000000
Zr       0.01021062       0.07867833       3.49601538       0.11486904       0.88513095      -1.00000000
Zr      -1.78734684       1.83179132       5.33291196       0.05743452       0.44256547      -0.50000000
Zr      -3.59000959       3.54556516       7.21425297      -0.05743452      -0.44256548       0.50000000
Zr      -5.38756705       5.29867815       9.05114955      -0.11486904      -0.88513095       1.00000000
Zr      -7.17491392       7.13046945      10.79915723      -0.05743452      -0.44256547       0.50000000
Zr       3.59511499      -3.50622593       3.49601539       0.11486904       0.88513095      -1.00000000
Zr       1.79755753      -1.75311294       5.33291197       0.05743452       0.44256547      -0.50000000
Zr      -0.00510522      -0.03933910       7.21425298      -0.05743452      -0.44256548       0.50000000
Zr      -1.80266268       1.71377389       9.05114956      -0.11486904      -0.88513095       1.00000000
Zr      -3.59000955       3.54556519      10.79915724      -0.05743452      -0.44256547       0.50000000
Zr      -5.37225114       5.41669564      12.50272049       0.05743452       0.44256548      -0.50000000
Zr       5.38246190      -5.33801720       5.33291198       0.05743452       0.44256547      -0.50000000
Zr       3.57979915      -3.62424337       7.21425299      -0.05743452      -0.44256548       0.50000000
Zr       1.78224169      -1.87113037       9.05114957      -0.11486904      -0.88513095       1.00000000
Zr      -0.00510518      -0.03933908      10.79915725      -0.05743452      -0.44256547       0.50000000
Zr      -1.78734677       1.83179137      12.50272050       0.05743452       0.44256548      -0.50000000
Zr      -3.57469365       3.66358267      14.25072818       0.11486904       0.88513095      -1.00000000
Zr       7.16470352      -7.20914763       7.21425300      -0.05743452      -0.44256548       0.50000000
Zr       5.36714606      -5.45603464       9.05114958      -0.11486904      -0.88513095       1.00000000
Zr       3.57979919      -3.62424334      10.79915726      -0.05743452      -0.44256547       0.50000000
Zr       1.79755760      -1.75311289      12.50272051       0.05743452       0.44256548      -0.50000000
Zr       0.01021072       0.07867841      14.25072819       0.11486904       0.88513095      -1.00000000
Zr      -1.78734673       1.83179140      16.08762477       0.05743452       0.44256547      -0.50000000
Zr       8.95205043      -9.04093890       9.05114959      -0.11486904      -0.88513095       1.00000000
Zr       7.16470356      -7.20914760      10.79915727      -0.05743452      -0.44256547       0.50000000
Zr       5.38246197      -5.33801715      12.50272052       0.05743452       0.44256548      -0.50000000
Zr       3.59511509      -3.50622585      14.25072820       0.11486904       0.88513095      -1.00000000
Zr       1.79755764      -1.75311286      16.08762478       0.05743452       0.44256547      -0.50000000
Zr      -0.00510511      -0.03933903      17.96896579      -0.05743452      -0.44256548       0.50000000
Zr       1.79755747       1.83179128      -1.83689655       0.05743452       0.44256548      -0.50000000
Zr       0.01021059       3.66358258      -0.08888886       0.11486904       0.88513095      -1.00000000
Zr      -1.78734687       5.41669557       1.74800771       0.05743452       0.44256547      -0.50000000
Zr      -3.59000961       7.13046941       3.62934873      -0.05743452      -0.44256548       0.50000000
Zr      -5.38756707       8.88358240       5.46624530      -0.11486904      -0.88513095       1.00000000
Zr      -7.17491395      10.71537370       7.21425299      -0.05743452      -0.44256547       0.50000000
Zr       3.59511496       0.07867832      -0.08888885       0.11486904       0.88513095      -1.00000000
Zr       1.79755750       1.83179131       1.74800772       0.05743452       0.44256547      -0.50000000
Zr      -0.00510524       3.54556515       3.62934874      -0.05743452      -0.44256548       0.50000000
Zr      -1.80266270       5.29867814       5.46624531      -0.11486904      -0.88513095       1.00000000
Zr      -3.59000958       7.13046944       7.21425300      -0.05743452      -0.44256547       0.50000000
Zr      -5.37225116       9.00159989       8.91781624       0.05743452       0.44256548      -0.50000000
Zr       5.38246187      -1.75311296       1.74800773       0.05743452       0.44256547      -0.50000000
Zr       3.57979913      -0.03933912       3.62934875      -0.05743452      -0.44256548       0.50000000
Zr       1.78224167       1.71377387       5.46624532      -0.11486904      -0.88513095       1.00000000
Zr      -0.00510521       3.54556517       7.21425301      -0.05743452      -0.44256547       0.50000000
Zr      -1.78734679       5.41669562       8.91781625       0.05743452       0.44256548      -0.50000000
Zr      -3.57469367       7.24848692      10.66582394       0.11486904       0.88513095      -1.00000000
Zr       7.16470350      -3.62424338       3.62934876      -0.05743452      -0.44256548       0.50000000
Zr       5.36714604      -1.87113039       5.46624533      -0.11486904      -0.88513095       1.00000000
Zr       3.57979916      -0.03933909       7.21425302      -0.05743452      -0.44256547       0.50000000
Zr       1.79755758       1.83179136       8.91781626       0.05743452       0.44256548      -0.50000000
Zr       0.01021070       3.66358266      10.66582395       0.11486904       0.88513095      -1.00000000
Zr      -1.78734676       5.41669565      12.50272052       0.05743452       0.44256547      -0.50000000
Zr       8.95205041      -5.45603465       5.46624535      -0.11486904      -0.88513095       1.00000000
Zr       7.16470353      -3.62424336       7.21425303      -0.05743452      -0.44256547       0.50000000
Zr       5.38246195      -1.75311290       8.91781627       0.05743452       0.44256548      -0.50000000
Zr       3.59511507       0.07867839      10.66582396       0.11486904       0.88513095      -1.00000000
Zr       1.79755761       1.83179138      12.50272053       0.05743452       0.44256547      -0.50000000
Zr      -0.00510514       3.54556522      14.38406155      -0.05743452      -0.44256548       0.50000000
Zr      10.74960790      -7.20914762       7.21425304      -0.05743452      -0.44256547       0.50000000
Zr       8.96736632      -5.33801717       8.91781628       0.05743452       0.44256548      -0.50000000
Zr       7.18001944      -3.50622587      10.66582397       0.11486904       0.88513095      -1.00000000
Zr       5.38246198      -1.75311288      12.50272054       0.05743452       0.44256547      -0.50000000
Zr       3.57979923      -0.03933904      14.38406156      -0.05743452      -0.44256548       0.50000000
Zr       1.78224178       1.71377395      16.22095813      -0.11486904      -0.88513095       1.00000000
Zr       3.59511494       3.66358257      -3.67379310       0.11486904       0.88513095      -1.00000000
Zr       1.79755748       5.41669556      -1.83689652       0.05743452       0.44256547      -0.50000000
Zr      -0.00510527       7.13046939       0.04444450      -0.05743452      -0.44256548       0.50000000
Zr      -1.80266273       8.88358239       1.88134107      -0.11486904      -0.88513095       1.00000000
Zr      -3.59000960      10.71537368       3.62934876      -0.05743452      -0.44256547       0.50000000
Zr      -5.37225119      12.58650414       5.33291200       0.05743452       0.44256548      -0.50000000
Zr       5.38246185       1.83179129      -1.83689651       0.05743452       0.44256547      -0.50000000
Zr       3.57979910       3.54556513       0.04444451      -0.05743452      -0.44256548       0.50000000
Zr       1.78224164       5.29867812       1.88134108      -0.11486904      -0.88513095       1.00000000
Zr      -0.00510523       7.13046942       3.62934877      -0.05743452      -0.44256547       0.50000000
Zr      -1.78734682       9.00159987       5.33291201       0.05743452       0.44256548      -0.50000000
Zr      -3.57469370      10.83339117       7.08091969       0.11486904       0.88513095      -1.00000000
Zr       7.16470347      -0.03933913       0.04444452      -0.05743452      -0.44256548       0.50000000
Zr       5.36714601       1.71377386       1.88134109      -0.11486904      -0.88513095       1.00000000
Zr       3.57979914       3.54556516       3.62934878      -0.05743452      -0.44256547       0.50000000
Zr       1.79755755       5.41669561       5.33291202       0.05743452       0.44256548      -0.50000000
Zr       0.01021067       7.24848691       7.08091970       0.11486904       0.88513095      -1.00000000
Zr      -1.78734678       9.00159990       8.91781628       0.05743452       0.44256547      -0.50000000
Zr       8.95205038      -1.87113041       1.88134110      -0.11486904      -0.88513095       1.00000000
Zr       7.16470351      -0.03933911       3.62934879      -0.05743452      -0.44256547       0.50000000
Zr       5.38246192       1.83179134       5.33291203       0.05743452       0.44256548      -0.50000000
Zr       3.59511504       3.66358264       7.08091971       0.11486904       0.88513095      -1.00000000
Zr       1.79755759       5.41669563       8.91781629       0.05743452       0.44256547      -0.50000000
Zr      -0.00510516       7.13046947      10.79915731      -0.05743452      -0.44256548       0.50000000
Zr      10.74960788      -3.62424337       3.62934880      -0.05743452      -0.44256547       0.50000000
Zr       8.96736629      -1.75311292       5.33291204       0.05743452       0.44256548      -0.50000000
Zr       7.18001941       0.07867838       7.08091972       0.11486904       0.88513095      -1.00000000
Zr       5.38246196       1.83179137       8.91781630       0.05743452       0.44256547      -0.50000000
Zr       3.57979921       3.54556521      10.79915732      -0.05743452      -0.44256548       0.50000000
Zr       1.78224175       5.29867820      12.63605389      -0.11486904      -0.88513095       1.00000000
Zr      12.55227066      -5.33801718       5.33291205       0.05743452       0.44256548      -0.50000000
Zr      10.76492378      -3.50622589       7.08091973       0.11486904       0.88513095      -1.00000000
Zr       8.96736633      -1.75311289       8.91781631       0.05743452       0.44256547      -0.50000000
Zr       7.16470358      -0.03933906      10.79915733      -0.05743452      -0.44256548       0.50000000
Zr       5.36714612       1.71377394      12.63605390      -0.11486904      -0.88513095       1.00000000
Zr       3.57979924       3.54556523      14.38406159      -0.05743452      -0.44256547       0.50000000
Zr       5.38246182       5.41669554      -5.42180076       0.05743452       0.44256547      -0.50000000
Zr       3.57979907       7.13046938      -3.54045974      -0.05743452      -0.44256548       0.50000000
Zr       1.78224162       8.88358237      -1.70356316      -0.11486904      -0.88513095       1.00000000
Zr      -0.00510526      10.71537367       0.04444452      -0.05743452      -0.44256547       0.50000000
Zr      -1.78734685      12.58650412       1.74800776       0.05743452       0.44256548      -0.50000000
Zr      -3.57469372      14.41829542       3.49601545       0.11486904       0.88513095      -1.00000000
Zr       7.16470344       3.54556512      -3.54045973      -0.05743452      -0.44256548       0.50000000
Zr       5.36714599       5.29867811      -1.70356315      -0.11486904      -0.88513095       1.00000000
Zr       3.57979911       7.13046941       0.04444453      -0.05743452      -0.44256547       0.50000000
Zr       1.79755752       9.00159986       1.74800777       0.05743452       0.44256548      -0.50000000
Zr       0.01021065      10.83339115       3.49601546       0.11486904       0.88513095      -1.00000000
Zr      -1.78734681      12.58650415       5.33291203       0.05743452       0.44256547      -0.50000000
Zr       8.95205036       1.71377384      -1.70356314      -0.11486904      -0.88513095       1.00000000
Zr       7.16470348       3.54556514       0.04444454      -0.05743452      -0.44256547       0.50000000
Zr       5.38246189       5.41669559       1.74800778       0.05743452       0.44256548      -0.50000000
Zr       3.59511502       7.24848689       3.49601547       0.11486904       0.88513095      -1.00000000
Zr       1.79755756       9.00159988       5.33291204       0.05743452       0.44256547      -0.50000000
Zr      -0.00510519      10.71537372       7.21425306      -0.05743452      -0.44256548       0.50000000
Zr      10.74960785      -0.03933912       0.04444455      -0.05743452      -0.44256547       0.50000000
Zr       8.96736626       1.83179133       1.74800779       0.05743452       0.44256548      -0.50000000
Zr       7.18001939       3.66358263       3.49601548       0.11486904       0.88513095      -1.00000000
Zr       5.38246193       5.41669562       5.33291205       0.05743452       0.44256547      -0.50000000
Zr       3.57979918       7.13046946       7.21425307      -0.05743452      -0.44256548       0.50000000
Zr       1.78224172       8.88358245       9.05114965      -0.11486904      -0.88513095       1.00000000
Zr      12.55227063      -1.75311293       1.74800780       0.05743452       0.44256548      -0.50000000
Zr      10.76492376       0.07867836       3.49601549       0.11486904       0.88513095      -1.00000000
Zr       8.96736630       1.83179135       5.33291206       0.05743452       0.44256547      -0.50000000
Zr       7.16470355       3.54556519       7.21425308      -0.05743452      -0.44256548       0.50000000
Zr       5.36714609       5.29867818       9.05114966      -0.11486904      -0.88513095       1.00000000
Zr       3.57979922       7.13046948      10.79915734      -0.05743452      -0.44256547       0.50000000
Zr      14.34982813      -3.50622590       3.49601550       0.11486904       0.88513095      -1.00000000
Zr      12.55227067      -1.75311291       5.33291207       0.05743452       0.44256547      -0.50000000
Zr      10.74960792      -0.03933907       7.21425309      -0.05743452      -0.44256548       0.50000000
Zr       8.95205046       1.71377392       9.05114967      -0.11486904      -0.88513095       1.00000000
Zr       7.16470359       3.54556522      10.79915735      -0.05743452      -0.44256547       0.50000000
Zr       5.38246200       5.41669567      12.50272059       0.05743452       0.44256548      -0.50000000
Zr       7.16470342       7.13046936      -7.12536397      -0.05743452      -0.44256548       0.50000000
Zr       5.36714596       8.88358236      -5.28846740      -0.11486904      -0.88513095       1.00000000
Zr       3.57979908      10.71537365      -3.54045971      -0.05743452      -0.44256547       0.50000000
Zr       1.79755750      12.58650410      -1.83689647       0.05743452       0.44256548      -0.50000000
Zr       0.01021062      14.41829540      -0.08888879       0.11486904       0.88513095      -1.00000000
Zr      -1.78734684      16.17140839       1.74800779       0.05743452       0.44256547      -0.50000000
Zr       8.95205033       5.29867809      -5.28846739      -0.11486904      -0.88513095       1.00000000
Zr       7.16470345       7.13046939      -3.54045970      -0.05743452      -0.44256547       0.50000000
Zr       5.38246187       9.00159984      -1.83689646       0.05743452       0.44256548      -0.50000000
Zr       3.59511499      10.83339114      -0.08888878       0.11486904       0.88513095      -1.00000000
Zr       1.79755753      12.58650413       1.74800780       0.05743452       0.44256547      -0.50000000
Zr      -0.00510521      14.30027797       3.62934882      -0.05743452      -0.44256548       0.50000000
Zr      10.74960782       3.54556513      -3.54045969      -0.05743452      -0.44256547       0.50000000
Zr       8.96736624       5.41669558      -1.83689645       0.05743452       0.44256548      -0.50000000
Zr       7.18001936       7.24848688      -0.08888877       0.11486904       0.88513095      -1.00000000
Zr       5.38246190       9.00159987       1.74800781       0.05743452       0.44256547      -0.50000000
Zr       3.57979916      10.71537370       3.62934883      -0.05743452      -0.44256548       0.50000000
Zr       1.78224170      12.46848670       5.46624540      -0.11486904      -0.88513095       1.00000000
Zr      12.55227061       1.83179131      -1.83689644       0.05743452       0.44256548      -0.50000000
Zr      10.76492373       3.66358261      -0.08888876       0.11486904       0.88513095      -1.00000000
Zr       8.96736627       5.41669560       1.74800782       0.05743452       0.44256547      -0.50000000
Zr       7.16470353       7.13046944       3.62934884      -0.05743452      -0.44256548       0.50000000
Zr       5.36714607       8.88358243       5.46624541      -0.11486904      -0.88513095       1.00000000
Zr       3.57979919      10.71537373       7.21425310      -0.05743452      -0.44256547       0.50000000
Zr      14.34982810       0.07867835      -0.08888875       0.11486904       0.88513095      -1.00000000
Zr      12.55227064       1.83179134       1.74800783       0.05743452       0.44256547      -0.50000000
Zr      10.74960790       3.54556518       3.62934885      -0.05743452      -0.44256548       0.50000000
Zr       8.95205044       5.29867817       5.46624542      -0.11486904      -0.88513095       1.00000000
Zr       7.16470356       7.13046947       7.21425311      -0.05743452      -0.44256547       0.50000000
Zr       5.38246198       9.00159992       8.91781635       0.05743452       0.44256548      -0.50000000
Zr      16.13717501      -1.75311292       1.74800784       0.05743452       0.44256547      -0.50000000
Zr      14.33451227      -0.03933909       3.62934886      -0.05743452      -0.44256548       0.50000000
Zr      12.53695481       1.71377390       5.46624543      -0.11486904      -0.88513095       1.00000000
Zr      10.74960793       3.54556520       7.21425312      -0.05743452      -0.44256547       0.50000000
Zr       8.96736635       5.41669565       8.91781636       0.05743452       0.44256548      -0.50000000
Zr       7.18001947       7.24848695      10.66582404       0.11486904       0.88513095      -1.00000000
Zr       8.95205031       8.88358234      -8.87337163      -0.11486904      -0.88513095       1.00000000
Zr       7.16470343      10.71537364      -7.12536395      -0.05743452      -0.44256547       0.50000000
Zr       5.38246184      12.58650409      -5.42180071       0.05743452       0.44256548      -0.50000000
Zr       3.59511497      14.41829539      -3.67379302       0.11486904       0.88513095      -1.00000000
Zr       1.79755751      16.17140838      -1.83689645       0.05743452       0.44256547      -0.50000000
Zr      -0.00510524      17.88518222       0.04444457      -0.05743452      -0.44256548       0.50000000
Zr      10.74960780       7.13046937      -7.12536394      -0.05743452      -0.44256547       0.50000000
Zr       8.96736621       9.00159983      -5.42180070       0.05743452       0.44256548      -0.50000000
Zr       7.18001934      10.83339112      -3.67379301       0.11486904       0.88513095      -1.00000000
Zr       5.38246188      12.58650411      -1.83689644       0.05743452       0.44256547      -0.50000000
Zr       3.57979913      14.30027795       0.04444458      -0.05743452      -0.44256548       0.50000000
Zr       1.78224167      16.05339094       1.88134116      -0.11486904      -0.88513095       1.00000000
Zr      12.55227058       5.41669556      -5.42180069       0.05743452       0.44256548      -0.50000000
Zr      10.76492371       7.24848686      -3.67379300       0.11486904       0.88513095      -1.00000000
Zr       8.96736625       9.00159985      -1.83689643       0.05743452       0.44256547      -0.50000000
Zr       7.16470350      10.71537369       0.04444459      -0.05743452      -0.44256548       0.50000000
Zr       5.36714604      12.46848668       1.88134117      -0.11486904      -0.88513095       1.00000000
Zr       3.57979917      14.30027798       3.62934885      -0.05743452      -0.44256547       0.50000000
Zr      14.34982808       3.66358260      -3.67379299       0.11486904       0.88513095      -1.00000000
Zr      12.55227062       5.41669559      -1.83689642       0.05743452       0.44256547      -0.50000000
Zr      10.74960787       7.13046943       0.04444460      -0.05743452      -0.44256548       0.50000000
Zr       8.95205041       8.88358242       1.88134118      -0.11486904      -0.88513095       1.00000000
Zr       7.16470354      10.71537371       3.62934886      -0.05743452      -0.44256547       0.50000000
Zr       5.38246195      12.58650417       5.33291210       0.05743452       0.44256548      -0.50000000
Zr      16.13717499       1.83179132      -1.83689641       0.05743452       0.44256547      -0.50000000
Zr      14.33451224       3.54556516       0.04444461      -0.05743452      -0.44256548       0.50000000
Zr      12.53695478       5.29867815       1.88134119      -0.11486904      -0.88513095       1.00000000
Zr      10.74960791       7.13046945       3.62934887      -0.05743452      -0.44256547       0.50000000
Zr       8.96736632       9.00159990       5.33291211       0.05743452       0.44256548      -0.50000000
Zr       7.18001944      10.83339120       7.08091980       0.11486904       0.88513095      -1.00000000
Zr      17.91941661      -0.03933910       0.04444462      -0.05743452      -0.44256548       0.50000000
Zr      16.12185915       1.71377389       1.88134120      -0.11486904      -0.88513095       1.00000000
Zr      14.33451228       3.54556519       3.62934888      -0.05743452      -0.44256547       0.50000000
Zr      12.55227069       5.41669564       5.33291212       0.05743452       0.44256548      -0.50000000
Zr      10.76492381       7.24848694       7.08091981       0.11486904       0.88513095      -1.00000000
Zr       8.96736636       9.00159993       8.91781638       0.05743452       0.44256547      -0.50000000
216
Lattice="-10.754713002110758 10.754712867710897 10.754712779026498 10.75471321732783 -10.754712714258055 10.75471284079072 10.754713064099535 10.754712776246816 -10.754712625573656" Properties=species:S:1:pos:R:3:mode_u:R:3 system=zr_bcc path_model=mattersim pattern_model=mattersim mlip_model=mattersim role=mode stem=zr_bcc_mattersim_q1d6-1d6-1d6-b0 q="0.16666666666666666 0.16666666666666666 0.16666666666666666" band=0 dim="6 6 6" m_eff=17700.95745654944 check_pass=False Q=0.13888888888888892 index=5 mlip_energy_eV=-1829.92041015625 pbc="T T T"
Zr      -0.00797702      -0.06146743       0.06944444      -0.05743452      -0.44256547       0.50000000
Zr      -1.78447515       1.85391957       1.72300769       0.05743452       0.44256548      -0.50000000
Zr      -3.56895030       3.70783914       3.44601537       0.11486904       0.88513095      -1.00000000
Zr      -5.36937948       5.43882386       5.30791195       0.05743452       0.44256547      -0.50000000
Zr      -7.17778568       7.10834115       7.23925296      -0.05743452      -0.44256548       0.50000000
Zr      -8.97821487       8.83932587       9.10114954      -0.11486904      -0.88513095       1.00000000
Zr       1.80042922      -1.73098469       1.72300770       0.05743452       0.44256548      -0.50000000
Zr       0.01595407       0.12293488       3.44601538       0.11486904       0.88513095      -1.00000000
Zr      -1.78447511       1.85391960       5.30791196       0.05743452       0.44256547      -0.50000000
Zr      -3.59288131       3.52343689       7.23925297      -0.05743452      -0.44256548       0.50000000
Zr      -5.39331050       5.25442161       9.10114955      -0.11486904      -0.88513095       1.00000000
Zr      -7.17778565       7.10834118      10.82415723      -0.05743452      -0.44256547       0.50000000
Zr       3.60085844      -3.46196938       3.44601539       0.11486904       0.88513095      -1.00000000
Zr       1.80042926      -1.73098467       5.30791197       0.05743452       0.44256547      -0.50000000
Zr      -0.00797694      -0.06146738       7.23925298      -0.05743452      -0.44256548       0.50000000
Zr      -1.80840613       1.66951734       9.10114956      -0.11486904      -0.88513095       1.00000000
Zr      -3.59288128       3.52343691      10.82415724      -0.05743452      -0.44256547       0.50000000
Zr      -5.36937941       5.43882391      12.47772049       0.05743452       0.44256548      -0.50000000
Zr       5.38533363      -5.31588893       5.30791198       0.05743452       0.44256547      -0.50000000
Zr       3.57692743      -3.64637164       7.23925299      -0.05743452      -0.44256548       0.50000000
Zr       1.77649824      -1.91538692       9.10114957      -0.11486904      -0.88513095       1.00000000
Zr      -0.00797691      -0.06146735      10.82415725      -0.05743452      -0.44256547       0.50000000
Zr      -1.78447504       1.85391965      12.47772050       0.05743452       0.44256548      -0.50000000
Zr      -3.56895019       3.70783922      14.20072818       0.11486904       0.88513095      -1.00000000
Zr       7.16183180      -7.23127590       7.23925300      -0.05743452      -0.44256548       0.50000000
Zr       5.36140261      -5.50029119       9.10114958      -0.11486904      -0.88513095       1.00000000
Zr       3.57692746      -3.64637161      10.82415726      -0.05743452      -0.44256547       0.50000000
Zr       1.80042933      -1.73098462      12.47772051       0.05743452       0.44256548      -0.50000000
Zr       0.01595418       0.12293496      14.20072819       0.11486904       0.88513095      -1.00000000
Zr      -1.78447501       1.85391967      16.06262477       0.05743452       0.44256547      -0.50000000
Zr       8.94630698      -9.08519545       9.10114959      -0.11486904      -0.88513095       1.00000000
Zr       7.16183183      -7.23127588      10.82415727      -0.05743452      -0.44256547       0.50000000
Zr       5.38533370      -5.31588888      12.47772052       0.05743452       0.44256548      -0.50000000
Zr       3.60085855      -3.46196931      14.20072820       0.11486904       0.88513095      -1.00000000
Zr       1.80042936      -1.73098459      16.06262478       0.05743452       0.44256547      -0.50000000
Zr      -0.00797684      -0.06146730      17.99396579      -0.05743452      -0.44256548       0.50000000
Zr       1.80042919       1.85391956      -1.86189655       0.05743452       0.44256548      -0.50000000
Zr       0.01595404       3.70783913      -0.13888886       0.11486904       0.88513095      -1.00000000
Zr      -1.78447514       5.43882385       1.72300771       0.05743452       0.44256547      -0.50000000
Zr      -3.59288134       7.10834114       3.65434873      -0.05743452      -0.44256548       0.50000000
Zr      -5.39331052       8.83932585       5.51624530      -0.11486904      -0.88513095       1.00000000
Zr      -7.17778567      10.69324543       7.23925299      -0.05743452      -0.44256547       0.50000000
Zr       3.60085841       0.12293486      -0.13888885       0.11486904       0.88513095      -1.00000000
Zr       1.80042923       1.85391958       1.72300772       0.05743452       0.44256547      -0.50000000
Zr      -0.00797697       3.52343687       3.65434874      -0.05743452      -0.44256548       0.50000000
Zr      -1.80840615       5.25442159       5.51624531      -0.11486904      -0.88513095       1.00000000
Zr      -3.59288130       7.10834116       7.23925300      -0.05743452      -0.44256547       0.50000000
Zr      -5.36937944       9.02372816       8.89281624       0.05743452       0.44256548      -0.50000000
Zr       5.38533360      -1.73098468       1.72300773       0.05743452       0.44256547      -0.50000000
Zr       3.57692740      -0.06146739       3.65434875      -0.05743452      -0.44256548       0.50000000
Zr       1.77649822       1.66951733       5.51624532      -0.11486904      -0.88513095       1.00000000
Zr      -0.00797693       3.52343690       7.23925301      -0.05743452      -0.44256547       0.50000000
Zr      -1.78447507       5.43882390       8.89281625       0.05743452       0.44256548      -0.50000000
Zr      -3.56895022       7.29274347      10.61582394       0.11486904       0.88513095      -1.00000000
Zr       7.16183177      -3.64637165       3.65434876      -0.05743452      -0.44256548       0.50000000
Zr       5.36140259      -1.91538694       5.51624533      -0.11486904      -0.88513095       1.00000000
Zr       3.57692744      -0.06146737       7.23925302      -0.05743452      -0.44256547       0.50000000
Zr       1.80042930       1.85391963       8.89281626       0.05743452       0.44256548      -0.50000000
Zr       0.01595415       3.70783920      10.61582395       0.11486904       0.88513095      -1.00000000
Zr      -1.78447503       5.43882392      12.47772052       0.05743452       0.44256547      -0.50000000
Zr       8.94630696      -5.50029120       5.51624535      -0.11486904      -0.88513095       1.00000000
Zr       7.16183181      -3.64637163       7.23925303      -0.05743452      -0.44256547       0.50000000
Zr       5.38533367      -1.73098463       8.89281627       0.05743452       0.44256548      -0.50000000
Zr       3.60085852       0.12293494      10.61582396       0.11486904       0.88513095      -1.00000000
Zr       1.80042934       1.85391966      12.47772053       0.05743452       0.44256547      -0.50000000
Zr      -0.00797686       3.52343695      14.40906155      -0.05743452      -0.44256548       0.50000000
Zr      10.74673618      -7.23127589       7.23925304      -0.05743452      -0.44256547       0.50000000
Zr       8.97023804      -5.31588889       8.89281628       0.05743452       0.44256548      -0.50000000
Zr       7.18576289      -3.46196932      10.61582397       0.11486904       0.88513095      -1.00000000
Zr       5.38533371      -1.73098461      12.47772054       0.05743452       0.44256547      -0.50000000
Zr       3.57692751      -0.06146731      14.40906156      -0.05743452      -0.44256548       0.50000000
Zr       1.77649832       1.66951740      16.27095813      -0.11486904      -0.88513095       1.00000000
Zr       3.60085839       3.70783911      -3.72379310       0.11486904       0.88513095      -1.00000000
Zr       1.80042920       5.43882383      -1.86189652       0.05743452       0.44256547      -0.50000000
Zr      -0.00797700       7.10834112       0.06944450      -0.05743452      -0.44256548       0.50000000
Zr      -1.80840618       8.83932584       1.93134107      -0.11486904      -0.88513095       1.00000000
Zr      -3.59288133      10.69324541       3.65434876      -0.05743452      -0.44256547       0.50000000
Zr      -5.36937946      12.60863241       5.30791200       0.05743452       0.44256548      -0.50000000
Zr       5.38533357       1.85391957      -1.86189651       0.05743452       0.44256547      -0.50000000
Zr       3.57692737       3.52343686       0.06944451      -0.05743452      -0.44256548       0.50000000
Zr       1.77649819       5.25442157       1.93134108      -0.11486904      -0.88513095       1.00000000
Zr      -0.00797696       7.10834115       3.65434877      -0.05743452      -0.44256547       0.50000000
Zr      -1.78447509       9.02372815       5.30791201       0.05743452       0.44256548      -0.50000000
Zr      -3.56895024      10.87764772       7.03091969       0.11486904       0.88513095      -1.00000000
Zr       7.16183174      -0.06146741       0.06944452      -0.05743452      -0.44256548       0.50000000
Zr       5.36140256       1.66951731       1.93134109      -0.11486904      -0.88513095       1.00000000
Zr       3.57692741       3.52343688       3.65434878      -0.05743452      -0.44256547       0.50000000
Zr       1.80042928       5.43882388       5.30791202       0.05743452       0.44256548      -0.50000000
Zr       0.01595413       7.29274345       7.03091970       0.11486904       0.88513095      -1.00000000
Zr      -1.78447506       9.02372817       8.89281628       0.05743452       0.44256547      -0.50000000
Zr       8.94630693      -1.91538695       1.93134110      -0.11486904      -0.88513095       1.00000000
Zr       7.16183178      -0.06146738       3.65434879      -0.05743452      -0.44256547       0.50000000
Zr       5.38533365       1.85391962       5.30791203       0.05743452       0.44256548      -0.50000000
Zr       3.60085850       3.70783919       7.03091971       0.11486904       0.88513095      -1.00000000
Zr       1.80042931       5.43882391       8.89281629       0.05743452       0.44256547      -0.50000000
Zr      -0.00797689       7.10834120      10.82415731      -0.05743452      -0.44256548       0.50000000
Zr      10.74673615      -3.64637164       3.65434880      -0.05743452      -0.44256547       0.50000000
Zr       8.97023802      -1.73098465       5.30791204       0.05743452       0.44256548      -0.50000000
Zr       7.18576287       0.12293493       7.03091972       0.11486904       0.88513095      -1.00000000
Zr       5.38533368       1.85391964       8.89281630       0.05743452       0.44256547      -0.50000000
Zr       3.57692748       3.52343693      10.82415732      -0.05743452      -0.44256548       0.50000000
Zr       1.77649830       5.25442165      12.68605389      -0.11486904      -0.88513095       1.00000000
Zr      12.55514239      -5.31588891       5.30791205       0.05743452       0.44256548      -0.50000000
Zr      10.77066724      -3.46196934       7.03091973       0.11486904       0.88513095      -1.00000000
Zr       8.97023805      -1.73098462       8.89281631       0.05743452       0.44256547      -0.50000000
Zr       7.16183185      -0.06146733      10.82415733      -0.05743452      -0.44256548       0.50000000
Zr       5.36140267       1.66951739      12.68605390      -0.11486904      -0.88513095       1.00000000
Zr       3.57692752       3.52343696      14.40906159      -0.05743452      -0.44256547       0.50000000
Zr       5.38533355       5.43882382      -5.44680076       0.05743452       0.44256547      -0.50000000
Zr       3.57692735       7.10834111      -3.51545974      -0.05743452      -0.44256548       0.50000000
Zr       1.77649816       8.83932582      -1.65356316      -0.11486904      -0.88513095       1.00000000
Zr      -0.00797699      10.69324540       0.06944452      -0.05743452      -0.44256547       0.50000000
Zr      -1.78447512      12.60863239       1.72300776       0.05743452       0.44256548      -0.50000000
Zr      -3.56895027      14.46255197       3.44601545       0.11486904       0.88513095      -1.00000000
Zr       7.16183172       3.52343684      -3.51545973      -0.05743452      -0.44256548       0.50000000
Zr       5.36140253       5.25442156      -1.65356315      -0.11486904      -0.88513095       1.00000000
Zr       3.57692738       7.10834113       0.06944453      -0.05743452      -0.44256547       0.50000000
Zr       1.80042925       9.02372813       1.72300777       0.05743452       0.44256548      -0.50000000
Zr       0.01595410      10.87764770       3.44601546       0.11486904       0.88513095      -1.00000000
Zr      -1.78447508      12.60863242       5.30791203       0.05743452       0.44256547      -0.50000000
Zr       8.94630690       1.66951730      -1.65356314      -0.11486904      -0.88513095       1.00000000
Zr       7.16183175       3.52343687       0.06944454      -0.05743452      -0.44256547       0.50000000
Zr       5.38533362       5.43882387       1.72300778       0.05743452       0.44256548      -0.50000000
Zr       3.60085847       7.29274344       3.44601547       0.11486904       0.88513095      -1.00000000
Zr       1.80042929       9.02372816       5.30791204       0.05743452       0.44256547      -0.50000000
Zr      -0.00797691      10.69324545       7.23925306      -0.05743452      -0.44256548       0.50000000
Zr      10.74673612      -0.06146740       0.06944455      -0.05743452      -0.44256547       0.50000000
Zr       8.97023799       1.85391960       1.72300779       0.05743452       0.44256548      -0.50000000
Zr       7.18576284       3.70783917       3.44601548       0.11486904       0.88513095      -1.00000000
Zr       5.38533366       5.43882389       5.30791205       0.05743452       0.44256547      -0.50000000
Zr       3.57692746       7.10834118       7.23925307      -0.05743452      -0.44256548       0.50000000
Zr       1.77649827       8.83932590       9.10114965      -0.11486904      -0.88513095       1.00000000
Zr      12.55514236      -1.73098466       1.72300780       0.05743452       0.44256548      -0.50000000
Zr      10.77066721       0.12293491       3.44601549       0.11486904       0.88513095      -1.00000000
Zr       8.97023803       1.85391963       5.30791206       0.05743452       0.44256547      -0.50000000
Zr       7.16183183       3.52343692       7.23925308      -0.05743452      -0.44256548       0.50000000
Zr       5.36140264       5.25442164       9.10114966      -0.11486904      -0.88513095       1.00000000
Zr       3.57692749       7.10834121      10.82415734      -0.05743452      -0.44256547       0.50000000
Zr      14.35557158      -3.46196935       3.44601550       0.11486904       0.88513095      -1.00000000
Zr      12.55514240      -1.73098464       5.30791207       0.05743452       0.44256547      -0.50000000
Zr      10.74673620      -0.06146735       7.23925309      -0.05743452      -0.44256548       0.50000000
Zr       8.94630701       1.66951737       9.10114967      -0.11486904      -0.88513095       1.00000000
Zr       7.16183186       3.52343694      10.82415735      -0.05743452      -0.44256547       0.50000000
Zr       5.38533373       5.43882394      12.47772059       0.05743452       0.44256548      -0.50000000
Zr       7.16183169       7.10834109      -7.10036397      -0.05743452      -0.44256548       0.50000000
Zr       5.36140251       8.83932581      -5.23846740      -0.11486904      -0.88513095       1.00000000
Zr       3.57692736      10.69324538      -3.51545971      -0.05743452      -0.44256547       0.50000000
Zr       1.80042922      12.60863238      -1.86189647       0.05743452       0.44256548      -0.50000000
Zr       0.01595407      14.46255195      -0.13888879       0.11486904       0.88513095      -1.00000000
Zr      -1.78447511      16.19353667       1.72300779       0.05743452       0.44256547      -0.50000000
Zr       8.94630688       5.25442154      -5.23846739      -0.11486904      -0.88513095       1.00000000
Zr       7.16183173       7.10834112      -3.51545970      -0.05743452      -0.44256547       0.50000000
Zr       5.38533359       9.02372811      -1.86189646       0.05743452       0.44256548      -0.50000000
Zr       3.60085844      10.87764769      -0.13888878       0.11486904       0.88513095      -1.00000000
Zr       1.80042926      12.60863240       1.72300780       0.05743452       0.44256547      -0.50000000
Zr      -0.00797694      14.27814969       3.65434882      -0.05743452      -0.44256548       0.50000000
Zr      10.74673610       3.52343685      -3.51545969      -0.05743452      -0.44256547       0.50000000
Zr       8.97023796       5.43882385      -1.86189645       0.05743452       0.44256548      -0.50000000
Zr       7.18576281       7.29274342      -0.13888877       0.11486904       0.88513095      -1.00000000
Zr       5.38533363       9.02372814       1.72300781       0.05743452       0.44256547      -0.50000000
Zr       3.57692743      10.69324543       3.65434883      -0.05743452      -0.44256548       0.50000000
Zr       1.77649825      12.42423015       5.51624540      -0.11486904      -0.88513095       1.00000000
Zr      12.55514233       1.85391959      -1.86189644       0.05743452       0.44256548      -0.50000000
Zr      10.77066718       3.70783916      -0.13888876       0.11486904       0.88513095      -1.00000000
Zr       8.97023800       5.43882388       1.72300782       0.05743452       0.44256547      -0.50000000
Zr       7.16183180       7.10834117       3.65434884      -0.05743452      -0.44256548       0.50000000
Zr       5.36140262       8.83932588       5.51624541      -0.11486904      -0.88513095       1.00000000
Zr       3.57692747      10.69324546       7.23925310      -0.05743452      -0.44256547       0.50000000
Zr      14.35557155       0.12293490      -0.13888875       0.11486904       0.88513095      -1.00000000
Zr      12.55514237       1.85391961       1.72300783       0.05743452       0.44256547      -0.50000000
Zr      10.74673617       3.52343690       3.65434885      -0.05743452      -0.44256548       0.50000000
Zr       8.94630699       5.25442162       5.51624542      -0.11486904      -0.88513095       1.00000000
Zr       7.16183184       7.10834119       7.23925311      -0.05743452      -0.44256547       0.50000000
Zr       5.38533370       9.02372819       8.89281635       0.05743452       0.44256548      -0.50000000
Zr      16.14004674      -1.73098465       1.72300784       0.05743452       0.44256547      -0.50000000
Zr      14.33164054      -0.06146736       3.65434886      -0.05743452      -0.44256548       0.50000000
Zr      12.53121136       1.66951736       5.51624543      -0.11486904      -0.88513095       1.00000000
Zr      10.74673621       3.52343693       7.23925312      -0.05743452      -0.44256547       0.50000000
Zr       8.97023807       5.43882393       8.89281636       0.05743452       0.44256548      -0.50000000
Zr       7.18576292       7.29274350      10.61582404       0.11486904       0.88513095      -1.00000000
Zr       8.94630685       8.83932579      -8.82337163      -0.11486904      -0.88513095       1.00000000
Zr       7.16183170      10.69324536      -7.10036395      -0.05743452      -0.44256547       0.50000000
Zr       5.38533357      12.60863236      -5.44680071       0.05743452       0.44256548      -0.50000000
Zr       3.60085842      14.46255193      -3.72379302       0.11486904       0.88513095      -1.00000000
Zr       1.80042924      16.19353665      -1.86189645       0.05743452       0.44256547      -0.50000000
Zr      -0.00797696      17.86305394       0.06944457      -0.05743452      -0.44256548       0.50000000
Zr      10.74673607       7.10834110      -7.10036394      -0.05743452      -0.44256547       0.50000000
Zr       8.97023794       9.02372810      -5.44680070       0.05743452       0.44256548      -0.50000000
Zr       7.18576279      10.87764767      -3.72379301       0.11486904       0.88513095      -1.00000000
Zr       5.38533361      12.60863239      -1.86189644       0.05743452       0.44256547      -0.50000000
Zr       3.57692741      14.27814968       0.06944458      -0.05743452      -0.44256548       0.50000000
Zr       1.77649822      16.00913440       1.93134116      -0.11486904      -0.88513095       1.00000000
Zr      12.55514231       5.43882384      -5.44680069       0.05743452       0.44256548      -0.50000000
Zr      10.77066716       7.29274341      -3.72379300       0.11486904       0.88513095      -1.00000000
Zr       8.97023798       9.02372813      -1.86189643       0.05743452       0.44256547      -0.50000000
Zr       7.16183178      10.69324542       0.06944459      -0.05743452      -0.44256548       0.50000000
Zr       5.36140259      12.42423013       1.93134117      -0.11486904      -0.88513095       1.00000000
Zr       3.57692744      14.27814970       3.65434885      -0.05743452      -0.44256547       0.50000000
Zr      14.35557153       3.70783914      -3.72379299       0.11486904       0.88513095      -1.00000000
Zr      12.55514235       5.43882386      -1.86189642       0.05743452       0.44256547      -0.50000000
Zr      10.74673614       7.10834115       0.06944460      -0.05743452      -0.44256548       0.50000000
Zr       8.94630696       8.83932587       1.93134118      -0.11486904      -0.88513095       1.00000000
Zr       7.16183181      10.69324544       3.65434886      -0.05743452      -0.44256547       0.50000000
Zr       5.38533368      12.60863244       5.30791210       0.05743452       0.44256548      -0.50000000
Zr      16.14004671       1.85391960      -1.86189641       0.05743452       0.44256547      -0.50000000
Zr      14.33164051       3.52343689       0.06944461      -0.05743452      -0.44256548       0.50000000
Zr      12.53121133       5.25442161       1.93134119      -0.11486904      -0.88513095       1.00000000
Zr      10.74673618       7.10834118       3.65434887      -0.05743452      -0.44256547       0.50000000
Zr       8.97023805       9.02372818       5.30791211       0.05743452       0.44256548      -0.50000000
Zr       7.18576290      10.87764775       7.03091980       0.11486904       0.88513095      -1.00000000
Zr      17.91654488      -0.06146738       0.06944462      -0.05743452      -0.44256548       0.50000000
Zr      16.11611570       1.66951734       1.93134120      -0.11486904      -0.88513095       1.00000000
Zr      14.33164055       3.52343691       3.65434888      -0.05743452      -0.44256547       0.50000000
Zr      12.55514242       5.43882391       5.30791212       0.05743452       0.44256548      -0.50000000
Zr      10.77066727       7.29274348       7.03091981       0.11486904       0.88513095      -1.00000000
Zr       8.97023808       9.02372820       8.89281638       0.05743452       0.44256547      -0.50000000
216
Lattice="-10.754713002110758 10.754712867710897 10.754712779026498 10.75471321732783 -10.754712714258055 10.75471284079072 10.754713064099535 10.754712776246816 -10.754712625573656" Properties=species:S:1:pos:R:3:mode_u:R:3 system=zr_bcc path_model=mattersim pattern_model=mattersim mlip_model=mattersim role=mode stem=zr_bcc_mattersim_q1d6-1d6-1d6-b0 q="0.16666666666666666 0.16666666666666666 0.16666666666666666" band=0 dim="6 6 6" m_eff=17700.95745654944 check_pass=False Q=0.19999999999999998 index=6 mlip_energy_eV=-1829.0697021484375 pbc="T T T"
Zr      -0.01148690      -0.08851309       0.10000000      -0.05743452      -0.44256547       0.50000000
Zr      -1.78096526       1.88096524       1.69245213       0.05743452       0.44256548      -0.50000000
Zr      -3.56193053       3.76193048       3.38490426       0.11486904       0.88513095      -1.00000000
Zr      -5.36586960       5.46586953       5.27735639       0.05743452       0.44256547      -0.50000000
Zr      -7.18129557       7.08129548       7.26980852      -0.05743452      -0.44256548       0.50000000
Zr      -8.98523464       8.78523453       9.16226065      -0.11486904      -0.88513095       1.00000000
Zr       1.80393911      -1.70393902       1.69245214       0.05743452       0.44256548      -0.50000000
Zr       0.02297384       0.17702622       3.38490427       0.11486904       0.88513095      -1.00000000
Zr      -1.78096523       1.88096527       5.27735640       0.05743452       0.44256547      -0.50000000
Zr      -3.59639120       3.49639122       7.26980853      -0.05743452      -0.44256548       0.50000000
Zr      -5.40033027       5.20033027       9.16226066      -0.11486904      -0.88513095       1.00000000
Zr      -7.18129554       7.08129551      10.85471279      -0.05743452      -0.44256547       0.50000000
Zr       3.60787821      -3.40787805       3.38490428       0.11486904       0.88513095      -1.00000000
Zr       1.80393914      -1.70393900       5.27735641       0.05743452       0.44256547      -0.50000000
Zr      -0.01148683      -0.08851304       7.26980854      -0.05743452      -0.44256548       0.50000000
Zr      -1.81542590       1.61542601       9.16226067      -0.11486904      -0.88513095       1.00000000
Zr      -3.59639117       3.49639125      10.85471280      -0.05743452      -0.44256547       0.50000000
Zr      -5.36586953       5.46586958      12.44716493       0.05743452       0.44256548      -0.50000000
Zr       5.38884351      -5.28884326       5.27735642       0.05743452       0.44256547      -0.50000000
Zr       3.57341754      -3.67341731       7.26980855      -0.05743452      -0.44256548       0.50000000
Zr       1.76947847      -1.96947826       9.16226068      -0.11486904      -0.88513095       1.00000000
Zr      -0.01148680      -0.08851302      10.85471281      -0.05743452      -0.44256547       0.50000000
Zr      -1.78096516       1.88096532      12.44716494       0.05743452       0.44256548      -0.50000000
Zr      -3.56193042       3.76193056      14.13961707       0.11486904       0.88513095      -1.00000000
Zr       7.15832191      -7.25832157       7.26980856      -0.05743452      -0.44256548       0.50000000
Zr       5.35438284      -5.55438252       9.16226069      -0.11486904      -0.88513095       1.00000000
Zr       3.57341757      -3.67341728      10.85471282      -0.05743452      -0.44256547       0.50000000
Zr       1.80393921      -1.70393895      12.44716495       0.05743452       0.44256548      -0.50000000
Zr       0.02297395       0.17702629      14.13961708       0.11486904       0.88513095      -1.00000000
Zr      -1.78096512       1.88096534      16.03206921       0.05743452       0.44256547      -0.50000000
Zr       8.93928721      -9.13928679       9.16226070      -0.11486904      -0.88513095       1.00000000
Zr       7.15832194      -7.25832155      10.85471283      -0.05743452      -0.44256547       0.50000000
Zr       5.38884358      -5.28884321      12.44716496       0.05743452       0.44256548      -0.50000000
Zr       3.60787832      -3.40787797      14.13961709       0.11486904       0.88513095      -1.00000000
Zr       1.80393925      -1.70393892      16.03206922       0.05743452       0.44256547      -0.50000000
Zr      -0.01148672      -0.08851297      18.02452135      -0.05743452      -0.44256548       0.50000000
Zr       1.80393908       1.88096522      -1.89245210       0.05743452       0.44256548      -0.50000000
Zr       0.02297382       3.76193046      -0.19999997       0.11486904       0.88513095      -1.00000000
Zr      -1.78096525       5.46586951       1.69245216       0.05743452       0.44256547      -0.50000000
Zr      -3.59639123       7.08129547       3.68490429      -0.05743452      -0.44256548       0.50000000
Zr      -5.40033030       8.78523452       5.57735642      -0.11486904      -0.88513095       1.00000000
Zr      -7.18129556      10.66619976       7.26980854      -0.05743452      -0.44256547       0.50000000
Zr       3.60787819       0.17702620      -0.19999996       0.11486904       0.88513095      -1.00000000
Zr       1.80393912       1.88096525       1.69245217       0.05743452       0.44256547      -0.50000000
Zr      -0.01148686       3.49639120       3.68490430      -0.05743452      -0.44256548       0.50000000
Zr      -1.81542593       5.20033025       5.57735643      -0.11486904      -0.88513095       1.00000000
Zr      -3.59639119       7.08129549       7.26980856      -0.05743452      -0.44256547       0.50000000
Zr      -5.36586955       9.05077383       8.86226069       0.05743452       0.44256548      -0.50000000
Zr       5.38884349      -1.70393901       1.69245218       0.05743452       0.44256547      -0.50000000
Zr       3.57341751      -0.08851306       3.68490431      -0.05743452      -0.44256548       0.50000000
Zr       1.76947844       1.61542599       5.57735644      -0.11486904      -0.88513095       1.00000000
Zr      -0.01148682       3.49639123       7.26980857      -0.05743452      -0.44256547       0.50000000
Zr      -1.78096518       5.46586956       8.86226070       0.05743452       0.44256548      -0.50000000
Zr      -3.56193044       7.34683480      10.55471283       0.11486904       0.88513095      -1.00000000
Zr       7.15832188      -3.67341732       3.68490432      -0.05743452      -0.44256548       0.50000000
Zr       5.35438281      -1.96947827       5.57735645      -0.11486904      -0.88513095       1.00000000
Zr       3.57341755      -0.08851303       7.26980858      -0.05743452      -0.44256547       0.50000000
Zr       1.80393919       1.88096530       8.86226071       0.05743452       0.44256548      -0.50000000
Zr       0.02297393       3.76193054      10.55471284       0.11486904       0.88513095      -1.00000000
Zr      -1.78096515       5.46586959      12.44716497       0.05743452       0.44256547      -0.50000000
Zr       8.93928718      -5.55438254       5.57735646      -0.11486904      -0.88513095       1.00000000
Zr       7.15832192      -3.67341730       7.26980859      -0.05743452      -0.44256547       0.50000000
Zr       5.38884356      -1.70393896       8.86226072       0.05743452       0.44256548      -0.50000000
Zr       3.60787830       0.17702628      10.55471285       0.11486904       0.88513095      -1.00000000
Zr       1.80393922       1.88096533      12.44716498       0.05743452       0.44256547      -0.50000000
Zr      -0.01148675       3.49639128      14.43961711      -0.05743452      -0.44256548       0.50000000
Zr      10.74322629      -7.25832156       7.26980860      -0.05743452      -0.44256547       0.50000000
Zr       8.97374793      -5.28884323       8.86226073       0.05743452       0.44256548      -0.50000000
Zr       7.19278267      -3.40787799      10.55471286       0.11486904       0.88513095      -1.00000000
Zr       5.38884359      -1.70393894      12.44716499       0.05743452       0.44256547      -0.50000000
Zr       3.57341762      -0.08851298      14.43961712      -0.05743452      -0.44256548       0.50000000
Zr       1.76947855       1.61542607      16.33206925      -0.11486904      -0.88513095       1.00000000
Zr       3.60787816       3.76193045      -3.78490421       0.11486904       0.88513095      -1.00000000
Zr       1.80393909       5.46586950      -1.89245208       0.05743452       0.44256547      -0.50000000
Zr      -0.01148688       7.08129545       0.10000005      -0.05743452      -0.44256548       0.50000000
Zr      -1.81542595       8.78523450       1.99245218      -0.11486904      -0.88513095       1.00000000
Zr      -3.59639122      10.66619974       3.68490431      -0.05743452      -0.44256547       0.50000000
Zr      -5.36586958      12.63567808       5.27735644       0.05743452       0.44256548      -0.50000000
Zr       5.38884346       1.88096523      -1.89245207       0.05743452       0.44256547      -0.50000000
Zr       3.57341749       3.49639119       0.10000006      -0.05743452      -0.44256548       0.50000000
Zr       1.76947842       5.20033024       1.99245219      -0.11486904      -0.88513095       1.00000000
Zr      -0.01148685       7.08129548       3.68490432      -0.05743452      -0.44256547       0.50000000
Zr      -1.78096521       9.05077381       5.27735645       0.05743452       0.44256548      -0.50000000
Zr      -3.56193047      10.93173905       6.96980858       0.11486904       0.88513095      -1.00000000
Zr       7.15832186      -0.08851307       0.10000007      -0.05743452      -0.44256548       0.50000000
Zr       5.35438279       1.61542598       1.99245220      -0.11486904      -0.88513095       1.00000000
Zr       3.57341752       3.49639122       3.68490433      -0.05743452      -0.44256547       0.50000000
Zr       1.80393916       5.46586955       5.27735646       0.05743452       0.44256548      -0.50000000
Zr       0.02297390       7.34683479       6.96980859       0.11486904       0.88513095      -1.00000000
Zr      -1.78096517       9.05077384       8.86226072       0.05743452       0.44256547      -0.50000000
Zr       8.93928716      -1.96947829       1.99245221      -0.11486904      -0.88513095       1.00000000
Zr       7.15832189      -0.08851305       3.68490434      -0.05743452      -0.44256547       0.50000000
Zr       5.38884353       1.88096529       5.27735647       0.05743452       0.44256548      -0.50000000
Zr       3.60787827       3.76193053       6.96980860       0.11486904       0.88513095      -1.00000000
Zr       1.80393920       5.46586957       8.86226073       0.05743452       0.44256547      -0.50000000
Zr      -0.01148678       7.08129553      10.85471286      -0.05743452      -0.44256548       0.50000000
Zr      10.74322626      -3.67341731       3.68490435      -0.05743452      -0.44256547       0.50000000
Zr       8.97374790      -1.70393898       5.27735648       0.05743452       0.44256548      -0.50000000
Zr       7.19278264       0.17702626       6.96980861       0.11486904       0.88513095      -1.00000000
Zr       5.38884357       1.88096531       8.86226074       0.05743452       0.44256547      -0.50000000
Zr       3.57341759       3.49639127      10.85471287      -0.05743452      -0.44256548       0.50000000
Zr       1.76947852       5.20033032      12.74716500      -0.11486904      -0.88513095       1.00000000
Zr      12.55865227      -5.28884324       5.27735649       0.05743452       0.44256548      -0.50000000
Zr      10.77768701      -3.40787800       6.96980862       0.11486904       0.88513095      -1.00000000
Zr       8.97374794      -1.70393895       8.86226075       0.05743452       0.44256547      -0.50000000
Zr       7.15832196      -0.08851300      10.85471288      -0.05743452      -0.44256548       0.50000000
Zr       5.35438289       1.61542605      12.74716501      -0.11486904      -0.88513095       1.00000000
Zr       3.57341763       3.49639129      14.43961714      -0.05743452      -0.44256547       0.50000000
Zr       5.38884344       5.46586948      -5.47735631       0.05743452       0.44256547      -0.50000000
Zr       3.57341746       7.08129544      -3.48490418      -0.05743452      -0.44256548       0.50000000
Zr       1.76947839       8.78523449      -1.59245205      -0.11486904      -0.88513095       1.00000000
Zr      -0.01148687      10.66619973       0.10000008      -0.05743452      -0.44256547       0.50000000
Zr      -1.78096523      12.63567806       1.69245221       0.05743452       0.44256548      -0.50000000
Zr      -3.56193050      14.51664330       3.38490434       0.11486904       0.88513095      -1.00000000
Zr       7.15832183       3.49639117      -3.48490417      -0.05743452      -0.44256548       0.50000000
Zr       5.35438276       5.20033022      -1.59245204      -0.11486904      -0.88513095       1.00000000
Zr       3.57341750       7.08129546       0.10000009      -0.05743452      -0.44256547       0.50000000
Zr       1.80393914       9.05077380       1.69245222       0.05743452       0.44256548      -0.50000000
Zr       0.02297387      10.93173904       3.38490435       0.11486904       0.88513095      -1.00000000
Zr      -1.78096520      12.63567809       5.27735648       0.05743452       0.44256547      -0.50000000
Zr       8.93928713       1.61542596      -1.59245203      -0.11486904      -0.88513095       1.00000000
Zr       7.15832187       3.49639120       0.10000010      -0.05743452      -0.44256547       0.50000000
Zr       5.38884351       5.46586953       1.69245223       0.05743452       0.44256548      -0.50000000
Zr       3.60787824       7.34683477       3.38490436       0.11486904       0.88513095      -1.00000000
Zr       1.80393917       9.05077382       5.27735649       0.05743452       0.44256547      -0.50000000
Zr      -0.01148680      10.66619978       7.26980862      -0.05743452      -0.44256548       0.50000000
Zr      10.74322624      -0.08851306       0.10000011      -0.05743452      -0.44256547       0.50000000
Zr       8.97374788       1.88096527       1.69245224       0.05743452       0.44256548      -0.50000000
Zr       7.19278261       3.76193051       3.38490437       0.11486904       0.88513095      -1.00000000
Zr       5.38884354       5.46586956       5.27735650       0.05743452       0.44256547      -0.50000000
Zr       3.57341757       7.08129551       7.26980863      -0.05743452      -0.44256548       0.50000000
Zr       1.76947850       8.78523456       9.16226076      -0.11486904      -0.88513095       1.00000000
Zr      12.55865225      -1.70393899       1.69245225       0.05743452       0.44256548      -0.50000000
Zr      10.77768698       0.17702625       3.38490438       0.11486904       0.88513095      -1.00000000
Zr       8.97374791       1.88096530       5.27735651       0.05743452       0.44256547      -0.50000000
Zr       7.15832194       3.49639125       7.26980864      -0.05743452      -0.44256548       0.50000000
Zr       5.35438287       5.20033030       9.16226077      -0.11486904      -0.88513095       1.00000000
Zr       3.57341760       7.08129554      10.85471290      -0.05743452      -0.44256547       0.50000000
Zr      14.36259135      -3.40787802       3.38490439       0.11486904       0.88513095      -1.00000000
Zr      12.55865228      -1.70393897       5.27735652       0.05743452       0.44256547      -0.50000000
Zr      10.74322631      -0.08851301       7.26980865      -0.05743452      -0.44256548       0.50000000
Zr       8.93928724       1.61542604       9.16226078      -0.11486904      -0.88513095       1.00000000
Zr       7.15832197       3.49639128      10.85471291      -0.05743452      -0.44256547       0.50000000
Zr       5.38884362       5.46586961      12.44716504       0.05743452       0.44256548      -0.50000000
Zr       7.15832181       7.08129542      -7.06980842      -0.05743452      -0.44256548       0.50000000
Zr       5.35438273       8.78523447      -5.17735629      -0.11486904      -0.88513095       1.00000000
Zr       3.57341747      10.66619971      -3.48490416      -0.05743452      -0.44256547       0.50000000
Zr       1.80393911      12.63567805      -1.89245203       0.05743452       0.44256548      -0.50000000
Zr       0.02297385      14.51664329      -0.19999990       0.11486904       0.88513095      -1.00000000
Zr      -1.78096522      16.22058234       1.69245223       0.05743452       0.44256547      -0.50000000
Zr       8.93928710       5.20033021      -5.17735628      -0.11486904      -0.88513095       1.00000000
Zr       7.15832184       7.08129545      -3.48490415      -0.05743452      -0.44256547       0.50000000
Zr       5.38884348       9.05077378      -1.89245202       0.05743452       0.44256548      -0.50000000
Zr       3.60787822      10.93173902      -0.19999989       0.11486904       0.88513095      -1.00000000
Zr       1.80393915      12.63567807       1.69245224       0.05743452       0.44256547      -0.50000000
Zr      -0.01148683      14.25110403       3.68490437      -0.05743452      -0.44256548       0.50000000
Zr      10.74322621       3.49639118      -3.48490414      -0.05743452      -0.44256547       0.50000000
Zr       8.97374785       5.46586952      -1.89245201       0.05743452       0.44256548      -0.50000000
Zr       7.19278259       7.34683476      -0.19999988       0.11486904       0.88513095      -1.00000000
Zr       5.38884352       9.05077381       1.69245225       0.05743452       0.44256547      -0.50000000
Zr       3.57341754      10.66619976       3.68490438      -0.05743452      -0.44256548       0.50000000
Zr       1.76947847      12.37013881       5.57735651      -0.11486904      -0.88513095       1.00000000
Zr      12.55865222       1.88096526      -1.89245200       0.05743452       0.44256548      -0.50000000
Zr      10.77768696       3.76193050      -0.19999987       0.11486904       0.88513095      -1.00000000
Zr       8.97374789       5.46586954       1.69245226       0.05743452       0.44256547      -0.50000000
Zr       7.15832191       7.08129550       3.68490439      -0.05743452      -0.44256548       0.50000000
Zr       5.35438284       8.78523455       5.57735652      -0.11486904      -0.88513095       1.00000000
Zr       3.57341758      10.66619979       7.26980865      -0.05743452      -0.44256547       0.50000000
Zr      14.36259133       0.17702623      -0.19999986       0.11486904       0.88513095      -1.00000000
Zr      12.55865226       1.88096528       1.69245227       0.05743452       0.44256547      -0.50000000
Zr      10.74322628       3.49639124       3.68490440      -0.05743452      -0.44256548       0.50000000
Zr       8.93928721       5.20033029       5.57735653      -0.11486904      -0.88513095       1.00000000
Zr       7.15832195       7.08129552       7.26980866      -0.05743452      -0.44256547       0.50000000
Zr       5.38884359       9.05077386       8.86226079       0.05743452       0.44256548      -0.50000000
Zr      16.14355663      -1.70393898       1.69245228       0.05743452       0.44256547      -0.50000000
Zr      14.32813065      -0.08851303       3.68490441      -0.05743452      -0.44256548       0.50000000
Zr      12.52419158       1.61542602       5.57735654      -0.11486904      -0.88513095       1.00000000
Zr      10.74322632       3.49639126       7.26980867      -0.05743452      -0.44256547       0.50000000
Zr       8.97374796       5.46586960       8.86226080       0.05743452       0.44256548      -0.50000000
Zr       7.19278270       7.34683484      10.55471293       0.11486904       0.88513095      -1.00000000
Zr       8.93928708       8.78523446      -8.76226052      -0.11486904      -0.88513095       1.00000000
Zr       7.15832182      10.66619970      -7.06980839      -0.05743452      -0.44256547       0.50000000
Zr       5.38884346      12.63567803      -5.47735626       0.05743452       0.44256548      -0.50000000
Zr       3.60787819      14.51664327      -3.78490413       0.11486904       0.88513095      -1.00000000
Zr       1.80393912      16.22058232      -1.89245200       0.05743452       0.44256547      -0.50000000
Zr      -0.01148685      17.83600827       0.10000013      -0.05743452      -0.44256548       0.50000000
Zr      10.74322619       7.08129543      -7.06980838      -0.05743452      -0.44256547       0.50000000
Zr       8.97374783       9.05077377      -5.47735625       0.05743452       0.44256548      -0.50000000
Zr       7.19278256      10.93173901      -3.78490412       0.11486904       0.88513095      -1.00000000
Zr       5.38884349      12.63567806      -1.89245199       0.05743452       0.44256547      -0.50000000
Zr       3.57341752      14.25110401       0.10000014      -0.05743452      -0.44256548       0.50000000
Zr       1.76947845      15.95504306       1.99245227      -0.11486904      -0.88513095       1.00000000
Zr      12.55865220       5.46586950      -5.47735624       0.05743452       0.44256548      -0.50000000
Zr      10.77768693       7.34683474      -3.78490411       0.11486904       0.88513095      -1.00000000
Zr       8.97374786       9.05077379      -1.89245198       0.05743452       0.44256547      -0.50000000
Zr       7.15832189      10.66619975       0.10000015      -0.05743452      -0.44256548       0.50000000
Zr       5.35438282      12.37013880       1.99245228      -0.11486904      -0.88513095       1.00000000
Zr       3.57341755      14.25110404       3.68490441      -0.05743452      -0.44256547       0.50000000
Zr      14.36259130       3.76193048      -3.78490410       0.11486904       0.88513095      -1.00000000
Zr      12.55865223       5.46586953      -1.89245197       0.05743452       0.44256547      -0.50000000
Zr      10.74322626       7.08129548       0.10000016      -0.05743452      -0.44256548       0.50000000
Zr       8.93928719       8.78523453       1.99245229      -0.11486904      -0.88513095       1.00000000
Zr       7.15832192      10.66619977       3.68490442      -0.05743452      -0.44256547       0.50000000
Zr       5.38884356      12.63567811       5.27735655       0.05743452       0.44256548      -0.50000000
Zr      16.14355660       1.88096527      -1.89245196       0.05743452       0.44256547      -0.50000000
Zr      14.32813063       3.49639122       0.10000017      -0.05743452      -0.44256548       0.50000000
Zr      12.52419156       5.20033027       1.99245230      -0.11486904      -0.88513095       1.00000000
Zr      10.74322629       7.08129551       3.68490443      -0.05743452      -0.44256547       0.50000000
Zr       8.97374793       9.05077384       5.27735656       0.05743452       0.44256548      -0.50000000
Zr       7.19278267      10.93173908       6.96980869       0.11486904       0.88513095      -1.00000000
Zr      17.91303500      -0.08851304       0.10000018      -0.05743452      -0.44256548       0.50000000
Zr      16.10909593       1.61542601       1.99245231      -0.11486904      -0.88513095       1.00000000
Zr      14.32813066       3.49639125       3.68490444      -0.05743452      -0.44256547       0.50000000
Zr      12.55865230       5.46586958       5.27735657       0.05743452       0.44256548      -0.50000000
Zr      10.77768704       7.34683482       6.96980870       0.11486904       0.88513095      -1.00000000
Zr       8.97374797       9.05077387       8.86226083       0.05743452       0.44256547      -0.50000000
216
Lattice="-10.754713002110758 10.754712867710897 10.754712779026498 10.75471321732783 -10.754712714258055 10.75471284079072 10.754713064099535 10.754712776246816 -10.754712625573656" Properties=species:S:1:pos:R:3:mode_u:R:3 system=zr_bcc path_model=mattersim pattern_model=mattersim mlip_model=mattersim role=mode stem=zr_bcc_mattersim_q1d6-1d6-1d6-b0 q="0.16666666666666666 0.16666666666666666 0.16666666666666666" band=0 dim="6 6 6" m_eff=17700.95745654944 check_pass=False Q=0.27222222222222214 index=7 mlip_energy_eV=-1825.951416015625 pbc="T T T"
Zr      -0.01563495      -0.12047616       0.13611111      -0.05743452      -0.44256547       0.50000000
Zr      -1.77681721       1.91292830       1.65634102       0.05743452       0.44256548      -0.50000000
Zr      -3.55363443       3.82585660       3.31268204       0.11486904       0.88513095      -1.00000000
Zr      -5.36172155       5.49783259       5.24124528       0.05743452       0.44256547      -0.50000000
Zr      -7.18544362       7.04933242       7.30591963      -0.05743452      -0.44256548       0.50000000
Zr      -8.99353074       8.72130841       9.23448287      -0.11486904      -0.88513095       1.00000000
Zr       1.80808716      -1.67197596       1.65634103       0.05743452       0.44256548      -0.50000000
Zr       0.03126994       0.24095234       3.31268205       0.11486904       0.88513095      -1.00000000
Zr      -1.77681718       1.91292833       5.24124529       0.05743452       0.44256547      -0.50000000
Zr      -3.60053925       3.46442816       7.30591964      -0.05743452      -0.44256548       0.50000000
Zr      -5.40862637       5.13640415       9.23448288      -0.11486904      -0.88513095       1.00000000
Zr      -7.18544358       7.04933245      10.89082390      -0.05743452      -0.44256547       0.50000000
Zr       3.61617431      -3.34395192       3.31268206       0.11486904       0.88513095      -1.00000000
Zr       1.80808719      -1.67197594       5.24124530       0.05743452       0.44256547      -0.50000000
Zr      -0.01563488      -0.12047611       7.30591965      -0.05743452      -0.44256548       0.50000000
Zr      -1.82372200       1.55149988       9.23448289      -0.11486904      -0.88513095       1.00000000
Zr      -3.60053921       3.46442818      10.89082391      -0.05743452      -0.44256547       0.50000000
Zr      -5.36172148       5.49783264      12.41105382       0.05743452       0.44256548      -0.50000000
Zr       5.39299156      -5.25688020       5.24124531       0.05743452       0.44256547      -0.50000000
Zr       3.56926949      -3.70538037       7.30591966      -0.05743452      -0.44256548       0.50000000
Zr       1.76118237      -2.03340438       9.23448290      -0.11486904      -0.88513095       1.00000000
Zr      -0.01563485      -0.12047608      10.89082392      -0.05743452      -0.44256547       0.50000000
Zr      -1.77681711       1.91292838      12.41105383       0.05743452       0.44256548      -0.50000000
Zr      -3.55363432       3.82585668      14.06739485       0.11486904       0.88513095      -1.00000000
Zr       7.15417386      -7.29028463       7.30591967      -0.05743452      -0.44256548       0.50000000
Zr       5.34608674      -5.61830865       9.23448291      -0.11486904      -0.88513095       1.00000000
Zr       3.56926952      -3.70538034      10.89082393      -0.05743452      -0.44256547       0.50000000
Zr       1.80808726      -1.67197588      12.41105384       0.05743452       0.44256548      -0.50000000
Zr       0.03127005       0.24095242      14.06739486       0.11486904       0.88513095      -1.00000000
Zr      -1.77681707       1.91292840      15.99595810       0.05743452       0.44256547      -0.50000000
Zr       8.93099111      -9.20321291       9.23448292      -0.11486904      -0.88513095       1.00000000
Zr       7.15417389      -7.29028461      10.89082394      -0.05743452      -0.44256547       0.50000000
Zr       5.39299163      -5.25688015      12.41105385       0.05743452       0.44256548      -0.50000000
Zr       3.61617442      -3.34395185      14.06739487       0.11486904       0.88513095      -1.00000000
Zr       1.80808730      -1.67197586      15.99595811       0.05743452       0.44256547      -0.50000000
Zr      -0.01563477      -0.12047603      18.06063246      -0.05743452      -0.44256548       0.50000000
Zr       1.80808713       1.91292829      -1.92856322       0.05743452       0.44256548      -0.50000000
Zr       0.03126992       3.82585659      -0.27222220       0.11486904       0.88513095      -1.00000000
Zr      -1.77681720       5.49783258       1.65634104       0.05743452       0.44256547      -0.50000000
Zr      -3.60053928       7.04933241       3.72101540      -0.05743452      -0.44256548       0.50000000
Zr      -5.40862640       8.72130839       5.64957864      -0.11486904      -0.88513095       1.00000000
Zr      -7.18544361      10.63423670       7.30591966      -0.05743452      -0.44256547       0.50000000
Zr       3.61617428       0.24095232      -0.27222219       0.11486904       0.88513095      -1.00000000
Zr       1.80808717       1.91292831       1.65634105       0.05743452       0.44256547      -0.50000000
Zr      -0.01563491       3.46442814       3.72101541      -0.05743452      -0.44256548       0.50000000
Zr      -1.82372203       5.13640413       5.64957865      -0.11486904      -0.88513095       1.00000000
Zr      -3.60053924       7.04933243       7.30591967      -0.05743452      -0.44256547       0.50000000
Zr      -5.36172150       9.08273689       8.82614957       0.05743452       0.44256548      -0.50000000
Zr       5.39299154      -1.67197595       1.65634106       0.05743452       0.44256547      -0.50000000
Zr       3.56926946      -0.12047612       3.72101542      -0.05743452      -0.44256548       0.50000000
Zr       1.76118234       1.55149987       5.64957866      -0.11486904      -0.88513095       1.00000000
Zr      -0.01563487       3.46442817       7.30591968      -0.05743452      -0.44256547       0.50000000
Zr      -1.77681713       5.49783263       8.82614958       0.05743452       0.44256548      -0.50000000
Zr      -3.55363435       7.41076093      10.48249060       0.11486904       0.88513095      -1.00000000
Zr       7.15417383      -3.70538039       3.72101543      -0.05743452      -0.44256548       0.50000000
Zr       5.34608671      -2.03340440       5.64957867      -0.11486904      -0.88513095       1.00000000
Zr       3.56926950      -0.12047610       7.30591969      -0.05743452      -0.44256547       0.50000000
Zr       1.80808724       1.91292836       8.82614959       0.05743452       0.44256548      -0.50000000
Zr       0.03127002       3.82585666      10.48249061       0.11486904       0.88513095      -1.00000000
Zr      -1.77681710       5.49783265      12.41105385       0.05743452       0.44256547      -0.50000000
Zr       8.93099108      -5.61830866       5.64957868      -0.11486904      -0.88513095       1.00000000
Zr       7.15417387      -3.70538036       7.30591970      -0.05743452      -0.44256547       0.50000000
Zr       5.39299161      -1.67197590       8.82614960       0.05743452       0.44256548      -0.50000000
Zr       3.61617439       0.24095240      10.48249062       0.11486904       0.88513095      -1.00000000
Zr       1.80808727       1.91292839      12.41105386       0.05743452       0.44256547      -0.50000000
Zr      -0.01563480       3.46442822      14.47572822      -0.05743452      -0.44256548       0.50000000
Zr      10.73907824      -7.29028462       7.30591971      -0.05743452      -0.44256547       0.50000000
Zr       8.97789598      -5.25688016       8.82614962       0.05743452       0.44256548      -0.50000000
Zr       7.20107876      -3.34395186      10.48249063       0.11486904       0.88513095      -1.00000000
Zr       5.39299164      -1.67197588      12.41105387       0.05743452       0.44256547      -0.50000000
Zr       3.56926957      -0.12047604      14.47572823      -0.05743452      -0.44256548       0.50000000
Zr       1.76118245       1.55149994      16.40429147      -0.11486904      -0.88513095       1.00000000
Zr       3.61617426       3.82585657      -3.85712643       0.11486904       0.88513095      -1.00000000
Zr       1.80808714       5.49783256      -1.92856319       0.05743452       0.44256547      -0.50000000
Zr      -0.01563493       7.04933239       0.13611116      -0.05743452      -0.44256548       0.50000000
Zr      -1.82372205       8.72130838       2.06467440      -0.11486904      -0.88513095       1.00000000
Zr      -3.60053927      10.63423668       3.72101542      -0.05743452      -0.44256547       0.50000000
Zr      -5.36172153      12.66764114       5.24124533       0.05743452       0.44256548      -0.50000000
Zr       5.39299151       1.91292830      -1.92856318       0.05743452       0.44256547      -0.50000000
Zr       3.56926944       3.46442813       0.13611117      -0.05743452      -0.44256548       0.50000000
Zr       1.76118232       5.13640411       2.06467441      -0.11486904      -0.88513095       1.00000000
Zr      -0.01563490       7.04933242       3.72101543      -0.05743452      -0.44256547       0.50000000
Zr      -1.77681716       9.08273688       5.24124534       0.05743452       0.44256548      -0.50000000
Zr      -3.55363437      10.99566518       6.89758636       0.11486904       0.88513095      -1.00000000
Zr       7.15417381      -0.12047614       0.13611118      -0.05743452      -0.44256548       0.50000000
Zr       5.34608669       1.55149985       2.06467442      -0.11486904      -0.88513095       1.00000000
Zr       3.56926947       3.46442815       3.72101544      -0.05743452      -0.44256547       0.50000000
Zr       1.80808721       5.49783261       5.24124535       0.05743452       0.44256548      -0.50000000
Zr       0.03127000       7.41076091       6.89758637       0.11486904       0.88513095      -1.00000000
Zr      -1.77681712       9.08273690       8.82614961       0.05743452       0.44256547      -0.50000000
Zr       8.93099106      -2.03340441       2.06467443      -0.11486904      -0.88513095       1.00000000
Zr       7.15417384      -0.12047611       3.72101545      -0.05743452      -0.44256547       0.50000000
Zr       5.39299158       1.91292835       5.24124536       0.05743452       0.44256548      -0.50000000
Zr       3.61617437       3.82585665       6.89758638       0.11486904       0.88513095      -1.00000000
Zr       1.80808725       5.49783264       8.82614962       0.05743452       0.44256547      -0.50000000
Zr      -0.01563482       7.04933247      10.89082397      -0.05743452      -0.44256548       0.50000000
Zr      10.73907821      -3.70538037       3.72101546      -0.05743452      -0.44256547       0.50000000
Zr       8.97789595      -1.67197592       5.24124537       0.05743452       0.44256548      -0.50000000
Zr       7.20107874       0.24095239       6.89758639       0.11486904       0.88513095      -1.00000000
Zr       5.39299162       1.91292837       8.82614963       0.05743452       0.44256547      -0.50000000
Zr       3.56926955       3.46442820      10.89082398      -0.05743452      -0.44256548       0.50000000
Zr       1.76118243       5.13640419      12.81938722      -0.11486904      -0.88513095       1.00000000
Zr      12.56280032      -5.25688018       5.24124538       0.05743452       0.44256548      -0.50000000
Zr      10.78598311      -3.34395188       6.89758640       0.11486904       0.88513095      -1.00000000
Zr       8.97789599      -1.67197589       8.82614964       0.05743452       0.44256547      -0.50000000
Zr       7.15417392      -0.12047606      10.89082399      -0.05743452      -0.44256548       0.50000000
Zr       5.34608680       1.55149993      12.81938723      -0.11486904      -0.88513095       1.00000000
Zr       3.56926958       3.46442823      14.47572825      -0.05743452      -0.44256547       0.50000000
Zr       5.39299148       5.49783255      -5.51346742       0.05743452       0.44256547      -0.50000000
Zr       3.56926941       7.04933238      -3.44879307      -0.05743452      -0.44256548       0.50000000
Zr       1.76118229       8.72130836      -1.52022983      -0.11486904      -0.88513095       1.00000000
Zr      -0.01563492      10.63423667       0.13611119      -0.05743452      -0.44256547       0.50000000
Zr      -1.77681718      12.66764112       1.65634110       0.05743452       0.44256548      -0.50000000
Zr      -3.55363440      14.58056943       3.31268211       0.11486904       0.88513095      -1.00000000
Zr       7.15417378       3.46442811      -3.44879306      -0.05743452      -0.44256548       0.50000000
Zr       5.34608666       5.13640410      -1.52022982      -0.11486904      -0.88513095       1.00000000
Zr       3.56926945       7.04933240       0.13611120      -0.05743452      -0.44256547       0.50000000
Zr       1.80808719       9.08273686       1.65634111       0.05743452       0.44256548      -0.50000000
Zr       0.03126997      10.99566516       3.31268212       0.11486904       0.88513095      -1.00000000
Zr      -1.77681715      12.66764115       5.24124537       0.05743452       0.44256547      -0.50000000
Zr       8.93099103       1.55149984      -1.52022981      -0.11486904      -0.88513095       1.00000000
Zr       7.15417382       3.46442814       0.13611121      -0.05743452      -0.44256547       0.50000000
Zr       5.39299156       5.49783260       1.65634112       0.05743452       0.44256548      -0.50000000
Zr       3.61617434       7.41076090       3.31268213       0.11486904       0.88513095      -1.00000000
Zr       1.80808722       9.08273689       5.24124538       0.05743452       0.44256547      -0.50000000
Zr      -0.01563485      10.63423672       7.30591973      -0.05743452      -0.44256548       0.50000000
Zr      10.73907819      -0.12047613       0.13611122      -0.05743452      -0.44256547       0.50000000
Zr       8.97789593       1.91292833       1.65634113       0.05743452       0.44256548      -0.50000000
Zr       7.20107871       3.82585663       3.31268215       0.11486904       0.88513095      -1.00000000
Zr       5.39299159       5.49783262       5.24124539       0.05743452       0.44256547      -0.50000000
Zr       3.56926952       7.04933245       7.30591974      -0.05743452      -0.44256548       0.50000000
Zr       1.76118240       8.72130844       9.23448298      -0.11486904      -0.88513095       1.00000000
Zr      12.56280030      -1.67197593       1.65634114       0.05743452       0.44256548      -0.50000000
Zr      10.78598308       0.24095237       3.31268216       0.11486904       0.88513095      -1.00000000
Zr       8.97789596       1.91292836       5.24124540       0.05743452       0.44256547      -0.50000000
Zr       7.15417389       3.46442819       7.30591975      -0.05743452      -0.44256548       0.50000000
Zr       5.34608677       5.13640418       9.23448299      -0.11486904      -0.88513095       1.00000000
Zr       3.56926956       7.04933248      10.89082401      -0.05743452      -0.44256547       0.50000000
Zr      14.37088745      -3.34395189       3.31268217       0.11486904       0.88513095      -1.00000000
Zr      12.56280033      -1.67197591       5.24124541       0.05743452       0.44256547      -0.50000000
Zr      10.73907826      -0.12047608       7.30591976      -0.05743452      -0.44256548       0.50000000
Zr       8.93099114       1.55149991       9.23448300      -0.11486904      -0.88513095       1.00000000
Zr       7.15417393       3.46442821      10.89082402      -0.05743452      -0.44256547       0.50000000
Zr       5.39299166       5.49783267      12.41105393       0.05743452       0.44256548      -0.50000000
Zr       7.15417376       7.04933236      -7.03369731      -0.05743452      -0.44256548       0.50000000
Zr       5.34608664       8.72130835      -5.10513406      -0.11486904      -0.88513095       1.00000000
Zr       3.56926942      10.63423665      -3.44879305      -0.05743452      -0.44256547       0.50000000
Zr       1.80808716      12.66764111      -1.92856314       0.05743452       0.44256548      -0.50000000
Zr       0.03126995      14.58056941      -0.27222212       0.11486904       0.88513095      -1.00000000
Zr      -1.77681717      16.25254540       1.65634112       0.05743452       0.44256547      -0.50000000
Zr       8.93099101       5.13640408      -5.10513405      -0.11486904      -0.88513095       1.00000000
Zr       7.15417379       7.04933239      -3.44879304      -0.05743452      -0.44256547       0.50000000
Zr       5.39299153       9.08273685      -1.92856313       0.05743452       0.44256548      -0.50000000
Zr       3.61617432      10.99566515      -0.27222211       0.11486904       0.88513095      -1.00000000
Zr       1.80808720      12.66764113       1.65634113       0.05743452       0.44256547      -0.50000000
Zr      -0.01563487      14.21914096       3.72101548      -0.05743452      -0.44256548       0.50000000
Zr      10.73907816       3.46442812      -3.44879303      -0.05743452      -0.44256547       0.50000000
Zr       8.97789590       5.49783258      -1.92856312       0.05743452       0.44256548      -0.50000000
Zr       7.20107869       7.41076088      -0.27222210       0.11486904       0.88513095      -1.00000000
Zr       5.39299157       9.08273687       1.65634114       0.05743452       0.44256547      -0.50000000
Zr       3.56926949      10.63423670       3.72101549      -0.05743452      -0.44256548       0.50000000
Zr       1.76118238      12.30621269       5.64957873      -0.11486904      -0.88513095       1.00000000
Zr      12.56280027       1.91292832      -1.92856311       0.05743452       0.44256548      -0.50000000
Zr      10.78598306       3.82585662      -0.27222209       0.11486904       0.88513095      -1.00000000
Zr       8.97789594       5.49783261       1.65634115       0.05743452       0.44256547      -0.50000000
Zr       7.15417386       7.04933244       3.72101550      -0.05743452      -0.44256548       0.50000000
Zr       5.34608675       8.72130842       5.64957874      -0.11486904      -0.88513095       1.00000000
Zr       3.56926953      10.63423673       7.30591976      -0.05743452      -0.44256547       0.50000000
Zr      14.37088743       0.24095236      -0.27222208       0.11486904       0.88513095      -1.00000000
Zr      12.56280031       1.91292834       1.65634116       0.05743452       0.44256547      -0.50000000
Zr      10.73907823       3.46442817       3.72101551      -0.05743452      -0.44256548       0.50000000
Zr       8.93099112       5.13640416       5.64957876      -0.11486904      -0.88513095       1.00000000
Zr       7.15417390       7.04933246       7.30591977      -0.05743452      -0.44256547       0.50000000
Zr       5.39299164       9.08273692       8.82614968       0.05743452       0.44256548      -0.50000000
Zr      16.14770468      -1.67197592       1.65634117       0.05743452       0.44256547      -0.50000000
Zr      14.32398260      -0.12047609       3.72101552      -0.05743452      -0.44256548       0.50000000
Zr      12.51589549       1.55149990       5.64957877      -0.11486904      -0.88513095       1.00000000
Zr      10.73907827       3.46442820       7.30591978      -0.05743452      -0.44256547       0.50000000
Zr       8.97789601       5.49783266       8.82614969       0.05743452       0.44256548      -0.50000000
Zr       7.20107879       7.41076096      10.48249071       0.11486904       0.88513095      -1.00000000
Zr       8.93099098       8.72130833      -8.69003830      -0.11486904      -0.88513095       1.00000000
Zr       7.15417377      10.63423663      -7.03369728      -0.05743452      -0.44256547       0.50000000
Zr       5.39299150      12.66764109      -5.51346737       0.05743452       0.44256548      -0.50000000
Zr       3.61617429      14.58056939      -3.85712635       0.11486904       0.88513095      -1.00000000
Zr       1.80808717      16.25254538      -1.92856311       0.05743452       0.44256547      -0.50000000
Zr      -0.01563490      17.80404521       0.13611124      -0.05743452      -0.44256548       0.50000000
Zr      10.73907814       7.04933237      -7.03369727      -0.05743452      -0.44256547       0.50000000
Zr       8.97789587       9.08273683      -5.51346736       0.05743452       0.44256548      -0.50000000
Zr       7.20107866      10.99566513      -3.85712634       0.11486904       0.88513095      -1.00000000
Zr       5.39299154      12.66764112      -1.92856310       0.05743452       0.44256547      -0.50000000
Zr       3.56926947      14.21914095       0.13611125      -0.05743452      -0.44256548       0.50000000
Zr       1.76118235      15.89111694       2.06467449      -0.11486904      -0.88513095       1.00000000
Zr      12.56280024       5.49783257      -5.51346735       0.05743452       0.44256548      -0.50000000
Zr      10.78598303       7.41076087      -3.85712633       0.11486904       0.88513095      -1.00000000
Zr       8.97789591       9.08273685      -1.92856309       0.05743452       0.44256547      -0.50000000
Zr       7.15417384      10.63423669       0.13611126      -0.05743452      -0.44256548       0.50000000
Zr       5.34608672      12.30621267       2.06467450      -0.11486904      -0.88513095       1.00000000
Zr       3.56926950      14.21914098       3.72101552      -0.05743452      -0.44256547       0.50000000
Zr      14.37088740       3.82585660      -3.85712632       0.11486904       0.88513095      -1.00000000
Zr      12.56280028       5.49783259      -1.92856308       0.05743452       0.44256547      -0.50000000
Zr      10.73907821       7.04933242       0.13611127      -0.05743452      -0.44256548       0.50000000
Zr       8.93099109       8.72130841       2.06467451      -0.11486904      -0.88513095       1.00000000
Zr       7.15417387      10.63423671       3.72101553      -0.05743452      -0.44256547       0.50000000
Zr       5.39299161      12.66764117       5.24124544       0.05743452       0.44256548      -0.50000000
Zr      16.14770465       1.91292833      -1.92856307       0.05743452       0.44256547      -0.50000000
Zr      14.32398258       3.46442816       0.13611128      -0.05743452      -0.44256548       0.50000000
Zr      12.51589546       5.13640415       2.06467452      -0.11486904      -0.88513095       1.00000000
Zr      10.73907824       7.04933245       3.72101554      -0.05743452      -0.44256547       0.50000000
Zr       8.97789598       9.08273691       5.24124545       0.05743452       0.44256548      -0.50000000
Zr       7.20107877      10.99566521       6.89758647       0.11486904       0.88513095      -1.00000000
Zr      17.90888695      -0.12047611       0.13611129      -0.05743452      -0.44256548       0.50000000
Zr      16.10079983       1.55149988       2.06467453      -0.11486904      -0.88513095       1.00000000
Zr      14.32398261       3.46442818       3.72101555      -0.05743452      -0.44256547       0.50000000
Zr      12.56280035       5.49783264       5.24124546       0.05743452       0.44256548      -0.50000000
Zr      10.78598314       7.41076094       6.89758648       0.11486904       0.88513095      -1.00000000
Zr       8.97789602       9.08273693       8.82614972       0.05743452       0.44256547      -0.50000000
216
Lattice="-10.754713002110758 10.754712867710897 10.754712779026498 10.75471321732783 -10.754712714258055 10.75471284079072 10.754713064099535 10.754712776246816 -10.754712625573656" Properties=species:S:1:pos:R:3:mode_u:R:3 system=zr_bcc path_model=mattersim pattern_model=mattersim mlip_model=mattersim role=mode stem=zr_bcc_mattersim_q1d6-1d6-1d6-b0 q="0.16666666666666666 0.16666666666666666 0.16666666666666666" band=0 dim="6 6 6" m_eff=17700.95745654944 check_pass=False Q=0.35555555555555557 index=8 mlip_energy_eV=-1818.19091796875 pbc="T T T"
Zr      -0.02042116      -0.15735661       0.17777778      -0.05743452      -0.44256547       0.50000000
Zr      -1.77203101       1.94980876       1.61467435       0.05743452       0.44256548      -0.50000000
Zr      -3.54406201       3.89961752       3.22934870       0.11486904       0.88513095      -1.00000000
Zr      -5.35693534       5.53471305       5.19957861       0.05743452       0.44256547      -0.50000000
Zr      -7.19022983       7.01245196       7.34758630      -0.05743452      -0.44256548       0.50000000
Zr      -9.00310316       8.64754750       9.31781620      -0.11486904      -0.88513095       1.00000000
Zr       1.81287336      -1.63509551       1.61467436       0.05743452       0.44256548      -0.50000000
Zr       0.04084236       0.31471325       3.22934871       0.11486904       0.88513095      -1.00000000
Zr      -1.77203097       1.94980878       5.19957862       0.05743452       0.44256547      -0.50000000
Zr      -3.60532546       3.42754770       7.34758631      -0.05743452      -0.44256548       0.50000000
Zr      -5.41819879       5.06264323       9.31781622      -0.11486904      -0.88513095       1.00000000
Zr      -7.19022979       7.01245199      10.93249057      -0.05743452      -0.44256547       0.50000000
Zr       3.62574673      -3.27019101       3.22934872       0.11486904       0.88513095      -1.00000000
Zr       1.81287340      -1.63509548       5.19957863       0.05743452       0.44256547      -0.50000000
Zr      -0.02042109      -0.15735656       7.34758632      -0.05743452      -0.44256548       0.50000000
Zr      -1.83329442       1.47773897       9.31781623      -0.11486904      -0.88513095       1.00000000
Zr      -3.60532542       3.42754773      10.93249058      -0.05743452      -0.44256547       0.50000000
Zr      -5.35693527       5.53471310      12.36938715       0.05743452       0.44256548      -0.50000000
Zr       5.39777777      -5.21999974       5.19957864       0.05743452       0.44256547      -0.50000000
Zr       3.56448328      -3.74226083       7.34758633      -0.05743452      -0.44256548       0.50000000
Zr       1.75160995      -2.10716529       9.31781624      -0.11486904      -0.88513095       1.00000000
Zr      -0.02042106      -0.15735654      10.93249059      -0.05743452      -0.44256547       0.50000000
Zr      -1.77203090       1.94980884      12.36938716       0.05743452       0.44256548      -0.50000000
Zr      -3.54406190       3.89961759      13.98406151       0.11486904       0.88513095      -1.00000000
Zr       7.14938765      -7.32716509       7.34758634      -0.05743452      -0.44256548       0.50000000
Zr       5.33651432      -5.69206956       9.31781625      -0.11486904      -0.88513095       1.00000000
Zr       3.56448331      -3.74226080      10.93249060      -0.05743452      -0.44256547       0.50000000
Zr       1.81287347      -1.63509543      12.36938717       0.05743452       0.44256548      -0.50000000
Zr       0.04084247       0.31471333      13.98406152       0.11486904       0.88513095      -1.00000000
Zr      -1.77203086       1.94980886      15.95429143       0.05743452       0.44256547      -0.50000000
Zr       8.92141869      -9.27697382       9.31781626      -0.11486904      -0.88513095       1.00000000
Zr       7.14938768      -7.32716506      10.93249061      -0.05743452      -0.44256547       0.50000000
Zr       5.39777784      -5.21999969      12.36938718       0.05743452       0.44256548      -0.50000000
Zr       3.62574684      -3.27019093      13.98406153       0.11486904       0.88513095      -1.00000000
Zr       1.81287351      -1.63509540      15.95429144       0.05743452       0.44256547      -0.50000000
Zr      -0.02042098      -0.15735649      18.10229913      -0.05743452      -0.44256548       0.50000000
Zr       1.81287334       1.94980874      -1.97022988       0.05743452       0.44256548      -0.50000000
Zr       0.04084233       3.89961750      -0.35555553       0.11486904       0.88513095      -1.00000000
Zr      -1.77203099       5.53471303       1.61467438       0.05743452       0.44256547      -0.50000000
Zr      -3.60532549       7.01245195       3.76268206      -0.05743452      -0.44256548       0.50000000
Zr      -5.41819882       8.64754748       5.73291197      -0.11486904      -0.88513095       1.00000000
Zr      -7.19022982      10.59735624       7.34758632      -0.05743452      -0.44256547       0.50000000
Zr       3.62574670       0.31471324      -0.35555552       0.11486904       0.88513095      -1.00000000
Zr       1.81287338       1.94980877       1.61467439       0.05743452       0.44256547      -0.50000000
Zr      -0.02042112       3.42754769       3.76268207      -0.05743452      -0.44256548       0.50000000
Zr      -1.83329445       5.06264322       5.73291198      -0.11486904      -0.88513095       1.00000000
Zr      -3.60532545       7.01245198       7.34758633      -0.05743452      -0.44256547       0.50000000
Zr      -5.35693529       9.11961735       8.78448291       0.05743452       0.44256548      -0.50000000
Zr       5.39777775      -1.63509550       1.61467440       0.05743452       0.44256547      -0.50000000
Zr       3.56448325      -0.15735658       3.76268208      -0.05743452      -0.44256548       0.50000000
Zr       1.75160992       1.47773895       5.73291199      -0.11486904      -0.88513095       1.00000000
Zr      -0.02042108       3.42754771       7.34758634      -0.05743452      -0.44256547       0.50000000
Zr      -1.77203092       5.53471308       8.78448292       0.05743452       0.44256548      -0.50000000
Zr      -3.54406193       7.48452184      10.39915727       0.11486904       0.88513095      -1.00000000
Zr       7.14938762      -3.74226084       3.76268209      -0.05743452      -0.44256548       0.50000000
Zr       5.33651429      -2.10716531       5.73291200      -0.11486904      -0.88513095       1.00000000
Zr       3.56448329      -0.15735655       7.34758635      -0.05743452      -0.44256547       0.50000000
Zr       1.81287345       1.94980882       8.78448293       0.05743452       0.44256548      -0.50000000
Zr       0.04084244       3.89961758      10.39915728       0.11486904       0.88513095      -1.00000000
Zr      -1.77203089       5.53471311      12.36938719       0.05743452       0.44256547      -0.50000000
Zr       8.92141866      -5.69206957       5.73291201      -0.11486904      -0.88513095       1.00000000
Zr       7.14938766      -3.74226082       7.34758636      -0.05743452      -0.44256547       0.50000000
Zr       5.39777782      -1.63509544       8.78448294       0.05743452       0.44256548      -0.50000000
Zr       3.62574681       0.31471331      10.39915729       0.11486904       0.88513095      -1.00000000
Zr       1.81287348       1.94980884      12.36938720       0.05743452       0.44256547      -0.50000000
Zr      -0.02042101       3.42754776      14.51739488      -0.05743452      -0.44256548       0.50000000
Zr      10.73429203      -7.32716508       7.34758637      -0.05743452      -0.44256547       0.50000000
Zr       8.98268219      -5.21999971       8.78448295       0.05743452       0.44256548      -0.50000000
Zr       7.21065118      -3.27019095      10.39915730       0.11486904       0.88513095      -1.00000000
Zr       5.39777785      -1.63509542      12.36938721       0.05743452       0.44256547      -0.50000000
Zr       3.56448336      -0.15735650      14.51739489      -0.05743452      -0.44256548       0.50000000
Zr       1.75161003       1.47773903      16.48762480      -0.11486904      -0.88513095       1.00000000
Zr       3.62574668       3.89961749      -3.94045976       0.11486904       0.88513095      -1.00000000
Zr       1.81287335       5.53471302      -1.97022986       0.05743452       0.44256547      -0.50000000
Zr      -0.02042114       7.01245193       0.17777783      -0.05743452      -0.44256548       0.50000000
Zr      -1.83329447       8.64754747       2.14800774      -0.11486904      -0.88513095       1.00000000
Zr      -3.60532548      10.59735622       3.76268209      -0.05743452      -0.44256547       0.50000000
Zr      -5.35693532      12.70452160       5.19957866       0.05743452       0.44256548      -0.50000000
Zr       5.39777772       1.94980875      -1.97022985       0.05743452       0.44256547      -0.50000000
Zr       3.56448323       3.42754767       0.17777784      -0.05743452      -0.44256548       0.50000000
Zr       1.75160990       5.06264320       2.14800775      -0.11486904      -0.88513095       1.00000000
Zr      -0.02042111       7.01245196       3.76268210      -0.05743452      -0.44256547       0.50000000
Zr      -1.77203095       9.11961733       5.19957867       0.05743452       0.44256548      -0.50000000
Zr      -3.54406195      11.06942609       6.81425303       0.11486904       0.88513095      -1.00000000
Zr       7.14938760      -0.15735659       0.17777785      -0.05743452      -0.44256548       0.50000000
Zr       5.33651427       1.47773894       2.14800776      -0.11486904      -0.88513095       1.00000000
Zr       3.56448326       3.42754770       3.76268211      -0.05743452      -0.44256547       0.50000000
Zr       1.81287342       5.53471307       5.19957868       0.05743452       0.44256548      -0.50000000
Zr       0.04084242       7.48452183       6.81425304       0.11486904       0.88513095      -1.00000000
Zr      -1.77203091       9.11961736       8.78448294       0.05743452       0.44256547      -0.50000000
Zr       8.92141864      -2.10716533       2.14800777      -0.11486904      -0.88513095       1.00000000
Zr       7.14938763      -0.15735657       3.76268212      -0.05743452      -0.44256547       0.50000000
Zr       5.39777779       1.94980880       5.19957869       0.05743452       0.44256548      -0.50000000
Zr       3.62574679       3.89961756       6.81425305       0.11486904       0.88513095      -1.00000000
Zr       1.81287346       5.53471309       8.78448295       0.05743452       0.44256547      -0.50000000
Zr      -0.02042103       7.01245201      10.93249064      -0.05743452      -0.44256548       0.50000000
Zr      10.73429200      -3.74226083       3.76268213      -0.05743452      -0.44256547       0.50000000
Zr       8.98268216      -1.63509546       5.19957870       0.05743452       0.44256548      -0.50000000
Zr       7.21065116       0.31471330       6.81425306       0.11486904       0.88513095      -1.00000000
Zr       5.39777783       1.94980883       8.78448296       0.05743452       0.44256547      -0.50000000
Zr       3.56448334       3.42754775      10.93249065      -0.05743452      -0.44256548       0.50000000
Zr       1.75161001       5.06264328      12.90272056      -0.11486904      -0.88513095       1.00000000
Zr      12.56758653      -5.21999972       5.19957871       0.05743452       0.44256548      -0.50000000
Zr      10.79555553      -3.27019097       6.81425307       0.11486904       0.88513095      -1.00000000
Zr       8.98268220      -1.63509543       8.78448297       0.05743452       0.44256547      -0.50000000
Zr       7.14938771      -0.15735652      10.93249066      -0.05743452      -0.44256548       0.50000000
Zr       5.33651438       1.47773902      12.90272057      -0.11486904      -0.88513095       1.00000000
Zr       3.56448337       3.42754777      14.51739492      -0.05743452      -0.44256547       0.50000000
Zr       5.39777769       5.53471300      -5.55513409       0.05743452       0.44256547      -0.50000000
Zr       3.56448320       7.01245192      -3.40712641      -0.05743452      -0.44256548       0.50000000
Zr       1.75160987       8.64754745      -1.43689650      -0.11486904      -0.88513095       1.00000000
Zr      -0.02042113      10.59735621       0.17777785      -0.05743452      -0.44256547       0.50000000
Zr      -1.77203097      12.70452158       1.61467443       0.05743452       0.44256548      -0.50000000
Zr      -3.54406198      14.65433034       3.22934878       0.11486904       0.88513095      -1.00000000
Zr       7.14938757       3.42754766      -3.40712639      -0.05743452      -0.44256548       0.50000000
Zr       5.33651424       5.06264319      -1.43689649      -0.11486904      -0.88513095       1.00000000
Zr       3.56448324       7.01245195       0.17777786      -0.05743452      -0.44256547       0.50000000
Zr       1.81287340       9.11961732       1.61467444       0.05743452       0.44256548      -0.50000000
Zr       0.04084239      11.06942607       3.22934879       0.11486904       0.88513095      -1.00000000
Zr      -1.77203094      12.70452161       5.19957870       0.05743452       0.44256547      -0.50000000
Zr       8.92141861       1.47773892      -1.43689648      -0.11486904      -0.88513095       1.00000000
Zr       7.14938761       3.42754768       0.17777788      -0.05743452      -0.44256547       0.50000000
Zr       5.39777777       5.53471305       1.61467445       0.05743452       0.44256548      -0.50000000
Zr       3.62574676       7.48452181       3.22934880       0.11486904       0.88513095      -1.00000000
Zr       1.81287343       9.11961734       5.19957871       0.05743452       0.44256547      -0.50000000
Zr      -0.02042106      10.59735626       7.34758639      -0.05743452      -0.44256548       0.50000000
Zr      10.73429198      -0.15735658       0.17777789      -0.05743452      -0.44256547       0.50000000
Zr       8.98268214       1.94980879       1.61467446       0.05743452       0.44256548      -0.50000000
Zr       7.21065113       3.89961755       3.22934881       0.11486904       0.88513095      -1.00000000
Zr       5.39777780       5.53471308       5.19957872       0.05743452       0.44256547      -0.50000000
Zr       3.56448331       7.01245200       7.34758640      -0.05743452      -0.44256548       0.50000000
Zr       1.75160998       8.64754753       9.31781631      -0.11486904      -0.88513095       1.00000000
Zr      12.56758651      -1.63509547       1.61467447       0.05743452       0.44256548      -0.50000000
Zr      10.79555550       0.31471328       3.22934882       0.11486904       0.88513095      -1.00000000
Zr       8.98268217       1.94980881       5.19957873       0.05743452       0.44256547      -0.50000000
Zr       7.14938768       3.42754773       7.34758642      -0.05743452      -0.44256548       0.50000000
Zr       5.33651435       5.06264326       9.31781632      -0.11486904      -0.88513095       1.00000000
Zr       3.56448335       7.01245202      10.93249067      -0.05743452      -0.44256547       0.50000000
Zr      14.38045987      -3.27019098       3.22934883       0.11486904       0.88513095      -1.00000000
Zr      12.56758654      -1.63509545       5.19957874       0.05743452       0.44256547      -0.50000000
Zr      10.73429205      -0.15735653       7.34758643      -0.05743452      -0.44256548       0.50000000
Zr       8.92141872       1.47773900       9.31781633      -0.11486904      -0.88513095       1.00000000
Zr       7.14938772       3.42754776      10.93249069      -0.05743452      -0.44256547       0.50000000
Zr       5.39777787       5.53471313      12.36938726       0.05743452       0.44256548      -0.50000000
Zr       7.14938755       7.01245190      -6.99203064      -0.05743452      -0.44256548       0.50000000
Zr       5.33651422       8.64754744      -5.02180073      -0.11486904      -0.88513095       1.00000000
Zr       3.56448321      10.59735619      -3.40712638      -0.05743452      -0.44256547       0.50000000
Zr       1.81287337      12.70452157      -1.97022981       0.05743452       0.44256548      -0.50000000
Zr       0.04084237      14.65433032      -0.35555545       0.11486904       0.88513095      -1.00000000
Zr      -1.77203096      16.28942585       1.61467445       0.05743452       0.44256547      -0.50000000
Zr       8.92141859       5.06264317      -5.02180072      -0.11486904      -0.88513095       1.00000000
Zr       7.14938758       7.01245193      -3.40712637      -0.05743452      -0.44256547       0.50000000
Zr       5.39777774       9.11961730      -1.97022980       0.05743452       0.44256548      -0.50000000
Zr       3.62574674      11.06942606      -0.35555544       0.11486904       0.88513095      -1.00000000
Zr       1.81287341      12.70452159       1.61467446       0.05743452       0.44256547      -0.50000000
Zr      -0.02042108      14.18226051       3.76268215      -0.05743452      -0.44256548       0.50000000
Zr      10.73429195       3.42754767      -3.40712636      -0.05743452      -0.44256547       0.50000000
Zr       8.98268211       5.53471304      -1.97022978       0.05743452       0.44256548      -0.50000000
Zr       7.21065111       7.48452180      -0.35555543       0.11486904       0.88513095      -1.00000000
Zr       5.39777778       9.11961733       1.61467447       0.05743452       0.44256547      -0.50000000
Zr       3.56448329      10.59735624       3.76268216      -0.05743452      -0.44256548       0.50000000
Zr       1.75160996      12.23245178       5.73291207      -0.11486904      -0.88513095       1.00000000
Zr      12.56758648       1.94980877      -1.97022977       0.05743452       0.44256548      -0.50000000
Zr      10.79555548       3.89961753      -0.35555542       0.11486904       0.88513095      -1.00000000
Zr       8.98268215       5.53471306       1.61467449       0.05743452       0.44256547      -0.50000000
Zr       7.14938766       7.01245198       3.76268217      -0.05743452      -0.44256548       0.50000000
Zr       5.33651433       8.64754751       5.73291208      -0.11486904      -0.88513095       1.00000000
Zr       3.56448332      10.59735627       7.34758643      -0.05743452      -0.44256547       0.50000000
Zr      14.38045985       0.31471327      -0.35555541       0.11486904       0.88513095      -1.00000000
Zr      12.56758652       1.94980880       1.61467450       0.05743452       0.44256547      -0.50000000
Zr      10.73429202       3.42754772       3.76268218      -0.05743452      -0.44256548       0.50000000
Zr       8.92141870       5.06264325       5.73291209      -0.11486904      -0.88513095       1.00000000
Zr       7.14938769       7.01245201       7.34758644      -0.05743452      -0.44256547       0.50000000
Zr       5.39777785       9.11961738       8.78448301       0.05743452       0.44256548      -0.50000000
Zr      16.15249089      -1.63509546       1.61467451       0.05743452       0.44256547      -0.50000000
Zr      14.31919639      -0.15735655       3.76268219      -0.05743452      -0.44256548       0.50000000
Zr      12.50632307       1.47773898       5.73291210      -0.11486904      -0.88513095       1.00000000
Zr      10.73429206       3.42754774       7.34758645      -0.05743452      -0.44256547       0.50000000
Zr       8.98268222       5.53471311       8.78448303       0.05743452       0.44256548      -0.50000000
Zr       7.21065121       7.48452187      10.39915738       0.11486904       0.88513095      -1.00000000
Zr       8.92141856       8.64754742      -8.60670497      -0.11486904      -0.88513095       1.00000000
Zr       7.14938756      10.59735618      -6.99203061      -0.05743452      -0.44256547       0.50000000
Zr       5.39777771      12.70452155      -5.55513404       0.05743452       0.44256548      -0.50000000
Zr       3.62574671      14.65433031      -3.94045969       0.11486904       0.88513095      -1.00000000
Zr       1.81287338      16.28942584      -1.97022978       0.05743452       0.44256547      -0.50000000
Zr      -0.02042111      17.76716476       0.17777791      -0.05743452      -0.44256548       0.50000000
Zr      10.73429193       7.01245191      -6.99203060      -0.05743452      -0.44256547       0.50000000
Zr       8.98268208       9.11961729      -5.55513403       0.05743452       0.44256548      -0.50000000
Zr       7.21065108      11.06942604      -3.94045968       0.11486904       0.88513095      -1.00000000
Zr       5.39777775      12.70452157      -1.97022977       0.05743452       0.44256547      -0.50000000
Zr       3.56448326      14.18226049       0.17777792      -0.05743452      -0.44256548       0.50000000
Zr       1.75160993      15.81735602       2.14800782      -0.11486904      -0.88513095       1.00000000
Zr      12.56758645       5.53471302      -5.55513402       0.05743452       0.44256548      -0.50000000
Zr      10.79555545       7.48452178      -3.94045967       0.11486904       0.88513095      -1.00000000
Zr       8.98268212       9.11961731      -1.97022976       0.05743452       0.44256547      -0.50000000
Zr       7.14938763      10.59735623       0.17777793      -0.05743452      -0.44256548       0.50000000
Zr       5.33651430      12.23245176       2.14800783      -0.11486904      -0.88513095       1.00000000
Zr       3.56448329      14.18226052       3.76268219      -0.05743452      -0.44256547       0.50000000
Zr      14.38045982       3.89961752      -3.94045966       0.11486904       0.88513095      -1.00000000
Zr      12.56758649       5.53471305      -1.97022975       0.05743452       0.44256547      -0.50000000
Zr      10.73429200       7.01245197       0.17777794      -0.05743452      -0.44256548       0.50000000
Zr       8.92141867       8.64754750       2.14800784      -0.11486904      -0.88513095       1.00000000
Zr       7.14938766      10.59735626       3.76268220      -0.05743452      -0.44256547       0.50000000
Zr       5.39777782      12.70452163       5.19957877       0.05743452       0.44256548      -0.50000000
Zr      16.15249086       1.94980878      -1.97022974       0.05743452       0.44256547      -0.50000000
Zr      14.31919637       3.42754770       0.17777795      -0.05743452      -0.44256548       0.50000000
Zr      12.50632304       5.06264323       2.14800785      -0.11486904      -0.88513095       1.00000000
Zr      10.73429203       7.01245199       3.76268221      -0.05743452      -0.44256547       0.50000000
Zr       8.98268219       9.11961736       5.19957878       0.05743452       0.44256548      -0.50000000
Zr       7.21065119      11.06942612       6.81425313       0.11486904       0.88513095      -1.00000000
Zr      17.90410074      -0.15735656       0.17777796      -0.05743452      -0.44256548       0.50000000
Zr      16.09122741       1.47773897       2.14800786      -0.11486904      -0.88513095       1.00000000
Zr      14.31919640       3.42754773       3.76268222      -0.05743452      -0.44256547       0.50000000
Zr      12.56758656       5.53471310       5.19957879       0.05743452       0.44256548      -0.50000000
Zr      10.79555556       7.48452186       6.81425314       0.11486904       0.88513095      -1.00000000
Zr       8.98268223       9.11961739       8.78448305       0.05743452       0.44256547      -0.50000000
216
Lattice="-10.754713002110758 10.754712867710897 10.754712779026498 10.75471321732783 -10.754712714258055 10.75471284079072 10.754713064099535 10.754712776246816 -10.754712625573656" Properties=species:S:1:pos:R:3:mode_u:R:3 system=zr_bcc path_model=mattersim pattern_model=mattersim mlip_model=mattersim role=mode stem=zr_bcc_mattersim_q1d6-1d6-1d6-b0 q="0.16666666666666666 0.16666666666666666 0.16666666666666666" band=0 dim="6 6 6" m_eff=17700.95745654944 check_pass=False Q=0.45 index=9 mlip_energy_eV=-1801.4088134765625 pbc="T T T"
Zr      -0.02584553      -0.19915446       0.22500000      -0.05743452      -0.44256547       0.50000000
Zr      -1.76660663       1.99160661       1.56745213       0.05743452       0.44256548      -0.50000000
Zr      -3.53321327       3.98321322       3.13490426       0.11486904       0.88513095      -1.00000000
Zr      -5.35151097       5.57651090       5.15235639       0.05743452       0.44256547      -0.50000000
Zr      -7.19565420       6.97065411       7.39480852      -0.05743452      -0.44256548       0.50000000
Zr      -9.01395190       8.56395180       9.41226065      -0.11486904      -0.88513095       1.00000000
Zr       1.81829774      -1.59329765       1.56745214       0.05743452       0.44256548      -0.50000000
Zr       0.05169110       0.39830895       3.13490427       0.11486904       0.88513095      -1.00000000
Zr      -1.76660660       1.99160663       5.15235640       0.05743452       0.44256547      -0.50000000
Zr      -3.61074983       3.38574985       7.39480853      -0.05743452      -0.44256548       0.50000000
Zr      -5.42904753       4.97904753       9.41226066      -0.11486904      -0.88513095       1.00000000
Zr      -7.19565417       6.97065414      10.97971279      -0.05743452      -0.44256547       0.50000000
Zr       3.63659547      -3.18659531       3.13490428       0.11486904       0.88513095      -1.00000000
Zr       1.81829777      -1.59329763       5.15235641       0.05743452       0.44256547      -0.50000000
Zr      -0.02584546      -0.19915441       7.39480854      -0.05743452      -0.44256548       0.50000000
Zr      -1.84414316       1.39414327       9.41226067      -0.11486904      -0.88513095       1.00000000
Zr      -3.61074980       3.38574988      10.97971280      -0.05743452      -0.44256547       0.50000000
Zr      -5.35151090       5.57651095      12.32216493       0.05743452       0.44256548      -0.50000000
Zr       5.40320214      -5.17820189       5.15235642       0.05743452       0.44256547      -0.50000000
Zr       3.55905891      -3.78405868       7.39480855      -0.05743452      -0.44256548       0.50000000
Zr       1.74076121      -2.19076100       9.41226068      -0.11486904      -0.88513095       1.00000000
Zr      -0.02584543      -0.19915439      10.97971281      -0.05743452      -0.44256547       0.50000000
Zr      -1.76660653       1.99160669      12.32216494       0.05743452       0.44256548      -0.50000000
Zr      -3.53321316       3.98321329      13.88961707       0.11486904       0.88513095      -1.00000000
Zr       7.14396328      -7.36896294       7.39480856      -0.05743452      -0.44256548       0.50000000
Zr       5.32566558      -5.77566526       9.41226069      -0.11486904      -0.88513095       1.00000000
Zr       3.55905894      -3.78405865      10.97971282      -0.05743452      -0.44256547       0.50000000
Zr       1.81829784      -1.59329758      12.32216495       0.05743452       0.44256548      -0.50000000
Zr       0.05169121       0.39830903      13.88961708       0.11486904       0.88513095      -1.00000000
Zr      -1.76660649       1.99160671      15.90706921       0.05743452       0.44256547      -0.50000000
Zr       8.91056995      -9.36056952       9.41226070      -0.11486904      -0.88513095       1.00000000
Zr       7.14396331      -7.36896291      10.97971283      -0.05743452      -0.44256547       0.50000000
Zr       5.40320221      -5.17820184      12.32216496       0.05743452       0.44256548      -0.50000000
Zr       3.63659558      -3.18659523      13.88961709       0.11486904       0.88513095      -1.00000000
Zr       1.81829788      -1.59329755      15.90706922       0.05743452       0.44256547      -0.50000000
Zr      -0.02584535      -0.19915434      18.14952135      -0.05743452      -0.44256548       0.50000000
Zr       1.81829771       1.99160659      -2.01745210       0.05743452       0.44256548      -0.50000000
Zr       0.05169108       3.98321320      -0.44999997       0.11486904       0.88513095      -1.00000000
Zr      -1.76660662       5.57651088       1.56745216       0.05743452       0.44256547      -0.50000000
Zr      -3.61074986       6.97065410       3.80990429      -0.05743452      -0.44256548       0.50000000
Zr      -5.42904756       8.56395178       5.82735642      -0.11486904      -0.88513095       1.00000000
Zr      -7.19565419      10.55555839       7.39480854      -0.05743452      -0.44256547       0.50000000
Zr       3.63659545       0.39830894      -0.44999996       0.11486904       0.88513095      -1.00000000
Zr       1.81829775       1.99160662       1.56745217       0.05743452       0.44256547      -0.50000000
Zr      -0.02584549       3.38574984       3.80990430      -0.05743452      -0.44256548       0.50000000
Zr      -1.84414319       4.97904752       5.82735643      -0.11486904      -0.88513095       1.00000000
Zr      -3.61074982       6.97065413       7.39480856      -0.05743452      -0.44256547       0.50000000
Zr      -5.35151092       9.16141520       8.73726069       0.05743452       0.44256548      -0.50000000
Zr       5.40320212      -1.59329765       1.56745218       0.05743452       0.44256547      -0.50000000
Zr       3.55905888      -0.19915443       3.80990431      -0.05743452      -0.44256548       0.50000000
Zr       1.74076118       1.39414325       5.82735644      -0.11486904      -0.88513095       1.00000000
Zr      -0.02584545       3.38574986       7.39480857      -0.05743452      -0.44256547       0.50000000
Zr      -1.76660655       5.57651093       8.73726070       0.05743452       0.44256548      -0.50000000
Zr      -3.53321318       7.56811754      10.30471283       0.11486904       0.88513095      -1.00000000
Zr       7.14396325      -3.78405869       3.80990432      -0.05743452      -0.44256548       0.50000000
Zr       5.32566555      -2.19076101       5.82735645      -0.11486904      -0.88513095       1.00000000
Zr       3.55905892      -0.19915440       7.39480858      -0.05743452      -0.44256547       0.50000000
Zr       1.81829782       1.99160667       8.73726071       0.05743452       0.44256548      -0.50000000
Zr       0.05169118       3.98321328      10.30471284       0.11486904       0.88513095      -1.00000000
Zr      -1.76660652       5.57651096      12.32216497       0.05743452       0.44256547      -0.50000000
Zr       8.91056992      -5.77566527       5.82735646      -0.11486904      -0.88513095       1.00000000
Zr       7.14396329      -3.78405867       7.39480859      -0.05743452      -0.44256547       0.50000000
Zr       5.40320219      -1.59329759       8.73726072       0.05743452       0.44256548      -0.50000000
Zr       3.63659555       0.39830901      10.30471285       0.11486904       0.88513095      -1.00000000
Zr       1.81829785       1.99160670      12.32216498       0.05743452       0.44256547      -0.50000000
Zr      -0.02584538       3.38574991      14.56461711      -0.05743452      -0.44256548       0.50000000
Zr      10.72886766      -7.36896293       7.39480860      -0.05743452      -0.44256547       0.50000000
Zr       8.98810656      -5.17820186       8.73726073       0.05743452       0.44256548      -0.50000000
Zr       7.22149992      -3.18659525      10.30471286       0.11486904       0.88513095      -1.00000000
Zr       5.40320222      -1.59329757      12.32216499       0.05743452       0.44256547      -0.50000000
Zr       3.55905899      -0.19915435      14.56461712      -0.05743452      -0.44256548       0.50000000
Zr       1.74076129       1.39414333      16.58206925      -0.11486904      -0.88513095       1.00000000
Zr       3.63659542       3.98321319      -4.03490421       0.11486904       0.88513095      -1.00000000
Zr       1.81829772       5.57651087      -2.01745208       0.05743452       0.44256547      -0.50000000
Zr      -0.02584551       6.97065408       0.22500005      -0.05743452      -0.44256548       0.50000000
Zr      -1.84414321       8.56395176       2.24245218      -0.11486904      -0.88513095       1.00000000
Zr      -3.61074985      10.55555837       3.80990431      -0.05743452      -0.44256547       0.50000000
Zr      -5.35151095      12.74631945       5.15235644       0.05743452       0.44256548      -0.50000000
Zr       5.40320209       1.99160660      -2.01745207       0.05743452       0.44256547      -0.50000000
Zr       3.55905886       3.38574982       0.22500006      -0.05743452      -0.44256548       0.50000000
Zr       1.74076116       4.97904750       2.24245219      -0.11486904      -0.88513095       1.00000000
Zr      -0.02584548       6.97065411       3.80990432      -0.05743452      -0.44256547       0.50000000
Zr      -1.76660658       9.16141518       5.15235645       0.05743452       0.44256548      -0.50000000
Zr      -3.53321321      11.15302179       6.71980858       0.11486904       0.88513095      -1.00000000
Zr       7.14396323      -0.19915444       0.22500007      -0.05743452      -0.44256548       0.50000000
Zr       5.32566553       1.39414324       2.24245220      -0.11486904      -0.88513095       1.00000000
Zr       3.55905889       3.38574985       3.80990433      -0.05743452      -0.44256547       0.50000000
Zr       1.81829779       5.57651092       5.15235646       0.05743452       0.44256548      -0.50000000
Zr       0.05169116       7.56811753       6.71980859       0.11486904       0.88513095      -1.00000000
Zr      -1.76660654       9.16141521       8.73726072       0.05743452       0.44256547      -0.50000000
Zr       8.91056990      -2.19076103       2.24245221      -0.11486904      -0.88513095       1.00000000
Zr       7.14396326      -0.19915442       3.80990434      -0.05743452      -0.44256547       0.50000000
Zr       5.40320216       1.99160666       5.15235647       0.05743452       0.44256548      -0.50000000
Zr       3.63659553       3.98321326       6.71980860       0.11486904       0.88513095      -1.00000000
Zr       1.81829783       5.57651094       8.73726073       0.05743452       0.44256547      -0.50000000
Zr      -0.02584540       6.97065416      10.97971286      -0.05743452      -0.44256548       0.50000000
Zr      10.72886763      -3.78405868       3.80990435      -0.05743452      -0.44256547       0.50000000
Zr       8.98810653      -1.59329761       5.15235648       0.05743452       0.44256548      -0.50000000
Zr       7.22149990       0.39830900       6.71980861       0.11486904       0.88513095      -1.00000000
Zr       5.40320220       1.99160668       8.73726074       0.05743452       0.44256547      -0.50000000
Zr       3.55905897       3.38574990      10.97971287      -0.05743452      -0.44256548       0.50000000
Zr       1.74076126       4.97904758      12.99716500      -0.11486904      -0.88513095       1.00000000
Zr      12.57301090      -5.17820187       5.15235649       0.05743452       0.44256548      -0.50000000
Zr      10.80640427      -3.18659526       6.71980862       0.11486904       0.88513095      -1.00000000
Zr       8.98810657      -1.59329758       8.73726075       0.05743452       0.44256547      -0.50000000
Zr       7.14396333      -0.19915437      10.97971288      -0.05743452      -0.44256548       0.50000000
Zr       5.32566563       1.39414331      12.99716501      -0.11486904      -0.88513095       1.00000000
Zr       3.55905900       3.38574992      14.56461714      -0.05743452      -0.44256547       0.50000000
Zr       5.40320207       5.57651085      -5.60235631       0.05743452       0.44256547      -0.50000000
Zr       3.55905883       6.97065407      -3.35990418      -0.05743452      -0.44256548       0.50000000
Zr       1.74076113       8.56395175      -1.34245205      -0.11486904      -0.88513095       1.00000000
Zr      -0.02584550      10.55555836       0.22500008      -0.05743452      -0.44256547       0.50000000
Zr      -1.76660660      12.74631943       1.56745221       0.05743452       0.44256548      -0.50000000
Zr      -3.53321324      14.73792604       3.13490434       0.11486904       0.88513095      -1.00000000
Zr       7.14396320       3.38574980      -3.35990417      -0.05743452      -0.44256548       0.50000000
Zr       5.32566550       4.97904749      -1.34245204      -0.11486904      -0.88513095       1.00000000
Zr       3.55905887       6.97065409       0.22500009      -0.05743452      -0.44256547       0.50000000
Zr       1.81829777       9.16141517       1.56745222       0.05743452       0.44256548      -0.50000000
Zr       0.05169113      11.15302178       3.13490435       0.11486904       0.88513095      -1.00000000
Zr      -1.76660657      12.74631946       5.15235648       0.05743452       0.44256547      -0.50000000
Zr       8.91056987       1.39414322      -1.34245203      -0.11486904      -0.88513095       1.00000000
Zr       7.14396324       3.38574983       0.22500010      -0.05743452      -0.44256547       0.50000000
Zr       5.40320214       5.57651090       1.56745223       0.05743452       0.44256548      -0.50000000
Zr       3.63659550       7.56811751       3.13490436       0.11486904       0.88513095      -1.00000000
Zr       1.81829780       9.16141519       5.15235649       0.05743452       0.44256547      -0.50000000
Zr      -0.02584543      10.55555841       7.39480862      -0.05743452      -0.44256548       0.50000000
Zr      10.72886761      -0.19915443       0.22500011      -0.05743452      -0.44256547       0.50000000
Zr       8.98810651       1.99160664       1.56745224       0.05743452       0.44256548      -0.50000000
Zr       7.22149987       3.98321325       3.13490437       0.11486904       0.88513095      -1.00000000
Zr       5.40320217       5.57651093       5.15235650       0.05743452       0.44256547      -0.50000000
Zr       3.55905894       6.97065415       7.39480863      -0.05743452      -0.44256548       0.50000000
Zr       1.74076124       8.56395183       9.41226076      -0.11486904      -0.88513095       1.00000000
Zr      12.57301088      -1.59329762       1.56745225       0.05743452       0.44256548      -0.50000000
Zr      10.80640424       0.39830898       3.13490438       0.11486904       0.88513095      -1.00000000
Zr       8.98810654       1.99160666       5.15235651       0.05743452       0.44256547      -0.50000000
Zr       7.14396331       3.38574988       7.39480864      -0.05743452      -0.44256548       0.50000000
Zr       5.32566561       4.97904756       9.41226077      -0.11486904      -0.88513095       1.00000000
Zr       3.55905897       6.97065417      10.97971290      -0.05743452      -0.44256547       0.50000000
Zr      14.39130861      -3.18659528       3.13490439       0.11486904       0.88513095      -1.00000000
Zr      12.57301091      -1.59329760       5.15235652       0.05743452       0.44256547      -0.50000000
Zr      10.72886768      -0.19915438       7.39480865      -0.05743452      -0.44256548       0.50000000
Zr       8.91056998       1.39414330       9.41226078      -0.11486904      -0.88513095       1.00000000
Zr       7.14396334       3.38574991      10.97971291      -0.05743452      -0.44256547       0.50000000
Zr       5.40320224       5.57651098      12.32216504       0.05743452       0.44256548      -0.50000000
Zr       7.14396318       6.97065405      -6.94480842      -0.05743452      -0.44256548       0.50000000
Zr       5.32566548       8.56395173      -4.92735629      -0.11486904      -0.88513095       1.00000000
Zr       3.55905884      10.55555834      -3.35990416      -0.05743452      -0.44256547       0.50000000
Zr       1.81829774      12.74631942      -2.01745203       0.05743452       0.44256548      -0.50000000
Zr       0.05169111      14.73792602      -0.44999990       0.11486904       0.88513095      -1.00000000
Zr      -1.76660659      16.33122370       1.56745223       0.05743452       0.44256547      -0.50000000
Zr       8.91056985       4.97904747      -4.92735628      -0.11486904      -0.88513095       1.00000000
Zr       7.14396321       6.97065408      -3.35990415      -0.05743452      -0.44256547       0.50000000
Zr       5.40320211       9.16141515      -2.01745202       0.05743452       0.44256548      -0.50000000
Zr       3.63659548      11.15302176      -0.44999989       0.11486904       0.88513095      -1.00000000
Zr       1.81829778      12.74631944       1.56745224       0.05743452       0.44256547      -0.50000000
Zr      -0.02584546      14.14046266       3.80990437      -0.05743452      -0.44256548       0.50000000
Zr      10.72886758       3.38574982      -3.35990414      -0.05743452      -0.44256547       0.50000000
Zr       8.98810648       5.57651089      -2.01745201       0.05743452       0.44256548      -0.50000000
Zr       7.22149985       7.56811750      -0.44999988       0.11486904       0.88513095      -1.00000000
Zr       5.40320215       9.16141518       1.56745225       0.05743452       0.44256547      -0.50000000
Zr       3.55905891      10.55555839       3.80990438      -0.05743452      -0.44256548       0.50000000
Zr       1.74076121      12.14885607       5.82735651      -0.11486904      -0.88513095       1.00000000
Zr      12.57301085       1.99160662      -2.01745200       0.05743452       0.44256548      -0.50000000
Zr      10.80640422       3.98321323      -0.44999987       0.11486904       0.88513095      -1.00000000
Zr       8.98810652       5.57651091       1.56745226       0.05743452       0.44256547      -0.50000000
Zr       7.14396328       6.97065413       3.80990439      -0.05743452      -0.44256548       0.50000000
Zr       5.32566558       8.56395181       5.82735652      -0.11486904      -0.88513095       1.00000000
Zr       3.55905895      10.55555842       7.39480865      -0.05743452      -0.44256547       0.50000000
Zr      14.39130859       0.39830897      -0.44999986       0.11486904       0.88513095      -1.00000000
Zr      12.57301089       1.99160665       1.56745227       0.05743452       0.44256547      -0.50000000
Zr      10.72886765       3.38574987       3.80990440      -0.05743452      -0.44256548       0.50000000
Zr       8.91056995       4.97904755       5.82735653      -0.11486904      -0.88513095       1.00000000
Zr       7.14396332       6.97065416       7.39480866      -0.05743452      -0.44256547       0.50000000
Zr       5.40320222       9.16141523       8.73726079       0.05743452       0.44256548      -0.50000000
Zr      16.15791526      -1.59329761       1.56745228       0.05743452       0.44256547      -0.50000000
Zr      14.31377202      -0.19915440       3.80990441      -0.05743452      -0.44256548       0.50000000
Zr      12.49547432       1.39414328       5.82735654      -0.11486904      -0.88513095       1.00000000
Zr      10.72886769       3.38574989       7.39480867      -0.05743452      -0.44256547       0.50000000
Zr       8.98810659       5.57651096       8.73726080       0.05743452       0.44256548      -0.50000000
Zr       7.22149996       7.56811757      10.30471293       0.11486904       0.88513095      -1.00000000
Zr       8.91056982       8.56395172      -8.51226052      -0.11486904      -0.88513095       1.00000000
Zr       7.14396319      10.55555833      -6.94480839      -0.05743452      -0.44256547       0.50000000
Zr       5.40320209      12.74631940      -5.60235626       0.05743452       0.44256548      -0.50000000
Zr       3.63659545      14.73792601      -4.03490413       0.11486904       0.88513095      -1.00000000
Zr       1.81829775      16.33122369      -2.01745200       0.05743452       0.44256547      -0.50000000
Zr      -0.02584548      17.72536691       0.22500013      -0.05743452      -0.44256548       0.50000000
Zr      10.72886756       6.97065406      -6.94480838      -0.05743452      -0.44256547       0.50000000
Zr       8.98810646       9.16141514      -5.60235625       0.05743452       0.44256548      -0.50000000
Zr       7.22149982      11.15302174      -4.03490412       0.11486904       0.88513095      -1.00000000
Zr       5.40320212      12.74631943      -2.01745199       0.05743452       0.44256547      -0.50000000
Zr       3.55905889      14.14046264       0.22500014      -0.05743452      -0.44256548       0.50000000
Zr       1.74076119      15.73376032       2.24245227      -0.11486904      -0.88513095       1.00000000
Zr      12.57301083       5.57651087      -5.60235624       0.05743452       0.44256548      -0.50000000
Zr      10.80640419       7.56811748      -4.03490411       0.11486904       0.88513095      -1.00000000
Zr       8.98810649       9.16141516      -2.01745198       0.05743452       0.44256547      -0.50000000
Zr       7.14396326      10.55555838       0.22500015      -0.05743452      -0.44256548       0.50000000
Zr       5.32566556      12.14885606       2.24245228      -0.11486904      -0.88513095       1.00000000
Zr       3.55905892      14.14046267       3.80990441      -0.05743452      -0.44256547       0.50000000
Zr      14.39130856       3.98321322      -4.03490410       0.11486904       0.88513095      -1.00000000
Zr      12.57301086       5.57651090      -2.01745197       0.05743452       0.44256547      -0.50000000
Zr      10.72886763       6.97065411       0.22500016      -0.05743452      -0.44256548       0.50000000
Zr       8.91056993       8.56395180       2.24245229      -0.11486904      -0.88513095       1.00000000
Zr       7.14396329      10.55555840       3.80990442      -0.05743452      -0.44256547       0.50000000
Zr       5.40320219      12.74631948       5.15235655       0.05743452       0.44256548      -0.50000000
Zr      16.15791523       1.99160663      -2.01745196       0.05743452       0.44256547      -0.50000000
Zr      14.31377200       3.38574985       0.22500017      -0.05743452      -0.44256548       0.50000000
Zr      12.49547430       4.97904753       2.24245230      -0.11486904      -0.88513095       1.00000000
Zr      10.72886766       6.97065414       3.80990443      -0.05743452      -0.44256547       0.50000000
Zr       8.98810656       9.16141521       5.15235656       0.05743452       0.44256548      -0.50000000
Zr       7.22149993      11.15302182       6.71980869       0.11486904       0.88513095      -1.00000000
Zr      17.89867637      -0.19915441       0.22500018      -0.05743452      -0.44256548       0.50000000
Zr      16.08037867       1.39414327       2.24245231      -0.11486904      -0.88513095       1.00000000
Zr      14.31377203       3.38574988       3.80990444      -0.05743452      -0.44256547       0.50000000
Zr      12.57301093       5.57651095       5.15235657       0.05743452       0.44256548      -0.50000000
Zr      10.80640430       7.56811756       6.71980870       0.11486904       0.88513095      -1.00000000
Zr       8.98810660       9.16141524       8.73726083       0.05743452       0.44256547      -0.50000000
