108
Lattice="-5.377356501055379 5.377356433855448 5.377356389513249 10.75471321732783 -10.754712714258055 10.75471284079072 10.754713064099535 10.754712776246816 -10.754712625573656" Properties=species:S:1:pos:R:3:mode_u:R:3 system=zr_bcc path_model=mattersim pattern_model=mattersim mlip_model=mattersim role=mode stem=zr_bcc_mattersim_q2d3-5d6-5d6-b0 q="0.6666666666666666 0.8333333333333334 0.8333333333333334" band=0 dim="3 6 6" m_eff=9852.19187197906 check_pass=True Q=0.0 index=0 mlip_energy_eV=-914.7783813476562 pbc="T T T"
Zr       0.00000000       0.00000000       0.00000000       0.00000000       0.49999999      -0.50000000
Zr      -1.79245217       1.79245214       1.79245213      -0.00000000      -0.99999999       1.00000000
Zr      -3.58490433       3.58490429       3.58490426       0.00000000       0.49999999      -0.50000000
Zr       1.79245220      -1.79245212       1.79245214      -0.00000000      -0.49999999       0.50000000
Zr       0.00000004       0.00000003       3.58490427      -0.00000000      -0.49999999       0.50000000
Zr      -1.79245213       1.79245217       5.37735640       0.00000000       0.99999999      -1.00000000
Zr       3.58490441      -3.58490424       3.58490428      -0.00000000      -0.99999999       1.00000000
Zr       1.79245224      -1.79245209       5.37735641       0.00000000       0.49999999      -0.50000000
Zr       0.00000007       0.00000005       7.16980854       0.00000000       0.49999999      -0.50000000
Zr       5.37735661      -5.37735636       5.37735642      -0.00000000      -0.49999999       0.50000000
Zr       3.58490444      -3.58490421       7.16980855       0.00000000       0.99999999      -1.00000000
Zr       1.79245227      -1.79245207       8.96226068      -0.00000000      -0.49999999       0.50000000
Zr       7.16980881      -7.16980848       7.16980856       0.00000000       0.49999999      -0.50000000
Zr       5.37735664      -5.37735633       8.96226069       0.00000000       0.49999999      -0.50000000
Zr       3.58490448      -3.58490419      10.75471282      -0.00000000      -0.99999999       1.00000000
Zr       8.96226101      -8.96226060       8.96226070       0.00000000       0.99999999      -1.00000000
Zr       7.16980885      -7.16980845      10.75471283      -0.00000000      -0.49999999       0.50000000
Zr       5.37735668      -5.37735631      12.54716496      -0.00000000      -0.49999999       0.50000000
Zr       1.79245218       1.79245213      -1.79245210      -0.00000000      -0.49999999       0.50000000
Zr       0.00000001       3.58490427       0.00000003      -0.00000000      -0.49999999       0.50000000
Zr      -1.79245216       5.37735642       1.79245216       0.00000000       0.99999999      -1.00000000
Zr       3.58490438       0.00000001       0.00000004      -0.00000000      -0.99999999       1.00000000
Zr       1.79245221       1.79245215       1.79245217       0.00000000       0.49999999      -0.50000000
Zr       0.00000005       3.58490430       3.58490430       0.00000000       0.49999999      -0.50000000
Zr       5.37735658      -1.79245211       1.79245218      -0.00000000      -0.49999999       0.50000000
Zr       3.58490442       0.00000004       3.58490431       0.00000000       0.99999999      -1.00000000
Zr       1.79245225       1.79245218       5.37735644      -0.00000000      -0.49999999       0.50000000
Zr       7.16980879      -3.58490423       3.58490432       0.00000000       0.49999999      -0.50000000
Zr       5.37735662      -1.79245208       5.37735645       0.00000000       0.49999999      -0.50000000
Zr       3.58490445       0.00000006       7.16980858      -0.00000000      -0.99999999       1.00000000
Zr       8.96226099      -5.37735635       5.37735646       0.00000000       0.99999999      -1.00000000
Zr       7.16980882      -3.58490420       7.16980859      -0.00000000      -0.49999999       0.50000000
Zr       5.37735665      -1.79245206       8.96226072      -0.00000000      -0.49999999       0.50000000
Zr      10.75471319      -7.16980847       7.16980860       0.00000000       0.49999999      -0.50000000
Zr       8.96226102      -5.37735632       8.96226073      -0.00000000      -0.99999999       1.00000000
Zr       7.16980886      -3.58490418      10.75471286       0.00000000       0.49999999      -0.50000000
Zr       3.58490435       3.58490426      -3.58490421      -0.00000000      -0.99999999       1.00000000
Zr       1.79245219       5.37735640      -1.79245208       0.00000000       0.49999999      -0.50000000
Zr       0.00000002       7.16980855       0.00000005       0.00000000       0.49999999      -0.50000000
Zr       5.37735656       1.79245214      -1.79245207      -0.00000000      -0.49999999       0.50000000
Zr       3.58490439       3.58490428       0.00000006       0.00000000       0.99999999      -1.00000000
Zr       1.79245222       5.37735643       1.79245219      -0.00000000      -0.49999999       0.50000000
Zr       7.16980876       0.00000002       0.00000007       0.00000000       0.49999999      -0.50000000
Zr       5.37735659       1.79245217       1.79245220       0.00000000       0.49999999      -0.50000000
Zr       3.58490443       3.58490431       3.58490433      -0.00000000      -0.99999999       1.00000000
Zr       8.96226096      -1.79245210       1.79245221       0.00000000       0.99999999      -1.00000000
Zr       7.16980880       0.00000005       3.58490434      -0.00000000      -0.49999999       0.50000000
Zr       5.37735663       1.79245219       5.37735647      -0.00000000      -0.49999999       0.50000000
Zr      10.75471317      -3.58490422       3.58490435       0.00000000       0.49999999      -0.50000000
Zr       8.96226100      -1.79245207       5.37735648      -0.00000000      -0.99999999       1.00000000
Zr       7.16980883       0.00000007       7.16980861       0.00000000       0.49999999      -0.50000000
Zr      12.54716537      -5.37735634       5.37735649      -0.00000000      -0.49999999       0.50000000
Zr      10.75471320      -3.58490419       7.16980862      -0.00000000      -0.49999999       0.50000000
Zr       8.96226104      -1.79245205       8.96226075       0.00000000       0.99999999      -1.00000000
Zr       5.37735653       5.37735639      -5.37735631      -0.00000000      -0.49999999       0.50000000
Zr       3.58490437       7.16980853      -3.58490418       0.00000000       0.99999999      -1.00000000
Zr       1.79245220       8.96226068      -1.79245205      -0.00000000      -0.49999999       0.50000000
Zr       7.16980873       3.58490427      -3.58490417       0.00000000       0.49999999      -0.50000000
Zr       5.37735657       5.37735641      -1.79245204       0.00000000       0.49999999      -0.50000000
Zr       3.58490440       7.16980856       0.00000009      -0.00000000      -0.99999999       1.00000000
Zr       8.96226094       1.79245215      -1.79245203       0.00000000       0.99999999      -1.00000000
Zr       7.16980877       3.58490429       0.00000010      -0.00000000      -0.49999999       0.50000000
Zr       5.37735660       5.37735644       1.79245223      -0.00000000      -0.49999999       0.50000000
Zr      10.75471314       0.00000003       0.00000011       0.00000000       0.49999999      -0.50000000
Zr       8.96226097       1.79245218       1.79245224      -0.00000000      -0.99999999       1.00000000
Zr       7.16980881       3.58490432       3.58490437       0.00000000       0.49999999      -0.50000000
Zr      12.54716534      -1.79245209       1.79245225      -0.00000000      -0.49999999       0.50000000
Zr      10.75471318       0.00000006       3.58490438      -0.00000000      -0.49999999       0.50000000
Zr       8.96226101       1.79245220       5.37735651       0.00000000       0.99999999      -1.00000000
Zr      14.33961755      -3.58490421       3.58490439      -0.00000000      -0.99999999       1.00000000
Zr      12.54716538      -1.79245206       5.37735652       0.00000000       0.49999999      -0.50000000
Zr      10.75471321       0.00000008       7.16980865       0.00000000       0.49999999      -0.50000000
Zr       7.16980871       7.16980852      -7.16980842       0.00000000       0.49999999      -0.50000000
Zr       5.37735654       8.96226066      -5.37735629       0.00000000       0.49999999      -0.50000000
Zr       3.58490438      10.75471281      -3.58490416      -0.00000000      -0.99999999       1.00000000
Zr       8.96226091       5.37735640      -5.37735628       0.00000000       0.99999999      -1.00000000
Zr       7.16980875       7.16980854      -3.58490415      -0.00000000      -0.49999999       0.50000000
Zr       5.37735658       8.96226069      -1.79245202      -0.00000000      -0.49999999       0.50000000
Zr      10.75471312       3.58490428      -3.58490414       0.00000000       0.49999999      -0.50000000
Zr       8.96226095       5.37735642      -1.79245201      -0.00000000      -0.99999999       1.00000000
Zr       7.16980878       7.16980857       0.00000012       0.00000000       0.49999999      -0.50000000
Zr      12.54716532       1.79245216      -1.79245200      -0.00000000      -0.49999999       0.50000000
Zr      10.75471315       3.58490430       0.00000013      -0.00000000      -0.49999999       0.50000000
Zr       8.96226098       5.37735645       1.79245226       0.00000000       0.99999999      -1.00000000
Zr      14.33961752       0.00000004       0.00000014      -0.00000000      -0.99999999       1.00000000
Zr      12.54716535       1.79245219       1.79245227       0.00000000       0.49999999      -0.50000000
Zr      10.75471319       3.58490433       3.58490440       0.00000000       0.49999999      -0.50000000
Zr      16.13206972      -1.79245208       1.79245228      -0.00000000      -0.49999999       0.50000000
Zr      14.33961756       0.00000007       3.58490441       0.00000000       0.99999999      -1.00000000
Zr      12.54716539       1.79245221       5.37735654      -0.00000000      -0.49999999       0.50000000
Zr       8.96226089       8.96226065      -8.96226052       0.00000000       0.99999999      -1.00000000
Zr       7.16980872      10.75471279      -7.16980839      -0.00000000      -0.49999999       0.50000000
Zr       5.37735655      12.54716494      -5.37735626      -0.00000000      -0.49999999       0.50000000
Zr      10.75471309       7.16980853      -7.16980838       0.00000000       0.49999999      -0.50000000
Zr       8.96226092       8.96226067      -5.37735625      -0.00000000      -0.99999999       1.00000000
Zr       7.16980876      10.75471282      -3.58490412       0.00000000       0.49999999      -0.50000000
Zr      12.54716529       5.37735641      -5.37735624      -0.00000000      -0.49999999       0.50000000
Zr      10.75471313       7.16980855      -3.58490411      -0.00000000      -0.49999999       0.50000000
Zr       8.96226096       8.96226070      -1.79245198       0.00000000       0.99999999      -1.00000000
Zr      14.33961750       3.58490429      -3.58490410      -0.00000000      -0.99999999       1.00000000
Zr      12.54716533       5.37735643      -1.79245197       0.00000000       0.49999999      -0.50000000
Zr      10.75471316       7.16980858       0.00000016       0.00000000       0.49999999      -0.50000000
Zr      16.13206970       1.79245217      -1.79245196      -0.00000000      -0.49999999       0.50000000
Zr      14.33961753       3.58490432       0.00000017       0.00000000       0.99999999      -1.00000000
Zr      12.54716536       5.37735646       1.79245230      -0.00000000      -0.49999999       0.50000000
Zr      17.92452190       0.00000005       0.00000018       0.00000000       0.49999999      -0.50000000
Zr      16.13206973       1.79245220       1.79245231       0.00000000       0.49999999      -0.50000000
Zr      14.33961757       3.58490434       3.58490444      -0.00000000      -0.99999999       1.00000000
108
Lattice="-5.377356501055379 5.377356433855448 5.377356389513249 10.75471321732783 -10.754712714258055 10.75471284079072 10.754713064099535 10.754712776246816 -10.754712625573656" Properties=species:S:1:pos:R:3:mode_u:R:3 system=zr_bcc path_model=mattersim pattern_model=mattersim mlip_model=mattersim role=mode stem=zr_bcc_mattersim_q2d3-5d6-5d6-b0 q="0.6666666666666666 0.8333333333333334 0.8333333333333334" band=0 dim="3 6 6" m_eff=9852.19187197906 check_pass=True Q=0.005555555555555556 index=1 mlip_energy_eV=-914.781982421875 pbc="T T T"
Zr       0.00000000       0.00277778      -0.00277778       0.00000000       0.49999999      -0.50000000
Zr      -1.79245217       1.78689659       1.79800769      -0.00000000      -0.99999999       1.00000000
Zr      -3.58490433       3.58768207       3.58212648       0.00000000       0.49999999      -0.50000000
Zr       1.79245220      -1.79522990       1.79522992      -0.00000000      -0.49999999       0.50000000
Zr       0.00000004      -0.00277775       3.58768205      -0.00000000      -0.49999999       0.50000000
Zr      -1.79245213       1.79800773       5.37180084       0.00000000       0.99999999      -1.00000000
Zr       3.58490441      -3.59045979       3.59045984      -0.00000000      -0.99999999       1.00000000
Zr       1.79245224      -1.78967432       5.37457863       0.00000000       0.49999999      -0.50000000
Zr       0.00000007       0.00277783       7.16703076       0.00000000       0.49999999      -0.50000000
Zr       5.37735661      -5.38013413       5.38013420      -0.00000000      -0.49999999       0.50000000
Zr       3.58490444      -3.57934866       7.16425299       0.00000000       0.99999999      -1.00000000
Zr       1.79245227      -1.79522985       8.96503846      -0.00000000      -0.49999999       0.50000000
Zr       7.16980881      -7.16703070       7.16703078       0.00000000       0.49999999      -0.50000000
Zr       5.37735664      -5.37457855       8.95948291       0.00000000       0.49999999      -0.50000000
Zr       3.58490448      -3.59045974      10.76026838      -0.00000000      -0.99999999       1.00000000
Zr       8.96226101      -8.95670504       8.95670515       0.00000000       0.99999999      -1.00000000
Zr       7.16980885      -7.17258623      10.75749061      -0.00000000      -0.49999999       0.50000000
Zr       5.37735668      -5.38013408      12.54994274      -0.00000000      -0.49999999       0.50000000
Zr       1.79245218       1.78967435      -1.78967433      -0.00000000      -0.49999999       0.50000000
Zr       0.00000001       3.58212650       0.00277780      -0.00000000      -0.49999999       0.50000000
Zr      -1.79245216       5.38291197       1.78689660       0.00000000       0.99999999      -1.00000000
Zr       3.58490438      -0.00555555       0.00555559      -0.00000000      -0.99999999       1.00000000
Zr       1.79245221       1.79522993       1.78967439       0.00000000       0.49999999      -0.50000000
Zr       0.00000005       3.58768208       3.58212652       0.00000000       0.49999999      -0.50000000
Zr       5.37735658      -1.79522989       1.79522995      -0.00000000      -0.49999999       0.50000000
Zr       3.58490442       0.00555559       3.57934875       0.00000000       0.99999999      -1.00000000
Zr       1.79245225       1.78967440       5.38013421      -0.00000000      -0.49999999       0.50000000
Zr       7.16980879      -3.58212645       3.58212654       0.00000000       0.49999999      -0.50000000
Zr       5.37735662      -1.78967431       5.37457867       0.00000000       0.49999999      -0.50000000
Zr       3.58490445      -0.00555549       7.17536413      -0.00000000      -0.99999999       1.00000000
Zr       8.96226099      -5.37180079       5.37180090       0.00000000       0.99999999      -1.00000000
Zr       7.16980882      -3.58768198       7.17258636      -0.00000000      -0.49999999       0.50000000
Zr       5.37735665      -1.79522984       8.96503849      -0.00000000      -0.49999999       0.50000000
Zr      10.75471319      -7.16703069       7.16703082       0.00000000       0.49999999      -0.50000000
Zr       8.96226102      -5.38291188       8.96781628      -0.00000000      -0.99999999       1.00000000
Zr       7.16980886      -3.58212640      10.75193508       0.00000000       0.49999999      -0.50000000
Zr       3.58490435       3.57934870      -3.57934865      -0.00000000      -0.99999999       1.00000000
Zr       1.79245219       5.38013418      -1.79522986       0.00000000       0.49999999      -0.50000000
Zr       0.00000002       7.17258633      -0.00277773       0.00000000       0.49999999      -0.50000000
Zr       5.37735656       1.78967436      -1.78967429      -0.00000000      -0.49999999       0.50000000
Zr       3.58490439       3.59045984      -0.00555549       0.00000000       0.99999999      -1.00000000
Zr       1.79245222       5.37457865       1.79522997      -0.00000000      -0.49999999       0.50000000
Zr       7.16980876       0.00277780      -0.00277771       0.00000000       0.49999999      -0.50000000
Zr       5.37735659       1.79522994       1.78967442       0.00000000       0.49999999      -0.50000000
Zr       3.58490443       3.57934875       3.59045989      -0.00000000      -0.99999999       1.00000000
Zr       8.96226096      -1.78689654       1.78689666       0.00000000       0.99999999      -1.00000000
Zr       7.16980880      -0.00277773       3.58768212      -0.00000000      -0.49999999       0.50000000
Zr       5.37735663       1.78967441       5.38013425      -0.00000000      -0.49999999       0.50000000
Zr      10.75471317      -3.58212644       3.58212657       0.00000000       0.49999999      -0.50000000
Zr       8.96226100      -1.79800763       5.38291204      -0.00000000      -0.99999999       1.00000000
Zr       7.16980883       0.00277785       7.16703083       0.00000000       0.49999999      -0.50000000
Zr      12.54716537      -5.38013411       5.38013427      -0.00000000      -0.49999999       0.50000000
Zr      10.75471320      -3.58768197       7.17258640      -0.00000000      -0.49999999       0.50000000
Zr       8.96226104      -1.78689649       8.95670520       0.00000000       0.99999999      -1.00000000
Zr       5.37735653       5.37457861      -5.37457854      -0.00000000      -0.49999999       0.50000000
Zr       3.58490437       7.17536409      -3.59045974       0.00000000       0.99999999      -1.00000000
Zr       1.79245220       8.95948290      -1.78967428      -0.00000000      -0.49999999       0.50000000
Zr       7.16980873       3.58768205      -3.58768195       0.00000000       0.49999999      -0.50000000
Zr       5.37735657       5.38013419      -1.79522982       0.00000000       0.49999999      -0.50000000
Zr       3.58490440       7.16425300       0.00555564      -0.00000000      -0.99999999       1.00000000
Zr       8.96226094       1.79800771      -1.79800759       0.00000000       0.99999999      -1.00000000
Zr       7.16980877       3.58212652       0.00277788      -0.00000000      -0.49999999       0.50000000
Zr       5.37735660       5.37457866       1.79523000      -0.00000000      -0.49999999       0.50000000
Zr      10.75471314       0.00277781      -0.00277767       0.00000000       0.49999999      -0.50000000
Zr       8.96226097       1.78689662       1.79800779      -0.00000000      -0.99999999       1.00000000
Zr       7.16980881       3.58768210       3.58212659       0.00000000       0.49999999      -0.50000000
Zr      12.54716534      -1.79522987       1.79523003      -0.00000000      -0.49999999       0.50000000
Zr      10.75471318      -0.00277772       3.58768216      -0.00000000      -0.49999999       0.50000000
Zr       8.96226101       1.79800776       5.37180095       0.00000000       0.99999999      -1.00000000
Zr      14.33961755      -3.59045976       3.59045994      -0.00000000      -0.99999999       1.00000000
Zr      12.54716538      -1.78967428       5.37457874       0.00000000       0.49999999      -0.50000000
Zr      10.75471321       0.00277786       7.16703087       0.00000000       0.49999999      -0.50000000
Zr       7.16980871       7.17258630      -7.17258619       0.00000000       0.49999999      -0.50000000
Zr       5.37735654       8.96503844      -5.38013406       0.00000000       0.49999999      -0.50000000
Zr       3.58490438      10.74915725      -3.57934860      -0.00000000      -0.99999999       1.00000000
Zr       8.96226091       5.38291195      -5.38291183       0.00000000       0.99999999      -1.00000000
Zr       7.16980875       7.16703077      -3.58212637      -0.00000000      -0.49999999       0.50000000
Zr       5.37735658       8.95948291      -1.78967424      -0.00000000      -0.49999999       0.50000000
Zr      10.75471312       3.58768206      -3.58768191       0.00000000       0.49999999      -0.50000000
Zr       8.96226095       5.37180087      -1.78689645      -0.00000000      -0.99999999       1.00000000
Zr       7.16980878       7.17258635      -0.00277765       0.00000000       0.49999999      -0.50000000
Zr      12.54716532       1.78967438      -1.78967422      -0.00000000      -0.49999999       0.50000000
Zr      10.75471315       3.58212653       0.00277791      -0.00000000      -0.49999999       0.50000000
Zr       8.96226098       5.38291201       1.78689671       0.00000000       0.99999999      -1.00000000
Zr      14.33961752      -0.00555551       0.00555570      -0.00000000      -0.99999999       1.00000000
Zr      12.54716535       1.79522996       1.78967450       0.00000000       0.49999999      -0.50000000
Zr      10.75471319       3.58768211       3.58212663       0.00000000       0.49999999      -0.50000000
Zr      16.13206972      -1.79522986       1.79523006      -0.00000000      -0.49999999       0.50000000
Zr      14.33961756       0.00555562       3.57934886       0.00000000       0.99999999      -1.00000000
Zr      12.54716539       1.78967443       5.38013432      -0.00000000      -0.49999999       0.50000000
Zr       8.96226089       8.96781620      -8.96781608       0.00000000       0.99999999      -1.00000000
Zr       7.16980872      10.75193501      -7.16703061      -0.00000000      -0.49999999       0.50000000
Zr       5.37735655      12.54438716      -5.37457848      -0.00000000      -0.49999999       0.50000000
Zr      10.75471309       7.17258631      -7.17258616       0.00000000       0.49999999      -0.50000000
Zr       8.96226092       8.95670512      -5.37180070      -0.00000000      -0.99999999       1.00000000
Zr       7.16980876      10.75749059      -3.58768190       0.00000000       0.49999999      -0.50000000
Zr      12.54716529       5.37457863      -5.37457846      -0.00000000      -0.49999999       0.50000000
Zr      10.75471313       7.16703078      -3.58212633      -0.00000000      -0.49999999       0.50000000
Zr       8.96226096       8.96781625      -1.79800754       0.00000000       0.99999999      -1.00000000
Zr      14.33961750       3.57934873      -3.57934855      -0.00000000      -0.99999999       1.00000000
Zr      12.54716533       5.38013421      -1.79522975       0.00000000       0.49999999      -0.50000000
Zr      10.75471316       7.17258636      -0.00277762       0.00000000       0.49999999      -0.50000000
Zr      16.13206970       1.78967439      -1.78967418      -0.00000000      -0.49999999       0.50000000
Zr      14.33961753       3.59045987      -0.00555539       0.00000000       0.99999999      -1.00000000
Zr      12.54716536       5.37457868       1.79523008      -0.00000000      -0.49999999       0.50000000
Zr      17.92452190       0.00277783      -0.00277760       0.00000000       0.49999999      -0.50000000
Zr      16.13206973       1.79522997       1.78967453       0.00000000       0.49999999      -0.50000000
Zr      14.33961757       3.57934879       3.59045999      -0.00000000      -0.99999999       1.00000000
108
Lattice="-5.377356501055379 5.377356433855448 5.377356389513249 10.75471321732783 -10.754712714258055 10.75471284079072 10.754713064099535 10.754712776246816 -10.754712625573656" Properties=species:S:1:pos:R:3:mode_u:R:3 system=zr_bcc path_model=mattersim pattern_model=mattersim mlip_model=mattersim role=mode stem=zr_bcc_mattersim_q2d3-5d6-5d6-b0 q="0.6666666666666666 0.8333333333333334 0.8333333333333334" band=0 dim="3 6 6" m_eff=9852.19187197906 check_pass=True Q=0.022222222222222223 index=2 mlip_energy_eV=-914.81103515625 pbc="T T T"
Zr       0.00000000       0.01111111      -0.01111111       0.00000000       0.49999999      -0.50000000
Zr      -1.79245217       1.77022992       1.81467435      -0.00000000      -0.99999999       1.00000000
Zr      -3.58490433       3.59601540       3.57379315       0.00000000       0.49999999      -0.50000000
Zr       1.79245220      -1.80356323       1.80356325      -0.00000000      -0.49999999       0.50000000
Zr       0.00000004      -0.01111109       3.59601538      -0.00000000      -0.49999999       0.50000000
Zr      -1.79245213       1.81467439       5.35513418       0.00000000       0.99999999      -1.00000000
Zr       3.58490441      -3.60712646       3.60712650      -0.00000000      -0.99999999       1.00000000
Zr       1.79245224      -1.78134098       5.36624530       0.00000000       0.49999999      -0.50000000
Zr       0.00000007       0.01111116       7.15869743       0.00000000       0.49999999      -0.50000000
Zr       5.37735661      -5.38846747       5.38846753      -0.00000000      -0.49999999       0.50000000
Zr       3.58490444      -3.56268199       7.14758633       0.00000000       0.99999999      -1.00000000
Zr       1.79245227      -1.80356318       8.97337179      -0.00000000      -0.49999999       0.50000000
Zr       7.16980881      -7.15869737       7.15869745       0.00000000       0.49999999      -0.50000000
Zr       5.37735664      -5.36624522       8.95114958       0.00000000       0.49999999      -0.50000000
Zr       3.58490448      -3.60712641      10.77693504      -0.00000000      -0.99999999       1.00000000
Zr       8.96226101      -8.94003837       8.94003848       0.00000000       0.99999999      -1.00000000
Zr       7.16980885      -7.18091956      10.76582394      -0.00000000      -0.49999999       0.50000000
Zr       5.37735668      -5.38846742      12.55827607      -0.00000000      -0.49999999       0.50000000
Zr       1.79245218       1.78134102      -1.78134099      -0.00000000      -0.49999999       0.50000000
Zr       0.00000001       3.57379316       0.01111114      -0.00000000      -0.49999999       0.50000000
Zr      -1.79245216       5.39957864       1.77022993       0.00000000       0.99999999      -1.00000000
Zr       3.58490438      -0.02222221       0.02222226      -0.00000000      -0.99999999       1.00000000
Zr       1.79245221       1.80356327       1.78134105       0.00000000       0.49999999      -0.50000000
Zr       0.00000005       3.59601541       3.57379318       0.00000000       0.49999999      -0.50000000
Zr       5.37735658      -1.80356322       1.80356329      -0.00000000      -0.49999999       0.50000000
Zr       3.58490442       0.02222226       3.56268208       0.00000000       0.99999999      -1.00000000
Zr       1.79245225       1.78134107       5.38846755      -0.00000000      -0.49999999       0.50000000
Zr       7.16980879      -3.57379312       3.57379321       0.00000000       0.49999999      -0.50000000
Zr       5.37735662      -1.78134097       5.36624533       0.00000000       0.49999999      -0.50000000
Zr       3.58490445      -0.02222216       7.19203080      -0.00000000      -0.99999999       1.00000000
Zr       8.96226099      -5.35513412       5.35513423       0.00000000       0.99999999      -1.00000000
Zr       7.16980882      -3.59601531       7.18091970      -0.00000000      -0.49999999       0.50000000
Zr       5.37735665      -1.80356317       8.97337183      -0.00000000      -0.49999999       0.50000000
Zr      10.75471319      -7.15869735       7.15869749       0.00000000       0.49999999      -0.50000000
Zr       8.96226102      -5.39957854       8.98448295      -0.00000000      -0.99999999       1.00000000
Zr       7.16980886      -3.57379307      10.74360174       0.00000000       0.49999999      -0.50000000
Zr       3.58490435       3.56268204      -3.56268199      -0.00000000      -0.99999999       1.00000000
Zr       1.79245219       5.38846751      -1.80356319       0.00000000       0.49999999      -0.50000000
Zr       0.00000002       7.18091966      -0.01111106       0.00000000       0.49999999      -0.50000000
Zr       5.37735656       1.78134103      -1.78134096      -0.00000000      -0.49999999       0.50000000
Zr       3.58490439       3.60712651      -0.02222216       0.00000000       0.99999999      -1.00000000
Zr       1.79245222       5.36624532       1.80356330      -0.00000000      -0.49999999       0.50000000
Zr       7.16980876       0.01111113      -0.01111104       0.00000000       0.49999999      -0.50000000
Zr       5.37735659       1.80356328       1.78134109       0.00000000       0.49999999      -0.50000000
Zr       3.58490443       3.56268209       3.60712655      -0.00000000      -0.99999999       1.00000000
Zr       8.96226096      -1.77022988       1.77022999       0.00000000       0.99999999      -1.00000000
Zr       7.16980880      -0.01111106       3.59601545      -0.00000000      -0.49999999       0.50000000
Zr       5.37735663       1.78134108       5.38846758      -0.00000000      -0.49999999       0.50000000
Zr      10.75471317      -3.57379311       3.57379324       0.00000000       0.49999999      -0.50000000
Zr       8.96226100      -1.81467429       5.39957870      -0.00000000      -0.99999999       1.00000000
Zr       7.16980883       0.01111118       7.15869750       0.00000000       0.49999999      -0.50000000
Zr      12.54716537      -5.38846745       5.38846760      -0.00000000      -0.49999999       0.50000000
Zr      10.75471320      -3.59601530       7.18091973      -0.00000000      -0.49999999       0.50000000
Zr       8.96226104      -1.77022983       8.94003853       0.00000000       0.99999999      -1.00000000
Zr       5.37735653       5.36624528      -5.36624520      -0.00000000      -0.49999999       0.50000000
Zr       3.58490437       7.19203075      -3.60712641       0.00000000       0.99999999      -1.00000000
Zr       1.79245220       8.95114957      -1.78134094      -0.00000000      -0.49999999       0.50000000
Zr       7.16980873       3.59601538      -3.59601528       0.00000000       0.49999999      -0.50000000
Zr       5.37735657       5.38846752      -1.80356315       0.00000000       0.49999999      -0.50000000
Zr       3.58490440       7.14758634       0.02222231      -0.00000000      -0.99999999       1.00000000
Zr       8.96226094       1.81467437      -1.81467425       0.00000000       0.99999999      -1.00000000
Zr       7.16980877       3.57379318       0.01111121      -0.00000000      -0.49999999       0.50000000
Zr       5.37735660       5.36624533       1.80356334      -0.00000000      -0.49999999       0.50000000
Zr      10.75471314       0.01111114      -0.01111100       0.00000000       0.49999999      -0.50000000
Zr       8.96226097       1.77022995       1.81467446      -0.00000000      -0.99999999       1.00000000
Zr       7.16980881       3.59601543       3.57379326       0.00000000       0.49999999      -0.50000000
Zr      12.54716534      -1.80356320       1.80356336      -0.00000000      -0.49999999       0.50000000
Zr      10.75471318      -0.01111105       3.59601549      -0.00000000      -0.49999999       0.50000000
Zr       8.96226101       1.81467442       5.35513429       0.00000000       0.99999999      -1.00000000
Zr      14.33961755      -3.60712643       3.60712661      -0.00000000      -0.99999999       1.00000000
Zr      12.54716538      -1.78134095       5.36624541       0.00000000       0.49999999      -0.50000000
Zr      10.75471321       0.01111119       7.15869754       0.00000000       0.49999999      -0.50000000
Zr       7.16980871       7.18091963      -7.18091953       0.00000000       0.49999999      -0.50000000
Zr       5.37735654       8.97337177      -5.38846740       0.00000000       0.49999999      -0.50000000
Zr       3.58490438      10.73249058      -3.56268194      -0.00000000      -0.99999999       1.00000000
Zr       8.96226091       5.39957862      -5.39957850       0.00000000       0.99999999      -1.00000000
Zr       7.16980875       7.15869743      -3.57379304      -0.00000000      -0.49999999       0.50000000
Zr       5.37735658       8.95114958      -1.78134091      -0.00000000      -0.49999999       0.50000000
Zr      10.75471312       3.59601539      -3.59601525       0.00000000       0.49999999      -0.50000000
Zr       8.96226095       5.35513420      -1.77022978      -0.00000000      -0.99999999       1.00000000
Zr       7.16980878       7.18091968      -0.01111099       0.00000000       0.49999999      -0.50000000
Zr      12.54716532       1.78134105      -1.78134089      -0.00000000      -0.49999999       0.50000000
Zr      10.75471315       3.57379319       0.01111124      -0.00000000      -0.49999999       0.50000000
Zr       8.96226098       5.39957867       1.77023004       0.00000000       0.99999999      -1.00000000
Zr      14.33961752      -0.02222218       0.02222237      -0.00000000      -0.99999999       1.00000000
Zr      12.54716535       1.80356330       1.78134116       0.00000000       0.49999999      -0.50000000
Zr      10.75471319       3.59601544       3.57379329       0.00000000       0.49999999      -0.50000000
Zr      16.13206972      -1.80356319       1.80356339      -0.00000000      -0.49999999       0.50000000
Zr      14.33961756       0.02222229       3.56268219       0.00000000       0.99999999      -1.00000000
Zr      12.54716539       1.78134110       5.38846765      -0.00000000      -0.49999999       0.50000000
Zr       8.96226089       8.98448287      -8.98448274       0.00000000       0.99999999      -1.00000000
Zr       7.16980872      10.74360168      -7.15869728      -0.00000000      -0.49999999       0.50000000
Zr       5.37735655      12.53605383      -5.36624515      -0.00000000      -0.49999999       0.50000000
Zr      10.75471309       7.18091964      -7.18091949       0.00000000       0.49999999      -0.50000000
Zr       8.96226092       8.94003845      -5.35513403      -0.00000000      -0.99999999       1.00000000
Zr       7.16980876      10.76582393      -3.59601523       0.00000000       0.49999999      -0.50000000
Zr      12.54716529       5.36624530      -5.36624513      -0.00000000      -0.49999999       0.50000000
Zr      10.75471313       7.15869744      -3.57379300      -0.00000000      -0.49999999       0.50000000
Zr       8.96226096       8.98448292      -1.81467420       0.00000000       0.99999999      -1.00000000
Zr      14.33961750       3.56268207      -3.56268188      -0.00000000      -0.99999999       1.00000000
Zr      12.54716533       5.38846755      -1.80356308       0.00000000       0.49999999      -0.50000000
Zr      10.75471316       7.18091969      -0.01111095       0.00000000       0.49999999      -0.50000000
Zr      16.13206970       1.78134106      -1.78134085      -0.00000000      -0.49999999       0.50000000
Zr      14.33961753       3.60712654      -0.02222205       0.00000000       0.99999999      -1.00000000
Zr      12.54716536       5.36624535       1.80356341      -0.00000000      -0.49999999       0.50000000
Zr      17.92452190       0.01111116      -0.01111093       0.00000000       0.49999999      -0.50000000
Zr      16.13206973       1.80356331       1.78134120       0.00000000       0.49999999      -0.50000000
Zr      14.33961757       3.56268212       3.60712666      -0.00000000      -0.99999999       1.00000000
108
Lattice="-5.377356501055379 5.377356433855448 5.377356389513249 10.75471321732783 -10.754712714258055 10.75471284079072 10.754713064099535 10.754712776246816 -10.754712625573656" Properties=species:S:1:pos:R:3:mode_u:R:3 system=zr_bcc path_model=mattersim pattern_model=mattersim mlip_model=mattersim role=mode stem=zr_bcc_mattersim_q2d3-5d6-5d6-b0 q="0.6666666666666666 0.8333333333333334 0.8333333333333334" band=0 dim="3 6 6" m_eff=9852.19187197906 check_pass=True Q=0.049999999999999996 index=3 mlip_energy_eV=-914.9248046875 pbc="T T T"
Zr       0.00000000       0.02500000      -0.02500000       0.00000000       0.49999999      -0.50000000
Zr      -1.79245217       1.74245215       1.84245213      -0.00000000      -0.99999999       1.00000000
Zr      -3.58490433       3.60990429       3.55990426       0.00000000       0.49999999      -0.50000000
Zr       1.79245220      -1.81745212       1.81745214      -0.00000000      -0.49999999       0.50000000
Zr       0.00000004      -0.02499997       3.60990427      -0.00000000      -0.49999999       0.50000000
Zr      -1.79245213       1.84245217       5.32735640       0.00000000       0.99999999      -1.00000000
Zr       3.58490441      -3.63490424       3.63490428      -0.00000000      -0.99999999       1.00000000
Zr       1.79245224      -1.76745209       5.35235641       0.00000000       0.49999999      -0.50000000
Zr       0.00000007       0.02500005       7.14480854       0.00000000       0.49999999      -0.50000000
Zr       5.37735661      -5.40235636       5.40235642      -0.00000000      -0.49999999       0.50000000
Zr       3.58490444      -3.53490421       7.11980855       0.00000000       0.99999999      -1.00000000
Zr       1.79245227      -1.81745207       8.98726068      -0.00000000      -0.49999999       0.50000000
Zr       7.16980881      -7.14480848       7.14480856       0.00000000       0.49999999      -0.50000000
Zr       5.37735664      -5.35235633       8.93726069       0.00000000       0.49999999      -0.50000000
Zr       3.58490448      -3.63490419      10.80471282      -0.00000000      -0.99999999       1.00000000
Zr       8.96226101      -8.91226060       8.91226070       0.00000000       0.99999999      -1.00000000
Zr       7.16980885      -7.19480845      10.77971283      -0.00000000      -0.49999999       0.50000000
Zr       5.37735668      -5.40235631      12.57216496      -0.00000000      -0.49999999       0.50000000
Zr       1.79245218       1.76745213      -1.76745210      -0.00000000      -0.49999999       0.50000000
Zr       0.00000001       3.55990427       0.02500003      -0.00000000      -0.49999999       0.50000000
Zr      -1.79245216       5.42735642       1.74245216       0.00000000       0.99999999      -1.00000000
Zr       3.58490438      -0.04999999       0.05000004      -0.00000000      -0.99999999       1.00000000
Zr       1.79245221       1.81745215       1.76745217       0.00000000       0.49999999      -0.50000000
Zr       0.00000005       3.60990430       3.55990430       0.00000000       0.49999999      -0.50000000
Zr       5.37735658      -1.81745211       1.81745218      -0.00000000      -0.49999999       0.50000000
Zr       3.58490442       0.05000004       3.53490431       0.00000000       0.99999999      -1.00000000
Zr       1.79245225       1.76745218       5.40235644      -0.00000000      -0.49999999       0.50000000
Zr       7.16980879      -3.55990423       3.55990432       0.00000000       0.49999999      -0.50000000
Zr       5.37735662      -1.76745208       5.35235645       0.00000000       0.49999999      -0.50000000
Zr       3.58490445      -0.04999994       7.21980858      -0.00000000      -0.99999999       1.00000000
Zr       8.96226099      -5.32735635       5.32735646       0.00000000       0.99999999      -1.00000000
Zr       7.16980882      -3.60990420       7.19480859      -0.00000000      -0.49999999       0.50000000
Zr       5.37735665      -1.81745206       8.98726072      -0.00000000      -0.49999999       0.50000000
Zr      10.75471319      -7.14480847       7.14480860       0.00000000       0.49999999      -0.50000000
Zr       8.96226102      -5.42735632       9.01226073      -0.00000000      -0.99999999       1.00000000
Zr       7.16980886      -3.55990418      10.72971286       0.00000000       0.49999999      -0.50000000
Zr       3.58490435       3.53490426      -3.53490421      -0.00000000      -0.99999999       1.00000000
Zr       1.79245219       5.40235640      -1.81745208       0.00000000       0.49999999      -0.50000000
Zr       0.00000002       7.19480855      -0.02499995       0.00000000       0.49999999      -0.50000000
Zr       5.37735656       1.76745214      -1.76745207      -0.00000000      -0.49999999       0.50000000
Zr       3.58490439       3.63490428      -0.04999994       0.00000000       0.99999999      -1.00000000
Zr       1.79245222       5.35235643       1.81745219      -0.00000000      -0.49999999       0.50000000
Zr       7.16980876       0.02500002      -0.02499993       0.00000000       0.49999999      -0.50000000
Zr       5.37735659       1.81745216       1.76745220       0.00000000       0.49999999      -0.50000000
Zr       3.58490443       3.53490431       3.63490433      -0.00000000      -0.99999999       1.00000000
Zr       8.96226096      -1.74245210       1.74245221       0.00000000       0.99999999      -1.00000000
Zr       7.16980880      -0.02499995       3.60990434      -0.00000000      -0.49999999       0.50000000
Zr       5.37735663       1.76745219       5.40235647      -0.00000000      -0.49999999       0.50000000
Zr      10.75471317      -3.55990422       3.55990435       0.00000000       0.49999999      -0.50000000
Zr       8.96226100      -1.84245207       5.42735648      -0.00000000      -0.99999999       1.00000000
Zr       7.16980883       0.02500007       7.14480861       0.00000000       0.49999999      -0.50000000
Zr      12.54716537      -5.40235634       5.40235649      -0.00000000      -0.49999999       0.50000000
Zr      10.75471320      -3.60990419       7.19480862      -0.00000000      -0.49999999       0.50000000
Zr       8.96226104      -1.74245205       8.91226075       0.00000000       0.99999999      -1.00000000
Zr       5.37735653       5.35235639      -5.35235631      -0.00000000      -0.49999999       0.50000000
Zr       3.58490437       7.21980853      -3.63490418       0.00000000       0.99999999      -1.00000000
Zr       1.79245220       8.93726068      -1.76745205      -0.00000000      -0.49999999       0.50000000
Zr       7.16980873       3.60990427      -3.60990417       0.00000000       0.49999999      -0.50000000
Zr       5.37735657       5.40235641      -1.81745204       0.00000000       0.49999999      -0.50000000
Zr       3.58490440       7.11980856       0.05000009      -0.00000000      -0.99999999       1.00000000
Zr       8.96226094       1.84245215      -1.84245203       0.00000000       0.99999999      -1.00000000
Zr       7.16980877       3.55990429       0.02500010      -0.00000000      -0.49999999       0.50000000
Zr       5.37735660       5.35235644       1.81745223      -0.00000000      -0.49999999       0.50000000
Zr      10.75471314       0.02500003      -0.02499989       0.00000000       0.49999999      -0.50000000
Zr       8.96226097       1.74245218       1.84245224      -0.00000000      -0.99999999       1.00000000
Zr       7.16980881       3.60990432       3.55990437       0.00000000       0.49999999      -0.50000000
Zr      12.54716534      -1.81745209       1.81745225      -0.00000000      -0.49999999       0.50000000
Zr      10.75471318      -0.02499994       3.60990438      -0.00000000      -0.49999999       0.50000000
Zr       8.96226101       1.84245220       5.32735651       0.00000000       0.99999999      -1.00000000
Zr      14.33961755      -3.63490421       3.63490439      -0.00000000      -0.99999999       1.00000000
Zr      12.54716538      -1.76745206       5.35235652       0.00000000       0.49999999      -0.50000000
Zr      10.75471321       0.02500008       7.14480865       0.00000000       0.49999999      -0.50000000
Zr       7.16980871       7.19480852      -7.19480842       0.00000000       0.49999999      -0.50000000
Zr       5.37735654       8.98726066      -5.40235629       0.00000000       0.49999999      -0.50000000
Zr       3.58490438      10.70471281      -3.53490416      -0.00000000      -0.99999999       1.00000000
Zr       8.96226091       5.42735640      -5.42735628       0.00000000       0.99999999      -1.00000000
Zr       7.16980875       7.14480854      -3.55990415      -0.00000000      -0.49999999       0.50000000
Zr       5.37735658       8.93726069      -1.76745202      -0.00000000      -0.49999999       0.50000000
Zr      10.75471312       3.60990428      -3.60990414       0.00000000       0.49999999      -0.50000000
Zr       8.96226095       5.32735642      -1.74245201      -0.00000000      -0.99999999       1.00000000
Zr       7.16980878       7.19480857      -0.02499988       0.00000000       0.49999999      -0.50000000
Zr      12.54716532       1.76745216      -1.76745200      -0.00000000      -0.49999999       0.50000000
Zr      10.75471315       3.55990431       0.02500013      -0.00000000      -0.49999999       0.50000000
Zr       8.96226098       5.42735645       1.74245226       0.00000000       0.99999999      -1.00000000
Zr      14.33961752      -0.04999996       0.05000014      -0.00000000      -0.99999999       1.00000000
Zr      12.54716535       1.81745219       1.76745227       0.00000000       0.49999999      -0.50000000
Zr      10.75471319       3.60990433       3.55990440       0.00000000       0.49999999      -0.50000000
Zr      16.13206972      -1.81745208       1.81745228      -0.00000000      -0.49999999       0.50000000
Zr      14.33961756       0.05000007       3.53490441       0.00000000       0.99999999      -1.00000000
Zr      12.54716539       1.76745221       5.40235654      -0.00000000      -0.49999999       0.50000000
Zr       8.96226089       9.01226065      -9.01226052       0.00000000       0.99999999      -1.00000000
Zr       7.16980872      10.72971279      -7.14480839      -0.00000000      -0.49999999       0.50000000
Zr       5.37735655      12.52216494      -5.35235626      -0.00000000      -0.49999999       0.50000000
Zr      10.75471309       7.19480853      -7.19480838       0.00000000       0.49999999      -0.50000000
Zr       8.96226092       8.91226067      -5.32735625      -0.00000000      -0.99999999       1.00000000
Zr       7.16980876      10.77971282      -3.60990412       0.00000000       0.49999999      -0.50000000
Zr      12.54716529       5.35235641      -5.35235624      -0.00000000      -0.49999999       0.50000000
Zr      10.75471313       7.14480855      -3.55990411      -0.00000000      -0.49999999       0.50000000
Zr       8.96226096       9.01226070      -1.84245198       0.00000000       0.99999999      -1.00000000
Zr      14.33961750       3.53490429      -3.53490410      -0.00000000      -0.99999999       1.00000000
Zr      12.54716533       5.40235643      -1.81745197       0.00000000       0.49999999      -0.50000000
Zr      10.75471316       7.19480858      -0.02499984       0.00000000       0.49999999      -0.50000000
Zr      16.13206970       1.76745217      -1.76745196      -0.00000000      -0.49999999       0.50000000
Zr      14.33961753       3.63490431      -0.04999983       0.00000000       0.99999999      -1.00000000
Zr      12.54716536       5.35235646       1.81745230      -0.00000000      -0.49999999       0.50000000
Zr      17.92452190       0.02500005      -0.02499982       0.00000000       0.49999999      -0.50000000
Zr      16.13206973       1.81745220       1.76745231       0.00000000       0.49999999      -0.50000000
Zr      14.33961757       3.53490434       3.63490444      -0.00000000      -0.99999999       1.00000000
108
Lattice="-5.377356501055379 5.377356433855448 5.377356389513249 10.75471321732783 -10.754712714258055 10.75471284079072 10.754713064099535 10.754712776246816 -10.754712625573656" Properties=species:S:1:pos:R:3:mode_u:R:3 system=zr_bcc path_model=mattersim pattern_model=mattersim mlip_model=mattersim role=mode stem=zr_bcc_mattersim_q2d3-5d6-5d6-b0 q="0.6666666666666666 0.8333333333333334 0.8333333333333334" band=0 dim="3 6 6" m_eff=9852.19187197906 check_pass=True Q=0.08888888888888889 index=4 mlip_energy_eV=-915.1560668945312 pbc="T T T"
Zr       0.00000000       0.04444444      -0.04444444       0.00000000       0.49999999      -0.50000000
Zr      -1.79245217       1.70356326       1.88134102      -0.00000000      -0.99999999       1.00000000
Zr      -3.58490433       3.62934873       3.54045982       0.00000000       0.49999999      -0.50000000
Zr       1.79245220      -1.83689656       1.83689658      -0.00000000      -0.49999999       0.50000000
Zr       0.00000004      -0.04444442       3.62934871      -0.00000000      -0.49999999       0.50000000
Zr      -1.79245213       1.88134106       5.28846751       0.00000000       0.99999999      -1.00000000
Zr       3.58490441      -3.67379313       3.67379317      -0.00000000      -0.99999999       1.00000000
Zr       1.79245224      -1.74800765       5.33291197       0.00000000       0.49999999      -0.50000000
Zr       0.00000007       0.04444450       7.12536410       0.00000000       0.49999999      -0.50000000
Zr       5.37735661      -5.42180080       5.42180086      -0.00000000      -0.49999999       0.50000000
Zr       3.58490444      -3.49601532       7.08091966       0.00000000       0.99999999      -1.00000000
Zr       1.79245227      -1.83689651       9.00670512      -0.00000000      -0.49999999       0.50000000
Zr       7.16980881      -7.12536403       7.12536412       0.00000000       0.49999999      -0.50000000
Zr       5.37735664      -5.33291189       8.91781625       0.00000000       0.49999999      -0.50000000
Zr       3.58490448      -3.67379307      10.84360171      -0.00000000      -0.99999999       1.00000000
Zr       8.96226101      -8.87337171       8.87337181       0.00000000       0.99999999      -1.00000000
Zr       7.16980885      -7.21425289      10.79915727      -0.00000000      -0.49999999       0.50000000
Zr       5.37735668      -5.42180075      12.59160940      -0.00000000      -0.49999999       0.50000000
Zr       1.79245218       1.74800769      -1.74800766      -0.00000000      -0.49999999       0.50000000
Zr       0.00000001       3.54045983       0.04444447      -0.00000000      -0.49999999       0.50000000
Zr      -1.79245216       5.46624531       1.70356327       0.00000000       0.99999999      -1.00000000
Zr       3.58490438      -0.08888888       0.08888892      -0.00000000      -0.99999999       1.00000000
Zr       1.79245221       1.83689660       1.74800772       0.00000000       0.49999999      -0.50000000
Zr       0.00000005       3.62934874       3.54045985       0.00000000       0.49999999      -0.50000000
Zr       5.37735658      -1.83689655       1.83689662      -0.00000000      -0.49999999       0.50000000
Zr       3.58490442       0.08888892       3.49601542       0.00000000       0.99999999      -1.00000000
Zr       1.79245225       1.74800774       5.42180088      -0.00000000      -0.49999999       0.50000000
Zr       7.16980879      -3.54045978       3.54045987       0.00000000       0.49999999      -0.50000000
Zr       5.37735662      -1.74800764       5.33291200       0.00000000       0.49999999      -0.50000000
Zr       3.58490445      -0.08888883       7.25869746      -0.00000000      -0.99999999       1.00000000
Zr       8.96226099      -5.28846746       5.28846757       0.00000000       0.99999999      -1.00000000
Zr       7.16980882      -3.62934865       7.21425303      -0.00000000      -0.49999999       0.50000000
Zr       5.37735665      -1.83689650       9.00670516      -0.00000000      -0.49999999       0.50000000
Zr      10.75471319      -7.12536402       7.12536415       0.00000000       0.49999999      -0.50000000
Zr       8.96226102      -5.46624521       9.05114962      -0.00000000      -0.99999999       1.00000000
Zr       7.16980886      -3.54045973      10.71026841       0.00000000       0.49999999      -0.50000000
Zr       3.58490435       3.49601537      -3.49601532      -0.00000000      -0.99999999       1.00000000
Zr       1.79245219       5.42180085      -1.83689652       0.00000000       0.49999999      -0.50000000
Zr       0.00000002       7.21425299      -0.04444439       0.00000000       0.49999999      -0.50000000
Zr       5.37735656       1.74800770      -1.74800762      -0.00000000      -0.49999999       0.50000000
Zr       3.58490439       3.67379317      -0.08888883       0.00000000       0.99999999      -1.00000000
Zr       1.79245222       5.33291199       1.83689664      -0.00000000      -0.49999999       0.50000000
Zr       7.16980876       0.04444446      -0.04444437       0.00000000       0.49999999      -0.50000000
Zr       5.37735659       1.83689661       1.74800776       0.00000000       0.49999999      -0.50000000
Zr       3.58490443       3.49601542       3.67379322      -0.00000000      -0.99999999       1.00000000
Zr       8.96226096      -1.70356321       1.70356332       0.00000000       0.99999999      -1.00000000
Zr       7.16980880      -0.04444440       3.62934879      -0.00000000      -0.49999999       0.50000000
Zr       5.37735663       1.74800775       5.42180092      -0.00000000      -0.49999999       0.50000000
Zr      10.75471317      -3.54045977       3.54045991       0.00000000       0.49999999      -0.50000000
Zr       8.96226100      -1.88134096       5.46624537      -0.00000000      -0.99999999       1.00000000
Zr       7.16980883       0.04444452       7.12536417       0.00000000       0.49999999      -0.50000000
Zr      12.54716537      -5.42180078       5.42180094      -0.00000000      -0.49999999       0.50000000
Zr      10.75471320      -3.62934864       7.21425307      -0.00000000      -0.49999999       0.50000000
Zr       8.96226104      -1.70356316       8.87337186       0.00000000       0.99999999      -1.00000000
Zr       5.37735653       5.33291194      -5.33291187      -0.00000000      -0.49999999       0.50000000
Zr       3.58490437       7.25869742      -3.67379307       0.00000000       0.99999999      -1.00000000
Zr       1.79245220       8.91781623      -1.74800761      -0.00000000      -0.49999999       0.50000000
Zr       7.16980873       3.62934871      -3.62934862       0.00000000       0.49999999      -0.50000000
Zr       5.37735657       5.42180086      -1.83689649       0.00000000       0.49999999      -0.50000000
Zr       3.58490440       7.08091967       0.08888898      -0.00000000      -0.99999999       1.00000000
Zr       8.96226094       1.88134104      -1.88134092       0.00000000       0.99999999      -1.00000000
Zr       7.16980877       3.54045985       0.04444454      -0.00000000      -0.49999999       0.50000000
Zr       5.37735660       5.33291200       1.83689667      -0.00000000      -0.49999999       0.50000000
Zr      10.75471314       0.04444447      -0.04444434       0.00000000       0.49999999      -0.50000000
Zr       8.96226097       1.70356329       1.88134113      -0.00000000      -0.99999999       1.00000000
Zr       7.16980881       3.62934876       3.54045992       0.00000000       0.49999999      -0.50000000
Zr      12.54716534      -1.83689653       1.83689669      -0.00000000      -0.49999999       0.50000000
Zr      10.75471318      -0.04444439       3.62934882      -0.00000000      -0.49999999       0.50000000
Zr       8.96226101       1.88134109       5.28846762       0.00000000       0.99999999      -1.00000000
Zr      14.33961755      -3.67379309       3.67379328      -0.00000000      -0.99999999       1.00000000
Zr      12.54716538      -1.74800762       5.33291207       0.00000000       0.49999999      -0.50000000
Zr      10.75471321       0.04444453       7.12536420       0.00000000       0.49999999      -0.50000000
Zr       7.16980871       7.21425296      -7.21425286       0.00000000       0.49999999      -0.50000000
Zr       5.37735654       9.00670511      -5.42180073       0.00000000       0.49999999      -0.50000000
Zr       3.58490438      10.66582392      -3.49601527      -0.00000000      -0.99999999       1.00000000
Zr       8.96226091       5.46624529      -5.46624517       0.00000000       0.99999999      -1.00000000
Zr       7.16980875       7.12536410      -3.54045970      -0.00000000      -0.49999999       0.50000000
Zr       5.37735658       8.91781624      -1.74800757      -0.00000000      -0.49999999       0.50000000
Zr      10.75471312       3.62934872      -3.62934858       0.00000000       0.49999999      -0.50000000
Zr       8.96226095       5.28846754      -1.70356312      -0.00000000      -0.99999999       1.00000000
Zr       7.16980878       7.21425301      -0.04444432       0.00000000       0.49999999      -0.50000000
Zr      12.54716532       1.74800772      -1.74800755      -0.00000000      -0.49999999       0.50000000
Zr      10.75471315       3.54045986       0.04444458      -0.00000000      -0.49999999       0.50000000
Zr       8.96226098       5.46624534       1.70356337       0.00000000       0.99999999      -1.00000000
Zr      14.33961752      -0.08888885       0.08888903      -0.00000000      -0.99999999       1.00000000
Zr      12.54716535       1.83689663       1.74800783       0.00000000       0.49999999      -0.50000000
Zr      10.75471319       3.62934877       3.54045996       0.00000000       0.49999999      -0.50000000
Zr      16.13206972      -1.83689652       1.83689673      -0.00000000      -0.49999999       0.50000000
Zr      14.33961756       0.08888895       3.49601552       0.00000000       0.99999999      -1.00000000
Zr      12.54716539       1.74800777       5.42180099      -0.00000000      -0.49999999       0.50000000
Zr       8.96226089       9.05114953      -9.05114941       0.00000000       0.99999999      -1.00000000
Zr       7.16980872      10.71026835      -7.12536395      -0.00000000      -0.49999999       0.50000000
Zr       5.37735655      12.50272049      -5.33291182      -0.00000000      -0.49999999       0.50000000
Zr      10.75471309       7.21425297      -7.21425283       0.00000000       0.49999999      -0.50000000
Zr       8.96226092       8.87337178      -5.28846736      -0.00000000      -0.99999999       1.00000000
Zr       7.16980876      10.79915726      -3.62934857       0.00000000       0.49999999      -0.50000000
Zr      12.54716529       5.33291196      -5.33291180      -0.00000000      -0.49999999       0.50000000
Zr      10.75471313       7.12536411      -3.54045967      -0.00000000      -0.49999999       0.50000000
Zr       8.96226096       9.05114959      -1.88134087       0.00000000       0.99999999      -1.00000000
Zr      14.33961750       3.49601540      -3.49601521      -0.00000000      -0.99999999       1.00000000
Zr      12.54716533       5.42180088      -1.83689642       0.00000000       0.49999999      -0.50000000
Zr      10.75471316       7.21425302      -0.04444429       0.00000000       0.49999999      -0.50000000
Zr      16.13206970       1.74800773      -1.74800752      -0.00000000      -0.49999999       0.50000000
Zr      14.33961753       3.67379320      -0.08888872       0.00000000       0.99999999      -1.00000000
Zr      12.54716536       5.33291202       1.83689674      -0.00000000      -0.49999999       0.50000000
Zr      17.92452190       0.04444450      -0.04444427       0.00000000       0.49999999      -0.50000000
Zr      16.13206973       1.83689664       1.74800786       0.00000000       0.49999999      -0.50000000
Zr      14.33961757       3.49601545       3.67379333      -0.00000000      -0.99999999       1.00000000
108
Lattice="-5.377356501055379 5.377356433855448 5.377356389513249 10.75471321732783 -10.754712714258055 10.75471284079072 10.754713064099535 10.754712776246816 -10.754712625573656" Properties=species:S:1:pos:R:3:mode_u:R:3 system=zr_bcc path_model=mattersim pattern_model=mattersim mlip_model=mattersim role=mode stem=zr_bcc_mattersim_q2d3-5d6-5d6-b0 q="0.6666666666666666 0.8333333333333334 0.8333333333333334" band=0 dim="3 6 6" m_eff=9852.19187197906 check_pass=True Q=0.13888888888888892 index=5 mlip_energy_eV=-915.2994995117188 pbc="T T T"
Zr       0.00000000       0.06944444      -0.06944444       0.00000000       0.49999999      -0.50000000
Zr      -1.79245217       1.65356326       1.93134102      -0.00000000      -0.99999999       1.00000000
Zr      -3.58490433       3.65434873       3.51545982       0.00000000       0.49999999      -0.50000000
Zr       1.79245220      -1.86189656       1.86189658      -0.00000000      -0.49999999       0.50000000
Zr       0.00000004      -0.06944442       3.65434871      -0.00000000      -0.49999999       0.50000000
Zr      -1.79245213       1.93134106       5.23846751       0.00000000       0.99999999      -1.00000000
Zr       3.58490441      -3.72379313       3.72379317      -0.00000000      -0.99999999       1.00000000
Zr       1.79245224      -1.72300765       5.30791197       0.00000000       0.49999999      -0.50000000
Zr       0.00000007       0.06944449       7.10036410       0.00000000       0.49999999      -0.50000000
Zr       5.37735661      -5.44680080       5.44680086      -0.00000000      -0.49999999       0.50000000
Zr       3.58490444      -3.44601533       7.03091966       0.00000000       0.99999999      -1.00000000
Zr       1.79245227      -1.86189651       9.03170512      -0.00000000      -0.49999999       0.50000000
Zr       7.16980881      -7.10036403       7.10036412       0.00000000       0.49999999      -0.50000000
Zr       5.37735664      -5.30791189       8.89281625       0.00000000       0.49999999      -0.50000000
Zr       3.58490448      -3.72379307      10.89360171      -0.00000000      -0.99999999       1.00000000
Zr       8.96226101      -8.82337171       8.82337181       0.00000000       0.99999999      -1.00000000
Zr       7.16980885      -7.23925289      10.82415727      -0.00000000      -0.49999999       0.50000000
Zr       5.37735668      -5.44680075      12.61660940      -0.00000000      -0.49999999       0.50000000
Zr       1.79245218       1.72300769      -1.72300766      -0.00000000      -0.49999999       0.50000000
Zr       0.00000001       3.51545983       0.06944447      -0.00000000      -0.49999999       0.50000000
Zr      -1.79245216       5.51624531       1.65356327       0.00000000       0.99999999      -1.00000000
Zr       3.58490438      -0.13888888       0.13888892      -0.00000000      -0.99999999       1.00000000
Zr       1.79245221       1.86189660       1.72300772       0.00000000       0.49999999      -0.50000000
Zr       0.00000005       3.65434874       3.51545985       0.00000000       0.49999999      -0.50000000
Zr       5.37735658      -1.86189655       1.86189662      -0.00000000      -0.49999999       0.50000000
Zr       3.58490442       0.13888892       3.44601542       0.00000000       0.99999999      -1.00000000
Zr       1.79245225       1.72300774       5.44680088      -0.00000000      -0.49999999       0.50000000
Zr       7.16980879      -3.51545978       3.51545987       0.00000000       0.49999999      -0.50000000
Zr       5.37735662      -1.72300764       5.30791200       0.00000000       0.49999999      -0.50000000
Zr       3.58490445      -0.13888883       7.30869746      -0.00000000      -0.99999999       1.00000000
Zr       8.96226099      -5.23846746       5.23846757       0.00000000       0.99999999      -1.00000000
Zr       7.16980882      -3.65434865       7.23925303      -0.00000000      -0.49999999       0.50000000
Zr       5.37735665      -1.86189650       9.03170516      -0.00000000      -0.49999999       0.50000000
Zr      10.75471319      -7.10036402       7.10036415       0.00000000       0.49999999      -0.50000000
Zr       8.96226102      -5.51624521       9.10114962      -0.00000000      -0.99999999       1.00000000
Zr       7.16980886      -3.51545973      10.68526841       0.00000000       0.49999999      -0.50000000
Zr       3.58490435       3.44601537      -3.44601532      -0.00000000      -0.99999999       1.00000000
Zr       1.79245219       5.44680085      -1.86189652       0.00000000       0.49999999      -0.50000000
Zr       0.00000002       7.23925299      -0.06944439       0.00000000       0.49999999      -0.50000000
Zr       5.37735656       1.72300770      -1.72300762      -0.00000000      -0.49999999       0.50000000
Zr       3.58490439       3.72379317      -0.13888883       0.00000000       0.99999999      -1.00000000
Zr       1.79245222       5.30791199       1.86189664      -0.00000000      -0.49999999       0.50000000
Zr       7.16980876       0.06944446      -0.06944437       0.00000000       0.49999999      -0.50000000
Zr       5.37735659       1.86189661       1.72300776       0.00000000       0.49999999      -0.50000000
Zr       3.58490443       3.44601542       3.72379322      -0.00000000      -0.99999999       1.00000000
Zr       8.96226096      -1.65356321       1.65356332       0.00000000       0.99999999      -1.00000000
Zr       7.16980880      -0.06944440       3.65434879      -0.00000000      -0.49999999       0.50000000
Zr       5.37735663       1.72300775       5.44680092      -0.00000000      -0.49999999       0.50000000
Zr      10.75471317      -3.51545977       3.51545991       0.00000000       0.49999999      -0.50000000
Zr       8.96226100      -1.93134096       5.51624537      -0.00000000      -0.99999999       1.00000000
Zr       7.16980883       0.06944452       7.10036417       0.00000000       0.49999999      -0.50000000
Zr      12.54716537      -5.44680078       5.44680094      -0.00000000      -0.49999999       0.50000000
Zr      10.75471320      -3.65434864       7.23925307      -0.00000000      -0.49999999       0.50000000
Zr       8.96226104      -1.65356316       8.82337186       0.00000000       0.99999999      -1.00000000
Zr       5.37735653       5.30791194      -5.30791187      -0.00000000      -0.49999999       0.50000000
Zr       3.58490437       7.30869742      -3.72379307       0.00000000       0.99999999      -1.00000000
Zr       1.79245220       8.89281623      -1.72300761      -0.00000000      -0.49999999       0.50000000
Zr       7.16980874       3.65434871      -3.65434862       0.00000000       0.49999999      -0.50000000
Zr       5.37735657       5.44680086      -1.86189649       0.00000000       0.49999999      -0.50000000
Zr       3.58490440       7.03091967       0.13888898      -0.00000000      -0.99999999       1.00000000
Zr       8.96226094       1.93134104      -1.93134092       0.00000000       0.99999999      -1.00000000
Zr       7.16980877       3.51545985       0.06944454      -0.00000000      -0.49999999       0.50000000
Zr       5.37735660       5.30791200       1.86189667      -0.00000000      -0.49999999       0.50000000
Zr      10.75471314       0.06944447      -0.06944434       0.00000000       0.49999999      -0.50000000
Zr       8.96226097       1.65356329       1.93134113      -0.00000000      -0.99999999       1.00000000
Zr       7.16980881       3.65434876       3.51545992       0.00000000       0.49999999      -0.50000000
Zr      12.54716534      -1.86189653       1.86189669      -0.00000000      -0.49999999       0.50000000
Zr      10.75471318      -0.06944439       3.65434882      -0.00000000      -0.49999999       0.50000000
Zr       8.96226101       1.93134109       5.23846762       0.00000000       0.99999999      -1.00000000
Zr      14.33961755      -3.72379309       3.72379328      -0.00000000      -0.99999999       1.00000000
Zr      12.54716538      -1.72300762       5.30791207       0.00000000       0.49999999      -0.50000000
Zr      10.75471321       0.06944453       7.10036420       0.00000000       0.49999999      -0.50000000
Zr       7.16980871       7.23925296      -7.23925286       0.00000000       0.49999999      -0.50000000
Zr       5.37735654       9.03170511      -5.44680073       0.00000000       0.49999999      -0.50000000
Zr       3.58490438      10.61582392      -3.44601527      -0.00000000      -0.99999999       1.00000000
Zr       8.96226091       5.51624529      -5.51624517       0.00000000       0.99999999      -1.00000000
Zr       7.16980875       7.10036410      -3.51545970      -0.00000000      -0.49999999       0.50000000
Zr       5.37735658       8.89281624      -1.72300757      -0.00000000      -0.49999999       0.50000000
Zr      10.75471312       3.65434872      -3.65434858       0.00000000       0.49999999      -0.50000000
Zr       8.96226095       5.23846754      -1.65356312      -0.00000000      -0.99999999       1.00000000
Zr       7.16980878       7.23925301      -0.06944432       0.00000000       0.49999999      -0.50000000
Zr      12.54716532       1.72300772      -1.72300755      -0.00000000      -0.49999999       0.50000000
Zr      10.75471315       3.51545986       0.06944458      -0.00000000      -0.49999999       0.50000000
Zr       8.96226098       5.51624534       1.65356337       0.00000000       0.99999999      -1.00000000
Zr      14.33961752      -0.13888885       0.13888903      -0.00000000      -0.99999999       1.00000000
Zr      12.54716535       1.86189663       1.72300783       0.00000000       0.49999999      -0.50000000
Zr      10.75471319       3.65434877       3.51545996       0.00000000       0.49999999      -0.50000000
Zr      16.13206972      -1.86189652       1.86189673      -0.00000000      -0.49999999       0.50000000
Zr      14.33961756       0.13888895       3.44601552       0.00000000       0.99999999      -1.00000000
Zr      12.54716539       1.72300777       5.44680099      -0.00000000      -0.49999999       0.50000000
Zr       8.96226089       9.10114953      -9.10114941       0.00000000       0.99999999      -1.00000000
Zr       7.16980872      10.68526835      -7.10036395      -0.00000000      -0.49999999       0.50000000
Zr       5.37735655      12.47772049      -5.30791182      -0.00000000      -0.49999999       0.50000000
Zr      10.75471309       7.23925297      -7.23925283       0.00000000       0.49999999      -0.50000000
Zr       8.96226092       8.82337179      -5.23846736      -0.00000000      -0.99999999       1.00000000
Zr       7.16980876      10.82415726      -3.65434857       0.00000000       0.49999999      -0.50000000
Zr      12.54716529       5.30791197      -5.30791180      -0.00000000      -0.49999999       0.50000000
Zr      10.75471313       7.10036411      -3.51545967      -0.00000000      -0.49999999       0.50000000
Zr       8.96226096       9.10114959      -1.93134087       0.00000000       0.99999999      -1.00000000
Zr      14.33961750       3.44601540      -3.44601521      -0.00000000      -0.99999999       1.00000000
Zr      12.54716533       5.44680088      -1.86189642       0.00000000       0.49999999      -0.50000000
Zr      10.75471316       7.23925302      -0.06944429       0.00000000       0.49999999      -0.50000000
Zr      16.13206970       1.72300773      -1.72300752      -0.00000000      -0.49999999       0.50000000
Zr      14.33961753       3.72379320      -0.13888872       0.00000000       0.99999999      -1.00000000
Zr      12.54716536       5.30791202       1.86189674      -0.00000000      -0.49999999       0.50000000
Zr      17.92452190       0.06944450      -0.06944427       0.00000000       0.49999999      -0.50000000
Zr      16.13206973       1.86189664       1.72300786       0.00000000       0.49999999      -0.50000000
Zr      14.33961757       3.44601545       3.72379333      -0.00000000      -0.99999999       1.00000000
108
Lattice="-5.377356501055379 5.377356433855448 5.377356389513249 10.75471321732783 -10.754712714258055 10.75471284079072 10.754713064099535 10.754712776246816 -10.754712625573656" Properties=species:S:1:pos:R:3:mode_u:R:3 system=zr_bcc path_model=mattersim pattern_model=mattersim mlip_model=mattersim role=mode stem=zr_bcc_mattersim_q2d3-5d6-5d6-b0 q="0.6666666666666666 0.8333333333333334 0.8333333333333334" band=0 dim="3 6 6" m_eff=9852.19187197906 check_pass=True Q=0.19999999999999998 index=6 mlip_energy_eV=-914.6832885742188 pbc="T T T"
Zr       0.00000000       0.10000000      -0.10000000       0.00000000       0.49999999      -0.50000000
Zr      -1.79245217       1.59245215       1.99245213      -0.00000000      -0.99999999       1.00000000
Zr      -3.58490433       3.68490429       3.48490426       0.00000000       0.49999999      -0.50000000
Zr       1.79245220      -1.89245212       1.89245214      -0.00000000      -0.49999999       0.50000000
Zr       0.00000004      -0.09999997       3.68490427      -0.00000000      -0.49999999       0.50000000
Zr      -1.79245213       1.99245217       5.17735640       0.00000000       0.99999999      -1.00000000
Zr       3.58490441      -3.78490424       3.78490428      -0.00000000      -0.99999999       1.00000000
Zr       1.79245224      -1.69245209       5.27735641       0.00000000       0.49999999      -0.50000000
Zr       0.00000007       0.10000005       7.06980854       0.00000000       0.49999999      -0.50000000
Zr       5.37735661      -5.47735636       5.47735642      -0.00000000      -0.49999999       0.50000000
Zr       3.58490444      -3.38490422       6.96980855       0.00000000       0.99999999      -1.00000000
Zr       1.79245227      -1.89245207       9.06226068      -0.00000000      -0.49999999       0.50000000
Zr       7.16980881      -7.06980848       7.06980856       0.00000000       0.49999999      -0.50000000
Zr       5.37735664      -5.27735633       8.86226069       0.00000000       0.49999999      -0.50000000
Zr       3.58490448      -3.78490418      10.95471282      -0.00000000      -0.99999999       1.00000000
Zr       8.96226101      -8.76226060       8.76226070       0.00000000       0.99999999      -1.00000000
Zr       7.16980885      -7.26980845      10.85471283      -0.00000000      -0.49999999       0.50000000
Zr       5.37735668      -5.47735630      12.64716496      -0.00000000      -0.49999999       0.50000000
Zr       1.79245218       1.69245213      -1.69245210      -0.00000000      -0.49999999       0.50000000
Zr       0.00000001       3.48490428       0.10000003      -0.00000000      -0.49999999       0.50000000
Zr      -1.79245216       5.57735642       1.59245216       0.00000000       0.99999999      -1.00000000
Zr       3.58490438      -0.19999999       0.20000004      -0.00000000      -0.99999999       1.00000000
Zr       1.79245221       1.89245215       1.69245217       0.00000000       0.49999999      -0.50000000
Zr       0.00000005       3.68490430       3.48490430       0.00000000       0.49999999      -0.50000000
Zr       5.37735658      -1.89245211       1.89245218      -0.00000000      -0.49999999       0.50000000
Zr       3.58490442       0.20000003       3.38490431       0.00000000       0.99999999      -1.00000000
Zr       1.79245225       1.69245218       5.47735644      -0.00000000      -0.49999999       0.50000000
Zr       7.16980879      -3.48490423       3.48490432       0.00000000       0.49999999      -0.50000000
Zr       5.37735662      -1.69245208       5.27735645       0.00000000       0.49999999      -0.50000000
Zr       3.58490445      -0.19999994       7.36980858      -0.00000000      -0.99999999       1.00000000
Zr       8.96226099      -5.17735635       5.17735646       0.00000000       0.99999999      -1.00000000
Zr       7.16980882      -3.68490420       7.26980859      -0.00000000      -0.49999999       0.50000000
Zr       5.37735665      -1.89245206       9.06226072      -0.00000000      -0.49999999       0.50000000
Zr      10.75471319      -7.06980847       7.06980860       0.00000000       0.49999999      -0.50000000
Zr       8.96226102      -5.57735632       9.16226073      -0.00000000      -0.99999999       1.00000000
Zr       7.16980886      -3.48490418      10.65471286       0.00000000       0.49999999      -0.50000000
Zr       3.58490435       3.38490426      -3.38490421      -0.00000000      -0.99999999       1.00000000
Zr       1.79245219       5.47735640      -1.89245208       0.00000000       0.49999999      -0.50000000
Zr       0.00000002       7.26980855      -0.09999995       0.00000000       0.49999999      -0.50000000
Zr       5.37735656       1.69245214      -1.69245207      -0.00000000      -0.49999999       0.50000000
Zr       3.58490439       3.78490428      -0.19999994       0.00000000       0.99999999      -1.00000000
Zr       1.79245222       5.27735643       1.89245219      -0.00000000      -0.49999999       0.50000000
Zr       7.16980876       0.10000002      -0.09999993       0.00000000       0.49999999      -0.50000000
Zr       5.37735659       1.89245216       1.69245220       0.00000000       0.49999999      -0.50000000
Zr       3.58490443       3.38490431       3.78490433      -0.00000000      -0.99999999       1.00000000
Zr       8.96226096      -1.59245210       1.59245221       0.00000000       0.99999999      -1.00000000
Zr       7.16980880      -0.09999995       3.68490434      -0.00000000      -0.49999999       0.50000000
Zr       5.37735663       1.69245219       5.47735647      -0.00000000      -0.49999999       0.50000000
Zr      10.75471317      -3.48490422       3.48490435       0.00000000       0.49999999      -0.50000000
Zr       8.96226100      -1.99245207       5.57735648      -0.00000000      -0.99999999       1.00000000
Zr       7.16980883       0.10000007       7.06980861       0.00000000       0.49999999      -0.50000000
Zr      12.54716537      -5.47735634       5.47735649      -0.00000000      -0.49999999       0.50000000
Zr      10.75471320      -3.68490419       7.26980862      -0.00000000      -0.49999999       0.50000000
Zr       8.96226104      -1.59245205       8.76226075       0.00000000       0.99999999      -1.00000000
Zr       5.37735653       5.27735639      -5.27735631      -0.00000000      -0.49999999       0.50000000
Zr       3.58490437       7.36980853      -3.78490418       0.00000000       0.99999999      -1.00000000
Zr       1.79245220       8.86226068      -1.69245205      -0.00000000      -0.49999999       0.50000000
Zr       7.16980874       3.68490427      -3.68490417       0.00000000       0.49999999      -0.50000000
Zr       5.37735657       5.47735641      -1.89245204       0.00000000       0.49999999      -0.50000000
Zr       3.58490440       6.96980856       0.20000009      -0.00000000      -0.99999999       1.00000000
Zr       8.96226094       1.99245215      -1.99245203       0.00000000       0.99999999      -1.00000000
Zr       7.16980877       3.48490430       0.10000010      -0.00000000      -0.49999999       0.50000000
Zr       5.37735660       5.27735644       1.89245223      -0.00000000      -0.49999999       0.50000000
Zr      10.75471314       0.10000003      -0.09999989       0.00000000       0.49999999      -0.50000000
Zr       8.96226097       1.59245218       1.99245224      -0.00000000      -0.99999999       1.00000000
Zr       7.16980881       3.68490432       3.48490437       0.00000000       0.49999999      -0.50000000
Zr      12.54716534      -1.89245209       1.89245225      -0.00000000      -0.49999999       0.50000000
Zr      10.75471318      -0.09999994       3.68490438      -0.00000000      -0.49999999       0.50000000
Zr       8.96226101       1.99245220       5.17735651       0.00000000       0.99999999      -1.00000000
Zr      14.33961755      -3.78490420       3.78490439      -0.00000000      -0.99999999       1.00000000
Zr      12.54716538      -1.69245206       5.27735652       0.00000000       0.49999999      -0.50000000
Zr      10.75471321       0.10000008       7.06980865       0.00000000       0.49999999      -0.50000000
Zr       7.16980871       7.26980852      -7.26980842       0.00000000       0.49999999      -0.50000000
Zr       5.37735654       9.06226066      -5.47735629       0.00000000       0.49999999      -0.50000000
Zr       3.58490438      10.55471281      -3.38490416      -0.00000000      -0.99999999       1.00000000
Zr       8.96226091       5.57735640      -5.57735628       0.00000000       0.99999999      -1.00000000
Zr       7.16980875       7.06980854      -3.48490415      -0.00000000      -0.49999999       0.50000000
Zr       5.37735658       8.86226069      -1.69245202      -0.00000000      -0.49999999       0.50000000
Zr      10.75471312       3.68490428      -3.68490414       0.00000000       0.49999999      -0.50000000
Zr       8.96226095       5.17735643      -1.59245201      -0.00000000      -0.99999999       1.00000000
Zr       7.16980878       7.26980857      -0.09999988       0.00000000       0.49999999      -0.50000000
Zr      12.54716532       1.69245216      -1.69245200      -0.00000000      -0.49999999       0.50000000
Zr      10.75471315       3.48490431       0.10000013      -0.00000000      -0.49999999       0.50000000
Zr       8.96226098       5.57735645       1.59245226       0.00000000       0.99999999      -1.00000000
Zr      14.33961752      -0.19999996       0.20000014      -0.00000000      -0.99999999       1.00000000
Zr      12.54716535       1.89245218       1.69245227       0.00000000       0.49999999      -0.50000000
Zr      10.75471319       3.68490433       3.48490440       0.00000000       0.49999999      -0.50000000
Zr      16.13206972      -1.89245208       1.89245228      -0.00000000      -0.49999999       0.50000000
Zr      14.33961756       0.20000006       3.38490441       0.00000000       0.99999999      -1.00000000
Zr      12.54716539       1.69245221       5.47735654      -0.00000000      -0.49999999       0.50000000
Zr       8.96226089       9.16226064      -9.16226052       0.00000000       0.99999999      -1.00000000
Zr       7.16980872      10.65471279      -7.06980839      -0.00000000      -0.49999999       0.50000000
Zr       5.37735655      12.44716494      -5.27735626      -0.00000000      -0.49999999       0.50000000
Zr      10.75471309       7.26980853      -7.26980838       0.00000000       0.49999999      -0.50000000
Zr       8.96226092       8.76226068      -5.17735625      -0.00000000      -0.99999999       1.00000000
Zr       7.16980876      10.85471282      -3.68490412       0.00000000       0.49999999      -0.50000000
Zr      12.54716529       5.27735641      -5.27735624      -0.00000000      -0.49999999       0.50000000
Zr      10.75471313       7.06980855      -3.48490411      -0.00000000      -0.49999999       0.50000000
Zr       8.96226096       9.16226070      -1.99245198       0.00000000       0.99999999      -1.00000000
Zr      14.33961750       3.38490429      -3.38490410      -0.00000000      -0.99999999       1.00000000
Zr      12.54716533       5.47735643      -1.89245197       0.00000000       0.49999999      -0.50000000
Zr      10.75471316       7.26980858      -0.09999984       0.00000000       0.49999999      -0.50000000
Zr      16.13206970       1.69245217      -1.69245196      -0.00000000      -0.49999999       0.50000000
Zr      14.33961753       3.78490431      -0.19999983       0.00000000       0.99999999      -1.00000000
Zr      12.54716536       5.27735646       1.89245230      -0.00000000      -0.49999999       0.50000000
Zr      17.92452190       0.10000005      -0.09999982       0.00000000       0.49999999      -0.50000000
Zr      16.13206973       1.89245219       1.69245231       0.00000000       0.49999999      -0.50000000
Zr      14.33961757       3.38490434       3.78490444      -0.00000000      -0.99999999       1.00000000
108
Lattice="-5.377356501055379 5.377356433855448 5.377356389513249 10.75471321732783 -10.754712714258055 10.75471284079072 10.754713064099535 10.754712776246816 -10.754712625573656" Properties=species:S:1:pos:R:3:mode_u:R:3 system=zr_bcc path_model=mattersim pattern_model=mattersim mlip_model=mattersim role=mode stem=zr_bcc_mattersim_q2d3-5d6-5d6-b0 q="0.6666666666666666 0.8333333333333334 0.8333333333333334" band=0 dim="3 6 6" m_eff=9852.19187197906 check_pass=True Q=0.27222222222222214 index=7 mlip_energy_eV=-912.2467651367188 pbc="T T T"
Zr       0.00000000       0.13611111      -0.13611111       0.00000000       0.49999999      -0.50000000
Zr      -1.79245217       1.52022993       2.06467435      -0.00000000      -0.99999999       1.00000000
Zr      -3.58490433       3.72101540       3.44879315       0.00000000       0.49999999      -0.50000000
Zr       1.79245220      -1.92856323       1.92856325      -0.00000000      -0.49999999       0.50000000
Zr       0.00000004      -0.13611108       3.72101538      -0.00000000      -0.49999999       0.50000000
Zr      -1.79245213       2.06467439       5.10513418       0.00000000       0.99999999      -1.00000000
Zr       3.58490441      -3.85712646       3.85712650      -0.00000000      -0.99999999       1.00000000
Zr       1.79245224      -1.65634098       5.24124530       0.00000000       0.49999999      -0.50000000
Zr       0.00000007       0.13611116       7.03369743       0.00000000       0.49999999      -0.50000000
Zr       5.37735661      -5.51346747       5.51346753      -0.00000000      -0.49999999       0.50000000
Zr       3.58490444      -3.31268199       6.89758633       0.00000000       0.99999999      -1.00000000
Zr       1.79245227      -1.92856318       9.09837179      -0.00000000      -0.49999999       0.50000000
Zr       7.16980881      -7.03369737       7.03369745       0.00000000       0.49999999      -0.50000000
Zr       5.37735664      -5.24124522       8.82614958       0.00000000       0.49999999      -0.50000000
Zr       3.58490448      -3.85712641      11.02693504      -0.00000000      -0.99999999       1.00000000
Zr       8.96226101      -8.69003838       8.69003848       0.00000000       0.99999999      -1.00000000
Zr       7.16980885      -7.30591956      10.89082394      -0.00000000      -0.49999999       0.50000000
Zr       5.37735668      -5.51346742      12.68327607      -0.00000000      -0.49999999       0.50000000
Zr       1.79245218       1.65634102      -1.65634099      -0.00000000      -0.49999999       0.50000000
Zr       0.00000001       3.44879316       0.13611114      -0.00000000      -0.49999999       0.50000000
Zr      -1.79245216       5.64957864       1.52022993       0.00000000       0.99999999      -1.00000000
Zr       3.58490438      -0.27222221       0.27222226      -0.00000000      -0.99999999       1.00000000
Zr       1.79245221       1.92856326       1.65634105       0.00000000       0.49999999      -0.50000000
Zr       0.00000005       3.72101541       3.44879318       0.00000000       0.49999999      -0.50000000
Zr       5.37735658      -1.92856322       1.92856329      -0.00000000      -0.49999999       0.50000000
Zr       3.58490442       0.27222225       3.31268208       0.00000000       0.99999999      -1.00000000
Zr       1.79245225       1.65634107       5.51346755      -0.00000000      -0.49999999       0.50000000
Zr       7.16980879      -3.44879312       3.44879321       0.00000000       0.49999999      -0.50000000
Zr       5.37735662      -1.65634097       5.24124533       0.00000000       0.49999999      -0.50000000
Zr       3.58490445      -0.27222216       7.44203080      -0.00000000      -0.99999999       1.00000000
Zr       8.96226099      -5.10513413       5.10513423       0.00000000       0.99999999      -1.00000000
Zr       7.16980882      -3.72101531       7.30591970      -0.00000000      -0.49999999       0.50000000
Zr       5.37735665      -1.92856317       9.09837183      -0.00000000      -0.49999999       0.50000000
Zr      10.75471319      -7.03369736       7.03369749       0.00000000       0.49999999      -0.50000000
Zr       8.96226102      -5.64957854       9.23448295      -0.00000000      -0.99999999       1.00000000
Zr       7.16980886      -3.44879307      10.61860174       0.00000000       0.49999999      -0.50000000
Zr       3.58490435       3.31268204      -3.31268199      -0.00000000      -0.99999999       1.00000000
Zr       1.79245219       5.51346751      -1.92856319       0.00000000       0.49999999      -0.50000000
Zr       0.00000002       7.30591966      -0.13611106       0.00000000       0.49999999      -0.50000000
Zr       5.37735656       1.65634103      -1.65634096      -0.00000000      -0.49999999       0.50000000
Zr       3.58490439       3.85712650      -0.27222216       0.00000000       0.99999999      -1.00000000
Zr       1.79245222       5.24124532       1.92856330      -0.00000000      -0.49999999       0.50000000
Zr       7.16980876       0.13611113      -0.13611104       0.00000000       0.49999999      -0.50000000
Zr       5.37735659       1.92856327       1.65634109       0.00000000       0.49999999      -0.50000000
Zr       3.58490443       3.31268209       3.85712655      -0.00000000      -0.99999999       1.00000000
Zr       8.96226096      -1.52022988       1.52022999       0.00000000       0.99999999      -1.00000000
Zr       7.16980880      -0.13611106       3.72101545      -0.00000000      -0.49999999       0.50000000
Zr       5.37735663       1.65634108       5.51346758      -0.00000000      -0.49999999       0.50000000
Zr      10.75471317      -3.44879311       3.44879324       0.00000000       0.49999999      -0.50000000
Zr       8.96226100      -2.06467429       5.64957870      -0.00000000      -0.99999999       1.00000000
Zr       7.16980883       0.13611118       7.03369750       0.00000000       0.49999999      -0.50000000
Zr      12.54716537      -5.51346745       5.51346760      -0.00000000      -0.49999999       0.50000000
Zr      10.75471320      -3.72101530       7.30591973      -0.00000000      -0.49999999       0.50000000
Zr       8.96226104      -1.52022983       8.69003853       0.00000000       0.99999999      -1.00000000
Zr       5.37735653       5.24124528      -5.24124520      -0.00000000      -0.49999999       0.50000000
Zr       3.58490437       7.44203075      -3.85712641       0.00000000       0.99999999      -1.00000000
Zr       1.79245220       8.82614957      -1.65634094      -0.00000000      -0.49999999       0.50000000
Zr       7.16980874       3.72101538      -3.72101528       0.00000000       0.49999999      -0.50000000
Zr       5.37735657       5.51346752      -1.92856315       0.00000000       0.49999999      -0.50000000
Zr       3.58490440       6.89758634       0.27222231      -0.00000000      -0.99999999       1.00000000
Zr       8.96226094       2.06467437      -2.06467425       0.00000000       0.99999999      -1.00000000
Zr       7.16980877       3.44879319       0.13611121      -0.00000000      -0.49999999       0.50000000
Zr       5.37735660       5.24124533       1.92856334      -0.00000000      -0.49999999       0.50000000
Zr      10.75471314       0.13611114      -0.13611100       0.00000000       0.49999999      -0.50000000
Zr       8.96226097       1.52022996       2.06467446      -0.00000000      -0.99999999       1.00000000
Zr       7.16980881       3.72101543       3.44879326       0.00000000       0.49999999      -0.50000000
Zr      12.54716534      -1.92856320       1.92856336      -0.00000000      -0.49999999       0.50000000
Zr      10.75471318      -0.13611105       3.72101549      -0.00000000      -0.49999999       0.50000000
Zr       8.96226101       2.06467442       5.10513429       0.00000000       0.99999999      -1.00000000
Zr      14.33961755      -3.85712643       3.85712661      -0.00000000      -0.99999999       1.00000000
Zr      12.54716538      -1.65634095       5.24124541       0.00000000       0.49999999      -0.50000000
Zr      10.75471321       0.13611119       7.03369754       0.00000000       0.49999999      -0.50000000
Zr       7.16980871       7.30591963      -7.30591953       0.00000000       0.49999999      -0.50000000
Zr       5.37735654       9.09837177      -5.51346740       0.00000000       0.49999999      -0.50000000
Zr       3.58490438      10.48249059      -3.31268194      -0.00000000      -0.99999999       1.00000000
Zr       8.96226091       5.64957862      -5.64957850       0.00000000       0.99999999      -1.00000000
Zr       7.16980875       7.03369743      -3.44879304      -0.00000000      -0.49999999       0.50000000
Zr       5.37735658       8.82614958      -1.65634091      -0.00000000      -0.49999999       0.50000000
Zr      10.75471312       3.72101539      -3.72101525       0.00000000       0.49999999      -0.50000000
Zr       8.96226095       5.10513421      -1.52022978      -0.00000000      -0.99999999       1.00000000
Zr       7.16980878       7.30591968      -0.13611099       0.00000000       0.49999999      -0.50000000
Zr      12.54716532       1.65634105      -1.65634089      -0.00000000      -0.49999999       0.50000000
Zr      10.75471315       3.44879320       0.13611124      -0.00000000      -0.49999999       0.50000000
Zr       8.96226098       5.64957867       1.52023004       0.00000000       0.99999999      -1.00000000
Zr      14.33961752      -0.27222218       0.27222237      -0.00000000      -0.99999999       1.00000000
Zr      12.54716535       1.92856330       1.65634116       0.00000000       0.49999999      -0.50000000
Zr      10.75471319       3.72101544       3.44879329       0.00000000       0.49999999      -0.50000000
Zr      16.13206972      -1.92856319       1.92856339      -0.00000000      -0.49999999       0.50000000
Zr      14.33961756       0.27222229       3.31268219       0.00000000       0.99999999      -1.00000000
Zr      12.54716539       1.65634110       5.51346765      -0.00000000      -0.49999999       0.50000000
Zr       8.96226089       9.23448287      -9.23448274       0.00000000       0.99999999      -1.00000000
Zr       7.16980872      10.61860168      -7.03369728      -0.00000000      -0.49999999       0.50000000
Zr       5.37735655      12.41105383      -5.24124515      -0.00000000      -0.49999999       0.50000000
Zr      10.75471309       7.30591964      -7.30591949       0.00000000       0.49999999      -0.50000000
Zr       8.96226092       8.69003845      -5.10513403      -0.00000000      -0.99999999       1.00000000
Zr       7.16980876      10.89082393      -3.72101523       0.00000000       0.49999999      -0.50000000
Zr      12.54716529       5.24124530      -5.24124513      -0.00000000      -0.49999999       0.50000000
Zr      10.75471313       7.03369744      -3.44879300      -0.00000000      -0.49999999       0.50000000
Zr       8.96226096       9.23448292      -2.06467420       0.00000000       0.99999999      -1.00000000
Zr      14.33961750       3.31268207      -3.31268188      -0.00000000      -0.99999999       1.00000000
Zr      12.54716533       5.51346754      -1.92856308       0.00000000       0.49999999      -0.50000000
Zr      10.75471316       7.30591969      -0.13611095       0.00000000       0.49999999      -0.50000000
Zr      16.13206970       1.65634106      -1.65634085      -0.00000000      -0.49999999       0.50000000
Zr      14.33961753       3.85712653      -0.27222205       0.00000000       0.99999999      -1.00000000
Zr      12.54716536       5.24124535       1.92856341      -0.00000000      -0.49999999       0.50000000
Zr      17.92452190       0.13611116      -0.13611093       0.00000000       0.49999999      -0.50000000
Zr      16.13206973       1.92856331       1.65634120       0.00000000       0.49999999      -0.50000000
Zr      14.33961757       3.31268212       3.85712666      -0.00000000      -0.99999999       1.00000000
108
Lattice="-5.377356501055379 5.377356433855448 5.377356389513249 10.75471321732783 -10.754712714258055 10.75471284079072 10.754713064099535 10.754712776246816 -10.754712625573656" Properties=species:S:1:pos:R:3:mode_u:R:3 system=zr_bcc path_model=mattersim pattern_model=mattersim mlip_model=mattersim role=mode stem=zr_bcc_mattersim_q2d3-5d6-5d6-b0 q="0.6666666666666666 0.8333333333333334 0.8333333333333334" band=0 dim="3 6 6" m_eff=9852.19187197906 check_pass=True Q=0.35555555555555557 index=8 mlip_energy_eV=-906.1958618164062 pbc="T T T"
Zr       0.00000000       0.17777778      -0.17777778       0.00000000       0.49999999      -0.50000000
Zr      -1.79245217       1.43689659       2.14800769      -0.00000000      -0.99999999       1.00000000
Zr      -3.58490433       3.76268206       3.40712648       0.00000000       0.49999999      -0.50000000
Zr       1.79245220      -1.97022989       1.97022992      -0.00000000      -0.49999999       0.50000000
Zr       0.00000004      -0.17777775       3.76268205      -0.00000000      -0.49999999       0.50000000
Zr      -1.79245213       2.14800772       5.02180084       0.00000000       0.99999999      -1.00000000
Zr       3.58490441      -3.94045979       3.94045984      -0.00000000      -0.99999999       1.00000000
Zr       1.79245224      -1.61467432       5.19957863       0.00000000       0.49999999      -0.50000000
Zr       0.00000007       0.17777783       6.99203076       0.00000000       0.49999999      -0.50000000
Zr       5.37735661      -5.55513413       5.55513420      -0.00000000      -0.49999999       0.50000000
Zr       3.58490444      -3.22934866       6.81425299       0.00000000       0.99999999      -1.00000000
Zr       1.79245227      -1.97022984       9.14003846      -0.00000000      -0.49999999       0.50000000
Zr       7.16980881      -6.99203070       6.99203078       0.00000000       0.49999999      -0.50000000
Zr       5.37735664      -5.19957856       8.78448291       0.00000000       0.49999999      -0.50000000
Zr       3.58490448      -3.94045974      11.11026838      -0.00000000      -0.99999999       1.00000000
Zr       8.96226101      -8.60670504       8.60670515       0.00000000       0.99999999      -1.00000000
Zr       7.16980885      -7.34758623      10.93249061      -0.00000000      -0.49999999       0.50000000
Zr       5.37735668      -5.55513408      12.72494274      -0.00000000      -0.49999999       0.50000000
Zr       1.79245218       1.61467435      -1.61467433      -0.00000000      -0.49999999       0.50000000
Zr       0.00000001       3.40712650       0.17777780      -0.00000000      -0.49999999       0.50000000
Zr      -1.79245216       5.73291197       1.43689660       0.00000000       0.99999999      -1.00000000
Zr       3.58490438      -0.35555554       0.35555559      -0.00000000      -0.99999999       1.00000000
Zr       1.79245221       1.97022993       1.61467439       0.00000000       0.49999999      -0.50000000
Zr       0.00000005       3.76268208       3.40712652       0.00000000       0.49999999      -0.50000000
Zr       5.37735658      -1.97022988       1.97022995      -0.00000000      -0.49999999       0.50000000
Zr       3.58490442       0.35555559       3.22934875       0.00000000       0.99999999      -1.00000000
Zr       1.79245225       1.61467441       5.55513421      -0.00000000      -0.49999999       0.50000000
Zr       7.16980879      -3.40712645       3.40712654       0.00000000       0.49999999      -0.50000000
Zr       5.37735662      -1.61467431       5.19957867       0.00000000       0.49999999      -0.50000000
Zr       3.58490445      -0.35555549       7.52536413      -0.00000000      -0.99999999       1.00000000
Zr       8.96226099      -5.02180080       5.02180090       0.00000000       0.99999999      -1.00000000
Zr       7.16980882      -3.76268198       7.34758636      -0.00000000      -0.49999999       0.50000000
Zr       5.37735665      -1.97022983       9.14003849      -0.00000000      -0.49999999       0.50000000
Zr      10.75471319      -6.99203069       6.99203082       0.00000000       0.49999999      -0.50000000
Zr       8.96226102      -5.73291187       9.31781628      -0.00000000      -0.99999999       1.00000000
Zr       7.16980886      -3.40712640      10.57693508       0.00000000       0.49999999      -0.50000000
Zr       3.58490435       3.22934871      -3.22934865      -0.00000000      -0.99999999       1.00000000
Zr       1.79245219       5.55513418      -1.97022986       0.00000000       0.49999999      -0.50000000
Zr       0.00000002       7.34758632      -0.17777773       0.00000000       0.49999999      -0.50000000
Zr       5.37735656       1.61467436      -1.61467429      -0.00000000      -0.49999999       0.50000000
Zr       3.58490439       3.94045984      -0.35555549       0.00000000       0.99999999      -1.00000000
Zr       1.79245222       5.19957865       1.97022997      -0.00000000      -0.49999999       0.50000000
Zr       7.16980876       0.17777780      -0.17777771       0.00000000       0.49999999      -0.50000000
Zr       5.37735659       1.97022994       1.61467442       0.00000000       0.49999999      -0.50000000
Zr       3.58490443       3.22934876       3.94045989      -0.00000000      -0.99999999       1.00000000
Zr       8.96226096      -1.43689655       1.43689666       0.00000000       0.99999999      -1.00000000
Zr       7.16980880      -0.17777773       3.76268212      -0.00000000      -0.49999999       0.50000000
Zr       5.37735663       1.61467442       5.55513425      -0.00000000      -0.49999999       0.50000000
Zr      10.75471317      -3.40712644       3.40712657       0.00000000       0.49999999      -0.50000000
Zr       8.96226100      -2.14800762       5.73291204      -0.00000000      -0.99999999       1.00000000
Zr       7.16980883       0.17777785       6.99203083       0.00000000       0.49999999      -0.50000000
Zr      12.54716537      -5.55513411       5.55513427      -0.00000000      -0.49999999       0.50000000
Zr      10.75471320      -3.76268197       7.34758640      -0.00000000      -0.49999999       0.50000000
Zr       8.96226104      -1.43689650       8.60670520       0.00000000       0.99999999      -1.00000000
Zr       5.37735653       5.19957861      -5.19957854      -0.00000000      -0.49999999       0.50000000
Zr       3.58490437       7.52536408      -3.94045974       0.00000000       0.99999999      -1.00000000
Zr       1.79245220       8.78448290      -1.61467428      -0.00000000      -0.49999999       0.50000000
Zr       7.16980874       3.76268204      -3.76268195       0.00000000       0.49999999      -0.50000000
Zr       5.37735657       5.55513419      -1.97022982       0.00000000       0.49999999      -0.50000000
Zr       3.58490440       6.81425301       0.35555564      -0.00000000      -0.99999999       1.00000000
Zr       8.96226094       2.14800770      -2.14800759       0.00000000       0.99999999      -1.00000000
Zr       7.16980877       3.40712652       0.17777788      -0.00000000      -0.49999999       0.50000000
Zr       5.37735660       5.19957866       1.97023000      -0.00000000      -0.49999999       0.50000000
Zr      10.75471314       0.17777781      -0.17777767       0.00000000       0.49999999      -0.50000000
Zr       8.96226097       1.43689662       2.14800779      -0.00000000      -0.99999999       1.00000000
Zr       7.16980881       3.76268210       3.40712659       0.00000000       0.49999999      -0.50000000
Zr      12.54716534      -1.97022986       1.97023003      -0.00000000      -0.49999999       0.50000000
Zr      10.75471318      -0.17777772       3.76268216      -0.00000000      -0.49999999       0.50000000
Zr       8.96226101       2.14800775       5.02180095       0.00000000       0.99999999      -1.00000000
Zr      14.33961755      -3.94045976       3.94045994      -0.00000000      -0.99999999       1.00000000
Zr      12.54716538      -1.61467429       5.19957874       0.00000000       0.49999999      -0.50000000
Zr      10.75471321       0.17777786       6.99203087       0.00000000       0.49999999      -0.50000000
Zr       7.16980871       7.34758629      -7.34758619       0.00000000       0.49999999      -0.50000000
Zr       5.37735654       9.14003844      -5.55513406       0.00000000       0.49999999      -0.50000000
Zr       3.58490437      10.39915726      -3.22934860      -0.00000000      -0.99999999       1.00000000
Zr       8.96226091       5.73291195      -5.73291183       0.00000000       0.99999999      -1.00000000
Zr       7.16980875       6.99203077      -3.40712637      -0.00000000      -0.49999999       0.50000000
Zr       5.37735658       8.78448291      -1.61467424      -0.00000000      -0.49999999       0.50000000
Zr      10.75471312       3.76268205      -3.76268191       0.00000000       0.49999999      -0.50000000
Zr       8.96226095       5.02180087      -1.43689645      -0.00000000      -0.99999999       1.00000000
Zr       7.16980878       7.34758634      -0.17777765       0.00000000       0.49999999      -0.50000000
Zr      12.54716532       1.61467438      -1.61467422      -0.00000000      -0.49999999       0.50000000
Zr      10.75471315       3.40712653       0.17777791      -0.00000000      -0.49999999       0.50000000
Zr       8.96226098       5.73291200       1.43689671       0.00000000       0.99999999      -1.00000000
Zr      14.33961752      -0.35555551       0.35555570      -0.00000000      -0.99999999       1.00000000
Zr      12.54716535       1.97022996       1.61467450       0.00000000       0.49999999      -0.50000000
Zr      10.75471319       3.76268211       3.40712663       0.00000000       0.49999999      -0.50000000
Zr      16.13206972      -1.97022985       1.97023006      -0.00000000      -0.49999999       0.50000000
Zr      14.33961756       0.35555562       3.22934886       0.00000000       0.99999999      -1.00000000
Zr      12.54716539       1.61467444       5.55513432      -0.00000000      -0.49999999       0.50000000
Zr       8.96226089       9.31781620      -9.31781608       0.00000000       0.99999999      -1.00000000
Zr       7.16980872      10.57693502      -6.99203061      -0.00000000      -0.49999999       0.50000000
Zr       5.37735655      12.36938716      -5.19957848      -0.00000000      -0.49999999       0.50000000
Zr      10.75471309       7.34758630      -7.34758616       0.00000000       0.49999999      -0.50000000
Zr       8.96226092       8.60670512      -5.02180070      -0.00000000      -0.99999999       1.00000000
Zr       7.16980876      10.93249059      -3.76268190       0.00000000       0.49999999      -0.50000000
Zr      12.54716529       5.19957863      -5.19957846      -0.00000000      -0.49999999       0.50000000
Zr      10.75471313       6.99203078      -3.40712633      -0.00000000      -0.49999999       0.50000000
Zr       8.96226096       9.31781625      -2.14800754       0.00000000       0.99999999      -1.00000000
Zr      14.33961749       3.22934874      -3.22934855      -0.00000000      -0.99999999       1.00000000
Zr      12.54716533       5.55513421      -1.97022975       0.00000000       0.49999999      -0.50000000
Zr      10.75471316       7.34758635      -0.17777762       0.00000000       0.49999999      -0.50000000
Zr      16.13206970       1.61467440      -1.61467418      -0.00000000      -0.49999999       0.50000000
Zr      14.33961753       3.94045987      -0.35555539       0.00000000       0.99999999      -1.00000000
Zr      12.54716536       5.19957868       1.97023008      -0.00000000      -0.49999999       0.50000000
Zr      17.92452190       0.17777783      -0.17777760       0.00000000       0.49999999      -0.50000000
Zr      16.13206973       1.97022997       1.61467453       0.00000000       0.49999999      -0.50000000
Zr      14.33961757       3.22934879       3.94045999      -0.00000000      -0.99999999       1.00000000
108
Lattice="-5.377356501055379 5.377356433855448 5.377356389513249 10.75471321732783 -10.754712714258055 10.75471284079072 10.754713064099535 10.754712776246816 -10.754712625573656" Properties=species:S:1:pos:R:3:mode_u:R:3 system=zr_bcc path_model=mattersim pattern_model=mattersim mlip_model=mattersim role=mode stem=zr_bcc_mattersim_q2d3-5d6-5d6-b0 q="0.6666666666666666 0.8333333333333334 0.8333333333333334" band=0 dim="3 6 6" m_eff=9852.19187197906 check_pass=True Q=0.45 index=9 mlip_energy_eV=-893.8072509765625 pbc="T T T"
Zr       0.00000000       0.22500000      -0.22500000       0.00000000       0.49999999      -0.50000000
Zr      -1.79245217       1.34245215       2.24245213      -0.00000000      -0.99999999       1.00000000
Zr      -3.58490433       3.80990429       3.35990426       0.00000000       0.49999999      -0.50000000
Zr       1.79245220      -2.01745212       2.01745214      -0.00000000      -0.49999999       0.50000000
Zr       0.00000004      -0.22499997       3.80990427      -0.00000000      -0.49999999       0.50000000
Zr      -1.79245213       2.24245216       4.92735640       0.00000000       0.99999999      -1.00000000
Zr       3.58490441      -4.03490423       4.03490428      -0.00000000      -0.99999999       1.00000000
Zr       1.79245224      -1.56745210       5.15235641       0.00000000       0.49999999      -0.50000000
Zr       0.00000007       0.22500005       6.94480854       0.00000000       0.49999999      -0.50000000
Zr       5.37735661      -5.60235635       5.60235642      -0.00000000      -0.49999999       0.50000000
Zr       3.58490444      -3.13490422       6.71980855       0.00000000       0.99999999      -1.00000000
Zr       1.79245227      -2.01745206       9.18726068      -0.00000000      -0.49999999       0.50000000
Zr       7.16980881      -6.94480848       6.94480856       0.00000000       0.49999999      -0.50000000
Zr       5.37735664      -5.15235633       8.73726069       0.00000000       0.49999999      -0.50000000
Zr       3.58490448      -4.03490418      11.20471282      -0.00000000      -0.99999999       1.00000000
Zr       8.96226102      -8.51226060       8.51226070       0.00000000       0.99999999      -1.00000000
Zr       7.16980885      -7.39480845      10.97971283      -0.00000000      -0.49999999       0.50000000
Zr       5.37735668      -5.60235630      12.77216496      -0.00000000      -0.49999999       0.50000000
Zr       1.79245218       1.56745213      -1.56745210      -0.00000000      -0.49999999       0.50000000
Zr       0.00000001       3.35990428       0.22500003      -0.00000000      -0.49999999       0.50000000
Zr      -1.79245216       5.82735641       1.34245216       0.00000000       0.99999999      -1.00000000
Zr       3.58490438      -0.44999998       0.45000004      -0.00000000      -0.99999999       1.00000000
Zr       1.79245221       2.01745215       1.56745217       0.00000000       0.49999999      -0.50000000
Zr       0.00000005       3.80990430       3.35990430       0.00000000       0.49999999      -0.50000000
Zr       5.37735658      -2.01745211       2.01745218      -0.00000000      -0.49999999       0.50000000
Zr       3.58490442       0.45000003       3.13490431       0.00000000       0.99999999      -1.00000000
Zr       1.79245225       1.56745218       5.60235644      -0.00000000      -0.49999999       0.50000000
Zr       7.16980879      -3.35990423       3.35990432       0.00000000       0.49999999      -0.50000000
Zr       5.37735662      -1.56745209       5.15235645       0.00000000       0.49999999      -0.50000000
Zr       3.58490445      -0.44999993       7.61980858      -0.00000000      -0.99999999       1.00000000
Zr       8.96226099      -4.92735635       4.92735646       0.00000000       0.99999999      -1.00000000
Zr       7.16980882      -3.80990420       7.39480859      -0.00000000      -0.49999999       0.50000000
Zr       5.37735665      -2.01745205       9.18726072      -0.00000000      -0.49999999       0.50000000
Zr      10.75471319      -6.94480847       6.94480860       0.00000000       0.49999999      -0.50000000
Zr       8.96226102      -5.82735632       9.41226073      -0.00000000      -0.99999999       1.00000000
Zr       7.16980886      -3.35990418      10.52971286       0.00000000       0.49999999      -0.50000000
Zr       3.58490435       3.13490426      -3.13490421      -0.00000000      -0.99999999       1.00000000
Zr       1.79245219       5.60235640      -2.01745208       0.00000000       0.49999999      -0.50000000
Zr       0.00000002       7.39480855      -0.22499995       0.00000000       0.49999999      -0.50000000
Zr       5.37735656       1.56745214      -1.56745207      -0.00000000      -0.49999999       0.50000000
Zr       3.58490439       4.03490428      -0.44999994       0.00000000       0.99999999      -1.00000000
Zr       1.79245222       5.15235643       2.01745219      -0.00000000      -0.49999999       0.50000000
Zr       7.16980876       0.22500002      -0.22499993       0.00000000       0.49999999      -0.50000000
Zr       5.37735659       2.01745216       1.56745220       0.00000000       0.49999999      -0.50000000
Zr       3.58490443       3.13490432       4.03490433      -0.00000000      -0.99999999       1.00000000
Zr       8.96226096      -1.34245210       1.34245221       0.00000000       0.99999999      -1.00000000
Zr       7.16980880      -0.22499995       3.80990434      -0.00000000      -0.49999999       0.50000000
Zr       5.37735663       1.56745219       5.60235647      -0.00000000      -0.49999999       0.50000000
Zr      10.75471317      -3.35990422       3.35990435       0.00000000       0.49999999      -0.50000000
Zr       8.96226100      -2.24245207       5.82735648      -0.00000000      -0.99999999       1.00000000
Zr       7.16980883       0.22500007       6.94480861       0.00000000       0.49999999      -0.50000000
Zr      12.54716537      -5.60235633       5.60235649      -0.00000000      -0.49999999       0.50000000
Zr      10.75471320      -3.80990419       7.39480862      -0.00000000      -0.49999999       0.50000000
Zr       8.96226104      -1.34245205       8.51226075       0.00000000       0.99999999      -1.00000000
Zr       5.37735653       5.15235639      -5.15235631      -0.00000000      -0.49999999       0.50000000
Zr       3.58490437       7.61980853      -4.03490418       0.00000000       0.99999999      -1.00000000
Zr       1.79245220       8.73726068      -1.56745205      -0.00000000      -0.49999999       0.50000000
Zr       7.16980874       3.80990427      -3.80990417       0.00000000       0.49999999      -0.50000000
Zr       5.37735657       5.60235641      -2.01745204       0.00000000       0.49999999      -0.50000000
Zr       3.58490440       6.71980856       0.45000009      -0.00000000      -0.99999999       1.00000000
Zr       8.96226094       2.24245214      -2.24245203       0.00000000       0.99999999      -1.00000000
Zr       7.16980877       3.35990430       0.22500010      -0.00000000      -0.49999999       0.50000000
Zr       5.37735660       5.15235644       2.01745223      -0.00000000      -0.49999999       0.50000000
Zr      10.75471314       0.22500003      -0.22499989       0.00000000       0.49999999      -0.50000000
Zr       8.96226097       1.34245218       2.24245224      -0.00000000      -0.99999999       1.00000000
Zr       7.16980881       3.80990432       3.35990437       0.00000000       0.49999999      -0.50000000
Zr      12.54716534      -2.01745209       2.01745225      -0.00000000      -0.49999999       0.50000000
Zr      10.75471318      -0.22499994       3.80990438      -0.00000000      -0.49999999       0.50000000
Zr       8.96226101       2.24245220       4.92735651       0.00000000       0.99999999      -1.00000000
Zr      14.33961755      -4.03490420       4.03490439      -0.00000000      -0.99999999       1.00000000
Zr      12.54716538      -1.56745207       5.15235652       0.00000000       0.49999999      -0.50000000
Zr      10.75471321       0.22500008       6.94480865       0.00000000       0.49999999      -0.50000000
Zr       7.16980871       7.39480851      -7.39480842       0.00000000       0.49999999      -0.50000000
Zr       5.37735654       9.18726066      -5.60235629       0.00000000       0.49999999      -0.50000000
Zr       3.58490437      10.30471281      -3.13490416      -0.00000000      -0.99999999       1.00000000
Zr       8.96226091       5.82735639      -5.82735628       0.00000000       0.99999999      -1.00000000
Zr       7.16980874       6.94480855      -3.35990415      -0.00000000      -0.49999999       0.50000000
Zr       5.37735658       8.73726069      -1.56745202      -0.00000000      -0.49999999       0.50000000
Zr      10.75471312       3.80990428      -3.80990414       0.00000000       0.49999999      -0.50000000
Zr       8.96226095       4.92735643      -1.34245201      -0.00000000      -0.99999999       1.00000000
Zr       7.16980878       7.39480857      -0.22499988       0.00000000       0.49999999      -0.50000000
Zr      12.54716532       1.56745216      -1.56745200      -0.00000000      -0.49999999       0.50000000
Zr      10.75471315       3.35990431       0.22500013      -0.00000000      -0.49999999       0.50000000
Zr       8.96226098       5.82735644       1.34245226       0.00000000       0.99999999      -1.00000000
Zr      14.33961752      -0.44999995       0.45000014      -0.00000000      -0.99999999       1.00000000
Zr      12.54716535       2.01745218       1.56745227       0.00000000       0.49999999      -0.50000000
Zr      10.75471319       3.80990433       3.35990440       0.00000000       0.49999999      -0.50000000
Zr      16.13206972      -2.01745207       2.01745228      -0.00000000      -0.49999999       0.50000000
Zr      14.33961756       0.45000006       3.13490441       0.00000000       0.99999999      -1.00000000
Zr      12.54716539       1.56745221       5.60235654      -0.00000000      -0.49999999       0.50000000
Zr       8.96226089       9.41226064      -9.41226052       0.00000000       0.99999999      -1.00000000
Zr       7.16980872      10.52971279      -6.94480839      -0.00000000      -0.49999999       0.50000000
Zr       5.37735655      12.32216494      -5.15235626      -0.00000000      -0.49999999       0.50000000
Zr      10.75471309       7.39480852      -7.39480838       0.00000000       0.49999999      -0.50000000
Zr       8.96226092       8.51226068      -4.92735625      -0.00000000      -0.99999999       1.00000000
Zr       7.16980876      10.97971281      -3.80990412       0.00000000       0.49999999      -0.50000000
Zr      12.54716529       5.15235641      -5.15235624      -0.00000000      -0.49999999       0.50000000
Zr      10.75471313       6.94480856      -3.35990411      -0.00000000      -0.49999999       0.50000000
Zr       8.96226096       9.41226069      -2.24245198       0.00000000       0.99999999      -1.00000000
Zr      14.33961749       3.13490430      -3.13490410      -0.00000000      -0.99999999       1.00000000
Zr      12.54716533       5.60235643      -2.01745197       0.00000000       0.49999999      -0.50000000
Zr      10.75471316       7.39480858      -0.22499984       0.00000000       0.49999999      -0.50000000
Zr      16.13206970       1.56745217      -1.56745196      -0.00000000      -0.49999999       0.50000000
Zr      14.33961753       4.03490431      -0.44999983       0.00000000       0.99999999      -1.00000000
Zr      12.54716536       5.15235646       2.01745230      -0.00000000      -0.49999999       0.50000000
Zr      17.92452190       0.22500005      -0.22499982       0.00000000       0.49999999      -0.50000000
Zr      16.13206973       2.01745219       1.56745231       0.00000000       0.49999999      -0.50000000
Zr      14.33961757       3.13490435       4.03490444      -0.00000000      -0.99999999       1.00000000
