
     Program PWSCF v.7.5 starts on  5Oct2026 at  0:31:10 

     This program is part of the open-source Quantum ESPRESSO suite
     for quantum simulation of materials; please cite
         "P. Giannozzi et al., J. Phys.:Condens. Matter 21 395502 (2009);
         "P. Giannozzi et al., J. Phys.:Condens. Matter 29 465901 (2017);
         "P. Giannozzi et al., J. Chem. Phys. 152 154105 (2020);
          URL http://www.quantum-espresso.org", 
     in publications or presentations arising from this work. More details at
     http://www.quantum-espresso.org/quote

     Parallel version (MPI & OpenMP), running on       8 processor cores
     Number of MPI processes:                 8
     Threads/MPI process:                     1

     MPI processes distributed on     1 nodes
     101248 MiB available memory on the printing compute node when the environment starts

     Reading input from pw.in

     Current dimensions of program PWSCF are:
     Max number of different atomic species (ntypx) = 10
     Max number of k-points (npk) =  40000
     Max angular momentum in pseudopotentials (lmaxx) =  4
     file K.pbe-spn-kjpaw_psl.1.0.0.UPF: wavefunction(s)  3S renormalized
     file Nb.pbe-spn-kjpaw_psl.0.3.0.UPF: wavefunction(s)  4S 4P renormalized
     file O.pbe-n-kjpaw_psl.0.1.UPF: wavefunction(s)  2P renormalized
     Message from routine setup:
     using ibrav=0 with symmetry is DISCOURAGED, use correct ibrav instead

     K-points division:     npool     =       8
     Subspace diagonalization in iterative solution of the eigenvalue problem:
     a serial algorithm will be used


     G-vector sticks info
     --------------------
     sticks:   dense  smooth     PW     G-vecs:    dense   smooth      PW
     Sum        2241    1117    325               160507    56679    8677

     Using Slab Decomposition



     bravais-lattice index     =            0
     lattice parameter (alat)  =       7.6704  a.u.
     unit-cell volume          =     902.5719 (a.u.)^3
     number of atoms/cell      =           10
     number of atomic types    =            3
     number of electrons       =        80.00
     number of Kohn-Sham states=           48
     kinetic-energy cutoff     =      60.0000  Ry
     charge density cutoff     =     480.0000  Ry
     scf convergence threshold =      1.0E-09
     mixing beta               =       0.4000
     number of iterations used =            8  plain     mixing
     Exchange-correlation= SLA  PW   PBX  PBC
                           (   1   4   3   4   0   0   0)

     celldm(1)=   7.670387  celldm(2)=   0.000000  celldm(3)=   0.000000
     celldm(4)=   0.000000  celldm(5)=   0.000000  celldm(6)=   0.000000

     crystal axes: (cart. coord. in units of alat)
               a(1) = (   1.000000  -0.000000  -0.000000 )  
               a(2) = (  -0.000000   1.000000  -0.000000 )  
               a(3) = (  -0.000000  -0.000000   2.000000 )  

     reciprocal axes: (cart. coord. in units 2 pi/alat)
               b(1) = (  1.000000  0.000000  0.000000 )  
               b(2) = (  0.000000  1.000000  0.000000 )  
               b(3) = (  0.000000  0.000000  0.500000 )  


     PseudoPot. # 1 for K  read from file:
     /root/sssp/K.pbe-spn-kjpaw_psl.1.0.0.UPF
     MD5 check sum: 7d58810084cac21f60fbe77ea2b688fd
     Pseudo is Projector augmented-wave + core cor, Zval =  9.0
     Generated using "atomic" code by A. Dal Corso  v.5.1
     Shape of augmentation charge: PSQ
     Using radial grid of 1165 points,  6 beta functions with: 
                l(1) =   0
                l(2) =   0
                l(3) =   1
                l(4) =   1
                l(5) =   2
                l(6) =   2
     Q(r) pseudized with 0 coefficients 


     PseudoPot. # 2 for Nb read from file:
     /root/sssp/Nb.pbe-spn-kjpaw_psl.0.3.0.UPF
     MD5 check sum: 411d72ad547312f8017e2943ceca08cc
     Pseudo is Projector augmented-wave + core cor, Zval = 13.0
     Generated using "atomic" code by A. Dal Corso  v.5.0.99 svn rev. 10869
     Shape of augmentation charge: PSQ
     Using radial grid of 1227 points,  6 beta functions with: 
                l(1) =   0
                l(2) =   0
                l(3) =   1
                l(4) =   1
                l(5) =   2
                l(6) =   2
     Q(r) pseudized with 0 coefficients 


     PseudoPot. # 3 for O  read from file:
     /root/sssp/O.pbe-n-kjpaw_psl.0.1.UPF
     MD5 check sum: 0234752ac141de4415c5fc33072bef88
     Pseudo is Projector augmented-wave + core cor, Zval =  6.0
     Generated using "atomic" code by A. Dal Corso  v.5.0.99 svn rev. 10869
     Shape of augmentation charge: BESSEL
     Using radial grid of 1095 points,  4 beta functions with: 
                l(1) =   0
                l(2) =   0
                l(3) =   1
                l(4) =   1
     Q(r) pseudized with 0 coefficients 


     atomic species   valence    mass     pseudopotential
     K                 9.00    39.09830     K ( 1.00)
     Nb               13.00    92.90640     Nb( 1.00)
     O                 6.00    15.99900     O ( 1.00)

      4 Sym. Ops., with inversion, found ( 2 have fractional translation)



   Cartesian axes

     site n.     atom                  positions (alat units)
         1        K      tau(   1) = (   1.0000000   1.0000000   0.0000000  )
         2        K      tau(   2) = (   1.0000000   1.0000000   1.0000000  )
         3        Nb     tau(   3) = (   0.5626368   0.5314627   0.5000000  )
         4        Nb     tau(   4) = (   0.4373631   0.4685373   1.5000000  )
         5        O      tau(   5) = (  -0.0875970   0.4634639   0.5000000  )
         6        O      tau(   6) = (   0.0875970   0.5365361   1.5000000  )
         7        O      tau(   7) = (   0.4272630  -0.0440003   0.5000000  )
         8        O      tau(   8) = (   0.5727371   0.0440003   1.5000000  )
         9        O      tau(   9) = (   0.5000000   0.5000000   0.0000000  )
        10        O      tau(  10) = (   0.5000000   0.5000000   1.0000000  )

     number of k points=    75  Marzari-Vanderbilt smearing, width (Ry)=  0.0050
                       cart. coord. in units 2pi/alat
        k(    1) = (   0.0000000   0.0000000   0.0000000), wk =   0.0102041
        k(    2) = (   0.0000000   0.0000000   0.1250000), wk =   0.0204082
        k(    3) = (  -0.0000000  -0.0000000  -0.2500000), wk =   0.0102041
        k(    4) = (   0.0000000   0.1428571   0.0000000), wk =   0.0204082
        k(    5) = (   0.0000000   0.1428571   0.1250000), wk =   0.0408163
        k(    6) = (  -0.0000000   0.1428571  -0.2500000), wk =   0.0204082
        k(    7) = (   0.0000000   0.2857143   0.0000000), wk =   0.0204082
        k(    8) = (   0.0000000   0.2857143   0.1250000), wk =   0.0408163
        k(    9) = (   0.0000000   0.2857143  -0.2500000), wk =   0.0204082
        k(   10) = (   0.0000000   0.4285714   0.0000000), wk =   0.0204082
        k(   11) = (   0.0000000   0.4285714   0.1250000), wk =   0.0408163
        k(   12) = (   0.0000000   0.4285714  -0.2500000), wk =   0.0204082
        k(   13) = (   0.1428571   0.1428571   0.0000000), wk =   0.0204082
        k(   14) = (   0.1428571   0.1428571   0.1250000), wk =   0.0408163
        k(   15) = (   0.1428571   0.1428571  -0.2500000), wk =   0.0204082
        k(   16) = (   0.1428571   0.2857143   0.0000000), wk =   0.0204082
        k(   17) = (   0.1428571   0.2857143   0.1250000), wk =   0.0408163
        k(   18) = (   0.1428571   0.2857143  -0.2500000), wk =   0.0204082
        k(   19) = (   0.1428571   0.4285714   0.0000000), wk =   0.0204082
        k(   20) = (   0.1428571   0.4285714   0.1250000), wk =   0.0408163
        k(   21) = (   0.1428571   0.4285714  -0.2500000), wk =   0.0204082
        k(   22) = (   0.2857143   0.2857143   0.0000000), wk =   0.0204082
        k(   23) = (   0.2857143   0.2857143   0.1250000), wk =   0.0408163
        k(   24) = (   0.2857143   0.2857143  -0.2500000), wk =   0.0204082
        k(   25) = (   0.2857143   0.4285714   0.0000000), wk =   0.0204082
        k(   26) = (   0.2857143   0.4285714   0.1250000), wk =   0.0408163
        k(   27) = (   0.2857143   0.4285714  -0.2500000), wk =   0.0204082
        k(   28) = (   0.4285714   0.4285714   0.0000000), wk =   0.0204082
        k(   29) = (   0.4285714   0.4285714   0.1250000), wk =   0.0408163
        k(   30) = (   0.4285714   0.4285714  -0.2500000), wk =   0.0204082
        k(   31) = (   0.1428571   0.0000000   0.0000000), wk =   0.0204082
        k(   32) = (   0.1428571   0.0000000  -0.1250000), wk =   0.0408163
        k(   33) = (   0.1428571   0.0000000   0.2500000), wk =   0.0204082
        k(   34) = (   0.2857143   0.0000000   0.0000000), wk =   0.0204082
        k(   35) = (   0.2857143   0.0000000  -0.1250000), wk =   0.0408163
        k(   36) = (   0.2857143   0.0000000   0.2500000), wk =   0.0204082
        k(   37) = (   0.4285714   0.0000000   0.0000000), wk =   0.0204082
        k(   38) = (   0.4285714   0.0000000  -0.1250000), wk =   0.0408163
        k(   39) = (   0.4285714   0.0000000   0.2500000), wk =   0.0204082
        k(   40) = (   0.1428571  -0.1428571   0.0000000), wk =   0.0204082
        k(   41) = (   0.1428571  -0.1428571   0.1250000), wk =   0.0408163
        k(   42) = (   0.1428571  -0.1428571  -0.2500000), wk =   0.0204082
        k(   43) = (   0.2857143   0.1428571   0.0000000), wk =   0.0204082
        k(   44) = (   0.2857143  -0.1428571   0.0000000), wk =   0.0204082
        k(   45) = (  -0.1428571   0.2857143  -0.0000000), wk =   0.0204082
        k(   46) = (   0.2857143   0.1428571  -0.1250000), wk =   0.0408163
        k(   47) = (   0.2857143  -0.1428571   0.1250000), wk =   0.0408163
        k(   48) = (  -0.1428571   0.2857143  -0.1250000), wk =   0.0408163
        k(   49) = (   0.2857143   0.1428571   0.2500000), wk =   0.0204082
        k(   50) = (   0.2857143  -0.1428571  -0.2500000), wk =   0.0204082
        k(   51) = (  -0.1428571   0.2857143   0.2500000), wk =   0.0204082
        k(   52) = (   0.4285714   0.1428571   0.0000000), wk =   0.0204082
        k(   53) = (   0.4285714  -0.1428571   0.0000000), wk =   0.0204082
        k(   54) = (  -0.1428571   0.4285714   0.0000000), wk =   0.0204082
        k(   55) = (   0.4285714   0.1428571  -0.1250000), wk =   0.0408163
        k(   56) = (   0.4285714  -0.1428571   0.1250000), wk =   0.0408163
        k(   57) = (  -0.1428571   0.4285714  -0.1250000), wk =   0.0408163
        k(   58) = (   0.4285714   0.1428571   0.2500000), wk =   0.0204082
        k(   59) = (   0.4285714  -0.1428571  -0.2500000), wk =   0.0204082
        k(   60) = (  -0.1428571   0.4285714   0.2500000), wk =   0.0204082
        k(   61) = (   0.2857143  -0.2857143   0.0000000), wk =   0.0204082
        k(   62) = (   0.2857143  -0.2857143   0.1250000), wk =   0.0408163
        k(   63) = (   0.2857143  -0.2857143  -0.2500000), wk =   0.0204082
        k(   64) = (   0.4285714   0.2857143   0.0000000), wk =   0.0204082
        k(   65) = (   0.4285714  -0.2857143   0.0000000), wk =   0.0204082
        k(   66) = (  -0.2857143   0.4285714  -0.0000000), wk =   0.0204082
        k(   67) = (   0.4285714   0.2857143  -0.1250000), wk =   0.0408163
        k(   68) = (   0.4285714  -0.2857143   0.1250000), wk =   0.0408163
        k(   69) = (  -0.2857143   0.4285714  -0.1250000), wk =   0.0408163
        k(   70) = (   0.4285714   0.2857143   0.2500000), wk =   0.0204082
        k(   71) = (   0.4285714  -0.2857143  -0.2500000), wk =   0.0204082
        k(   72) = (  -0.2857143   0.4285714   0.2500000), wk =   0.0204082
        k(   73) = (   0.4285714  -0.4285714   0.0000000), wk =   0.0204082
        k(   74) = (   0.4285714  -0.4285714   0.1250000), wk =   0.0408163
        k(   75) = (   0.4285714  -0.4285714  -0.2500000), wk =   0.0204082

     Dense  grid:   160507 G-vectors     FFT dimensions: (  54,  54, 108)

     Smooth grid:    56679 G-vectors     FFT dimensions: (  40,  40,  80)

     Estimated max dynamical RAM per process >     235.77 MB

     Estimated total dynamical RAM >       1.57 GB

     Check: negative core charge=   -0.000003

     Initial potential from superposition of free atoms

     starting charge      79.9581, renormalised to      80.0000
     Starting wfcs are   60 randomized atomic wfcs
     Checking if some PAW data can be deallocated... 

     total cpu time spent up to now is       23.8 secs

     per-process dynamical memory:   168.6 Mb

     Self-consistent Calculation

     iteration #  1     ecut=    60.00 Ry     beta= 0.40
     Davidson diagonalization with overlap
     ethr =  1.00E-02,  avg # of iterations =  3.0

     total cpu time spent up to now is       62.8 secs

     total energy              =   -1143.58595526 Ry
     estimated scf accuracy    <       4.31959396 Ry

     iteration #  2     ecut=    60.00 Ry     beta= 0.40
     Davidson diagonalization with overlap
     ethr =  5.40E-03,  avg # of iterations =  3.1

     total cpu time spent up to now is      104.1 secs

     total energy              =   -1144.76484573 Ry
     estimated scf accuracy    <       0.64341880 Ry

     iteration #  3     ecut=    60.00 Ry     beta= 0.40
     Davidson diagonalization with overlap
     ethr =  8.04E-04,  avg # of iterations =  2.0

     total cpu time spent up to now is      142.6 secs

     total energy              =   -1144.88008788 Ry
     estimated scf accuracy    <       0.04395502 Ry

     iteration #  4     ecut=    60.00 Ry     beta= 0.40
     Davidson diagonalization with overlap
     ethr =  5.49E-05,  avg # of iterations =  9.4

     total cpu time spent up to now is      213.4 secs

     total energy              =   -1144.88392944 Ry
     estimated scf accuracy    <       0.01101061 Ry

     iteration #  5     ecut=    60.00 Ry     beta= 0.40
     Davidson diagonalization with overlap
     ethr =  1.38E-05,  avg # of iterations =  3.3

     total cpu time spent up to now is      267.5 secs

     total energy              =   -1144.88525185 Ry
     estimated scf accuracy    <       0.00065746 Ry

     iteration #  6     ecut=    60.00 Ry     beta= 0.40
     Davidson diagonalization with overlap
     ethr =  8.22E-07,  avg # of iterations =  6.3

     total cpu time spent up to now is      320.8 secs

     total energy              =   -1144.88538503 Ry
     estimated scf accuracy    <       0.00010760 Ry

     iteration #  7     ecut=    60.00 Ry     beta= 0.40
     Davidson diagonalization with overlap
     ethr =  1.35E-07,  avg # of iterations =  2.6

     total cpu time spent up to now is      366.9 secs

     total energy              =   -1144.88541304 Ry
     estimated scf accuracy    <       0.00002160 Ry

     iteration #  8     ecut=    60.00 Ry     beta= 0.40
     Davidson diagonalization with overlap
     ethr =  2.70E-08,  avg # of iterations =  2.2

     total cpu time spent up to now is      408.3 secs

     total energy              =   -1144.88541732 Ry
     estimated scf accuracy    <       0.00000335 Ry

     iteration #  9     ecut=    60.00 Ry     beta= 0.40
     Davidson diagonalization with overlap
     ethr =  4.19E-09,  avg # of iterations =  3.8

     total cpu time spent up to now is      450.8 secs

     total energy              =   -1144.88541833 Ry
     estimated scf accuracy    <       0.00000187 Ry

     iteration # 10     ecut=    60.00 Ry     beta= 0.40
     Davidson diagonalization with overlap
     ethr =  2.34E-09,  avg # of iterations =  2.2

     total cpu time spent up to now is      488.4 secs

     total energy              =   -1144.88541876 Ry
     estimated scf accuracy    <       0.00000009 Ry

     iteration # 11     ecut=    60.00 Ry     beta= 0.40
     Davidson diagonalization with overlap
     ethr =  1.16E-10,  avg # of iterations =  3.7

     total cpu time spent up to now is      529.5 secs

     total energy              =   -1144.88541879 Ry
     estimated scf accuracy    <          5.8E-09 Ry

     iteration # 12     ecut=    60.00 Ry     beta= 0.40
     Davidson diagonalization with overlap
     ethr =  7.19E-12,  avg # of iterations =  3.9

     total cpu time spent up to now is      577.5 secs

     End of self-consistent calculation

          k = 0.0000 0.0000 0.0000 (  7121 PWs)   bands (ev):

   -46.1580 -46.1565 -24.8982 -24.8982 -22.0444 -22.0422 -21.9585 -21.8451
   -19.7513 -19.7268  -8.9804  -8.9092  -7.9751  -7.6870  -7.6740  -7.1347
    -3.3913  -3.3719  -3.2934  -3.2781  -3.1435  -3.0888   2.5667   2.6253
     2.7026   2.7256   3.4022   4.2471   4.9297   5.9638   6.2203   6.2972
     6.3073   6.4801   6.7616   6.7969   7.3353   7.3856   7.7047   7.8439
    10.6439  12.6521  12.8905  13.0176  13.7560  13.9938  14.6820  15.2594

          k = 0.0000 0.0000 0.1250 (  7094 PWs)   bands (ev):

   -46.1578 -46.1567 -24.8982 -24.8982 -22.0441 -22.0426 -21.9421 -21.8620
   -19.7476 -19.7303  -8.9683  -8.9171  -7.8709  -7.6881  -7.6707  -7.2693
    -3.3851  -3.3715  -3.2914  -3.2808  -3.1380  -3.0992   2.5784   2.6219
     2.7090   2.7239   3.6315   4.2103   5.0166   5.9460   6.0974   6.2081
     6.4450   6.5134   6.7501   6.7735   7.1607   7.2831   7.6037   7.7063
    11.0244  12.6658  12.8937  13.1011  13.8548  14.0802  14.3583  15.5182

          k =-0.0000-0.0000-0.2500 (  7078 PWs)   bands (ev):

   -46.1572 -46.1572 -24.8982 -24.8982 -22.0434 -22.0434 -21.9023 -21.9023
   -19.7388 -19.7388  -8.9407  -8.9407  -7.6998  -7.6998  -7.5635  -7.5635
    -3.3749  -3.3749  -3.2865  -3.2865  -3.1211  -3.1211   2.6039   2.6039
     2.7178   2.7178   4.0317   4.0317   5.4088   5.4088   6.1494   6.1494
     6.5852   6.5852   6.6945   6.6945   7.0767   7.0767   7.5797   7.5797
    11.8554  11.8554  13.4860  13.4860  13.5191  13.5191  15.0731  15.0731

          k = 0.0000 0.1429 0.0000 (  7101 PWs)   bands (ev):

   -46.1577 -46.1561 -24.8981 -24.8980 -22.0620 -22.0585 -21.9568 -21.8445
   -19.7469 -19.7259  -8.9183  -8.8705  -7.9827  -7.6537  -7.6276  -7.1464
    -3.3847  -3.3819  -3.2862  -3.2767  -3.1360  -3.0892   2.5319   2.5432
     2.6746   2.7582   3.3874   4.2933   4.8688   5.3793   6.1863   6.2473
     6.4381   6.5871   6.6904   6.8337   7.3078   7.3905   7.5525   7.8705
    10.9178  12.7166  12.8305  13.0818  13.7029  13.9950  14.6531  15.3543

          k = 0.0000 0.1429 0.1250 (  7112 PWs)   bands (ev):

   -46.1575 -46.1564 -24.8981 -24.8980 -22.0616 -22.0591 -21.9405 -21.8612
   -19.7438 -19.7289  -8.9092  -8.8745  -7.8774  -7.6528  -7.6283  -7.2808
    -3.3875  -3.3836  -3.2811  -3.2736  -3.1306  -3.0972   2.5273   2.5328
     2.6998   2.7572   3.6249   4.2462   4.9588   5.5001   5.9415   6.1579
     6.4458   6.6056   6.6578   6.8259   7.1377   7.2620   7.5829   7.8341
    11.2250  12.6838  12.9877  13.0377  13.6133  14.1915  14.4473  15.5892

          k =-0.0000 0.1429-0.2500 (  7106 PWs)   bands (ev):

   -46.1569 -46.1569 -24.8981 -24.8980 -22.0604 -22.0604 -21.9011 -21.9011
   -19.7363 -19.7363  -8.8895  -8.8895  -7.6659  -7.6659  -7.5678  -7.5678
    -3.3877  -3.3877  -3.2734  -3.2734  -3.1152  -3.1152   2.5229   2.5230
     2.7396   2.7396   4.0445   4.0445   5.3559   5.3559   5.8247   5.8247
     6.4852   6.4852   6.7661   6.7661   7.0802   7.0802   7.7188   7.7188
    11.9551  11.9551  13.3520  13.3520  13.5547  13.5547  15.1958  15.1958

          k = 0.0000 0.2857 0.0000 (  7083 PWs)   bands (ev):

   -46.1569 -46.1554 -24.8978 -24.8977 -22.1008 -22.0951 -21.9528 -21.8431
   -19.7372 -19.7241  -8.7980  -8.7817  -8.0037  -7.5613  -7.5099  -7.1729
    -3.4153  -3.3710  -3.3014  -3.2330  -3.1190  -3.0829   2.3637   2.4995
     2.6027   2.8366   3.3803   4.3595   4.7405   4.7796   5.8788   6.0283
     6.1368   6.6883   6.7107   6.8608   7.2447   7.2475   7.3092   8.1306
    11.4573  12.9068  12.9367  13.2212  13.5277  14.5834  14.5920  15.4424

          k = 0.0000 0.2857 0.1250 (  7098 PWs)   bands (ev):

   -46.1567 -46.1556 -24.8978 -24.8977 -22.1001 -22.0960 -21.9369 -21.8594
   -19.7353 -19.7260  -8.7919  -8.7815  -7.8986  -7.5557  -7.5181  -7.3051
    -3.4137  -3.3817  -3.2869  -3.2383  -3.1140  -3.0883   2.3755   2.4660
     2.6516   2.8113   3.6330   4.3013   4.8167   4.9426   5.7631   5.8043
     6.0707   6.4216   6.7959   6.8762   7.0756   7.2342   7.5336   8.0726
    11.6781  12.8264  13.0729  13.2106  13.4796  14.2497  14.9214  15.6879

          k = 0.0000 0.2857-0.2500 (  7098 PWs)   bands (ev):

   -46.1562 -46.1562 -24.8977 -24.8977 -22.0981 -22.0981 -21.8984 -21.8984
   -19.7306 -19.7306  -8.7837  -8.7837  -7.6353  -7.6353  -7.5180  -7.5180
    -3.4019  -3.4019  -3.2583  -3.2583  -3.1012  -3.1012   2.4125   2.4125
     2.7403   2.7403   4.0813   4.0814   5.1762   5.1762   5.3859   5.3859
     6.1340   6.1340   6.8727   6.8727   7.0658   7.0658   7.8849   7.8849
    12.2389  12.2389  13.3124  13.3124  13.6599  13.6599  15.5479  15.5479

          k = 0.0000 0.4286 0.0000 (  7081 PWs)   bands (ev):

   -46.1564 -46.1548 -24.8976 -24.8974 -22.1315 -22.1241 -21.9497 -21.8420
   -19.7296 -19.7226  -8.7506  -8.6795  -8.0228  -7.4723  -7.3997  -7.1944
    -3.4473  -3.3624  -3.3096  -3.1968  -3.1051  -3.0709   2.2501   2.4977
     2.5432   2.8975   3.3963   4.4043   4.4493   4.6153   5.4659   5.6797
     6.0965   6.5507   6.7899   6.9419   7.0548   7.1614   7.1992   8.3542
    11.8391  13.1457  13.2908  13.3204  13.7165  14.5259  15.1671  15.3127

          k = 0.0000 0.4286 0.1250 (  7070 PWs)   bands (ev):

   -46.1561 -46.1550 -24.8976 -24.8974 -22.1305 -22.1252 -21.9341 -21.8580
   -19.7286 -19.7236  -8.7362  -8.6873  -7.9183  -7.4604  -7.4225  -7.3175
    -3.4353  -3.3734  -3.2953  -3.2137  -3.1005  -3.0763   2.2815   2.4448
     2.6095   2.8485   3.6654   4.3423   4.6110   4.6899   5.3861   5.6157
     5.7481   6.3039   6.8886   6.9287   7.0481   7.1356   7.4267   8.2517
    12.0360  13.0296  13.2905  13.4641  13.7066  14.2146  15.3503  15.5191

          k = 0.0000 0.4286-0.2500 (  7090 PWs)   bands (ev):

   -46.1556 -46.1556 -24.8975 -24.8975 -22.1279 -22.1279 -21.8962 -21.8962
   -19.7261 -19.7261  -8.7087  -8.7087  -7.6484  -7.6484  -7.4253  -7.4253
    -3.4047  -3.4047  -3.2550  -3.2550  -3.0888  -3.0888   2.3590   2.3590
     2.7309   2.7310   4.1379   4.1379   4.9526   4.9526   5.1031   5.1031
     5.8697   5.8697   6.9439   6.9439   7.0215   7.0215   7.9398   7.9398
    12.5203  12.5203  13.5662  13.5662  13.7459  13.7459  15.5388  15.5389

          k = 0.1429 0.1429 0.0000 (  7099 PWs)   bands (ev):

   -46.1573 -46.1557 -24.9111 -24.9105 -22.0619 -22.0583 -21.9548 -21.8439
   -19.7442 -19.7248  -8.8412  -8.7808  -7.9852  -7.6127  -7.6002  -7.1539
    -3.3797  -3.3773  -3.2987  -3.2940  -3.1397  -3.0783   2.4781   2.5239
     2.5579   2.7477   3.3346   3.9845   4.7226   5.3840   5.8411   6.1547
     6.1572   6.7579   6.7623   6.9902   7.2845   7.3131   7.6069   7.8988
    10.9634  12.8366  12.9795  13.0755  13.5106  14.3505  14.7589  15.6666

          k = 0.1429 0.1429 0.1250 (  7108 PWs)   bands (ev):

   -46.1571 -46.1560 -24.9110 -24.9106 -22.0615 -22.0589 -21.9387 -21.8604
   -19.7413 -19.7275  -8.8300  -8.7864  -7.8805  -7.6097  -7.6035  -7.2873
    -3.3861  -3.3775  -3.2964  -3.2920  -3.1294  -3.0859   2.4986   2.5260
     2.5805   2.7128   3.5274   3.9588   4.8443   5.4804   5.8183   5.9262
     6.1723   6.5865   6.8266   6.9875   7.1574   7.2040   7.6125   7.8472
    11.2708  12.7196  13.0294  13.1978  13.4845  14.3344  14.7669  15.8485

          k = 0.1429 0.1429-0.2500 (  7104 PWs)   bands (ev):

   -46.1565 -46.1565 -24.9108 -24.9108 -22.0602 -22.0602 -21.8998 -21.8998
   -19.7344 -19.7344  -8.8057  -8.8057  -7.6440  -7.6440  -7.5604  -7.5604
    -3.3850  -3.3850  -3.2921  -3.2921  -3.1064  -3.1064   2.5214   2.5215
     2.6417   2.6417   3.8318   3.8318   5.3208   5.3208   5.7026   5.7026
     6.2600   6.2600   6.9159   6.9159   7.1088   7.1088   7.7245   7.7245
    11.9916  11.9916  13.3049  13.3049  13.7311  13.7311  15.4692  15.4692

          k = 0.1429 0.2857 0.0000 (  7073 PWs)   bands (ev):

   -46.1565 -46.1550 -24.9105 -24.9101 -22.1004 -22.0948 -21.9512 -21.8425
   -19.7357 -19.7224  -8.7335  -8.6989  -7.9953  -7.4953  -7.4849  -7.1687
    -3.4187  -3.3621  -3.3387  -3.2662  -3.1377  -3.0784   2.4135   2.5298
     2.5623   2.7377   3.3041   3.9822   4.6035   4.8120   5.5856   5.8883
     6.0895   6.6827   6.7955   6.8485   7.2293   7.2623   7.3798   8.1653
    11.5032  12.8923  13.1175  13.2557  13.4142  14.7354  14.8887  15.7254

          k = 0.1429 0.2857 0.1250 (  7095 PWs)   bands (ev):

   -46.1563 -46.1552 -24.9104 -24.9101 -22.0997 -22.0957 -21.9355 -21.8586
   -19.7337 -19.7243  -8.7249  -8.7007  -7.8899  -7.4929  -7.4898  -7.3015
    -3.4174  -3.3769  -3.3235  -3.2723  -3.1271  -3.0849   2.4276   2.5087
     2.5976   2.7166   3.5035   3.9500   4.7221   4.9418   5.5379   5.7517
     5.9219   6.5111   6.7692   6.8621   7.1121   7.2061   7.5758   8.1001
    11.7215  12.8549  13.0857  13.3671  13.3916  14.3909  15.2904  15.8783

          k = 0.1429 0.2857-0.2500 (  7090 PWs)   bands (ev):

   -46.1558 -46.1558 -24.9103 -24.9103 -22.0978 -22.0978 -21.8972 -21.8972
   -19.7290 -19.7290  -8.7097  -8.7097  -7.6190  -7.6190  -7.4826  -7.4826
    -3.4032  -3.4032  -3.2940  -3.2940  -3.1039  -3.1039   2.4638   2.4639
     2.6645   2.6646   3.8137   3.8137   5.1635   5.1635   5.2963   5.2963
     6.0408   6.0408   6.8412   6.8412   7.1036   7.1036   7.9001   7.9001
    12.2719  12.2719  13.2850  13.2850  13.8192  13.8192  15.8837  15.8837

          k = 0.1429 0.4286 0.0000 (  7069 PWs)   bands (ev):

   -46.1560 -46.1544 -24.9103 -24.9098 -22.1305 -22.1238 -21.9484 -21.8413
   -19.7288 -19.7205  -8.6518  -8.6001  -8.0092  -7.4302  -7.3819  -7.1812
    -3.4646  -3.3717  -3.3386  -3.2309  -3.1438  -3.0802   2.2723   2.5018
     2.5120   2.7934   3.3026   4.0315   4.4768   4.5191   5.3787   5.6731
     6.0343   6.6910   6.7100   6.7778   7.1062   7.2318   7.2544   8.3783
    11.8931  13.2260  13.2976  13.3561  13.5902  14.6655  15.1311  15.6938

          k = 0.1429 0.4286 0.1250 (  7068 PWs)   bands (ev):

   -46.1557 -46.1546 -24.9102 -24.9099 -22.1296 -22.1249 -21.9329 -21.8571
   -19.7276 -19.7218  -8.6397  -8.6048  -7.9046  -7.4252  -7.3968  -7.3064
    -3.4519  -3.3791  -3.3321  -3.2484  -3.1327  -3.0876   2.3041   2.4609
     2.5597   2.7529   3.5185   3.9940   4.5834   4.6642   5.3233   5.5783
     5.7571   6.3959   6.7784   6.8267   7.0825   7.2185   7.4495   8.2711
    12.0774  13.0511  13.3628  13.4752  13.5845  14.3581  15.5479  15.8018

          k = 0.1429 0.4286-0.2500 (  7072 PWs)   bands (ev):

   -46.1552 -46.1552 -24.9101 -24.9100 -22.1273 -22.1273 -21.8952 -21.8952
   -19.7247 -19.7247  -8.6189  -8.6189  -7.6328  -7.6328  -7.3984  -7.3984
    -3.4171  -3.4171  -3.2914  -3.2914  -3.1082  -3.1082   2.3811   2.3811
     2.6566   2.6567   3.8497   3.8497   4.9556   4.9556   5.0993   5.0993
     5.8861   5.8861   6.8137   6.8137   7.1114   7.1114   7.9499   7.9499
    12.5414  12.5414  13.5080  13.5080  13.8635  13.8635  15.8935  15.8935

          k = 0.2857 0.2857 0.0000 (  7105 PWs)   bands (ev):

   -46.1557 -46.1542 -24.9393 -24.9384 -22.0987 -22.0942 -21.9479 -21.8409
   -19.7316 -19.7187  -8.5299  -8.4581  -7.9811  -7.4591  -7.4129  -7.1600
    -3.4653  -3.3954  -3.3651  -3.3111  -3.1792  -3.0790   2.2919   2.3507
     2.3840   2.6206   3.0682   3.3963   4.3895   4.9621   5.2644   5.5855
     6.0115   6.8426   6.9529   6.9644   7.1882   7.3560   7.4577   8.1801
    11.5838  12.9532  13.2198  13.3204  13.7579  15.0120  15.0174  16.1212

          k = 0.2857 0.2857 0.1250 (  7085 PWs)   bands (ev):

   -46.1555 -46.1544 -24.9392 -24.9385 -22.0981 -22.0950 -21.9323 -21.8567
   -19.7297 -19.7206  -8.5150  -8.4651  -7.8771  -7.4518  -7.4234  -7.2915
    -3.4592  -3.3903  -3.3781  -3.3159  -3.1613  -3.0904   2.3111   2.3473
     2.4173   2.5761   3.1716   3.3831   4.6036   5.0474   5.2603   5.6102
     5.7581   6.5492   6.9166   6.9948   7.1836   7.2830   7.6018   8.0989
    11.7910  12.8816  13.1272  13.3181  13.8899  14.7097  15.5360  16.2065

          k = 0.2857 0.2857-0.2500 (  7088 PWs)   bands (ev):

   -46.1549 -46.1549 -24.9388 -24.9388 -22.0966 -22.0966 -21.8947 -21.8947
   -19.7252 -19.7252  -8.4867  -8.4866  -7.6054  -7.6054  -7.4312  -7.4312
    -3.4328  -3.4328  -3.3423  -3.3423  -3.1226  -3.1226   2.3371   2.3371
     2.4907   2.4907   3.3181   3.3182   5.1581   5.1581   5.2562   5.2562
     5.8487   5.8487   6.9798   6.9798   7.2162   7.2162   7.8831   7.8831
    12.3165  12.3165  13.2567  13.2567  14.2520  14.2520  16.2736  16.2736

          k = 0.2857 0.4286 0.0000 (  7082 PWs)   bands (ev):

   -46.1551 -46.1536 -24.9387 -24.9380 -22.1281 -22.1232 -21.9459 -21.8394
   -19.7267 -19.7160  -8.4298  -8.3738  -7.9822  -7.3724  -7.3271  -7.1512
    -3.5202  -3.4464  -3.3703  -3.3038  -3.2056  -3.0980   2.1982   2.3961
     2.4038   2.6069   3.0673   3.4347   4.3333   4.7191   5.0156   5.2743
     5.9213   6.8645   6.8965   6.8981   7.2305   7.3216   7.3727   8.4108
    11.9473  13.1548  13.3935  13.4809  13.8494  14.9319  14.9935  15.8966

          k = 0.2857 0.4286 0.1250 (  7074 PWs)   bands (ev):

   -46.1549 -46.1538 -24.9386 -24.9381 -22.1275 -22.1240 -21.9304 -21.8552
   -19.7251 -19.7176  -8.4170  -8.3792  -7.8762  -7.3712  -7.3336  -7.2826
    -3.5029  -3.4307  -3.3878  -3.3209  -3.1908  -3.1119   2.2311   2.3799
     2.4245   2.5705   3.1832   3.4164   4.5241   4.8148   5.0160   5.2972
     5.6446   6.4804   6.9027   6.9659   7.2605   7.3154   7.5140   8.2913
    12.1169  13.0778  13.2902  13.4731  13.9669  14.7015  15.4793  16.0575

          k = 0.2857 0.4286-0.2500 (  7078 PWs)   bands (ev):

   -46.1543 -46.1543 -24.9384 -24.9384 -22.1258 -22.1258 -21.8930 -21.8930
   -19.7214 -19.7214  -8.3950  -8.3950  -7.5989  -7.5989  -7.3476  -7.3476
    -3.4568  -3.4568  -3.3660  -3.3660  -3.1501  -3.1501   2.3083   2.3083
     2.4954   2.4954   3.3432   3.3432   4.8959   4.8959   5.1407   5.1407
     5.6877   5.6877   6.9498   6.9498   7.2773   7.2773   7.9587   7.9587
    12.5647  12.5647  13.4001  13.4001  14.2903  14.2903  16.2968  16.2968

          k = 0.4286 0.4286 0.0000 (  7070 PWs)   bands (ev):

   -46.1544 -46.1529 -24.9615 -24.9605 -22.1259 -22.1228 -21.9438 -21.8379
   -19.7248 -19.7124  -8.2502  -8.1741  -7.9669  -7.3358  -7.2571  -7.1265
    -3.5735  -3.5122  -3.4145  -3.3595  -3.2273  -3.1114   2.1186   2.2890
     2.3123   2.4849   2.7530   2.9169   4.2332   4.8516   4.8969   5.0901
     5.8375   6.9789   6.9896   7.0505   7.2751   7.4030   7.5474   8.4257
    11.9455  13.2054  13.4634  13.5588  14.3501  14.8135  15.3388  15.8806

          k = 0.4286 0.4286 0.1250 (  7064 PWs)   bands (ev):

   -46.1542 -46.1531 -24.9613 -24.9606 -22.1255 -22.1233 -21.9285 -21.8536
   -19.7230 -19.7142  -8.2361  -8.1837  -7.8577  -7.3249  -7.2744  -7.2578
    -3.5503  -3.4944  -3.4199  -3.3738  -3.2252  -3.1355   2.1534   2.2856
     2.3239   2.4473   2.7997   2.9067   4.4979   4.8597   4.9686   5.1256
     5.6282   6.5091   7.0216   7.1092   7.3186   7.4940   7.5640   8.2956
    12.1221  13.1394  13.3170  13.5326  14.4481  15.0381  15.4005  16.0936

          k = 0.4286 0.4286-0.2500 (  7068 PWs)   bands (ev):

   -46.1536 -46.1536 -24.9610 -24.9610 -22.1245 -22.1245 -21.8912 -21.8912
   -19.7186 -19.7186  -8.2084  -8.2083  -7.5740  -7.5740  -7.2969  -7.2969
    -3.4993  -3.4993  -3.4110  -3.4110  -3.1896  -3.1896   2.2290   2.2290
     2.3788   2.3788   2.8687   2.8687   4.8533   4.8533   5.2087   5.2087
     5.6040   5.6040   7.0780   7.0780   7.4094   7.4094   7.9591   7.9591
    12.5912  12.5912  13.4319  13.4319  14.7156  14.7156  16.3611  16.3612

          k = 0.1429 0.0000 0.0000 (  7101 PWs)   bands (ev):

   -46.1576 -46.1561 -24.9116 -24.9109 -22.0442 -22.0420 -21.9565 -21.8445
   -19.7477 -19.7258  -8.8642  -8.8068  -7.9855  -7.6881  -7.6597  -7.1477
    -3.3885  -3.3817  -3.2888  -3.2703  -3.1447  -3.0827   2.4180   2.4598
     2.5315   2.7874   3.3360   4.0652   4.7323   5.9126   6.2248   6.2503
     6.3904   6.4430   6.6938   6.8980   7.3308   7.3429   7.6844   7.8272
    10.6969  12.8894  12.9601  13.0317  13.7048  14.1126  14.7292  15.5586

          k = 0.1429 0.0000-0.1250 (  7112 PWs)   bands (ev):

   -46.1574 -46.1563 -24.9115 -24.9110 -22.0440 -22.0424 -21.9403 -21.8611
   -19.7445 -19.7290  -8.8536  -8.8119  -7.8843  -7.6854  -7.6597  -7.2804
    -3.3881  -3.3823  -3.2873  -3.2739  -3.1341  -3.0905   2.4297   2.5111
     2.5194   2.7390   3.5408   4.0321   4.8581   5.9224   6.0579   6.2087
     6.3752   6.5114   6.7082   6.8944   7.1889   7.2796   7.5706   7.6931
    11.0654  12.6595  13.1026  13.1713  13.6909  14.2473  14.5660  15.7113

          k = 0.1429 0.0000 0.2500 (  7106 PWs)   bands (ev):

   -46.1568 -46.1568 -24.9112 -24.9112 -22.0432 -22.0432 -21.9009 -21.9009
   -19.7366 -19.7366  -8.8303  -8.8303  -7.7049  -7.7049  -7.5640  -7.5640
    -3.3853  -3.3853  -3.2816  -3.2816  -3.1109  -3.1109   2.4726   2.4726
     2.6275   2.6275   3.8778   3.8778   5.3472   5.3472   6.1151   6.1151
     6.4559   6.4559   6.8181   6.8181   7.1200   7.1200   7.5573   7.5573
    11.8746  11.8746  13.4442  13.4442  13.6880  13.6880  15.2853  15.2853

          k = 0.2857 0.0000 0.0000 (  7083 PWs)   bands (ev):

   -46.1567 -46.1552 -24.9411 -24.9396 -22.0439 -22.0415 -21.9518 -21.8430
   -19.7398 -19.7237  -8.5949  -8.5707  -8.0052  -7.6748  -7.6378  -7.1770
    -3.4163  -3.3823  -3.2812  -3.2525  -3.1463  -3.0514   2.1421   2.2182
     2.3218   2.7275   3.0305   3.4729   4.3094   5.7979   6.2617   6.3456
     6.5255   6.5277   6.6924   6.8182   7.1888   7.3558   7.6657   7.8073
    10.8134  12.9724  13.1891  13.5790  13.6563  14.6234  14.8865  15.7704

          k = 0.2857 0.0000-0.1250 (  7098 PWs)   bands (ev):

   -46.1565 -46.1554 -24.9408 -24.9398 -22.0436 -22.0419 -21.9361 -21.8592
   -19.7374 -19.7260  -8.5856  -8.5694  -7.9129  -7.6716  -7.6396  -7.3035
    -3.4141  -3.3899  -3.2782  -3.2574  -3.1291  -3.0627   2.1791   2.2791
     2.3051   2.6320   3.1441   3.4445   4.5532   5.8496   6.0491   6.2265
     6.4713   6.5615   6.7673   6.8570   7.2072   7.2259   7.5358   7.6761
    11.1593  12.6606  13.3427  13.6416  13.7242  14.5740  15.0455  15.8531

          k = 0.2857 0.0000 0.2500 (  7098 PWs)   bands (ev):

   -46.1560 -46.1560 -24.9403 -24.9403 -22.0428 -22.0428 -21.8978 -21.8978
   -19.7317 -19.7317  -8.5728  -8.5728  -7.7239  -7.7239  -7.5556  -7.5556
    -3.4045  -3.4045  -3.2687  -3.2687  -3.0931  -3.0931   2.2527   2.2527
     2.4375   2.4375   3.3343   3.3343   5.2500   5.2500   6.0642   6.0642
     6.4934   6.4935   6.8747   6.8747   7.1509   7.1509   7.5154   7.5154
    11.9236  11.9236  13.5399  13.5399  14.1117  14.1117  15.7984  15.7991

          k = 0.4286 0.0000 0.0000 (  7081 PWs)   bands (ev):

   -46.1560 -46.1545 -24.9645 -24.9625 -22.0435 -22.0410 -21.9481 -21.8419
   -19.7335 -19.7220  -8.4251  -8.3233  -8.0134  -7.6518  -7.6257  -7.2006
    -3.4532  -3.3775  -3.2741  -3.2381  -3.1461  -3.0147   1.9318   2.1427
     2.2880   2.5600   2.6588   2.8392   4.1092   5.7069   6.2945   6.3931
     6.5861   6.6390   6.6686   6.8647   7.0390   7.3456   7.6735   7.8129
    10.9064  12.9565  13.4311  13.7355  14.2109  15.0166  15.1283  16.0548

          k = 0.4286 0.0000-0.1250 (  7070 PWs)   bands (ev):

   -46.1558 -46.1547 -24.9642 -24.9628 -22.0433 -22.0414 -21.9326 -21.8576
   -19.7318 -19.7237  -8.3981  -8.3313  -7.9329  -7.6505  -7.6288  -7.3195
    -3.4427  -3.3889  -3.2693  -3.2437  -3.1282  -3.0347   2.0000   2.1835
     2.2848   2.5000   2.6471   2.8120   4.4231   5.7797   6.0750   6.2339
     6.5514   6.6084   6.7467   6.9406   7.1245   7.1896   7.5540   7.6716
    11.2364  12.6647  13.5978  13.7510  14.2879  14.8251  15.4792  16.1040

          k = 0.4286 0.0000 0.2500 (  7090 PWs)   bands (ev):

   -46.1553 -46.1553 -24.9635 -24.9635 -22.0425 -22.0425 -21.8953 -21.8953
   -19.7278 -19.7278  -8.3565  -8.3565  -7.7447  -7.7447  -7.5399  -7.5399
    -3.4163  -3.4163  -3.2569  -3.2569  -3.0824  -3.0824   2.1523   2.1523
     2.3323   2.3323   2.7339   2.7339   5.2169   5.2169   6.0248   6.0248
     6.5669   6.5669   6.8697   6.8697   7.1778   7.1778   7.4862   7.4862
    11.9673  11.9673  13.7429  13.7429  14.5183  14.5183  16.0572  16.0572

          k = 0.1429-0.1429 0.0000 (  7099 PWs)   bands (ev):

   -46.1573 -46.1557 -24.9116 -24.9108 -22.0613 -22.0584 -21.9550 -21.8437
   -19.7436 -19.7248  -8.7668  -8.7477  -7.9927  -7.6931  -7.6321  -7.1542
    -3.4159  -3.3921  -3.2878  -3.2692  -3.1329  -3.0822   2.3317   2.3437
     2.4442   2.7995   3.3544   4.2036   4.7409   5.4315   6.2264   6.2409
     6.3529   6.6872   6.7208   6.9010   7.3210   7.3296   7.5587   7.8220
    10.9753  12.8771  12.9130  13.1606  13.5195  14.1209  14.6636  15.3866

          k = 0.1429-0.1429 0.1250 (  7108 PWs)   bands (ev):

   -46.1571 -46.1560 -24.9115 -24.9110 -22.0610 -22.0589 -21.9389 -21.8602
   -19.7408 -19.7275  -8.7615  -8.7468  -7.8916  -7.6883  -7.6352  -7.2865
    -3.4171  -3.4011  -3.2837  -3.2696  -3.1213  -3.0859   2.3196   2.3239
     2.5196   2.7558   3.5771   4.1535   4.8636   5.5379   5.9724   6.1583
     6.3649   6.5495   6.7813   6.9180   7.1936   7.2902   7.5319   7.7876
    11.2626  12.6749  13.0417  13.2355  13.4572  14.2794  14.5756  15.5768

          k = 0.1429-0.1429-0.2500 (  7104 PWs)   bands (ev):

   -46.1565 -46.1565 -24.9112 -24.9112 -22.0600 -22.0600 -21.8998 -21.8998
   -19.7341 -19.7341  -8.7513  -8.7513  -7.7019  -7.7019  -7.5633  -7.5633
    -3.4139  -3.4139  -3.2751  -3.2751  -3.0997  -3.0997   2.3119   2.3120
     2.6471   2.6471   3.9592   3.9592   5.3377   5.3377   5.8355   5.8356
     6.4132   6.4132   6.8727   6.8727   7.1541   7.1541   7.6706   7.6706
    11.9601  11.9601  13.2742  13.2742  13.7168  13.7168  15.2830  15.2830

          k = 0.2857 0.1429 0.0000 (  7073 PWs)   bands (ev):

   -46.1564 -46.1549 -24.9403 -24.9391 -22.0611 -22.0577 -21.9505 -21.8425
   -19.7375 -19.7221  -8.6065  -8.5487  -7.9923  -7.5847  -7.5511  -7.1715
    -3.4181  -3.3729  -3.3068  -3.2996  -3.1522  -3.0595   2.2253   2.2822
     2.4232   2.6846   3.0040   3.4026   4.3384   5.4372   5.8070   6.0908
     6.1341   6.7970   6.8800   6.9705   7.1804   7.3476   7.6104   7.8981
    11.0678  13.0149  13.0523  13.4331  13.6266  14.8745  14.9630  15.9185

          k = 0.2857-0.1429 0.0000 (  7073 PWs)   bands (ev):

   -46.1564 -46.1549 -24.9409 -24.9395 -22.0604 -22.0580 -21.9508 -21.8421
   -19.7368 -19.7222  -8.5000  -8.4630  -8.0145  -7.7038  -7.6214  -7.1719
    -3.4617  -3.3942  -3.2895  -3.2804  -3.1443  -3.0510   2.0896   2.1627
     2.1803   2.7167   3.1131   3.5654   4.3497   5.4779   6.1747   6.2548
     6.3996   6.7625   6.8275   6.8657   7.1831   7.3679   7.5773   7.7989
    11.0852  13.0050  13.1367  13.5122  13.6548  14.4973  14.8241  15.5888

          k =-0.1429 0.2857-0.0000 (  7073 PWs)   bands (ev):

   -46.1566 -46.1550 -24.9111 -24.9104 -22.0998 -22.0949 -21.9515 -21.8422
   -19.7350 -19.7225  -8.6643  -8.6244  -8.0054  -7.6118  -7.5193  -7.1691
    -3.4593  -3.3935  -3.3107  -3.2478  -3.1306  -3.0734   2.1545   2.3295
     2.4524   2.8065   3.3723   4.2855   4.7286   4.8795   5.7271   5.8238
     6.1529   6.7506   6.8646   7.0106   7.1754   7.2852   7.3752   8.1031
    11.5164  12.9812  13.0150  13.3337  13.3338  14.5166  14.6153  15.3241

          k = 0.2857 0.1429-0.1250 (  7095 PWs)   bands (ev):

   -46.1562 -46.1551 -24.9402 -24.9393 -22.0607 -22.0583 -21.9348 -21.8585
   -19.7352 -19.7244  -8.5935  -8.5526  -7.8932  -7.5777  -7.5604  -7.2997
    -3.4164  -3.3847  -3.3048  -3.2977  -3.1358  -3.0707   2.2793   2.3143
     2.4088   2.6021   3.1121   3.3839   4.5739   5.5159   5.7876   5.8981
     6.1271   6.6194   6.8534   6.9944   7.1706   7.2547   7.5865   7.8227
    11.3630  12.7394  13.1752  13.4216  13.7747  14.6394  15.3206  16.0103

          k = 0.2857-0.1429 0.1250 (  7095 PWs)   bands (ev):

   -46.1562 -46.1551 -24.9407 -24.9397 -22.0601 -22.0584 -21.9351 -21.8583
   -19.7346 -19.7243  -8.4880  -8.4646  -7.9230  -7.6971  -7.6257  -7.2985
    -3.4573  -3.4096  -3.2886  -3.2794  -3.1257  -3.0606   2.0883   2.1177
     2.2960   2.6404   3.2338   3.5333   4.5810   5.5662   5.9702   6.1095
     6.4182   6.6177   6.8541   6.8990   7.2113   7.2713   7.5347   7.7407
    11.3548  12.7014  13.2411  13.4824  13.7753  14.5581  14.9515  15.7169

          k =-0.1429 0.2857-0.1250 (  7095 PWs)   bands (ev):

   -46.1563 -46.1552 -24.9110 -24.9105 -22.0991 -22.0956 -21.9357 -21.8584
   -19.7332 -19.7243  -8.6545  -8.6277  -7.9021  -7.6047  -7.5286  -7.3000
    -3.4547  -3.4055  -3.3043  -3.2563  -3.1170  -3.0768   2.1701   2.2821
     2.5255   2.7621   3.6108   4.2308   4.8330   5.0118   5.6690   5.7851
     5.8918   6.4223   6.9399   7.0460   7.1669   7.2161   7.5436   8.0371
    11.7134  12.8294  13.0621  13.2966  13.3977  14.3140  14.9263  15.5766

          k = 0.2857 0.1429 0.2500 (  7090 PWs)   bands (ev):

   -46.1557 -46.1556 -24.9397 -24.9397 -22.0596 -22.0596 -21.8968 -21.8968
   -19.7298 -19.7298  -8.5690  -8.5690  -7.6535  -7.6535  -7.5270  -7.5270
    -3.4053  -3.4053  -3.2995  -3.2995  -3.1007  -3.1007   2.3626   2.3626
     2.4339   2.4339   3.2896   3.2896   5.2414   5.2414   5.7003   5.7003
     6.2233   6.2233   6.9390   6.9390   7.1882   7.1882   7.6801   7.6801
    12.0495  12.0495  13.3535  13.3535  14.1634  14.1634  15.9742  15.9743

          k = 0.2857-0.1429-0.2500 (  7090 PWs)   bands (ev):

   -46.1557 -46.1556 -24.9402 -24.9402 -22.0593 -22.0593 -21.8969 -21.8969
   -19.7295 -19.7295  -8.4719  -8.4719  -7.7390  -7.7390  -7.5487  -7.5487
    -3.4388  -3.4388  -3.2829  -3.2829  -3.0889  -3.0889   2.0968   2.0968
     2.4708   2.4708   3.4246   3.4246   5.2616   5.2616   5.8103   5.8103
     6.4730   6.4730   6.8873   6.8873   7.2133   7.2133   7.6204   7.6204
    12.0117  12.0117  13.3852  13.3852  14.1258  14.1258  15.6454  15.6454

          k =-0.1429 0.2857 0.2500 (  7090 PWs)   bands (ev):

   -46.1558 -46.1558 -24.9108 -24.9108 -22.0974 -22.0974 -21.8973 -21.8973
   -19.7287 -19.7287  -8.6381  -8.6381  -7.6559  -7.6559  -7.5262  -7.5262
    -3.4347  -3.4347  -3.2803  -3.2803  -3.0921  -3.0921   2.2162   2.2162
     2.6521   2.6521   4.0240   4.0240   5.2368   5.2368   5.3791   5.3791
     5.9781   5.9781   7.0279   7.0279   7.1444   7.1444   7.8533   7.8533
    12.2389  12.2389  13.1972  13.1972  13.8007  13.8007  15.5585  15.5585

          k = 0.4286 0.1429 0.0000 (  7069 PWs)   bands (ev):

   -46.1557 -46.1542 -24.9637 -24.9620 -22.0602 -22.0574 -21.9472 -21.8412
   -19.7319 -19.7201  -8.3934  -8.3214  -7.9971  -7.5674  -7.5531  -7.1862
    -3.4686  -3.3740  -3.2973  -3.2950  -3.1715  -3.0376   2.0155   2.1818
     2.3612   2.4937   2.6192   2.8344   4.1355   5.4735   6.0059   6.1534
     6.2343   6.7712   6.9026   6.9405   7.0896   7.3801   7.5915   7.8764
    11.1524  13.0377  13.2791  13.5739  14.2321  15.1087  15.1304  16.1138

          k = 0.4286-0.1429 0.0000 (  7069 PWs)   bands (ev):

   -46.1557 -46.1542 -24.9640 -24.9622 -22.0598 -22.0575 -21.9473 -21.8410
   -19.7316 -19.7201  -8.3431  -8.2486  -8.0172  -7.6471  -7.5870  -7.1864
    -3.4879  -3.3847  -3.2888  -3.2878  -3.1685  -3.0302   1.9919   2.0354
     2.2127   2.6304   2.6701   2.8881   4.1370   5.4858   6.1477   6.2092
     6.3762   6.7635   6.8601   6.9246   7.0793   7.3825   7.5818   7.8330
    11.1609  13.0263  13.3471  13.6331  14.2359  14.8945  15.0365  15.9859

          k =-0.1429 0.4286 0.0000 (  7069 PWs)   bands (ev):

   -46.1560 -46.1544 -24.9105 -24.9100 -22.1303 -22.1238 -21.9486 -21.8411
   -19.7285 -19.7206  -8.6289  -8.5567  -8.0145  -7.4843  -7.3974  -7.1814
    -3.4821  -3.3880  -3.3233  -3.2265  -3.1411  -3.0741   2.1439   2.4098
     2.4682   2.8162   3.3557   4.1999   4.5510   4.5733   5.3474   5.5700
     6.0618   6.6655   6.8276   6.9144   7.0756   7.2424   7.2466   8.3580
    11.8979  13.2450  13.2885  13.3966  13.5419  14.6134  14.8863  15.3417

          k = 0.4286 0.1429-0.1250 (  7068 PWs)   bands (ev):

   -46.1555 -46.1544 -24.9635 -24.9623 -22.0599 -22.0578 -21.9318 -21.8569
   -19.7302 -19.7218  -8.3714  -8.3254  -7.9095  -7.5719  -7.5558  -7.3062
    -3.4582  -3.3927  -3.2940  -3.2893  -3.1540  -3.0584   2.0748   2.2209
     2.3429   2.4569   2.6159   2.8089   4.4433   5.5581   5.9257   5.9576
     6.2565   6.6632   6.8335   6.9357   7.1396   7.2951   7.5549   7.7804
    11.4335  12.7485  13.4187  13.5812  14.3179  14.8935  15.5632  16.2011

          k = 0.4286-0.1429 0.1250 (  7068 PWs)   bands (ev):

   -46.1555 -46.1544 -24.9637 -24.9625 -22.0596 -22.0579 -21.9319 -21.8568
   -19.7299 -19.7218  -8.3170  -8.2562  -7.9344  -7.6465  -7.5908  -7.3061
    -3.4763  -3.4040  -3.2861  -3.2832  -3.1495  -3.0511   2.0166   2.0646
     2.2445   2.5383   2.7143   2.8653   4.4440   5.5721   5.9593   6.0731
     6.4015   6.6778   6.8473   6.8833   7.1437   7.2881   7.5480   7.7418
    11.4301  12.7331  13.4652  13.6336  14.3140  14.8529  15.3139  16.0558

          k =-0.1429 0.4286-0.1250 (  7068 PWs)   bands (ev):

   -46.1557 -46.1546 -24.9105 -24.9101 -22.1294 -22.1248 -21.9330 -21.8570
   -19.7273 -19.7217  -8.6142  -8.5647  -7.9101  -7.4781  -7.4117  -7.3073
    -3.4684  -3.3949  -3.3198  -3.2443  -3.1284  -3.0809   2.1777   2.3533
     2.5346   2.7678   3.5940   4.1562   4.6649   4.6900   5.2932   5.5643
     5.6990   6.3608   6.8993   6.9598   7.0968   7.2098   7.4388   8.2506
    12.0727  13.0448  13.3425  13.5088  13.5245  14.3253  15.3069  15.5346

          k = 0.4286 0.1429 0.2500 (  7072 PWs)   bands (ev):

   -46.1550 -46.1549 -24.9629 -24.9629 -22.0589 -22.0589 -21.8945 -21.8945
   -19.7260 -19.7260  -8.3408  -8.3408  -7.6880  -7.6880  -7.5020  -7.5020
    -3.4290  -3.4290  -3.2878  -3.2878  -3.1077  -3.1077   2.2161   2.2161
     2.3289   2.3289   2.7229   2.7229   5.2176   5.2176   5.7710   5.7710
     6.3423   6.3423   6.9137   6.9137   7.2076   7.2076   7.6232   7.6232
    12.0896  12.0896  13.5548  13.5548  14.5659  14.5659  16.1994  16.1994

          k = 0.4286-0.1429-0.2500 (  7072 PWs)   bands (ev):

   -46.1550 -46.1549 -24.9631 -24.9631 -22.0588 -22.0588 -21.8945 -21.8945
   -19.7259 -19.7259  -8.2792  -8.2792  -7.7359  -7.7359  -7.5211  -7.5211
    -3.4438  -3.4438  -3.2813  -3.2813  -3.1012  -3.1012   2.0636   2.0636
     2.3659   2.3659   2.8000   2.8000   5.2249   5.2249   5.8040   5.8040
     6.4777   6.4777   6.8756   6.8756   7.2164   7.2164   7.5996   7.5996
    12.0725  12.0725  13.5896  13.5896  14.5453  14.5453  15.9962  15.9962

          k =-0.1429 0.4286 0.2500 (  7072 PWs)   bands (ev):

   -46.1552 -46.1552 -24.9103 -24.9103 -22.1272 -22.1272 -21.8952 -21.8952
   -19.7245 -19.7245  -8.5865  -8.5865  -7.6416  -7.6416  -7.4263  -7.4263
    -3.4315  -3.4314  -3.2857  -3.2857  -3.1020  -3.1020   2.2612   2.2612
     2.6532   2.6533   3.9837   3.9837   4.9849   4.9849   5.1084   5.1084
     5.8132   5.8132   6.9394   6.9394   7.1266   7.1266   7.9332   7.9332
    12.5268  12.5268  13.4545  13.4545  13.8650  13.8650  15.7306  15.7306

          k = 0.2857-0.2857 0.0000 (  7105 PWs)   bands (ev):

   -46.1557 -46.1542 -24.9400 -24.9389 -22.0978 -22.0944 -21.9482 -21.8405
   -19.7308 -19.7188  -8.3908  -8.3439  -8.0145  -7.6137  -7.5055  -7.1605
    -3.5185  -3.4326  -3.3248  -3.2897  -3.1778  -3.0653   1.9742   2.2089
     2.2551   2.6727   3.1388   3.5958   4.3852   5.0301   5.6658   5.8270
     6.0899   6.8690   6.9089   6.9707   7.1694   7.3844   7.4451   8.0990
    11.6028  13.1451  13.1688  13.3828  13.7837  14.6370  14.8149  15.5316

          k = 0.2857-0.2857 0.1250 (  7085 PWs)   bands (ev):

   -46.1555 -46.1544 -24.9399 -24.9390 -22.0974 -22.0950 -21.9326 -21.8564
   -19.7290 -19.7206  -8.3789  -8.3483  -7.9140  -7.6084  -7.5147  -7.2875
    -3.5076  -3.4396  -3.3309  -3.2972  -3.1565  -3.0766   1.9994   2.1374
     2.3519   2.6169   3.2702   3.5666   4.5990   5.1303   5.6214   5.7874
     5.8771   6.5129   6.9681   6.9889   7.2287   7.3214   7.5665   8.0177
    11.7872  12.8833  13.2112  13.3646  13.8807  14.5699  15.1351  15.7043

          k = 0.2857-0.2857-0.2500 (  7088 PWs)   bands (ev):

   -46.1549 -46.1549 -24.9395 -24.9394 -22.0962 -22.0962 -21.8947 -21.8947
   -19.7248 -19.7248  -8.3606  -8.3606  -7.6783  -7.6783  -7.4982  -7.4982
    -3.4740  -3.4740  -3.3183  -3.3183  -3.1118  -3.1118   2.0601   2.0602
     2.4904   2.4904   3.4647   3.4647   5.2235   5.2235   5.3989   5.3989
     5.9874   5.9874   7.0013   7.0013   7.2738   7.2738   7.8234   7.8234
    12.2880  12.2880  13.3010  13.3010  14.1833  14.1833  15.7956  15.7957

          k = 0.4286 0.2857 0.0000 (  7082 PWs)   bands (ev):

   -46.1550 -46.1535 -24.9624 -24.9611 -22.0969 -22.0939 -21.9453 -21.8394
   -19.7280 -19.7158  -8.3196  -8.2392  -7.9795  -7.4390  -7.3884  -7.1534
    -3.5221  -3.4223  -3.3830  -3.3341  -3.2129  -3.0807   2.1562   2.1769
     2.2877   2.5408   2.6518   2.8779   4.1964   5.1052   5.3619   5.6095
     5.9648   6.8868   7.0073   7.0127   7.1919   7.4644   7.4797   8.1610
    11.6316  13.1591  13.2448  13.4554  14.2953  14.9516  15.2570  16.1819

          k = 0.4286-0.2857 0.0000 (  7082 PWs)   bands (ev):

   -46.1550 -46.1535 -24.9627 -24.9613 -22.0965 -22.0940 -21.9454 -21.8392
   -19.7276 -19.7159  -8.2154  -8.1893  -8.0128  -7.5048  -7.4581  -7.1537
    -3.5466  -3.4439  -3.3567  -3.3243  -3.2157  -3.0726   1.9837   2.1420
     2.2333   2.5586   2.7211   2.9273   4.1842   5.1292   5.5600   5.7473
     6.0011   6.8467   7.0006   7.0094   7.1965   7.4480   7.4893   8.1227
    11.6403  13.2338  13.2765  13.5280  14.2974  14.7938  15.1371  15.9537

          k =-0.2857 0.4286-0.0000 (  7082 PWs)   bands (ev):

   -46.1551 -46.1536 -24.9391 -24.9382 -22.1278 -22.1233 -21.9460 -21.8393
   -19.7263 -19.7161  -8.3670  -8.3242  -7.9996  -7.4404  -7.3675  -7.1515
    -3.5436  -3.4599  -3.3527  -3.2947  -3.2079  -3.0910   2.0473   2.3257
     2.3471   2.6343   3.1007   3.5233   4.3395   4.7516   5.1694   5.3669
     5.9497   6.8749   6.8813   6.9264   7.2048   7.3340   7.3855   8.3848
    11.9544  13.2717  13.3810  13.5209  13.8491  14.7926  14.8957  15.5660

          k = 0.4286 0.2857-0.1250 (  7074 PWs)   bands (ev):

   -46.1548 -46.1537 -24.9622 -24.9613 -22.0966 -22.0944 -21.9299 -21.8551
   -19.7263 -19.7176  -8.3010  -8.2472  -7.8788  -7.4292  -7.4091  -7.2765
    -3.5085  -3.4224  -3.3891  -3.3335  -3.1993  -3.1031   2.1785   2.1958
     2.3029   2.4820   2.7014   2.8609   4.4879   5.1801   5.3570   5.6321
     5.7576   6.5690   6.9408   7.0434   7.2242   7.4120   7.5872   8.0647
    11.8363  12.9427  13.2684  13.4567  14.3903  15.0033  15.4785  16.3152

          k = 0.4286-0.2857 0.1250 (  7074 PWs)   bands (ev):

   -46.1548 -46.1537 -24.9625 -24.9615 -22.0962 -22.0944 -21.9300 -21.8550
   -19.7259 -19.7176  -8.2052  -8.1900  -7.9117  -7.5085  -7.4664  -7.2750
    -3.5307  -3.4489  -3.3584  -3.3260  -3.2007  -3.0960   2.0153   2.1201
     2.2791   2.5006   2.7705   2.9095   4.4777   5.2134   5.5368   5.7405
     5.8083   6.5665   6.9222   7.0309   7.2456   7.4180   7.5742   8.0267
    11.8352  12.9393  13.3549  13.5172  14.3786  14.9259  15.3024  16.0553

          k =-0.2857 0.4286-0.1250 (  7074 PWs)   bands (ev):

   -46.1549 -46.1538 -24.9389 -24.9383 -22.1272 -22.1240 -21.9305 -21.8551
   -19.7248 -19.7176  -8.3567  -8.3283  -7.8930  -7.4413  -7.3759  -7.2784
    -3.5247  -3.4532  -3.3625  -3.3127  -3.1918  -3.1057   2.0860   2.2693
     2.4042   2.5912   3.2289   3.4992   4.5347   4.8566   5.1528   5.3794
     5.6703   6.4613   6.9358   6.9828   7.2844   7.3317   7.4894   8.2660
    12.1165  13.1012  13.3440  13.4968  13.9561  14.6307  15.3397  15.7471

          k = 0.4286 0.2857 0.2500 (  7078 PWs)   bands (ev):

   -46.1542 -46.1542 -24.9618 -24.9618 -22.0955 -22.0955 -21.8927 -21.8927
   -19.7220 -19.7220  -8.2700  -8.2700  -7.6127  -7.6127  -7.3995  -7.3995
    -3.4684  -3.4684  -3.3551  -3.3551  -3.1550  -3.1550   2.2052   2.2052
     2.3728   2.3728   2.7965   2.7965   5.1681   5.1681   5.3577   5.3577
     5.8499   5.8499   7.0160   7.0160   7.3134   7.3134   7.8392   7.8392
    12.3583  12.3583  13.3935  13.3935  14.6578  14.6578  16.3309  16.3309

          k = 0.4286-0.2857-0.2500 (  7078 PWs)   bands (ev):

   -46.1542 -46.1542 -24.9621 -24.9620 -22.0954 -22.0954 -21.8927 -21.8927
   -19.7218 -19.7218  -8.1946  -8.1946  -7.6551  -7.6551  -7.4400  -7.4400
    -3.4876  -3.4876  -3.3414  -3.3414  -3.1518  -3.1518   2.0732   2.0732
     2.3837   2.3837   2.8538   2.8538   5.1940   5.1940   5.4279   5.4279
     5.9332   5.9332   7.0027   7.0027   7.3326   7.3326   7.8117   7.8117
    12.3464  12.3465  13.4550  13.4550  14.6140  14.6140  16.0800  16.0800

          k =-0.2857 0.4286 0.2500 (  7078 PWs)   bands (ev):

   -46.1543 -46.1543 -24.9386 -24.9386 -22.1256 -22.1256 -21.8930 -21.8930
   -19.7212 -19.7212  -8.3401  -8.3401  -7.6189  -7.6189  -7.3893  -7.3893
    -3.4779  -3.4779  -3.3505  -3.3505  -3.1473  -3.1473   2.1769   2.1769
     2.4971   2.4971   3.4105   3.4105   4.9815   4.9815   5.1671   5.1671
     5.7134   5.7134   6.9747   6.9747   7.2993   7.2993   7.9369   7.9369
    12.5594  12.5594  13.4307  13.4307  14.2563  14.2563  16.0168  16.0168

          k = 0.4286-0.4286 0.0000 (  7070 PWs)   bands (ev):

   -46.1544 -46.1529 -24.9616 -24.9606 -22.1257 -22.1229 -21.9439 -21.8378
   -19.7247 -19.7124  -8.2031  -8.1529  -7.9865  -7.3551  -7.2936  -7.1266
    -3.5846  -3.5171  -3.4071  -3.3543  -3.2291  -3.1082   2.0500   2.2690
     2.3033   2.4966   2.7474   2.9345   4.2148   4.9087   4.9552   5.1523
     5.8501   6.9648   6.9727   7.0584   7.3047   7.3762   7.5518   8.4137
    11.9485  13.2703  13.4617  13.5992  14.3482  14.7666  15.2703  15.7717

          k = 0.4286-0.4286 0.1250 (  7064 PWs)   bands (ev):

   -46.1542 -46.1531 -24.9615 -24.9607 -22.1253 -22.1233 -21.9285 -21.8536
   -19.7229 -19.7142  -8.1955  -8.1599  -7.8729  -7.3478  -7.3155  -7.2503
    -3.5605  -3.5032  -3.4069  -3.3701  -3.2273  -3.1332   2.0904   2.2514
     2.3207   2.4572   2.7995   2.9213   4.4831   4.9450   5.0089   5.1712
     5.6397   6.5055   7.0124   7.1072   7.3384   7.4946   7.5520   8.2840
    12.1226  13.1567  13.3549  13.5617  14.4396  14.9958  15.3445  15.9763

          k = 0.4286-0.4286-0.2500 (  7068 PWs)   bands (ev):

   -46.1536 -46.1536 -24.9611 -24.9611 -22.1244 -22.1244 -21.8912 -21.8912
   -19.7186 -19.7186  -8.1774  -8.1774  -7.5859  -7.5859  -7.3195  -7.3195
    -3.5100  -3.5100  -3.4012  -3.4012  -3.1899  -3.1899   2.1788   2.1788
     2.3821   2.3822   2.8768   2.8768   4.9083   4.9083   5.2224   5.2224
     5.6179   5.6179   7.0753   7.0753   7.4174   7.4174   7.9489   7.9490
    12.5911  12.5911  13.4646  13.4646  14.6910  14.6910  16.2695  16.2695

     the Fermi energy is     9.0565 ev

!    total energy              =   -1144.88541880 Ry
     total all-electron energy =    -18591.858149 Ry
     estimated scf accuracy    <          3.4E-10 Ry
     smearing contrib. (-TS)   =       0.00000000 Ry
     internal energy E=F+TS    =   -1144.88541880 Ry

     The total energy is F=E-TS. E is the sum of the following terms:
     one-electron contribution =    -172.97187858 Ry
     hartree contribution      =     131.92098795 Ry
     xc contribution           =    -126.18414024 Ry
     ewald contribution        =    -392.68568357 Ry
     one-center paw contrib.   =    -584.96470436 Ry

     convergence has been achieved in  12 iterations

     Forces acting on atoms (cartesian axes, Ry/au):

     atom    1 type  1   force =     0.00000000   -0.00000000    0.00000000
     atom    2 type  1   force =    -0.00000000    0.00000000    0.00000000
     atom    3 type  2   force =    -1.11686202    0.01259381   -0.00000000
     atom    4 type  2   force =     1.11686202   -0.01259381    0.00000000
     atom    5 type  3   force =     1.08564793   -0.15560515    0.00000000
     atom    6 type  3   force =    -1.08564793    0.15560515   -0.00000000
     atom    7 type  3   force =     0.02249961    0.16072766    0.00000000
     atom    8 type  3   force =    -0.02249961   -0.16072766   -0.00000000
     atom    9 type  3   force =     0.00000000    0.00000000    0.00000000
     atom   10 type  3   force =     0.00000000    0.00000000    0.00000000

     Total force =     2.225634     Total SCF correction =     0.000037
     Message from routine punch:
     Nothing written, as per user request (disk_io='none')

     init_run     :     21.80s CPU     23.05s WALL (       1 calls)
     electrons    :    545.41s CPU    553.75s WALL (       1 calls)
     forces       :      8.36s CPU      8.62s WALL (       1 calls)

     Called by init_run:
     wfcinit      :      8.37s CPU      8.67s WALL (       1 calls)
     potinit      :      5.68s CPU      5.98s WALL (       1 calls)
     hinit0       :      1.82s CPU      1.89s WALL (       1 calls)

     Called by electrons:
     c_bands      :    416.43s CPU    418.31s WALL (      12 calls)
     sum_band     :     70.13s CPU     72.97s WALL (      12 calls)
     v_of_rho     :      6.55s CPU      7.13s WALL (      13 calls)
     newd         :     16.34s CPU     19.63s WALL (      13 calls)
     PAW_pot      :     37.06s CPU     37.48s WALL (      13 calls)
     mix_rho      :      0.75s CPU      0.76s WALL (      12 calls)

     Called by c_bands:
     init_us_2    :      8.68s CPU      8.76s WALL (     260 calls)
     cegterg      :    134.69s CPU    136.13s WALL (     120 calls)

     Called by *egterg:
     cdiaghg      :      2.30s CPU      2.31s WALL (     574 calls)
     h_psi        :     82.84s CPU     83.81s WALL (     584 calls)
     s_psi        :     11.27s CPU     11.28s WALL (     584 calls)
     g_psi        :      0.81s CPU      0.82s WALL (     454 calls)

     Called by h_psi:
     h_psi:calbec :     13.51s CPU     13.53s WALL (     584 calls)
     vloc_psi     :     55.71s CPU     56.07s WALL (     584 calls)
                                        0.00s GPU  (     584 calls)
     add_vuspsi   :     11.59s CPU     11.62s WALL (     584 calls)

     General routines
     calbec       :     17.98s CPU     18.01s WALL (     744 calls)
     fft          :      2.57s CPU      2.59s WALL (     178 calls)
     ffts         :      0.46s CPU      0.46s WALL (      25 calls)
     fftw         :     49.15s CPU     49.41s WALL (   37010 calls)
     interpolate  :      0.88s CPU      0.88s WALL (      13 calls)

     Parallel routines

     PWSCF        :   9m38.27s CPU   9m48.25s WALL


   This run was terminated on:   0:40:58   5Oct2026            

=------------------------------------------------------------------------------=
   JOB DONE.
=------------------------------------------------------------------------------=
