
     Program PWSCF v.7.5 starts on  5Oct2026 at  3:47: 2 

     This program is part of the open-source Quantum ESPRESSO suite
     for quantum simulation of materials; please cite
         "P. Giannozzi et al., J. Phys.:Condens. Matter 21 395502 (2009);
         "P. Giannozzi et al., J. Phys.:Condens. Matter 29 465901 (2017);
         "P. Giannozzi et al., J. Chem. Phys. 152 154105 (2020);
          URL http://www.quantum-espresso.org", 
     in publications or presentations arising from this work. More details at
     http://www.quantum-espresso.org/quote

     Parallel version (MPI & OpenMP), running on       8 processor cores
     Number of MPI processes:                 8
     Threads/MPI process:                     1

     MPI processes distributed on     1 nodes
     116499 MiB available memory on the printing compute node when the environment starts

     Reading input from pw.in

     Current dimensions of program PWSCF are:
     Max number of different atomic species (ntypx) = 10
     Max number of k-points (npk) =  40000
     Max angular momentum in pseudopotentials (lmaxx) =  4
     file K.pbe-spn-kjpaw_psl.1.0.0.UPF: wavefunction(s)  3S renormalized
     file Nb.pbe-spn-kjpaw_psl.0.3.0.UPF: wavefunction(s)  4S 4P renormalized
     file O.pbe-n-kjpaw_psl.0.1.UPF: wavefunction(s)  2P renormalized

     IMPORTANT: XC functional enforced from input :
     Exchange-correlation= PBESOL
                           (   1   4  10   8   0   0   0)
     Any further DFT definition will be discarded
     Please, verify this is what you really want

     Found identity + ( -0.0000 -0.5000 -0.5000) symmetry
     This is a supercell, fractional translations are disabled

     K-points division:     npool     =       2
     R & G space division:  proc/nbgrp/npool/nimage =       4
     Subspace diagonalization in iterative solution of the eigenvalue problem:
     a serial algorithm will be used


     Parallelization info
     --------------------
     sticks:   dense  smooth     PW     G-vecs:    dense   smooth      PW
     Min         794     395    113                40083    14185    2107
     Max         795     396    114                40086    14186    2108
     Sum        3179    1581    453               160337    56741    8429

     Using Slab Decomposition



     bravais-lattice index     =            0
     lattice parameter (alat)  =       7.6705  a.u.
     unit-cell volume          =     902.1575 (a.u.)^3
     number of atoms/cell      =           10
     number of atomic types    =            3
     number of electrons       =        80.00
     number of Kohn-Sham states=           48
     kinetic-energy cutoff     =      60.0000  Ry
     charge density cutoff     =     480.0000  Ry
     scf convergence threshold =      1.0E-09
     mixing beta               =       0.4000
     number of iterations used =            8  plain     mixing
     Exchange-correlation= PBESOL
                           (   1   4  10   8   0   0   0)

     celldm(1)=   7.670485  celldm(2)=   0.000000  celldm(3)=   0.000000
     celldm(4)=   0.000000  celldm(5)=   0.000000  celldm(6)=   0.000000

     crystal axes: (cart. coord. in units of alat)
               a(1) = (   0.000002   0.000002   1.000000 )  
               a(2) = (   0.999769  -0.999732   0.000000 )  
               a(3) = (   0.999770   0.999733   0.000004 )  

     reciprocal axes: (cart. coord. in units 2 pi/alat)
               b(1) = ( -0.000002 -0.000002  1.000000 )  
               b(2) = (  0.500115 -0.500134 -0.000000 )  
               b(3) = (  0.500115  0.500133 -0.000002 )  


     PseudoPot. # 1 for K  read from file:
     /root/sssp/K.pbe-spn-kjpaw_psl.1.0.0.UPF
     MD5 check sum: 7d58810084cac21f60fbe77ea2b688fd
     Pseudo is Projector augmented-wave + core cor, Zval =  9.0
     Generated using "atomic" code by A. Dal Corso  v.5.1
     Shape of augmentation charge: PSQ
     Using radial grid of 1165 points,  6 beta functions with: 
                l(1) =   0
                l(2) =   0
                l(3) =   1
                l(4) =   1
                l(5) =   2
                l(6) =   2
     Q(r) pseudized with 0 coefficients 


     PseudoPot. # 2 for Nb read from file:
     /root/sssp/Nb.pbe-spn-kjpaw_psl.0.3.0.UPF
     MD5 check sum: 411d72ad547312f8017e2943ceca08cc
     Pseudo is Projector augmented-wave + core cor, Zval = 13.0
     Generated using "atomic" code by A. Dal Corso  v.5.0.99 svn rev. 10869
     Shape of augmentation charge: PSQ
     Using radial grid of 1227 points,  6 beta functions with: 
                l(1) =   0
                l(2) =   0
                l(3) =   1
                l(4) =   1
                l(5) =   2
                l(6) =   2
     Q(r) pseudized with 0 coefficients 


     PseudoPot. # 3 for O  read from file:
     /root/sssp/O.pbe-n-kjpaw_psl.0.1.UPF
     MD5 check sum: 0234752ac141de4415c5fc33072bef88
     Pseudo is Projector augmented-wave + core cor, Zval =  6.0
     Generated using "atomic" code by A. Dal Corso  v.5.0.99 svn rev. 10869
     Shape of augmentation charge: BESSEL
     Using radial grid of 1095 points,  4 beta functions with: 
                l(1) =   0
                l(2) =   0
                l(3) =   1
                l(4) =   1
     Q(r) pseudized with 0 coefficients 


     atomic species   valence    mass     pseudopotential
     K                 9.00    39.09830     K ( 1.00)
     Nb               13.00    92.90640     Nb( 1.00)
     O                 6.00    15.99900     O ( 1.00)

     No symmetry found



   Cartesian axes

     site n.     atom                  positions (alat units)
         1        K      tau(   1) = (   0.9997697   0.0000077   1.0000007  )
         2        K      tau(   2) = (   0.9997691  -0.9997250   0.9999990  )
         3        Nb     tau(   3) = (   1.4996532  -0.4998671   0.4999996  )
         4        Nb     tau(   4) = (   1.4996537   0.4998656   0.5000013  )
         5        O      tau(   5) = (   0.9997738  -0.4998641   0.5000002  )
         6        O      tau(   6) = (   0.9997744   0.4998686   0.5000020  )
         7        O      tau(   7) = (   1.4996574  -0.0000006   0.5000113  )
         8        O      tau(   8) = (   0.4998875  -0.0000011   0.5000093  )
         9        O      tau(   9) = (   0.4998873   0.4998668   0.9999984  )
        10        O      tau(  10) = (   1.4996572   0.4998673   1.0000004  )

     number of k points=    88  Marzari-Vanderbilt smearing, width (Ry)=  0.0050
                       cart. coord. in units 2pi/alat
        k(    1) = (   0.0000000   0.0000000   0.0000000), wk =   0.0114286
        k(    2) = (   0.1000230   0.1000267  -0.0000004), wk =   0.0228571
        k(    3) = (   0.2000459   0.2000534  -0.0000008), wk =   0.0228571
        k(    4) = (   0.1000231  -0.1000268  -0.0000000), wk =   0.0228571
        k(    5) = (   0.2000460  -0.0000001  -0.0000004), wk =   0.0228571
        k(    6) = (   0.3000690   0.1000266  -0.0000008), wk =   0.0228571
        k(    7) = (  -0.1000228  -0.3000802   0.0000007), wk =   0.0228571
        k(    8) = (   0.0000001  -0.2000535   0.0000003), wk =   0.0228571
        k(    9) = (   0.2000461  -0.2000536  -0.0000001), wk =   0.0228571
        k(   10) = (   0.3000691  -0.1000269  -0.0000004), wk =   0.0228571
        k(   11) = (   0.4000921  -0.0000002  -0.0000008), wk =   0.0228571
        k(   12) = (   0.0000002  -0.4001070   0.0000007), wk =   0.0228571
        k(   13) = (   0.1000232  -0.3000803   0.0000003), wk =   0.0228571
        k(   14) = (  -0.0000003  -0.0000002   0.1428571), wk =   0.0228571
        k(   15) = (   0.1000227   0.1000264   0.1428568), wk =   0.0228571
        k(   16) = (   0.2000456   0.2000531   0.1428564), wk =   0.0228571
        k(   17) = (  -0.2000462  -0.2000536   0.1428579), wk =   0.0228571
        k(   18) = (  -0.1000232  -0.1000269   0.1428575), wk =   0.0228571
        k(   19) = (   0.1000228  -0.1000270   0.1428571), wk =   0.0228571
        k(   20) = (   0.2000457  -0.0000004   0.1428567), wk =   0.0228571
        k(   21) = (   0.3000687   0.1000263   0.1428564), wk =   0.0228571
        k(   22) = (  -0.1000231  -0.3000804   0.1428579), wk =   0.0228571
        k(   23) = (  -0.0000002  -0.2000537   0.1428575), wk =   0.0228571
        k(   24) = (   0.2000458  -0.2000538   0.1428571), wk =   0.0228571
        k(   25) = (   0.3000688  -0.1000272   0.1428567), wk =   0.0228571
        k(   26) = (   0.4000918  -0.0000005   0.1428563), wk =   0.0228571
        k(   27) = (  -0.0000001  -0.4001072   0.1428578), wk =   0.0228571
        k(   28) = (   0.1000229  -0.3000805   0.1428575), wk =   0.0228571
        k(   29) = (  -0.2000464   0.2000533   0.1428572), wk =   0.0228571
        k(   30) = (  -0.1000235   0.3000800   0.1428568), wk =   0.0228571
        k(   31) = (  -0.0000005   0.4001067   0.1428565), wk =   0.0228571
        k(   32) = (  -0.4000923  -0.0000000   0.1428580), wk =   0.0228571
        k(   33) = (  -0.3000694   0.1000267   0.1428576), wk =   0.0228571
        k(   34) = (  -0.1000234   0.1000265   0.1428572), wk =   0.0228571
        k(   35) = (  -0.0000004   0.2000532   0.1428568), wk =   0.0228571
        k(   36) = (   0.1000226   0.3000799   0.1428564), wk =   0.0228571
        k(   37) = (  -0.3000693  -0.1000268   0.1428579), wk =   0.0228571
        k(   38) = (  -0.2000463  -0.0000001   0.1428575), wk =   0.0228571
        k(   39) = (  -0.0000006  -0.0000005   0.2857143), wk =   0.0228571
        k(   40) = (   0.1000224   0.1000262   0.2857139), wk =   0.0228571
        k(   41) = (   0.2000453   0.2000529   0.2857135), wk =   0.0228571
        k(   42) = (  -0.2000465  -0.2000539   0.2857150), wk =   0.0228571
        k(   43) = (  -0.1000235  -0.1000272   0.2857147), wk =   0.0228571
        k(   44) = (   0.1000225  -0.1000273   0.2857143), wk =   0.0228571
        k(   45) = (   0.2000454  -0.0000006   0.2857139), wk =   0.0228571
        k(   46) = (   0.3000684   0.1000261   0.2857135), wk =   0.0228571
        k(   47) = (  -0.1000234  -0.3000807   0.2857150), wk =   0.0228571
        k(   48) = (  -0.0000005  -0.2000540   0.2857146), wk =   0.0228571
        k(   49) = (   0.2000456  -0.2000541   0.2857142), wk =   0.0228571
        k(   50) = (   0.3000685  -0.1000274   0.2857138), wk =   0.0228571
        k(   51) = (   0.4000915  -0.0000007   0.2857135), wk =   0.0228571
        k(   52) = (  -0.0000004  -0.4001074   0.2857150), wk =   0.0228571
        k(   53) = (   0.1000226  -0.3000808   0.2857146), wk =   0.0228571
        k(   54) = (  -0.2000467   0.2000531   0.2857143), wk =   0.0228571
        k(   55) = (  -0.1000238   0.3000798   0.2857140), wk =   0.0228571
        k(   56) = (  -0.0000008   0.4001065   0.2857136), wk =   0.0228571
        k(   57) = (  -0.4000926  -0.0000003   0.2857151), wk =   0.0228571
        k(   58) = (  -0.3000697   0.1000264   0.2857147), wk =   0.0228571
        k(   59) = (  -0.1000236   0.1000263   0.2857143), wk =   0.0228571
        k(   60) = (  -0.0000007   0.2000530   0.2857139), wk =   0.0228571
        k(   61) = (   0.1000223   0.3000797   0.2857136), wk =   0.0228571
        k(   62) = (  -0.3000696  -0.1000271   0.2857151), wk =   0.0228571
        k(   63) = (  -0.2000466  -0.0000004   0.2857147), wk =   0.0228571
        k(   64) = (  -0.0000009  -0.0000007   0.4285714), wk =   0.0228571
        k(   65) = (   0.1000221   0.1000259   0.4285711), wk =   0.0228571
        k(   66) = (   0.2000450   0.2000526   0.4285707), wk =   0.0228571
        k(   67) = (  -0.2000468  -0.2000541   0.4285722), wk =   0.0228571
        k(   68) = (  -0.1000238  -0.1000274   0.4285718), wk =   0.0228571
        k(   69) = (   0.1000222  -0.1000275   0.4285714), wk =   0.0228571
        k(   70) = (   0.2000452  -0.0000008   0.4285710), wk =   0.0228571
        k(   71) = (   0.3000681   0.1000258   0.4285706), wk =   0.0228571
        k(   72) = (  -0.1000237  -0.3000809   0.4285721), wk =   0.0228571
        k(   73) = (  -0.0000008  -0.2000542   0.4285718), wk =   0.0228571
        k(   74) = (   0.2000453  -0.2000543   0.4285714), wk =   0.0228571
        k(   75) = (   0.3000682  -0.1000276   0.4285710), wk =   0.0228571
        k(   76) = (   0.4000912  -0.0000010   0.4285706), wk =   0.0228571
        k(   77) = (  -0.0000006  -0.4001077   0.4285721), wk =   0.0228571
        k(   78) = (   0.1000223  -0.3000810   0.4285717), wk =   0.0228571
        k(   79) = (  -0.2000470   0.2000529   0.4285715), wk =   0.0228571
        k(   80) = (  -0.1000241   0.3000795   0.4285711), wk =   0.0228571
        k(   81) = (  -0.0000011   0.4001062   0.4285707), wk =   0.0228571
        k(   82) = (  -0.4000929  -0.0000005   0.4285722), wk =   0.0228571
        k(   83) = (  -0.3000700   0.1000262   0.4285719), wk =   0.0228571
        k(   84) = (  -0.1000239   0.1000261   0.4285715), wk =   0.0228571
        k(   85) = (  -0.0000010   0.2000527   0.4285711), wk =   0.0228571
        k(   86) = (   0.1000220   0.3000794   0.4285707), wk =   0.0228571
        k(   87) = (  -0.3000699  -0.1000273   0.4285722), wk =   0.0228571
        k(   88) = (  -0.2000469  -0.0000006   0.4285718), wk =   0.0228571

     Dense  grid:   160337 G-vectors     FFT dimensions: (  54,  75,  75)

     Smooth grid:    56741 G-vectors     FFT dimensions: (  40,  54,  54)

     Estimated max dynamical RAM per process >     153.16 MB

     Estimated total dynamical RAM >       1.16 GB

     Check: negative core charge=   -0.000003

     Initial potential from superposition of free atoms

     starting charge      79.9581, renormalised to      80.0000
     Starting wfcs are   60 randomized atomic wfcs
     Checking if some PAW data can be deallocated... 

     total cpu time spent up to now is        7.3 secs

     per-process dynamical memory:   103.7 Mb

     Self-consistent Calculation

     iteration #  1     ecut=    60.00 Ry     beta= 0.40
     Davidson diagonalization with overlap
     ethr =  1.00E-02,  avg # of iterations =  2.0

     total cpu time spent up to now is       21.8 secs

     total energy              =   -1129.61721533 Ry
     estimated scf accuracy    <       4.76247820 Ry

     iteration #  2     ecut=    60.00 Ry     beta= 0.40
     Davidson diagonalization with overlap
     ethr =  5.95E-03,  avg # of iterations =  4.0

     total cpu time spent up to now is       40.7 secs

     total energy              =   -1130.75556557 Ry
     estimated scf accuracy    <       1.57478412 Ry

     iteration #  3     ecut=    60.00 Ry     beta= 0.40
     Davidson diagonalization with overlap
     ethr =  1.97E-03,  avg # of iterations =  2.6

     total cpu time spent up to now is       55.8 secs

     total energy              =   -1131.09949815 Ry
     estimated scf accuracy    <       0.10085005 Ry

     iteration #  4     ecut=    60.00 Ry     beta= 0.40
     Davidson diagonalization with overlap
     ethr =  1.26E-04,  avg # of iterations =  6.3

     total cpu time spent up to now is       73.5 secs

     total energy              =   -1131.09206793 Ry
     estimated scf accuracy    <       0.03436641 Ry

     iteration #  5     ecut=    60.00 Ry     beta= 0.40
     Davidson diagonalization with overlap
     ethr =  4.30E-05,  avg # of iterations =  6.9

     total cpu time spent up to now is       94.1 secs

     total energy              =   -1131.10461204 Ry
     estimated scf accuracy    <       0.02849017 Ry

     iteration #  6     ecut=    60.00 Ry     beta= 0.40
     Davidson diagonalization with overlap
     ethr =  3.56E-05,  avg # of iterations =  1.0

     total cpu time spent up to now is      106.9 secs

     total energy              =   -1131.10017799 Ry
     estimated scf accuracy    <       0.01367635 Ry

     iteration #  7     ecut=    60.00 Ry     beta= 0.40
     Davidson diagonalization with overlap
     ethr =  1.71E-05,  avg # of iterations =  3.0

     total cpu time spent up to now is      122.5 secs

     total energy              =   -1131.10152317 Ry
     estimated scf accuracy    <       0.00063889 Ry

     iteration #  8     ecut=    60.00 Ry     beta= 0.40
     Davidson diagonalization with overlap
     c_bands:  1 eigenvalues not converged
     c_bands:  1 eigenvalues not converged
     c_bands:  1 eigenvalues not converged
     c_bands:  1 eigenvalues not converged
     ethr =  7.99E-07,  avg # of iterations =  6.9

     total cpu time spent up to now is      145.2 secs

     total energy              =   -1131.10188863 Ry
     estimated scf accuracy    <       0.00042575 Ry

     iteration #  9     ecut=    60.00 Ry     beta= 0.40
     Davidson diagonalization with overlap
     ethr =  5.32E-07,  avg # of iterations =  1.1

     total cpu time spent up to now is      158.4 secs

     total energy              =   -1131.10183072 Ry
     estimated scf accuracy    <       0.00024455 Ry

     iteration # 10     ecut=    60.00 Ry     beta= 0.40
     Davidson diagonalization with overlap
     ethr =  3.06E-07,  avg # of iterations =  2.0

     total cpu time spent up to now is      172.8 secs

     total energy              =   -1131.10183382 Ry
     estimated scf accuracy    <       0.00005081 Ry

     iteration # 11     ecut=    60.00 Ry     beta= 0.40
     Davidson diagonalization with overlap
     ethr =  6.35E-08,  avg # of iterations =  4.0

     total cpu time spent up to now is      189.0 secs

     total energy              =   -1131.10184170 Ry
     estimated scf accuracy    <       0.00000099 Ry

     iteration # 12     ecut=    60.00 Ry     beta= 0.40
     Davidson diagonalization with overlap
     ethr =  1.24E-09,  avg # of iterations =  4.6

     total cpu time spent up to now is      209.5 secs

     total energy              =   -1131.10184232 Ry
     estimated scf accuracy    <       0.00000127 Ry

     iteration # 13     ecut=    60.00 Ry     beta= 0.40
     Davidson diagonalization with overlap
     ethr =  1.24E-09,  avg # of iterations =  1.0

     total cpu time spent up to now is      222.6 secs

     total energy              =   -1131.10184200 Ry
     estimated scf accuracy    <       0.00000059 Ry

     iteration # 14     ecut=    60.00 Ry     beta= 0.40
     Davidson diagonalization with overlap
     ethr =  7.32E-10,  avg # of iterations =  3.7

     total cpu time spent up to now is      239.8 secs

     total energy              =   -1131.10184216 Ry
     estimated scf accuracy    <       0.00000004 Ry

     iteration # 15     ecut=    60.00 Ry     beta= 0.40
     Davidson diagonalization with overlap
     ethr =  4.44E-11,  avg # of iterations =  2.1

     total cpu time spent up to now is      255.6 secs

     total energy              =   -1131.10184216 Ry
     estimated scf accuracy    <          6.7E-09 Ry

     iteration # 16     ecut=    60.00 Ry     beta= 0.40
     Davidson diagonalization with overlap
     ethr =  8.31E-12,  avg # of iterations =  3.7

     total cpu time spent up to now is      274.2 secs

     End of self-consistent calculation

          k = 0.0000 0.0000 0.0000 (  7107 PWs)   bands (ev):

   -47.1552 -47.1515 -23.3343 -23.3342 -23.2264 -23.2263 -23.2257 -23.2181
   -19.3507 -19.3180  -9.1656  -8.8486  -8.7114  -8.7090  -7.9242  -7.9240
    -2.9669  -2.9669  -2.9606  -2.9603  -2.9602  -2.8732   2.6192   3.0109
     3.4738   5.0881   5.0885   5.5415   5.5425   5.5426   6.2438   6.4319
     6.4319   6.8018   6.8033   6.8035   7.1609   7.1611   7.1611   7.7765
     9.2249   9.2250   9.2251  11.7589  11.7593  12.7511  12.7870  14.1093

          k = 0.1000 0.1000-0.0000 (  7081 PWs)   bands (ev):

   -47.1548 -47.1518 -23.3246 -23.3241 -23.2373 -23.2368 -23.2250 -23.2188
   -19.3464 -19.3200  -9.1101  -8.8697  -8.6788  -8.6430  -8.0298  -8.0073
    -2.9689  -2.9625  -2.9542  -2.9393  -2.9327  -2.8836   2.8871   3.2701
     3.6757   5.1482   5.1961   5.2798   5.3266   5.5139   6.2878   6.3487
     6.3691   6.4452   6.5200   6.8100   6.8166   6.9303   6.9990   7.6478
     9.5103   9.5808   9.7739  11.5257  11.5679  12.4629  12.9925  13.4250

          k = 0.2000 0.2001-0.0000 (  7116 PWs)   bands (ev):

   -47.1539 -47.1528 -23.2986 -23.2974 -23.2653 -23.2640 -23.2231 -23.2207
   -19.3364 -19.3264  -9.0024  -8.9228  -8.5440  -8.4581  -8.2852  -8.2161
    -2.9704  -2.9675  -2.9356  -2.9087  -2.8923  -2.8890   3.6139   3.9003
     4.3104   4.5724   4.6374   5.2890   5.3161   5.4279   5.5090   5.9870
     6.3019   6.4326   6.4365   6.4914   6.5989   6.6901   7.0331   7.3413
    10.1689  10.3113  10.7547  10.9219  11.0423  11.7195  13.3932  13.7438

          k = 0.1000-0.1000-0.0000 (  7081 PWs)   bands (ev):

   -47.1548 -47.1518 -23.3246 -23.3241 -23.2373 -23.2368 -23.2250 -23.2188
   -19.3464 -19.3200  -9.1101  -8.8697  -8.6788  -8.6430  -8.0298  -8.0073
    -2.9689  -2.9625  -2.9542  -2.9393  -2.9327  -2.8836   2.8871   3.2701
     3.6757   5.1482   5.1961   5.2798   5.3266   5.5139   6.2878   6.3487
     6.3691   6.4452   6.5200   6.8100   6.8166   6.9303   6.9990   7.6478
     9.5103   9.5808   9.7739  11.5257  11.5679  12.4629  12.9925  13.4250

          k = 0.2000-0.0000-0.0000 (  7079 PWs)   bands (ev):

   -47.1545 -47.1521 -23.3364 -23.2961 -23.2662 -23.2251 -23.2244 -23.2194
   -19.3428 -19.3214  -9.1069  -8.8964  -8.7027  -8.4909  -8.2615  -7.9067
    -2.9548  -2.9494  -2.9490  -2.9263  -2.9202  -2.8924   2.7801   3.8285
     3.8622   4.6430   5.1694   5.3088   5.4896   5.4907   6.2618   6.2628
     6.3135   6.3493   6.3840   6.4518   6.6502   7.0436   7.0443   7.4803
     9.2610  10.2202  10.2202  10.9984  11.7508  12.2915  12.7941  13.8641

          k = 0.3001 0.1000-0.0000 (  7102 PWs)   bands (ev):

   -47.1538 -47.1529 -23.3277 -23.3009 -23.2620 -23.2348 -23.2229 -23.2209
   -19.3344 -19.3262  -9.0568  -8.9679  -8.6572  -8.5080  -8.2269  -7.9917
    -2.9510  -2.9483  -2.9349  -2.9131  -2.8835  -2.8808   3.0601   3.7619
     4.3880   4.7545   5.1081   5.2822   5.4114   5.5443   5.5868   5.8702
     6.2198   6.2317   6.5393   6.5450   6.7260   6.8024   6.8447   7.0922
     9.5924  10.2751  10.9591  11.0368  11.5309  11.7869  13.0880  13.5658

          k =-0.1000-0.3001 0.0000 (  7098 PWs)   bands (ev):

   -47.1538 -47.1529 -23.3275 -23.3010 -23.2621 -23.2347 -23.2229 -23.2209
   -19.3344 -19.3262  -9.0566  -8.9679  -8.6570  -8.5083  -8.2272  -7.9915
    -2.9510  -2.9484  -2.9349  -2.9131  -2.8835  -2.8808   3.0606   3.7615
     4.3881   4.7544   5.1079   5.2826   5.4112   5.5441   5.5868   5.8702
     6.2198   6.2316   6.5393   6.5449   6.7261   6.8024   6.8448   7.0923
     9.5923  10.2753  10.9594  11.0370  11.5305  11.7867  13.0878  13.5660

          k = 0.0000-0.2001 0.0000 (  7079 PWs)   bands (ev):

   -47.1545 -47.1521 -23.3363 -23.2962 -23.2663 -23.2250 -23.2244 -23.2194
   -19.3428 -19.3214  -9.1067  -8.8964  -8.7024  -8.4912  -8.2617  -7.9066
    -2.9547  -2.9494  -2.9490  -2.9264  -2.9202  -2.8924   2.7807   3.8281
     3.8623   4.6428   5.1699   5.3084   5.4896   5.4905   6.2617   6.2625
     6.3135   6.3493   6.3841   6.4518   6.6503   7.0437   7.0443   7.4804
     9.2610  10.2203  10.2204  10.9986  11.7504  12.2913  12.7937  13.8644

          k = 0.2000-0.2001-0.0000 (  7116 PWs)   bands (ev):

   -47.1539 -47.1528 -23.2986 -23.2974 -23.2653 -23.2640 -23.2231 -23.2207
   -19.3364 -19.3264  -9.0024  -8.9228  -8.5440  -8.4581  -8.2852  -8.2161
    -2.9704  -2.9675  -2.9356  -2.9087  -2.8923  -2.8890   3.6139   3.9003
     4.3104   4.5724   4.6374   5.2890   5.3161   5.4279   5.5090   5.9870
     6.3019   6.4326   6.4365   6.4914   6.5989   6.6901   7.0331   7.3413
    10.1689  10.3113  10.7547  10.9219  11.0423  11.7195  13.3932  13.7438

          k = 0.3001-0.1000-0.0000 (  7102 PWs)   bands (ev):

   -47.1538 -47.1529 -23.3277 -23.3009 -23.2620 -23.2348 -23.2229 -23.2209
   -19.3344 -19.3262  -9.0568  -8.9679  -8.6572  -8.5080  -8.2269  -7.9917
    -2.9510  -2.9483  -2.9349  -2.9131  -2.8835  -2.8808   3.0601   3.7619
     4.3880   4.7545   5.1081   5.2822   5.4114   5.5443   5.5868   5.8702
     6.2198   6.2317   6.5393   6.5450   6.7260   6.8024   6.8447   7.0922
     9.5924  10.2751  10.9591  11.0368  11.5309  11.7869  13.0880  13.5658

          k = 0.4001-0.0000-0.0000 (  7073 PWs)   bands (ev):

   -47.1535 -47.1531 -23.3398 -23.3295 -23.2333 -23.2229 -23.2223 -23.2215
   -19.3301 -19.3270  -9.1123  -9.0673  -8.6913  -8.6498  -7.9757  -7.8788
    -2.9320  -2.9311  -2.9308  -2.9228  -2.8557  -2.8546   2.8088   3.0718
     4.8828   5.3034   5.3617   5.3622   5.4362   5.6126   5.7117   5.7133
     5.8373   6.0288   6.4198   6.6029   6.7635   6.8084   6.9784   6.9791
     9.3207   9.6254  11.5192  11.5193  11.7374  11.7934  12.8028  13.0960

          k = 0.0000-0.4001 0.0000 (  7073 PWs)   bands (ev):

   -47.1535 -47.1531 -23.3396 -23.3297 -23.2334 -23.2228 -23.2223 -23.2215
   -19.3301 -19.3270  -9.1121  -9.0675  -8.6910  -8.6501  -7.9759  -7.8787
    -2.9319  -2.9311  -2.9308  -2.9229  -2.8557  -2.8546   2.8094   3.0713
     4.8831   5.3040   5.3613   5.3617   5.4361   5.6123   5.7119   5.7132
     5.8375   6.0289   6.4199   6.6029   6.7634   6.8083   6.9785   6.9791
     9.3207   9.6254  11.5196  11.5196  11.7370  11.7930  12.8025  13.0963

          k = 0.1000-0.3001 0.0000 (  7098 PWs)   bands (ev):

   -47.1538 -47.1529 -23.3275 -23.3010 -23.2621 -23.2347 -23.2229 -23.2209
   -19.3344 -19.3262  -9.0566  -8.9679  -8.6570  -8.5083  -8.2272  -7.9915
    -2.9510  -2.9484  -2.9349  -2.9131  -2.8835  -2.8808   3.0606   3.7615
     4.3881   4.7544   5.1079   5.2826   5.4112   5.5441   5.5868   5.8702
     6.2198   6.2316   6.5393   6.5449   6.7261   6.8024   6.8448   7.0923
     9.5923  10.2753  10.9594  11.0370  11.5305  11.7867  13.0878  13.5660

          k =-0.0000-0.0000 0.1429 (  7095 PWs)   bands (ev):

   -47.1548 -47.1512 -23.3335 -23.3334 -23.2475 -23.2393 -23.2257 -23.2256
   -19.3463 -19.3156  -9.1240  -8.7075  -8.6789  -8.6021  -7.9111  -7.9109
    -3.0071  -3.0071  -2.9542  -2.9541  -2.9388  -2.9344   2.6217   3.0091
     3.5809   4.7640   4.7644   5.0789   5.4826   5.5157   5.5159   6.4874
     6.4875   6.6504   6.7174   6.8282   6.8283   7.0732   7.0733   7.7832
     9.2446   9.8067   9.8067  11.9102  11.9105  12.7703  12.7935  13.5335

          k = 0.1000 0.1000 0.1429 (  7099 PWs)   bands (ev):

   -47.1545 -47.1515 -23.3237 -23.3233 -23.2467 -23.2400 -23.2365 -23.2361
   -19.3425 -19.3177  -9.0486  -8.7009  -8.6385  -8.5892  -8.0200  -7.9954
    -3.0040  -2.9982  -2.9629  -2.9604  -2.9079  -2.9033   2.8896   3.2673
     3.7592   4.7895   4.8537   5.0449   5.2409   5.3071   5.5139   6.1022
     6.1209   6.4660   6.7901   6.8375   6.8508   6.8976   6.9130   7.6520
     9.7740   9.9910  10.0286  11.6849  11.7265  12.4815  13.4277  13.7827

          k = 0.2000 0.2001 0.1429 (  7098 PWs)   bands (ev):

   -47.1536 -47.1524 -23.2977 -23.2966 -23.2644 -23.2633 -23.2445 -23.2420
   -19.3335 -19.3240  -8.8815  -8.7618  -8.5065  -8.4517  -8.2774  -8.2069
    -2.9933  -2.9835  -2.9762  -2.9717  -2.8597  -2.8558   3.6169   3.8926
     4.3273   4.5737   4.5951   4.8839   4.9509   5.1166   5.3459   5.5412
     5.6019   5.8256   6.7660   6.8244   6.8470   6.8556   7.0728   7.3473
    10.4570  10.5880  10.7835  11.1208  11.2327  11.7406  14.2433  14.6193

          k =-0.2000-0.2001 0.1429 (  7098 PWs)   bands (ev):

   -47.1536 -47.1524 -23.2977 -23.2966 -23.2644 -23.2633 -23.2445 -23.2420
   -19.3335 -19.3240  -8.8815  -8.7618  -8.5065  -8.4517  -8.2774  -8.2069
    -2.9933  -2.9835  -2.9762  -2.9717  -2.8597  -2.8558   3.6169   3.8926
     4.3273   4.5737   4.5951   4.8839   4.9509   5.1166   5.3458   5.5412
     5.6019   5.8256   6.7661   6.8244   6.8470   6.8556   7.0728   7.3473
    10.4570  10.5880  10.7836  11.1208  11.2327  11.7406  14.2433  14.6192

          k =-0.1000-0.1000 0.1429 (  7099 PWs)   bands (ev):

   -47.1545 -47.1515 -23.3237 -23.3233 -23.2467 -23.2400 -23.2365 -23.2361
   -19.3425 -19.3177  -9.0486  -8.7009  -8.6385  -8.5892  -8.0200  -7.9954
    -3.0040  -2.9982  -2.9629  -2.9604  -2.9079  -2.9033   2.8896   3.2673
     3.7592   4.7895   4.8537   5.0449   5.2409   5.3071   5.5139   6.1022
     6.1209   6.4660   6.7901   6.8375   6.8508   6.8976   6.9129   7.6520
     9.7739   9.9910  10.0286  11.6849  11.7265  12.4815  13.4277  13.7827

          k = 0.1000-0.1000 0.1429 (  7099 PWs)   bands (ev):

   -47.1545 -47.1515 -23.3237 -23.3233 -23.2467 -23.2400 -23.2365 -23.2361
   -19.3425 -19.3177  -9.0486  -8.7009  -8.6385  -8.5892  -8.0200  -7.9954
    -3.0040  -2.9982  -2.9629  -2.9604  -2.9079  -2.9033   2.8896   3.2673
     3.7592   4.7895   4.8537   5.0449   5.2409   5.3071   5.5139   6.1022
     6.1209   6.4660   6.7901   6.8375   6.8508   6.8976   6.9130   7.6520
     9.7740   9.9910  10.0286  11.6849  11.7265  12.4815  13.4277  13.7827

          k = 0.2000-0.0000 0.1429 (  7078 PWs)   bands (ev):

   -47.1542 -47.1518 -23.3355 -23.2953 -23.2654 -23.2460 -23.2406 -23.2244
   -19.3393 -19.3192  -9.0385  -8.7312  -8.6183  -8.4857  -8.2461  -7.9013
    -3.0091  -2.9642  -2.9607  -2.9415  -2.9027  -2.8985   2.7795   3.8260
     3.9217   4.6258   4.7657   4.9564   5.0108   5.4585   5.5778   5.6509
     6.1255   6.4823   6.6907   6.7783   6.7969   6.8081   6.9399   7.4862
     9.8215  10.2402  10.4976  11.2044  11.8909  12.3098  13.2413  14.4110

          k = 0.3001 0.1000 0.1429 (  7091 PWs)   bands (ev):

   -47.1535 -47.1525 -23.3267 -23.2999 -23.2613 -23.2443 -23.2422 -23.2341
   -19.3317 -19.3241  -8.9591  -8.8252  -8.5861  -8.4742  -8.2306  -7.9927
    -2.9890  -2.9632  -2.9481  -2.9439  -2.8696  -2.8645   3.0573   3.7558
     4.3650   4.7337   4.8333   4.8460   5.1308   5.1453   5.3267   5.5429
     5.7902   6.2242   6.6223   6.7322   6.7995   6.8013   6.9306   7.1234
    10.0453  10.5765  11.0486  11.1387  11.6697  11.8061  13.6803  14.3420

          k =-0.1000-0.3001 0.1429 (  7091 PWs)   bands (ev):

   -47.1535 -47.1525 -23.3265 -23.3000 -23.2614 -23.2443 -23.2422 -23.2340
   -19.3317 -19.3241  -8.9589  -8.8253  -8.5860  -8.4744  -8.2309  -7.9925
    -2.9890  -2.9632  -2.9482  -2.9439  -2.8695  -2.8645   3.0578   3.7554
     4.3651   4.7335   4.8331   4.8463   5.1306   5.1451   5.3267   5.5429
     5.7901   6.2243   6.6223   6.7323   6.7996   6.8012   6.9306   7.1235
    10.0452  10.5766  11.0489  11.1389  11.6693  11.8058  13.6798  14.3423

          k =-0.0000-0.2001 0.1429 (  7076 PWs)   bands (ev):

   -47.1542 -47.1518 -23.3353 -23.2954 -23.2655 -23.2460 -23.2406 -23.2243
   -19.3393 -19.3192  -9.0383  -8.7313  -8.6181  -8.4860  -8.2464  -7.9011
    -3.0091  -2.9642  -2.9607  -2.9416  -2.9027  -2.8984   2.7801   3.8257
     3.9217   4.6256   4.7661   4.9561   5.0108   5.4583   5.5777   5.6508
     6.1252   6.4825   6.6910   6.7784   6.7969   6.8081   6.9398   7.4863
     9.8215  10.2404  10.4977  11.2046  11.8906  12.3096  13.2408  14.4117

          k = 0.2000-0.2001 0.1429 (  7098 PWs)   bands (ev):

   -47.1536 -47.1524 -23.2977 -23.2966 -23.2644 -23.2633 -23.2445 -23.2420
   -19.3335 -19.3240  -8.8815  -8.7618  -8.5065  -8.4517  -8.2774  -8.2069
    -2.9933  -2.9835  -2.9762  -2.9717  -2.8597  -2.8558   3.6169   3.8926
     4.3273   4.5737   4.5951   4.8839   4.9509   5.1166   5.3459   5.5412
     5.6019   5.8256   6.7661   6.8244   6.8470   6.8556   7.0728   7.3473
    10.4570  10.5880  10.7835  11.1208  11.2327  11.7406  14.2433  14.6193

          k = 0.3001-0.1000 0.1429 (  7091 PWs)   bands (ev):

   -47.1535 -47.1525 -23.3267 -23.2999 -23.2613 -23.2443 -23.2422 -23.2341
   -19.3317 -19.3241  -8.9591  -8.8252  -8.5861  -8.4742  -8.2306  -7.9927
    -2.9890  -2.9632  -2.9481  -2.9439  -2.8696  -2.8645   3.0573   3.7558
     4.3650   4.7337   4.8333   4.8460   5.1308   5.1453   5.3267   5.5429
     5.7902   6.2242   6.6223   6.7322   6.7995   6.8013   6.9306   7.1234
    10.0453  10.5765  11.0486  11.1387  11.6697  11.8061  13.6803  14.3420

          k = 0.4001-0.0000 0.1429 (  7070 PWs)   bands (ev):

   -47.1532 -47.1528 -23.3387 -23.3285 -23.2436 -23.2428 -23.2326 -23.2222
   -19.3280 -19.3251  -9.0238  -8.9620  -8.6046  -8.5776  -7.9843  -7.8860
    -2.9616  -2.9426  -2.9210  -2.9008  -2.8815  -2.8700   2.8043   3.0666
     4.5919   4.7048   4.9859   5.1679   5.2125   5.3193   5.3733   5.6301
     6.1507   6.2671   6.4345   6.6474   6.6969   6.7622   6.8318   6.8428
     9.8741  10.0796  11.5253  11.6509  11.7978  11.8656  13.3123  13.6826

          k =-0.0000-0.4001 0.1429 (  7070 PWs)   bands (ev):

   -47.1532 -47.1528 -23.3385 -23.3286 -23.2436 -23.2428 -23.2327 -23.2221
   -19.3280 -19.3251  -9.0235  -8.9623  -8.6045  -8.5778  -7.9845  -7.8858
    -2.9616  -2.9426  -2.9210  -2.9008  -2.8815  -2.8700   2.8049   3.0661
     4.5923   4.7044   4.9863   5.1678   5.2125   5.3188   5.3733   5.6300
     6.1510   6.2669   6.4345   6.6477   6.6970   6.7621   6.8317   6.8429
     9.8741  10.0797  11.5256  11.6512  11.7974  11.8652  13.3118  13.6831

          k = 0.1000-0.3001 0.1429 (  7091 PWs)   bands (ev):

   -47.1535 -47.1525 -23.3265 -23.3000 -23.2614 -23.2443 -23.2422 -23.2340
   -19.3317 -19.3241  -8.9589  -8.8253  -8.5860  -8.4744  -8.2309  -7.9925
    -2.9890  -2.9632  -2.9482  -2.9439  -2.8695  -2.8645   3.0578   3.7554
     4.3651   4.7335   4.8331   4.8463   5.1306   5.1451   5.3267   5.5429
     5.7901   6.2243   6.6223   6.7323   6.7997   6.8012   6.9306   7.1235
    10.0452  10.5766  11.0489  11.1389  11.6693  11.8058  13.6798  14.3423

          k =-0.2000 0.2001 0.1429 (  7098 PWs)   bands (ev):

   -47.1536 -47.1524 -23.2977 -23.2966 -23.2644 -23.2633 -23.2445 -23.2420
   -19.3335 -19.3240  -8.8815  -8.7618  -8.5065  -8.4517  -8.2774  -8.2069
    -2.9933  -2.9835  -2.9762  -2.9717  -2.8597  -2.8558   3.6169   3.8926
     4.3273   4.5737   4.5951   4.8839   4.9509   5.1166   5.3459   5.5412
     5.6019   5.8256   6.7661   6.8244   6.8470   6.8556   7.0728   7.3473
    10.4570  10.5880  10.7835  11.1208  11.2327  11.7406  14.2433  14.6192

          k =-0.1000 0.3001 0.1429 (  7091 PWs)   bands (ev):

   -47.1535 -47.1525 -23.3265 -23.3000 -23.2614 -23.2443 -23.2422 -23.2340
   -19.3317 -19.3241  -8.9589  -8.8253  -8.5860  -8.4744  -8.2309  -7.9925
    -2.9890  -2.9632  -2.9482  -2.9439  -2.8695  -2.8645   3.0578   3.7554
     4.3651   4.7335   4.8331   4.8463   5.1307   5.1451   5.3267   5.5429
     5.7901   6.2243   6.6223   6.7323   6.7996   6.8012   6.9306   7.1235
    10.0452  10.5766  11.0489  11.1389  11.6693  11.8058  13.6798  14.3423

          k =-0.0000 0.4001 0.1429 (  7070 PWs)   bands (ev):

   -47.1532 -47.1528 -23.3385 -23.3286 -23.2436 -23.2428 -23.2327 -23.2221
   -19.3280 -19.3251  -9.0235  -8.9623  -8.6045  -8.5778  -7.9845  -7.8858
    -2.9616  -2.9426  -2.9210  -2.9008  -2.8815  -2.8700   2.8049   3.0661
     4.5923   4.7044   4.9863   5.1678   5.2125   5.3188   5.3733   5.6300
     6.1510   6.2669   6.4345   6.6477   6.6970   6.7621   6.8317   6.8429
     9.8741  10.0797  11.5256  11.6512  11.7974  11.8652  13.3118  13.6831

          k =-0.4001-0.0000 0.1429 (  7070 PWs)   bands (ev):

   -47.1532 -47.1528 -23.3387 -23.3285 -23.2436 -23.2428 -23.2326 -23.2222
   -19.3280 -19.3251  -9.0238  -8.9620  -8.6046  -8.5776  -7.9843  -7.8860
    -2.9616  -2.9426  -2.9210  -2.9008  -2.8815  -2.8700   2.8043   3.0666
     4.5919   4.7048   4.9859   5.1679   5.2125   5.3193   5.3733   5.6301
     6.1507   6.2671   6.4345   6.6474   6.6969   6.7622   6.8318   6.8428
     9.8741  10.0796  11.5253  11.6509  11.7978  11.8656  13.3123  13.6826

          k =-0.3001 0.1000 0.1429 (  7091 PWs)   bands (ev):

   -47.1535 -47.1525 -23.3267 -23.2999 -23.2613 -23.2443 -23.2422 -23.2341
   -19.3317 -19.3241  -8.9591  -8.8252  -8.5861  -8.4742  -8.2306  -7.9927
    -2.9890  -2.9632  -2.9481  -2.9439  -2.8696  -2.8645   3.0573   3.7558
     4.3650   4.7337   4.8333   4.8460   5.1308   5.1453   5.3267   5.5429
     5.7902   6.2242   6.6223   6.7322   6.7995   6.8013   6.9306   7.1234
    10.0453  10.5765  11.0486  11.1387  11.6697  11.8061  13.6803  14.3420

          k =-0.1000 0.1000 0.1429 (  7099 PWs)   bands (ev):

   -47.1545 -47.1515 -23.3237 -23.3233 -23.2467 -23.2400 -23.2365 -23.2361
   -19.3425 -19.3177  -9.0486  -8.7009  -8.6385  -8.5892  -8.0200  -7.9954
    -3.0040  -2.9982  -2.9629  -2.9604  -2.9079  -2.9033   2.8896   3.2673
     3.7592   4.7895   4.8537   5.0449   5.2409   5.3071   5.5139   6.1022
     6.1209   6.4660   6.7901   6.8375   6.8508   6.8976   6.9130   7.6520
     9.7740   9.9910  10.0286  11.6849  11.7265  12.4815  13.4277  13.7827

          k =-0.0000 0.2001 0.1429 (  7076 PWs)   bands (ev):

   -47.1542 -47.1518 -23.3353 -23.2954 -23.2655 -23.2460 -23.2406 -23.2243
   -19.3393 -19.3192  -9.0383  -8.7313  -8.6181  -8.4860  -8.2464  -7.9011
    -3.0091  -2.9642  -2.9607  -2.9416  -2.9027  -2.8984   2.7801   3.8257
     3.9217   4.6256   4.7661   4.9561   5.0108   5.4583   5.5777   5.6508
     6.1252   6.4825   6.6910   6.7784   6.7969   6.8081   6.9398   7.4863
     9.8215  10.2404  10.4978  11.2046  11.8906  12.3096  13.2408  14.4114

          k = 0.1000 0.3001 0.1429 (  7091 PWs)   bands (ev):

   -47.1535 -47.1525 -23.3265 -23.3000 -23.2614 -23.2443 -23.2422 -23.2340
   -19.3317 -19.3241  -8.9589  -8.8253  -8.5860  -8.4745  -8.2309  -7.9925
    -2.9890  -2.9632  -2.9482  -2.9439  -2.8695  -2.8645   3.0578   3.7554
     4.3651   4.7335   4.8330   4.8463   5.1307   5.1451   5.3267   5.5429
     5.7901   6.2243   6.6223   6.7322   6.7997   6.8012   6.9306   7.1235
    10.0452  10.5766  11.0489  11.1389  11.6693  11.8058  13.6798  14.3423

          k =-0.3001-0.1000 0.1429 (  7091 PWs)   bands (ev):

   -47.1535 -47.1525 -23.3267 -23.2999 -23.2613 -23.2443 -23.2422 -23.2341
   -19.3317 -19.3241  -8.9591  -8.8252  -8.5861  -8.4742  -8.2306  -7.9927
    -2.9890  -2.9632  -2.9481  -2.9439  -2.8696  -2.8645   3.0573   3.7558
     4.3650   4.7337   4.8333   4.8460   5.1308   5.1453   5.3267   5.5429
     5.7902   6.2242   6.6223   6.7322   6.7995   6.8013   6.9306   7.1234
    10.0453  10.5765  11.0486  11.1387  11.6697  11.8061  13.6803  14.3420

          k =-0.2000-0.0000 0.1429 (  7078 PWs)   bands (ev):

   -47.1542 -47.1518 -23.3355 -23.2953 -23.2654 -23.2460 -23.2406 -23.2244
   -19.3393 -19.3192  -9.0385  -8.7312  -8.6183  -8.4857  -8.2461  -7.9013
    -3.0091  -2.9642  -2.9607  -2.9415  -2.9027  -2.8985   2.7795   3.8260
     3.9217   4.6258   4.7657   4.9564   5.0108   5.4585   5.5778   5.6509
     6.1255   6.4823   6.6907   6.7783   6.7969   6.8082   6.9399   7.4862
     9.8215  10.2402  10.4976  11.2044  11.8909  12.3098  13.2413  14.4111

          k =-0.0000-0.0000 0.2857 (  7063 PWs)   bands (ev):

   -47.1540 -47.1504 -23.3316 -23.3315 -23.2957 -23.2863 -23.2241 -23.2240
   -19.3367 -19.3103  -9.1033  -8.6989  -8.2700  -8.2620  -7.8811  -7.8810
    -3.0975  -3.0975  -3.0660  -2.9404  -2.9404  -2.8894   2.6273   2.9699
     3.8181   3.8893   4.1102   4.3184   4.3188   5.4420   5.4421   5.9606
     5.9608   6.0796   6.5371   7.0087   7.0088   7.4188   7.4189   7.7982
     9.2891  10.8532  10.8532  12.3271  12.3274  12.8005  12.8128  14.5687

          k = 0.1000 0.1000 0.2857 (  7096 PWs)   bands (ev):

   -47.1537 -47.1507 -23.3217 -23.3214 -23.2947 -23.2871 -23.2348 -23.2344
   -19.3339 -19.3125  -9.0052  -8.6284  -8.2962  -8.2664  -7.9961  -7.9682
    -3.0949  -3.0833  -2.9946  -2.9559  -2.9472  -2.8722   2.8952   3.2084
     3.8828   3.9240   4.1076   4.3913   4.3932   5.0357   5.2257   5.5797
     5.6256   6.3637   6.6180   6.8246   6.8482   7.3465   7.3824   7.6659
     9.8228  10.9373  10.9603  12.1294  12.1666  12.5233  13.4314  14.9032

          k = 0.2000 0.2001 0.2857 (  7078 PWs)   bands (ev):

   -47.1528 -47.1516 -23.2956 -23.2948 -23.2922 -23.2893 -23.2624 -23.2616
   -19.3268 -19.3187  -8.7420  -8.4372  -8.4300  -8.2639  -8.2038  -8.1859
    -3.0470  -3.0451  -2.9961  -2.9869  -2.8900  -2.8468   3.6247   3.7076
     3.8606   4.0251   4.4521   4.5215   4.5783   4.6008   4.6121   5.0017
     5.0210   5.4251   6.8921   6.9358   7.1782   7.1871   7.1933   7.4231
    10.8024  11.2313  11.2901  11.6576  11.7583  11.8034  14.8381  15.6220

          k =-0.2000-0.2001 0.2857 (  7078 PWs)   bands (ev):

   -47.1528 -47.1516 -23.2956 -23.2948 -23.2922 -23.2893 -23.2624 -23.2616
   -19.3268 -19.3187  -8.7420  -8.4372  -8.4300  -8.2639  -8.2038  -8.1859
    -3.0470  -3.0451  -2.9961  -2.9869  -2.8900  -2.8468   3.6247   3.7076
     3.8606   4.0251   4.4521   4.5215   4.5783   4.6008   4.6121   5.0018
     5.0210   5.4251   6.8921   6.9358   7.1782   7.1871   7.1934   7.4231
    10.8024  11.2313  11.2901  11.6576  11.7583  11.8034  14.8381  15.6221

          k =-0.1000-0.1000 0.2857 (  7096 PWs)   bands (ev):

   -47.1537 -47.1507 -23.3217 -23.3214 -23.2947 -23.2871 -23.2348 -23.2344
   -19.3339 -19.3125  -9.0052  -8.6284  -8.2962  -8.2664  -7.9961  -7.9682
    -3.0949  -3.0833  -2.9946  -2.9559  -2.9472  -2.8722   2.8952   3.2084
     3.8828   3.9240   4.1076   4.3913   4.3932   5.0357   5.2257   5.5797
     5.6256   6.3637   6.6179   6.8246   6.8482   7.3465   7.3825   7.6659
     9.8228  10.9373  10.9603  12.1294  12.1666  12.5233  13.4314  14.9031

          k = 0.1000-0.1000 0.2857 (  7096 PWs)   bands (ev):

   -47.1537 -47.1507 -23.3217 -23.3214 -23.2947 -23.2871 -23.2348 -23.2344
   -19.3339 -19.3125  -9.0052  -8.6284  -8.2962  -8.2664  -7.9961  -7.9682
    -3.0949  -3.0833  -2.9946  -2.9559  -2.9472  -2.8722   2.8952   3.2084
     3.8828   3.9240   4.1076   4.3913   4.3932   5.0357   5.2257   5.5797
     5.6256   6.3637   6.6180   6.8246   6.8482   7.3465   7.3825   7.6659
     9.8228  10.9373  10.9603  12.1294  12.1666  12.5233  13.4314  14.9031

          k = 0.2000-0.0000 0.2857 (  7092 PWs)   bands (ev):

   -47.1534 -47.1510 -23.3334 -23.2939 -23.2935 -23.2877 -23.2634 -23.2227
   -19.3316 -19.3143  -8.9782  -8.5126  -8.3628  -8.2701  -8.1816  -7.8891
    -3.0876  -3.0373  -2.9680  -2.9648  -2.9246  -2.8816   2.7704   3.6937
     3.8708   4.0032   4.1569   4.3116   4.5517   4.6561   4.9444   5.3730
     5.7574   6.3152   6.5627   6.5971   7.0949   7.2244   7.3503   7.5383
    10.2494  10.8754  11.2223  11.7533  12.2774  12.3666  13.5115  15.4275

          k = 0.3001 0.1000 0.2857 (  7076 PWs)   bands (ev):

   -47.1527 -47.1518 -23.3244 -23.2978 -23.2918 -23.2895 -23.2595 -23.2324
   -19.3258 -19.3192  -8.8500  -8.6099  -8.3057  -8.2665  -8.2232  -7.9947
    -3.0329  -2.9987  -2.9813  -2.9575  -2.8930  -2.8627   3.0374   3.6692
     3.9127   3.9611   4.1116   4.3857   4.5820   4.7475   5.0696   5.1334
     5.3086   5.9420   6.6244   6.7103   6.9682   7.0405   7.3186   7.4278
    10.9528  11.1043  11.3046  11.6655  11.8327  12.1042  14.1885  15.2963

          k =-0.1000-0.3001 0.2857 (  7076 PWs)   bands (ev):

   -47.1527 -47.1518 -23.3243 -23.2979 -23.2918 -23.2895 -23.2596 -23.2324
   -19.3258 -19.3192  -8.8495  -8.6103  -8.3057  -8.2666  -8.2234  -7.9945
    -3.0329  -2.9987  -2.9813  -2.9575  -2.8930  -2.8628   3.0380   3.6689
     3.9127   3.9611   4.1119   4.3854   4.5821   4.7474   5.0695   5.1332
     5.3085   5.9421   6.6245   6.7105   6.9682   7.0404   7.3185   7.4279
    10.9528  11.1045  11.3047  11.6657  11.8324  12.1040  14.1879  15.2970

          k =-0.0000-0.2001 0.2857 (  7092 PWs)   bands (ev):

   -47.1534 -47.1510 -23.3332 -23.2939 -23.2936 -23.2877 -23.2635 -23.2227
   -19.3316 -19.3143  -8.9779  -8.5128  -8.3629  -8.2701  -8.1818  -7.8890
    -3.0876  -3.0373  -2.9679  -2.9648  -2.9247  -2.8816   2.7710   3.6934
     3.8708   4.0034   4.1568   4.3118   4.5515   4.6558   4.9442   5.3728
     5.7572   6.3155   6.5630   6.5971   7.0948   7.2243   7.3504   7.5383
    10.2496  10.8754  11.2224  11.7535  12.2771  12.3664  13.5110  15.4281

          k = 0.2000-0.2001 0.2857 (  7078 PWs)   bands (ev):

   -47.1528 -47.1516 -23.2956 -23.2948 -23.2922 -23.2893 -23.2624 -23.2616
   -19.3268 -19.3187  -8.7420  -8.4372  -8.4300  -8.2639  -8.2038  -8.1859
    -3.0470  -3.0451  -2.9961  -2.9869  -2.8900  -2.8468   3.6247   3.7076
     3.8606   4.0251   4.4521   4.5215   4.5783   4.6008   4.6121   5.0017
     5.0210   5.4251   6.8921   6.9358   7.1782   7.1871   7.1934   7.4231
    10.8024  11.2313  11.2901  11.6576  11.7583  11.8034  14.8381  15.6221

          k = 0.3001-0.1000 0.2857 (  7076 PWs)   bands (ev):

   -47.1527 -47.1518 -23.3244 -23.2978 -23.2918 -23.2895 -23.2595 -23.2324
   -19.3258 -19.3192  -8.8500  -8.6099  -8.3057  -8.2665  -8.2232  -7.9947
    -3.0329  -2.9987  -2.9813  -2.9575  -2.8930  -2.8627   3.0374   3.6692
     3.9127   3.9611   4.1116   4.3857   4.5820   4.7475   5.0696   5.1334
     5.3086   5.9420   6.6244   6.7103   6.9682   7.0405   7.3186   7.4278
    10.9528  11.1043  11.3046  11.6655  11.8327  12.1042  14.1885  15.2963

          k = 0.4001-0.0000 0.2857 (  7068 PWs)   bands (ev):

   -47.1524 -47.1520 -23.3362 -23.3260 -23.2910 -23.2901 -23.2310 -23.2206
   -19.3233 -19.3208  -8.9123  -8.8243  -8.2967  -8.2898  -8.0035  -7.9023
    -2.9840  -2.9628  -2.9380  -2.9077  -2.8989  -2.8943   2.7843   3.0401
     3.9113   3.9468   3.9518   4.0670   4.9362   5.1444   5.2223   5.3850
     5.9325   6.2928   6.3850   6.4674   6.5709   6.6730   7.4109   7.4370
    10.8929  11.0066  11.5394  11.8174  12.0681  12.2511  13.8150  14.2914

          k =-0.0000-0.4001 0.2857 (  7068 PWs)   bands (ev):

   -47.1524 -47.1520 -23.3361 -23.3261 -23.2910 -23.2901 -23.2311 -23.2205
   -19.3233 -19.3208  -8.9119  -8.8248  -8.2967  -8.2899  -8.0037  -7.9022
    -2.9839  -2.9628  -2.9380  -2.9077  -2.8989  -2.8943   2.7849   3.0396
     3.9112   3.9471   3.9518   4.0668   4.9366   5.1443   5.2218   5.3849
     5.9324   6.2931   6.3851   6.4677   6.5708   6.6728   7.4108   7.4370
    10.8930  11.0066  11.5398  11.8171  12.0684  12.2508  13.8144  14.2920

          k = 0.1000-0.3001 0.2857 (  7076 PWs)   bands (ev):

   -47.1527 -47.1518 -23.3243 -23.2979 -23.2918 -23.2895 -23.2596 -23.2324
   -19.3258 -19.3192  -8.8495  -8.6103  -8.3057  -8.2666  -8.2234  -7.9945
    -3.0329  -2.9987  -2.9813  -2.9575  -2.8930  -2.8628   3.0380   3.6689
     3.9127   3.9611   4.1119   4.3854   4.5822   4.7474   5.0695   5.1332
     5.3085   5.9421   6.6245   6.7105   6.9682   7.0404   7.3185   7.4279
    10.9528  11.1045  11.3047  11.6657  11.8324  12.1039  14.1879  15.2970

          k =-0.2000 0.2001 0.2857 (  7078 PWs)   bands (ev):

   -47.1528 -47.1516 -23.2956 -23.2948 -23.2922 -23.2893 -23.2624 -23.2616
   -19.3268 -19.3187  -8.7420  -8.4372  -8.4300  -8.2639  -8.2038  -8.1859
    -3.0470  -3.0451  -2.9961  -2.9869  -2.8900  -2.8468   3.6247   3.7076
     3.8606   4.0251   4.4521   4.5215   4.5783   4.6008   4.6121   5.0017
     5.0210   5.4251   6.8921   6.9358   7.1782   7.1871   7.1934   7.4231
    10.8024  11.2313  11.2901  11.6576  11.7583  11.8034  14.8381  15.6221

          k =-0.1000 0.3001 0.2857 (  7076 PWs)   bands (ev):

   -47.1527 -47.1518 -23.3243 -23.2979 -23.2918 -23.2895 -23.2596 -23.2324
   -19.3258 -19.3192  -8.8495  -8.6103  -8.3057  -8.2666  -8.2234  -7.9945
    -3.0329  -2.9987  -2.9813  -2.9575  -2.8930  -2.8628   3.0380   3.6689
     3.9127   3.9611   4.1119   4.3854   4.5821   4.7474   5.0695   5.1332
     5.3085   5.9421   6.6245   6.7105   6.9682   7.0404   7.3185   7.4279
    10.9528  11.1045  11.3047  11.6657  11.8324  12.1040  14.1879  15.2970

          k =-0.0000 0.4001 0.2857 (  7068 PWs)   bands (ev):

   -47.1524 -47.1520 -23.3361 -23.3261 -23.2910 -23.2901 -23.2311 -23.2205
   -19.3233 -19.3208  -8.9119  -8.8248  -8.2967  -8.2899  -8.0037  -7.9022
    -2.9839  -2.9628  -2.9380  -2.9077  -2.8989  -2.8943   2.7849   3.0396
     3.9112   3.9471   3.9518   4.0668   4.9366   5.1443   5.2218   5.3849
     5.9324   6.2931   6.3851   6.4677   6.5708   6.6728   7.4108   7.4370
    10.8930  11.0066  11.5398  11.8171  12.0684  12.2508  13.8144  14.2920

          k =-0.4001-0.0000 0.2857 (  7068 PWs)   bands (ev):

   -47.1524 -47.1520 -23.3362 -23.3260 -23.2910 -23.2901 -23.2310 -23.2206
   -19.3233 -19.3208  -8.9123  -8.8243  -8.2967  -8.2898  -8.0035  -7.9023
    -2.9840  -2.9627  -2.9380  -2.9077  -2.8989  -2.8943   2.7843   3.0401
     3.9113   3.9468   3.9518   4.0670   4.9362   5.1444   5.2223   5.3850
     5.9325   6.2928   6.3850   6.4674   6.5709   6.6730   7.4109   7.4369
    10.8929  11.0066  11.5394  11.8174  12.0681  12.2511  13.8150  14.2914

          k =-0.3001 0.1000 0.2857 (  7076 PWs)   bands (ev):

   -47.1527 -47.1518 -23.3244 -23.2978 -23.2918 -23.2895 -23.2595 -23.2324
   -19.3258 -19.3192  -8.8500  -8.6099  -8.3057  -8.2665  -8.2232  -7.9947
    -3.0329  -2.9987  -2.9813  -2.9575  -2.8930  -2.8627   3.0374   3.6692
     3.9127   3.9611   4.1116   4.3857   4.5820   4.7475   5.0696   5.1334
     5.3086   5.9420   6.6244   6.7103   6.9682   7.0405   7.3185   7.4278
    10.9527  11.1044  11.3046  11.6655  11.8327  12.1042  14.1885  15.2963

          k =-0.1000 0.1000 0.2857 (  7096 PWs)   bands (ev):

   -47.1537 -47.1507 -23.3217 -23.3214 -23.2947 -23.2871 -23.2348 -23.2344
   -19.3339 -19.3125  -9.0052  -8.6284  -8.2962  -8.2664  -7.9961  -7.9682
    -3.0949  -3.0833  -2.9946  -2.9559  -2.9472  -2.8722   2.8952   3.2084
     3.8828   3.9240   4.1076   4.3913   4.3932   5.0357   5.2257   5.5797
     5.6256   6.3637   6.6180   6.8246   6.8482   7.3465   7.3825   7.6659
     9.8228  10.9373  10.9603  12.1294  12.1666  12.5233  13.4314  14.9031

          k =-0.0000 0.2001 0.2857 (  7092 PWs)   bands (ev):

   -47.1534 -47.1510 -23.3332 -23.2939 -23.2936 -23.2877 -23.2635 -23.2227
   -19.3316 -19.3143  -8.9779  -8.5128  -8.3629  -8.2701  -8.1818  -7.8890
    -3.0876  -3.0373  -2.9679  -2.9648  -2.9247  -2.8816   2.7710   3.6934
     3.8708   4.0034   4.1568   4.3118   4.5515   4.6558   4.9442   5.3728
     5.7572   6.3155   6.5630   6.5971   7.0948   7.2243   7.3504   7.5383
    10.2496  10.8754  11.2224  11.7535  12.2771  12.3664  13.5110  15.4281

          k = 0.1000 0.3001 0.2857 (  7076 PWs)   bands (ev):

   -47.1527 -47.1518 -23.3243 -23.2979 -23.2918 -23.2895 -23.2596 -23.2324
   -19.3258 -19.3192  -8.8495  -8.6103  -8.3057  -8.2666  -8.2234  -7.9945
    -3.0329  -2.9987  -2.9813  -2.9575  -2.8930  -2.8628   3.0380   3.6689
     3.9127   3.9611   4.1119   4.3854   4.5821   4.7474   5.0695   5.1332
     5.3085   5.9421   6.6245   6.7105   6.9682   7.0404   7.3185   7.4279
    10.9528  11.1045  11.3047  11.6657  11.8324  12.1040  14.1879  15.2970

          k =-0.3001-0.1000 0.2857 (  7076 PWs)   bands (ev):

   -47.1527 -47.1518 -23.3244 -23.2978 -23.2918 -23.2895 -23.2595 -23.2324
   -19.3258 -19.3192  -8.8500  -8.6099  -8.3057  -8.2665  -8.2232  -7.9947
    -3.0329  -2.9987  -2.9813  -2.9575  -2.8930  -2.8627   3.0374   3.6692
     3.9127   3.9611   4.1116   4.3857   4.5820   4.7475   5.0696   5.1334
     5.3086   5.9420   6.6244   6.7103   6.9683   7.0405   7.3185   7.4278
    10.9527  11.1044  11.3046  11.6655  11.8327  12.1042  14.1885  15.2963

          k =-0.2000-0.0000 0.2857 (  7092 PWs)   bands (ev):

   -47.1534 -47.1510 -23.3334 -23.2939 -23.2935 -23.2877 -23.2634 -23.2227
   -19.3316 -19.3143  -8.9782  -8.5126  -8.3628  -8.2701  -8.1816  -7.8891
    -3.0876  -3.0373  -2.9680  -2.9648  -2.9246  -2.8816   2.7704   3.6937
     3.8708   4.0032   4.1569   4.3116   4.5517   4.6561   4.9444   5.3730
     5.7574   6.3152   6.5627   6.5971   7.0949   7.2244   7.3503   7.5383
    10.2494  10.8754  11.2223  11.7533  12.2774  12.3666  13.5115  15.4276

          k =-0.0000-0.0000 0.4286 (  7063 PWs)   bands (ev):

   -47.1534 -47.1498 -23.3338 -23.3301 -23.3300 -23.3234 -23.2228 -23.2227
   -19.3291 -19.3060  -9.1164  -8.6920  -7.9258  -7.9075  -7.8565  -7.8563
    -3.1702  -3.1702  -3.1664  -2.9294  -2.9293  -2.8493   2.6318   2.7206
     2.9500   3.3747   4.0054   4.0671   4.0675   5.3492   5.3493   5.6815
     5.6817   5.8025   6.4010   6.9738   6.9739   7.7674   7.7675   7.8103
     9.3256  11.6205  11.6205  12.7720  12.7723  12.8056  12.8461  15.2206

          k = 0.1000 0.1000 0.4286 (  7069 PWs)   bands (ev):

   -47.1531 -47.1501 -23.3327 -23.3243 -23.3202 -23.3199 -23.2333 -23.2331
   -19.3271 -19.3083  -9.0105  -8.6202  -8.0016  -7.9458  -7.9338  -7.9128
    -3.1473  -3.1416  -3.0914  -2.9523  -2.9146  -2.8667   2.8105   2.8998
     2.9454   3.5416   4.0239   4.1314   4.1565   4.8071   5.0748   5.3953
     5.4503   6.3295   6.4690   6.7164   6.8050   7.6343   7.6541   7.7257
     9.8562  11.6749  11.6958  12.5437  12.6040  12.6340  13.4307  15.5576

          k = 0.2000 0.2001 0.4286 (  7057 PWs)   bands (ev):

   -47.1521 -47.1510 -23.3299 -23.3267 -23.2939 -23.2933 -23.2608 -23.2602
   -19.3216 -19.3144  -8.7219  -8.4254  -8.3380  -8.1688  -7.9447  -7.9376
    -3.0871  -3.0521  -3.0126  -2.9589  -2.9562  -2.8819   2.9023   2.9326
     3.6328   3.9815   4.1622   4.2650   4.3281   4.5942   4.5958   4.6877
     4.7976   5.4554   6.8777   6.9322   7.1950   7.2519   7.3616   7.5412
    10.8460  11.8111  11.8747  11.9334  12.2241  12.2956  14.8282  16.3106

          k =-0.2000-0.2001 0.4286 (  7057 PWs)   bands (ev):

   -47.1521 -47.1510 -23.3299 -23.3267 -23.2939 -23.2933 -23.2608 -23.2602
   -19.3216 -19.3144  -8.7219  -8.4254  -8.3380  -8.1688  -7.9447  -7.9376
    -3.0871  -3.0521  -3.0126  -2.9589  -2.9562  -2.8819   2.9023   2.9326
     3.6328   3.9815   4.1622   4.2650   4.3281   4.5942   4.5958   4.6877
     4.7976   5.4554   6.8777   6.9322   7.1950   7.2519   7.3616   7.5412
    10.8460  11.8111  11.8747  11.9333  12.2241  12.2956  14.8282  16.3106

          k =-0.1000-0.1000 0.4286 (  7069 PWs)   bands (ev):

   -47.1531 -47.1501 -23.3327 -23.3243 -23.3202 -23.3199 -23.2333 -23.2331
   -19.3271 -19.3083  -9.0105  -8.6202  -8.0016  -7.9458  -7.9338  -7.9128
    -3.1473  -3.1416  -3.0914  -2.9523  -2.9146  -2.8667   2.8105   2.8998
     2.9454   3.5416   4.0238   4.1314   4.1566   4.8071   5.0748   5.3953
     5.4503   6.3295   6.4690   6.7164   6.8050   7.6343   7.6541   7.7257
     9.8562  11.6749  11.6958  12.5437  12.6040  12.6340  13.4307  15.5576

          k = 0.1000-0.1000 0.4286 (  7069 PWs)   bands (ev):

   -47.1531 -47.1501 -23.3327 -23.3243 -23.3202 -23.3199 -23.2333 -23.2331
   -19.3271 -19.3083  -9.0105  -8.6202  -8.0016  -7.9458  -7.9338  -7.9128
    -3.1473  -3.1416  -3.0914  -2.9523  -2.9146  -2.8667   2.8105   2.8998
     2.9454   3.5416   4.0239   4.1314   4.1566   4.8071   5.0748   5.3953
     5.4503   6.3295   6.4690   6.7164   6.8050   7.6343   7.6541   7.7257
     9.8562  11.6749  11.6958  12.5437  12.6040  12.6340  13.4307  15.5576

          k = 0.2000-0.0000 0.4286 (  7073 PWs)   bands (ev):

   -47.1528 -47.1504 -23.3317 -23.3317 -23.3250 -23.2921 -23.2618 -23.2215
   -19.3254 -19.3103  -8.9709  -8.5085  -8.2345  -7.9424  -7.9287  -7.8795
    -3.1135  -3.0979  -3.0557  -2.9473  -2.9110  -2.8853   2.6850   2.9391
     3.0346   3.8739   3.9863   4.2711   4.3277   4.3564   4.7399   5.2681
     5.5185   6.2050   6.5324   6.5386   7.0890   7.4412   7.4629   7.7630
    10.2787  11.6303  11.8775  12.2888  12.3731  12.7409  13.5760  16.0337

          k = 0.3001 0.1000 0.4286 (  7068 PWs)   bands (ev):

   -47.1520 -47.1511 -23.3294 -23.3269 -23.3226 -23.2960 -23.2582 -23.2311
   -19.3210 -19.3153  -8.8194  -8.5520  -8.2540  -8.0008  -7.9543  -7.9480
    -3.0421  -3.0321  -2.9844  -2.9494  -2.9467  -2.8868   2.8189   2.9155
     3.2097   3.7903   3.8131   3.9626   4.5663   4.6324   4.9595   4.9686
     5.1328   5.9164   6.5840   6.6755   7.0401   7.0733   7.4692   7.6865
    11.0953  11.7104  11.8573  11.9463  12.2096  12.5654  14.3124  15.4866

          k =-0.1000-0.3001 0.4286 (  7068 PWs)   bands (ev):

   -47.1520 -47.1511 -23.3294 -23.3269 -23.3225 -23.2961 -23.2583 -23.2310
   -19.3210 -19.3153  -8.8190  -8.5524  -8.2542  -8.0006  -7.9543  -7.9480
    -3.0421  -3.0321  -2.9844  -2.9494  -2.9467  -2.8869   2.8192   2.9155
     3.2100   3.7907   3.8128   3.9623   4.5663   4.6325   4.9596   4.9684
     5.1325   5.9165   6.5842   6.6757   7.0401   7.0732   7.4692   7.6865
    11.0955  11.7104  11.8570  11.9463  12.2097  12.5652  14.3118  15.4873

          k =-0.0000-0.2001 0.4286 (  7073 PWs)   bands (ev):

   -47.1528 -47.1504 -23.3317 -23.3315 -23.3250 -23.2922 -23.2619 -23.2214
   -19.3254 -19.3103  -8.9705  -8.5087  -8.2348  -7.9424  -7.9287  -7.8793
    -3.1135  -3.0979  -3.0557  -2.9472  -2.9110  -2.8853   2.6855   2.9391
     3.0346   3.8742   3.9859   4.2712   4.3274   4.3562   4.7397   5.2680
     5.5181   6.2053   6.5327   6.5385   7.0889   7.4412   7.4629   7.7630
    10.2789  11.6303  11.8775  12.2889  12.3729  12.7406  13.5756  16.0342

          k = 0.2000-0.2001 0.4286 (  7057 PWs)   bands (ev):

   -47.1521 -47.1510 -23.3299 -23.3267 -23.2939 -23.2933 -23.2608 -23.2602
   -19.3216 -19.3144  -8.7219  -8.4254  -8.3380  -8.1688  -7.9447  -7.9376
    -3.0871  -3.0521  -3.0126  -2.9589  -2.9562  -2.8819   2.9023   2.9326
     3.6328   3.9815   4.1622   4.2650   4.3281   4.5942   4.5958   4.6877
     4.7976   5.4554   6.8777   6.9322   7.1950   7.2519   7.3616   7.5412
    10.8460  11.8111  11.8747  11.9334  12.2241  12.2956  14.8282  16.3106

          k = 0.3001-0.1000 0.4286 (  7068 PWs)   bands (ev):

   -47.1520 -47.1511 -23.3294 -23.3269 -23.3226 -23.2960 -23.2582 -23.2311
   -19.3210 -19.3153  -8.8194  -8.5520  -8.2540  -8.0008  -7.9543  -7.9480
    -3.0421  -3.0321  -2.9844  -2.9494  -2.9467  -2.8868   2.8189   2.9155
     3.2097   3.7903   3.8131   3.9626   4.5663   4.6324   4.9595   4.9686
     5.1328   5.9164   6.5840   6.6755   7.0401   7.0733   7.4692   7.6865
    11.0953  11.7104  11.8573  11.9462  12.2096  12.5654  14.3124  15.4866

          k = 0.4001-0.0000 0.4286 (  7074 PWs)   bands (ev):

   -47.1518 -47.1514 -23.3342 -23.3284 -23.3274 -23.3240 -23.2297 -23.2193
   -19.3195 -19.3173  -8.8686  -8.7723  -8.0220  -7.9687  -7.9680  -7.9157
    -2.9877  -2.9810  -2.9677  -2.9457  -2.9021  -2.8809   2.6792   2.8150
     3.0924   3.2200   3.5779   3.6278   4.9086   4.9376   5.1355   5.1727
     5.8482   6.2765   6.3798   6.4385   6.6407   6.6525   7.6774   7.7445
    11.5455  11.6476  11.7250  11.8317  12.5311  12.6853  13.9748  14.4644

          k =-0.0000-0.4001 0.4286 (  7074 PWs)   bands (ev):

   -47.1518 -47.1514 -23.3341 -23.3284 -23.3274 -23.3241 -23.2298 -23.2193
   -19.3195 -19.3173  -8.8681  -8.7728  -8.0222  -7.9687  -7.9680  -7.9155
    -2.9876  -2.9810  -2.9677  -2.9457  -2.9021  -2.8809   2.6797   2.8148
     3.0925   3.2198   3.5783   3.6275   4.9090   4.9375   5.1354   5.1723
     5.8481   6.2765   6.3801   6.4389   6.6405   6.6522   7.6773   7.7445
    11.5459  11.6477  11.7250  11.8313  12.5314  12.6850  13.9742  14.4650

          k = 0.1000-0.3001 0.4286 (  7068 PWs)   bands (ev):

   -47.1520 -47.1511 -23.3294 -23.3269 -23.3225 -23.2961 -23.2583 -23.2310
   -19.3210 -19.3153  -8.8190  -8.5524  -8.2542  -8.0006  -7.9543  -7.9480
    -3.0421  -3.0321  -2.9844  -2.9494  -2.9467  -2.8869   2.8192   2.9155
     3.2100   3.7907   3.8128   3.9623   4.5663   4.6325   4.9596   4.9684
     5.1325   5.9165   6.5842   6.6756   7.0400   7.0732   7.4692   7.6865
    11.0955  11.7104  11.8570  11.9463  12.2097  12.5652  14.3118  15.4873

          k =-0.2000 0.2001 0.4286 (  7057 PWs)   bands (ev):

   -47.1521 -47.1510 -23.3299 -23.3267 -23.2939 -23.2933 -23.2608 -23.2602
   -19.3216 -19.3144  -8.7219  -8.4254  -8.3380  -8.1688  -7.9447  -7.9376
    -3.0871  -3.0521  -3.0126  -2.9589  -2.9562  -2.8819   2.9023   2.9326
     3.6328   3.9815   4.1622   4.2650   4.3281   4.5942   4.5958   4.6877
     4.7976   5.4554   6.8777   6.9322   7.1950   7.2519   7.3616   7.5412
    10.8460  11.8111  11.8747  11.9334  12.2241  12.2956  14.8282  16.3106

          k =-0.1000 0.3001 0.4286 (  7068 PWs)   bands (ev):

   -47.1520 -47.1511 -23.3294 -23.3269 -23.3225 -23.2961 -23.2583 -23.2310
   -19.3210 -19.3153  -8.8190  -8.5524  -8.2542  -8.0006  -7.9543  -7.9480
    -3.0421  -3.0321  -2.9844  -2.9494  -2.9467  -2.8869   2.8192   2.9155
     3.2100   3.7907   3.8128   3.9623   4.5663   4.6325   4.9596   4.9684
     5.1325   5.9165   6.5842   6.6757   7.0400   7.0732   7.4692   7.6865
    11.0955  11.7104  11.8570  11.9463  12.2097  12.5652  14.3118  15.4873

          k =-0.0000 0.4001 0.4286 (  7074 PWs)   bands (ev):

   -47.1518 -47.1514 -23.3341 -23.3284 -23.3274 -23.3241 -23.2298 -23.2193
   -19.3195 -19.3173  -8.8681  -8.7728  -8.0222  -7.9687  -7.9680  -7.9155
    -2.9876  -2.9810  -2.9678  -2.9457  -2.9021  -2.8809   2.6797   2.8148
     3.0925   3.2198   3.5783   3.6275   4.9090   4.9375   5.1353   5.1723
     5.8481   6.2765   6.3801   6.4389   6.6405   6.6522   7.6773   7.7445
    11.5459  11.6477  11.7250  11.8313  12.5314  12.6850  13.9742  14.4650

          k =-0.4001-0.0000 0.4286 (  7074 PWs)   bands (ev):

   -47.1518 -47.1514 -23.3342 -23.3284 -23.3274 -23.3240 -23.2297 -23.2193
   -19.3195 -19.3173  -8.8686  -8.7723  -8.0220  -7.9687  -7.9680  -7.9157
    -2.9877  -2.9810  -2.9677  -2.9457  -2.9021  -2.8809   2.6792   2.8150
     3.0924   3.2200   3.5779   3.6278   4.9086   4.9376   5.1356   5.1727
     5.8482   6.2765   6.3798   6.4385   6.6407   6.6525   7.6774   7.7445
    11.5455  11.6476  11.7250  11.8317  12.5311  12.6853  13.9748  14.4644

          k =-0.3001 0.1000 0.4286 (  7068 PWs)   bands (ev):

   -47.1520 -47.1511 -23.3294 -23.3269 -23.3226 -23.2960 -23.2582 -23.2311
   -19.3210 -19.3153  -8.8194  -8.5520  -8.2540  -8.0008  -7.9543  -7.9480
    -3.0421  -3.0321  -2.9844  -2.9494  -2.9467  -2.8868   2.8189   2.9155
     3.2097   3.7903   3.8131   3.9626   4.5663   4.6324   4.9595   4.9686
     5.1328   5.9164   6.5840   6.6755   7.0401   7.0733   7.4692   7.6865
    11.0953  11.7104  11.8573  11.9463  12.2096  12.5654  14.3124  15.4866

          k =-0.1000 0.1000 0.4286 (  7069 PWs)   bands (ev):

   -47.1531 -47.1501 -23.3327 -23.3243 -23.3202 -23.3199 -23.2333 -23.2331
   -19.3271 -19.3083  -9.0105  -8.6202  -8.0016  -7.9458  -7.9338  -7.9128
    -3.1473  -3.1416  -3.0914  -2.9523  -2.9146  -2.8667   2.8105   2.8998
     2.9454   3.5416   4.0239   4.1314   4.1566   4.8071   5.0748   5.3953
     5.4503   6.3295   6.4690   6.7164   6.8050   7.6343   7.6541   7.7257
     9.8562  11.6749  11.6958  12.5437  12.6040  12.6340  13.4307  15.5576

          k =-0.0000 0.2001 0.4286 (  7073 PWs)   bands (ev):

   -47.1528 -47.1504 -23.3317 -23.3315 -23.3250 -23.2922 -23.2619 -23.2214
   -19.3254 -19.3103  -8.9705  -8.5087  -8.2348  -7.9424  -7.9287  -7.8793
    -3.1135  -3.0979  -3.0557  -2.9472  -2.9110  -2.8853   2.6855   2.9391
     3.0346   3.8742   3.9859   4.2712   4.3274   4.3562   4.7397   5.2680
     5.5181   6.2053   6.5327   6.5385   7.0889   7.4412   7.4629   7.7630
    10.2789  11.6303  11.8775  12.2889  12.3729  12.7406  13.5756  16.0342

          k = 0.1000 0.3001 0.4286 (  7068 PWs)   bands (ev):

   -47.1520 -47.1511 -23.3294 -23.3269 -23.3225 -23.2961 -23.2583 -23.2310
   -19.3210 -19.3153  -8.8190  -8.5524  -8.2542  -8.0006  -7.9543  -7.9480
    -3.0421  -3.0321  -2.9844  -2.9495  -2.9467  -2.8869   2.8192   2.9155
     3.2100   3.7907   3.8128   3.9623   4.5663   4.6325   4.9596   4.9684
     5.1325   5.9165   6.5842   6.6757   7.0400   7.0732   7.4692   7.6865
    11.0955  11.7104  11.8570  11.9463  12.2097  12.5652  14.3118  15.4873

          k =-0.3001-0.1000 0.4286 (  7068 PWs)   bands (ev):

   -47.1520 -47.1511 -23.3294 -23.3269 -23.3226 -23.2960 -23.2582 -23.2311
   -19.3210 -19.3153  -8.8194  -8.5520  -8.2540  -8.0008  -7.9543  -7.9480
    -3.0421  -3.0321  -2.9844  -2.9494  -2.9467  -2.8868   2.8189   2.9155
     3.2097   3.7903   3.8131   3.9626   4.5663   4.6324   4.9596   4.9686
     5.1328   5.9164   6.5840   6.6755   7.0401   7.0733   7.4692   7.6865
    11.0953  11.7104  11.8573  11.9463  12.2096  12.5654  14.3124  15.4866

          k =-0.2000-0.0000 0.4286 (  7073 PWs)   bands (ev):

   -47.1528 -47.1504 -23.3317 -23.3317 -23.3250 -23.2921 -23.2618 -23.2215
   -19.3254 -19.3103  -8.9709  -8.5085  -8.2345  -7.9424  -7.9286  -7.8795
    -3.1135  -3.0979  -3.0557  -2.9473  -2.9110  -2.8853   2.6850   2.9391
     3.0346   3.8739   3.9862   4.2711   4.3278   4.3564   4.7399   5.2681
     5.5185   6.2050   6.5324   6.5386   7.0890   7.4412   7.4629   7.7630
    10.2787  11.6303  11.8775  12.2888  12.3731  12.7409  13.5760  16.0337

     the Fermi energy is     8.8876 ev

!    total energy              =   -1131.10184217 Ry
     total all-electron energy =    -18578.074573 Ry
     estimated scf accuracy    <          9.9E-10 Ry
     smearing contrib. (-TS)   =      -0.00000000 Ry
     internal energy E=F+TS    =   -1131.10184217 Ry

     The total energy is F=E-TS. E is the sum of the following terms:
     one-electron contribution =    -145.29982150 Ry
     hartree contribution      =     116.96093632 Ry
     xc contribution           =    -123.35494604 Ry
     ewald contribution        =    -407.56814648 Ry
     one-center paw contrib.   =    -571.83986447 Ry

     convergence has been achieved in  16 iterations

     Forces acting on atoms (cartesian axes, Ry/au):

     atom    1 type  1   force =     0.00000055   -0.00000517   -0.00000035
     atom    2 type  1   force =     0.00000178   -0.00000314   -0.00000022
     atom    3 type  2   force =    -0.00000760    0.00000181    0.00000165
     atom    4 type  2   force =    -0.00000547    0.00000274    0.00000165
     atom    5 type  3   force =     0.00000245   -0.00000219   -0.00000299
     atom    6 type  3   force =     0.00000186   -0.00000150   -0.00000301
     atom    7 type  3   force =     0.00000148    0.00000383   -0.00000857
     atom    8 type  3   force =     0.00000077    0.00000445   -0.00000854
     atom    9 type  3   force =     0.00000204   -0.00000041    0.00001019
     atom   10 type  3   force =     0.00000213   -0.00000042    0.00001019

     Total force =     0.000024     Total SCF correction =     0.000017
     SCF correction compared to forces is large: reduce conv_thr to get better values
     Message from routine punch:
     Nothing written, as per user request (disk_io='none')

     init_run     :      6.00s CPU      6.97s WALL (       1 calls)
     electrons    :    241.47s CPU    266.93s WALL (       1 calls)
     forces       :      3.16s CPU      3.29s WALL (       1 calls)

     Called by init_run:
     wfcinit      :      4.14s CPU      4.61s WALL (       1 calls)
     potinit      :      0.79s CPU      0.94s WALL (       1 calls)
     hinit0       :      0.45s CPU      0.48s WALL (       1 calls)

     Called by electrons:
     c_bands      :    188.81s CPU    202.83s WALL (      16 calls)
     sum_band     :     36.00s CPU     41.98s WALL (      16 calls)
     v_of_rho     :      1.50s CPU      1.61s WALL (      17 calls)
     newd         :      5.41s CPU      8.80s WALL (      17 calls)
     PAW_pot      :     10.14s CPU     12.52s WALL (      17 calls)
     mix_rho      :      0.21s CPU      0.23s WALL (      16 calls)

     Called by c_bands:
     init_us_2    :      5.71s CPU      5.73s WALL (    1496 calls)
     cegterg      :    169.77s CPU    183.75s WALL (     704 calls)

     Called by *egterg:
     cdiaghg      :      9.10s CPU      9.14s WALL (    3230 calls)
     h_psi        :    104.01s CPU    117.76s WALL (    3274 calls)
     s_psi        :      6.88s CPU      6.90s WALL (    3274 calls)
     g_psi        :      0.67s CPU      0.68s WALL (    2526 calls)

     Called by h_psi:
     h_psi:calbec :     20.22s CPU     20.79s WALL (    3274 calls)
     vloc_psi     :     72.58s CPU     85.60s WALL (    3274 calls)
                                        0.00s GPU  (    3274 calls)
     add_vuspsi   :      9.40s CPU      9.43s WALL (    3274 calls)

     General routines
     calbec       :     27.40s CPU     28.20s WALL (    4154 calls)
     fft          :      3.86s CPU      4.03s WALL (     230 calls)
     ffts         :      0.22s CPU      0.24s WALL (      33 calls)
     fftw         :     80.03s CPU     94.31s WALL (  199748 calls)
     interpolate  :      0.30s CPU      0.32s WALL (      17 calls)

     Parallel routines

     PWSCF        :   4m10.96s CPU   4m37.58s WALL


   This run was terminated on:   3:51:39   5Oct2026            

=------------------------------------------------------------------------------=
   JOB DONE.
=------------------------------------------------------------------------------=
