
     Program PWSCF v.7.5 starts on  3Oct2026 at 21:41:44 

     This program is part of the open-source Quantum ESPRESSO suite
     for quantum simulation of materials; please cite
         "P. Giannozzi et al., J. Phys.:Condens. Matter 21 395502 (2009);
         "P. Giannozzi et al., J. Phys.:Condens. Matter 29 465901 (2017);
         "P. Giannozzi et al., J. Chem. Phys. 152 154105 (2020);
          URL http://www.quantum-espresso.org", 
     in publications or presentations arising from this work. More details at
     http://www.quantum-espresso.org/quote

     Parallel version (MPI & OpenMP), running on       8 processor cores
     Number of MPI processes:                 8
     Threads/MPI process:                     1

     MPI processes distributed on     1 nodes
     11524 MiB available memory on the printing compute node when the environment starts

     Reading input from pw.in

     Current dimensions of program PWSCF are:
     Max number of different atomic species (ntypx) = 10
     Max number of k-points (npk) =  40000
     Max angular momentum in pseudopotentials (lmaxx) =  4
     file Ba.pbe-spn-kjpaw_psl.1.0.0.UPF: wavefunction(s)  5S 6S renormalized
     file O.pbe-n-kjpaw_psl.0.1.UPF: wavefunction(s)  2P renormalized

     K-points division:     npool     =       8
     Subspace diagonalization in iterative solution of the eigenvalue problem:
     a serial algorithm will be used


     G-vector sticks info
     --------------------
     sticks:   dense  smooth     PW     G-vecs:    dense   smooth      PW
     Sum        1861     933    277                60005    21247    3407

     Using Slab Decomposition



     bravais-lattice index     =            0
     lattice parameter (alat)  =       7.6260  a.u.
     unit-cell volume          =     443.4943 (a.u.)^3
     number of atoms/cell      =            5
     number of atomic types    =            3
     number of electrons       =        40.00
     number of Kohn-Sham states=           24
     kinetic-energy cutoff     =      50.0000  Ry
     charge density cutoff     =     400.0000  Ry
     scf convergence threshold =      5.0E-10
     mixing beta               =       0.4000
     number of iterations used =            8  plain     mixing
     Exchange-correlation= SLA  PW   PBX  PBC
                           (   1   4   3   4   0   0   0)

     celldm(1)=   7.625986  celldm(2)=   0.000000  celldm(3)=   0.000000
     celldm(4)=   0.000000  celldm(5)=   0.000000  celldm(6)=   0.000000

     crystal axes: (cart. coord. in units of alat)
               a(1) = (   1.000000  -0.000000  -0.000000 )  
               a(2) = (  -0.000000   1.000000  -0.000000 )  
               a(3) = (  -0.000000  -0.000000   1.000000 )  

     reciprocal axes: (cart. coord. in units 2 pi/alat)
               b(1) = (  1.000000  0.000000  0.000000 )  
               b(2) = (  0.000000  1.000000  0.000000 )  
               b(3) = (  0.000000  0.000000  1.000000 )  


     PseudoPot. # 1 for Ba read from file:
     /root/sssp/Ba.pbe-spn-kjpaw_psl.1.0.0.UPF
     MD5 check sum: c432291d3e53af55f19d5e8866385beb
     Pseudo is Projector augmented-wave + core cor, Zval = 10.0
     Generated using "atomic" code by A. Dal Corso  v.5.1
     Shape of augmentation charge: PSQ
     Using radial grid of 1251 points,  7 beta functions with: 
                l(1) =   0
                l(2) =   0
                l(3) =   0
                l(4) =   1
                l(5) =   1
                l(6) =   2
                l(7) =   2
     Q(r) pseudized with 0 coefficients 


     PseudoPot. # 2 for Ti read from file:
     /root/sssp/ti_pbe_v1.4.uspp.F.UPF
     MD5 check sum: 88a00a6731bd790ddea75d31a80cb452
     Pseudo is Ultrasoft + core correction, Zval = 12.0
     Generated by new atomic code, or converted to UPF format
     Using radial grid of  851 points,  6 beta functions with: 
                l(1) =   0
                l(2) =   0
                l(3) =   1
                l(4) =   1
                l(5) =   2
                l(6) =   2
     Q(r) pseudized with  6 coefficients,  rinner =    1.000   1.000   1.000
                                                       1.000   1.000

     PseudoPot. # 3 for O  read from file:
     /root/sssp/O.pbe-n-kjpaw_psl.0.1.UPF
     MD5 check sum: 0234752ac141de4415c5fc33072bef88
     Pseudo is Projector augmented-wave + core cor, Zval =  6.0
     Generated using "atomic" code by A. Dal Corso  v.5.0.99 svn rev. 10869
     Shape of augmentation charge: BESSEL
     Using radial grid of 1095 points,  4 beta functions with: 
                l(1) =   0
                l(2) =   0
                l(3) =   1
                l(4) =   1
     Q(r) pseudized with 0 coefficients 


     atomic species   valence    mass     pseudopotential
     Ba               10.00   137.32700     Ba( 1.00)
     Ti               12.00    47.86700     Ti( 1.00)
     O                 6.00    15.99900     O ( 1.00)

     No symmetry found



   Cartesian axes

     site n.     atom                  positions (alat units)
         1        Ba     tau(   1) = (   1.0000064   0.0000017  -0.0000687  )
         2        Ti     tau(   2) = (   0.5019151   0.5005013   0.4795120  )
         3        O      tau(   3) = (   0.9967830   0.4996640   0.5137344  )
         4        O      tau(   4) = (   0.4987162   0.9991580   0.5137344  )
         5        O      tau(   5) = (   0.4987162   0.4996640   1.0344167  )

     number of k points=   172  Marzari-Vanderbilt smearing, width (Ry)=  0.0050

     Number of k-points >= 100: set verbosity='high' to print them.

     Dense  grid:    60005 G-vectors     FFT dimensions: (  50,  50,  50)

     Smooth grid:    21247 G-vectors     FFT dimensions: (  36,  36,  36)

     Estimated max dynamical RAM per process >      92.82 MB

     Estimated total dynamical RAM >     640.03 MB

     Check: negative core charge=   -0.000004

     Initial potential from superposition of free atoms

     starting charge      38.9829, renormalised to      40.0000

     negative rho (up, down):  1.034E-03 0.000E+00
     Starting wfcs are   27 randomized atomic wfcs
     Checking if some PAW data can be deallocated... 

     total cpu time spent up to now is        3.1 secs

     per-process dynamical memory:    72.4 Mb

     Self-consistent Calculation

     iteration #  1     ecut=    50.00 Ry     beta= 0.40
     Davidson diagonalization with overlap
     ethr =  1.00E-02,  avg # of iterations =  2.0

     negative rho (up, down):  4.312E-03 0.000E+00

     total cpu time spent up to now is        5.1 secs

     total energy              =    -680.83383762 Ry
     estimated scf accuracy    <       0.91324838 Ry

     iteration #  2     ecut=    50.00 Ry     beta= 0.40
     Davidson diagonalization with overlap
     ethr =  2.28E-03,  avg # of iterations =  4.0

     negative rho (up, down):  7.782E-03 0.000E+00

     total cpu time spent up to now is        7.2 secs

     total energy              =    -680.91661531 Ry
     estimated scf accuracy    <       1.12286350 Ry

     iteration #  3     ecut=    50.00 Ry     beta= 0.40
     Davidson diagonalization with overlap
     ethr =  2.28E-03,  avg # of iterations =  2.8

     negative rho (up, down):  1.725E-02 0.000E+00

     total cpu time spent up to now is        8.9 secs

     total energy              =    -681.12775145 Ry
     estimated scf accuracy    <       0.06057049 Ry

     iteration #  4     ecut=    50.00 Ry     beta= 0.40
     Davidson diagonalization with overlap
     ethr =  1.51E-04,  avg # of iterations =  3.1

     negative rho (up, down):  1.869E-02 0.000E+00

     total cpu time spent up to now is       10.8 secs

     total energy              =    -681.12965877 Ry
     estimated scf accuracy    <       0.01406051 Ry

     iteration #  5     ecut=    50.00 Ry     beta= 0.40
     Davidson diagonalization with overlap
     ethr =  3.52E-05,  avg # of iterations =  3.3

     negative rho (up, down):  1.633E-02 0.000E+00

     total cpu time spent up to now is       12.9 secs

     total energy              =    -681.13272327 Ry
     estimated scf accuracy    <       0.00521136 Ry

     iteration #  6     ecut=    50.00 Ry     beta= 0.40
     Davidson diagonalization with overlap
     ethr =  1.30E-05,  avg # of iterations =  1.3

     negative rho (up, down):  3.601E-02 0.000E+00

     total cpu time spent up to now is       14.7 secs

     total energy              =    -681.13316530 Ry
     estimated scf accuracy    <       0.00693754 Ry

     iteration #  7     ecut=    50.00 Ry     beta= 0.40
     Davidson diagonalization with overlap
     ethr =  1.30E-05,  avg # of iterations =  1.8

     negative rho (up, down):  1.015E-03 0.000E+00

     total cpu time spent up to now is       16.4 secs

     total energy              =    -681.13361139 Ry
     estimated scf accuracy    <       0.02422110 Ry

     iteration #  8     ecut=    50.00 Ry     beta= 0.40
     Davidson diagonalization with overlap
     ethr =  1.30E-05,  avg # of iterations =  2.0

     negative rho (up, down):  1.576E-02 0.000E+00

     total cpu time spent up to now is       18.2 secs

     total energy              =    -681.13329922 Ry
     estimated scf accuracy    <       0.01132715 Ry

     iteration #  9     ecut=    50.00 Ry     beta= 0.40
     Davidson diagonalization with overlap
     ethr =  1.30E-05,  avg # of iterations =  2.0

     negative rho (up, down):  9.798E-04 0.000E+00

     total cpu time spent up to now is       20.0 secs

     total energy              =    -681.13345604 Ry
     estimated scf accuracy    <       0.04239481 Ry

     iteration # 10     ecut=    50.00 Ry     beta= 0.40
     Davidson diagonalization with overlap
     ethr =  1.30E-05,  avg # of iterations =  1.0

     negative rho (up, down):  9.779E-04 0.000E+00

     total cpu time spent up to now is       21.5 secs

     total energy              =    -681.13329557 Ry
     estimated scf accuracy    <       0.01230619 Ry

     iteration # 11     ecut=    50.00 Ry     beta= 0.40
     Davidson diagonalization with overlap
     ethr =  1.30E-05,  avg # of iterations =  1.0

     negative rho (up, down):  9.812E-04 0.000E+00

     total cpu time spent up to now is       23.1 secs

     total energy              =    -681.13339420 Ry
     estimated scf accuracy    <       0.00037376 Ry

     iteration # 12     ecut=    50.00 Ry     beta= 0.40
     Davidson diagonalization with overlap
     ethr =  9.34E-07,  avg # of iterations =  2.2

     negative rho (up, down):  9.825E-04 0.000E+00

     total cpu time spent up to now is       24.9 secs

     total energy              =    -681.13338803 Ry
     estimated scf accuracy    <       0.00124261 Ry

     iteration # 13     ecut=    50.00 Ry     beta= 0.40
     Davidson diagonalization with overlap
     ethr =  9.34E-07,  avg # of iterations =  1.4

     negative rho (up, down):  9.832E-04 0.000E+00

     total cpu time spent up to now is       26.6 secs

     total energy              =    -681.13338889 Ry
     estimated scf accuracy    <       0.00007109 Ry

     iteration # 14     ecut=    50.00 Ry     beta= 0.40
     Davidson diagonalization with overlap
     ethr =  1.78E-07,  avg # of iterations =  2.1

     negative rho (up, down):  9.830E-04 0.000E+00

     total cpu time spent up to now is       28.3 secs

     total energy              =    -681.13339278 Ry
     estimated scf accuracy    <       0.00001492 Ry

     iteration # 15     ecut=    50.00 Ry     beta= 0.40
     Davidson diagonalization with overlap
     ethr =  3.73E-08,  avg # of iterations =  3.3

     negative rho (up, down):  9.831E-04 0.000E+00

     total cpu time spent up to now is       30.1 secs

     total energy              =    -681.13339368 Ry
     estimated scf accuracy    <       0.00002854 Ry

     iteration # 16     ecut=    50.00 Ry     beta= 0.40
     Davidson diagonalization with overlap
     ethr =  3.73E-08,  avg # of iterations =  1.0

     negative rho (up, down):  9.833E-04 0.000E+00

     total cpu time spent up to now is       31.7 secs

     total energy              =    -681.13339383 Ry
     estimated scf accuracy    <       0.00001246 Ry

     iteration # 17     ecut=    50.00 Ry     beta= 0.40
     Davidson diagonalization with overlap
     ethr =  3.11E-08,  avg # of iterations =  1.0

     negative rho (up, down):  9.834E-04 0.000E+00

     total cpu time spent up to now is       33.3 secs

     total energy              =    -681.13339390 Ry
     estimated scf accuracy    <       0.00000338 Ry

     iteration # 18     ecut=    50.00 Ry     beta= 0.40
     Davidson diagonalization with overlap
     ethr =  8.45E-09,  avg # of iterations =  1.3

     negative rho (up, down):  9.834E-04 0.000E+00

     total cpu time spent up to now is       35.1 secs

     total energy              =    -681.13339395 Ry
     estimated scf accuracy    <       0.00000262 Ry

     iteration # 19     ecut=    50.00 Ry     beta= 0.40
     Davidson diagonalization with overlap
     ethr =  6.56E-09,  avg # of iterations =  1.1

     negative rho (up, down):  9.834E-04 0.000E+00

     total cpu time spent up to now is       36.7 secs

     total energy              =    -681.13339398 Ry
     estimated scf accuracy    <       0.00000007 Ry

     iteration # 20     ecut=    50.00 Ry     beta= 0.40
     Davidson diagonalization with overlap
     ethr =  1.84E-10,  avg # of iterations =  4.2

     negative rho (up, down):  9.834E-04 0.000E+00

     total cpu time spent up to now is       38.8 secs

     total energy              =    -681.13339400 Ry
     estimated scf accuracy    <       0.00000019 Ry

     iteration # 21     ecut=    50.00 Ry     beta= 0.40
     Davidson diagonalization with overlap
     ethr =  1.84E-10,  avg # of iterations =  2.0

     negative rho (up, down):  9.834E-04 0.000E+00

     total cpu time spent up to now is       40.6 secs

     total energy              =    -681.13339400 Ry
     estimated scf accuracy    <       0.00000003 Ry

     iteration # 22     ecut=    50.00 Ry     beta= 0.40
     Davidson diagonalization with overlap
     ethr =  6.29E-11,  avg # of iterations =  2.0

     negative rho (up, down):  9.834E-04 0.000E+00

     total cpu time spent up to now is       42.4 secs

     total energy              =    -681.13339400 Ry
     estimated scf accuracy    <       0.00000003 Ry

     iteration # 23     ecut=    50.00 Ry     beta= 0.40
     Davidson diagonalization with overlap
     ethr =  6.29E-11,  avg # of iterations =  1.0

     negative rho (up, down):  9.834E-04 0.000E+00

     total cpu time spent up to now is       44.0 secs

     End of self-consistent calculation

     Number of k-points >= 100: set verbosity='high' to print the bands.

     the Fermi energy is    11.5407 ev

!    total energy              =    -681.13339400 Ry
     estimated scf accuracy    <          3.3E-10 Ry
     smearing contrib. (-TS)   =      -0.00000000 Ry
     internal energy E=F+TS    =    -681.13339400 Ry

     The total energy is F=E-TS. E is the sum of the following terms:
     one-electron contribution =     -73.16800102 Ry
     hartree contribution      =      61.21919995 Ry
     xc contribution           =     -60.84338154 Ry
     ewald contribution        =    -204.83445500 Ry
     one-center paw contrib.   =    -403.50675639 Ry

     convergence has been achieved in  23 iterations

     negative rho (up, down):  9.834E-04 0.000E+00

     Forces acting on atoms (cartesian axes, Ry/au):

     atom    1 type  1   force =     0.00007576    0.00002721   -0.00243466
     atom    2 type  2   force =     0.00224802    0.00059418    0.01396070
     atom    3 type  3   force =    -0.00073055   -0.00021421    0.00494377
     atom    4 type  3   force =    -0.00080843   -0.00019894    0.00495020
     atom    5 type  3   force =    -0.00078481   -0.00020823   -0.02142001

     Total force =     0.026757     Total SCF correction =     0.000002
     Message from routine punch:
     Nothing written, as per user request (disk_io='none')

     init_run     :      2.63s CPU      2.69s WALL (       1 calls)
     electrons    :     40.53s CPU     40.93s WALL (       1 calls)
     forces       :      0.35s CPU      0.35s WALL (       1 calls)

     Called by init_run:
     wfcinit      :      0.84s CPU      0.84s WALL (       1 calls)
     potinit      :      0.52s CPU      0.55s WALL (       1 calls)
     hinit0       :      1.20s CPU      1.21s WALL (       1 calls)

     Called by electrons:
     c_bands      :     28.70s CPU     28.98s WALL (      23 calls)
     sum_band     :      6.72s CPU      6.80s WALL (      23 calls)
     v_of_rho     :      1.24s CPU      1.25s WALL (      24 calls)
     newd         :      1.15s CPU      1.16s WALL (      24 calls)
     PAW_pot      :      2.70s CPU      2.74s WALL (      24 calls)
     mix_rho      :      0.12s CPU      0.12s WALL (      23 calls)

     Called by c_bands:
     init_us_2    :      1.50s CPU      1.52s WALL (    1056 calls)
     cegterg      :     25.18s CPU     25.44s WALL (     506 calls)

     Called by *egterg:
     cdiaghg      :      0.86s CPU      0.87s WALL (    1542 calls)
     h_psi        :     19.78s CPU     19.99s WALL (    1564 calls)
     s_psi        :      1.17s CPU      1.18s WALL (    1564 calls)
     g_psi        :      0.27s CPU      0.27s WALL (    1036 calls)

     Called by h_psi:
     h_psi:calbec :      1.37s CPU      1.38s WALL (    1564 calls)
     vloc_psi     :     17.03s CPU     17.23s WALL (    1564 calls)
                                        0.00s GPU  (    1564 calls)
     add_vuspsi   :      1.24s CPU      1.25s WALL (    1564 calls)

     General routines
     calbec       :      2.03s CPU      2.05s WALL (    2158 calls)
     fft          :      0.59s CPU      0.59s WALL (     321 calls)
     ffts         :      0.23s CPU      0.23s WALL (      47 calls)
     fftw         :     18.00s CPU     18.21s WALL (   65300 calls)
     interpolate  :      0.27s CPU      0.27s WALL (      24 calls)

     Parallel routines

     PWSCF        :     43.91s CPU     44.39s WALL


   This run was terminated on:  21:42:29   3Oct2026            

=------------------------------------------------------------------------------=
   JOB DONE.
=------------------------------------------------------------------------------=
