
     Program PWSCF v.7.5 starts on  5Oct2026 at  3:34:16 

     This program is part of the open-source Quantum ESPRESSO suite
     for quantum simulation of materials; please cite
         "P. Giannozzi et al., J. Phys.:Condens. Matter 21 395502 (2009);
         "P. Giannozzi et al., J. Phys.:Condens. Matter 29 465901 (2017);
         "P. Giannozzi et al., J. Chem. Phys. 152 154105 (2020);
          URL http://www.quantum-espresso.org", 
     in publications or presentations arising from this work. More details at
     http://www.quantum-espresso.org/quote

     Parallel version (MPI & OpenMP), running on       8 processor cores
     Number of MPI processes:                 8
     Threads/MPI process:                     1

     MPI processes distributed on     1 nodes
     114369 MiB available memory on the printing compute node when the environment starts

     Reading input from pw.in

     Current dimensions of program PWSCF are:
     Max number of different atomic species (ntypx) = 10
     Max number of k-points (npk) =  40000
     Max angular momentum in pseudopotentials (lmaxx) =  4
     file Ba.pbe-spn-kjpaw_psl.1.0.0.UPF: wavefunction(s)  5S 6S renormalized
     file O.pbe-n-kjpaw_psl.0.1.UPF: wavefunction(s)  2P renormalized

     IMPORTANT: XC functional enforced from input :
     Exchange-correlation= PBESOL
                           (   1   4  10   8   0   0   0)
     Any further DFT definition will be discarded
     Please, verify this is what you really want

     Message from routine setup:
     using ibrav=0 with symmetry is DISCOURAGED, use correct ibrav instead

     K-points division:     npool     =       2
     R & G space division:  proc/nbgrp/npool/nimage =       4
     Subspace diagonalization in iterative solution of the eigenvalue problem:
     a serial algorithm will be used


     Parallelization info
     --------------------
     sticks:   dense  smooth     PW     G-vecs:    dense   smooth      PW
     Min         925     465    129                29931    10599    1613
     Max         927     466    130                29933    10601    1616
     Sum        3705    1861    517               119729    42399    6455

     Using Slab Decomposition



     bravais-lattice index     =            0
     lattice parameter (alat)  =      10.7809  a.u.
     unit-cell volume          =     886.0321 (a.u.)^3
     number of atoms/cell      =           10
     number of atomic types    =            3
     number of electrons       =        80.00
     number of Kohn-Sham states=           48
     kinetic-energy cutoff     =      50.0000  Ry
     charge density cutoff     =     400.0000  Ry
     scf convergence threshold =      1.0E-09
     mixing beta               =       0.4000
     number of iterations used =            8  plain     mixing
     Exchange-correlation= PBESOL
                           (   1   4  10   8   0   0   0)

     celldm(1)=  10.780895  celldm(2)=   0.000000  celldm(3)=   0.000000
     celldm(4)=   0.000000  celldm(5)=   0.000000  celldm(6)=   0.000000

     crystal axes: (cart. coord. in units of alat)
               a(1) = (   0.707107   0.000000   0.707107 )  
               a(2) = (   0.707107  -0.000000  -0.707107 )  
               a(3) = (   0.000000   0.707107   0.000000 )  

     reciprocal axes: (cart. coord. in units 2 pi/alat)
               b(1) = (  0.707107 -0.000000  0.707107 )  
               b(2) = (  0.707107  0.000000 -0.707107 )  
               b(3) = (  0.000000  1.414214 -0.000000 )  


     PseudoPot. # 1 for Ba read from file:
     /root/sssp/Ba.pbe-spn-kjpaw_psl.1.0.0.UPF
     MD5 check sum: c432291d3e53af55f19d5e8866385beb
     Pseudo is Projector augmented-wave + core cor, Zval = 10.0
     Generated using "atomic" code by A. Dal Corso  v.5.1
     Shape of augmentation charge: PSQ
     Using radial grid of 1251 points,  7 beta functions with: 
                l(1) =   0
                l(2) =   0
                l(3) =   0
                l(4) =   1
                l(5) =   1
                l(6) =   2
                l(7) =   2
     Q(r) pseudized with 0 coefficients 


     PseudoPot. # 2 for Ti read from file:
     /root/sssp/ti_pbe_v1.4.uspp.F.UPF
     MD5 check sum: 88a00a6731bd790ddea75d31a80cb452
     Pseudo is Ultrasoft + core correction, Zval = 12.0
     Generated by new atomic code, or converted to UPF format
     Using radial grid of  851 points,  6 beta functions with: 
                l(1) =   0
                l(2) =   0
                l(3) =   1
                l(4) =   1
                l(5) =   2
                l(6) =   2
     Q(r) pseudized with  6 coefficients,  rinner =    1.000   1.000   1.000
                                                       1.000   1.000

     PseudoPot. # 3 for O  read from file:
     /root/sssp/O.pbe-n-kjpaw_psl.0.1.UPF
     MD5 check sum: 0234752ac141de4415c5fc33072bef88
     Pseudo is Projector augmented-wave + core cor, Zval =  6.0
     Generated using "atomic" code by A. Dal Corso  v.5.0.99 svn rev. 10869
     Shape of augmentation charge: BESSEL
     Using radial grid of 1095 points,  4 beta functions with: 
                l(1) =   0
                l(2) =   0
                l(3) =   1
                l(4) =   1
     Q(r) pseudized with 0 coefficients 


     atomic species   valence    mass     pseudopotential
     Ba               10.00   137.32700     Ba( 1.00)
     Ti               12.00    47.86700     Ti( 1.00)
     O                 6.00    15.99900     O ( 1.00)

     16 Sym. Ops., with inversion, found ( 8 have fractional translation)



   Cartesian axes

     site n.     atom                  positions (alat units)
         1        Ba     tau(   1) = (   0.0000000   0.0000000   0.0000000  )
         2        Ba     tau(   2) = (   0.7071068  -0.0000000  -0.0000000  )
         3        Ti     tau(   3) = (   1.0606602   0.3778985  -0.3535534  )
         4        Ti     tau(   4) = (   1.0606602   0.3292083   0.3535534  )
         5        O      tau(   5) = (   0.7071068   0.3535534  -0.3535534  )
         6        O      tau(   6) = (   0.7071068   0.3535534   0.3535534  )
         7        O      tau(   7) = (   1.0606602   0.6863420  -0.3535534  )
         8        O      tau(   8) = (   1.0606602   0.0207648   0.3535534  )
         9        O      tau(   9) = (   0.3535534   0.3535534   0.0000000  )
        10        O      tau(  10) = (   1.0606602   0.3535534   0.0000000  )

     number of k points=    24  Marzari-Vanderbilt smearing, width (Ry)=  0.0050
                       cart. coord. in units 2pi/alat
        k(    1) = (   0.0000000   0.0000000   0.0000000), wk =   0.0114286
        k(    2) = (   0.0000000   0.2020305   0.0000000), wk =   0.0228571
        k(    3) = (   0.0000000   0.4040610   0.0000000), wk =   0.0228571
        k(    4) = (   0.0000000   0.6060915   0.0000000), wk =   0.0228571
        k(    5) = (   0.1414214   0.0000000  -0.1414214), wk =   0.0457143
        k(    6) = (   0.1414214   0.2020305  -0.1414214), wk =   0.0914286
        k(    7) = (   0.1414214   0.4040610  -0.1414214), wk =   0.0914286
        k(    8) = (   0.1414214   0.6060915  -0.1414214), wk =   0.0914286
        k(    9) = (   0.2828427   0.0000000  -0.2828427), wk =   0.0457143
        k(   10) = (   0.2828427   0.2020305  -0.2828427), wk =   0.0914286
        k(   11) = (   0.2828427   0.4040610  -0.2828427), wk =   0.0914286
        k(   12) = (   0.2828427   0.6060915  -0.2828427), wk =   0.0914286
        k(   13) = (   0.2828427   0.0000000   0.0000000), wk =   0.0457143
        k(   14) = (   0.2828427   0.2020305   0.0000000), wk =   0.0914286
        k(   15) = (   0.2828427   0.4040610   0.0000000), wk =   0.0914286
        k(   16) = (   0.2828427   0.6060915   0.0000000), wk =   0.0914286
        k(   17) = (   0.4242641   0.0000000  -0.1414214), wk =   0.0914286
        k(   18) = (   0.4242641   0.2020305  -0.1414214), wk =   0.1828571
        k(   19) = (   0.4242641   0.4040610  -0.1414214), wk =   0.1828571
        k(   20) = (   0.4242641   0.6060915  -0.1414214), wk =   0.1828571
        k(   21) = (   0.5656854   0.0000000   0.0000000), wk =   0.0457143
        k(   22) = (   0.5656854   0.2020305   0.0000000), wk =   0.0914286
        k(   23) = (   0.5656854   0.4040610   0.0000000), wk =   0.0914286
        k(   24) = (   0.5656854   0.6060915   0.0000000), wk =   0.0914286

     Dense  grid:   119729 G-vectors     FFT dimensions: (  72,  72,  50)

     Smooth grid:    42399 G-vectors     FFT dimensions: (  50,  50,  36)

     Estimated max dynamical RAM per process >      90.95 MB

     Estimated total dynamical RAM >     698.33 MB

     Check: negative core charge=   -0.000004

     Initial potential from superposition of free atoms

     starting charge      77.9659, renormalised to      80.0000

     negative rho (up, down):  2.156E-03 0.000E+00
     Starting wfcs are   54 randomized atomic wfcs
     Checking if some PAW data can be deallocated... 

     total cpu time spent up to now is        3.6 secs

     per-process dynamical memory:    53.8 Mb

     Self-consistent Calculation

     iteration #  1     ecut=    50.00 Ry     beta= 0.40
     Davidson diagonalization with overlap
     ethr =  1.00E-02,  avg # of iterations =  2.0

     negative rho (up, down):  2.826E-03 0.000E+00

     total cpu time spent up to now is        7.3 secs

     total energy              =   -1345.79870649 Ry
     estimated scf accuracy    <       1.43297266 Ry

     iteration #  2     ecut=    50.00 Ry     beta= 0.40
     Davidson diagonalization with overlap
     ethr =  1.79E-03,  avg # of iterations =  4.0

     negative rho (up, down):  2.053E-03 0.000E+00

     total cpu time spent up to now is       11.4 secs

     total energy              =   -1346.01070809 Ry
     estimated scf accuracy    <       1.60413780 Ry

     iteration #  3     ecut=    50.00 Ry     beta= 0.40
     Davidson diagonalization with overlap
     ethr =  1.79E-03,  avg # of iterations =  3.4

     negative rho (up, down):  2.080E-03 0.000E+00

     total cpu time spent up to now is       15.3 secs

     total energy              =   -1346.29672594 Ry
     estimated scf accuracy    <       0.07275479 Ry

     iteration #  4     ecut=    50.00 Ry     beta= 0.40
     Davidson diagonalization with overlap
     ethr =  9.09E-05,  avg # of iterations =  4.3

     negative rho (up, down):  2.086E-03 0.000E+00

     total cpu time spent up to now is       18.7 secs

     total energy              =   -1346.29844888 Ry
     estimated scf accuracy    <       0.01877450 Ry

     iteration #  5     ecut=    50.00 Ry     beta= 0.40
     Davidson diagonalization with overlap
     ethr =  2.35E-05,  avg # of iterations =  4.2

     negative rho (up, down):  2.066E-03 0.000E+00

     total cpu time spent up to now is       22.4 secs

     total energy              =   -1346.30277846 Ry
     estimated scf accuracy    <       0.00464841 Ry

     iteration #  6     ecut=    50.00 Ry     beta= 0.40
     Davidson diagonalization with overlap
     ethr =  5.81E-06,  avg # of iterations =  2.7

     negative rho (up, down):  2.040E-03 0.000E+00

     total cpu time spent up to now is       25.5 secs

     total energy              =   -1346.30273878 Ry
     estimated scf accuracy    <       0.00100045 Ry

     iteration #  7     ecut=    50.00 Ry     beta= 0.40
     Davidson diagonalization with overlap
     ethr =  1.25E-06,  avg # of iterations =  5.1

     negative rho (up, down):  2.040E-03 0.000E+00

     total cpu time spent up to now is       29.5 secs

     total energy              =   -1346.30302553 Ry
     estimated scf accuracy    <       0.00048468 Ry

     iteration #  8     ecut=    50.00 Ry     beta= 0.40
     Davidson diagonalization with overlap
     ethr =  6.06E-07,  avg # of iterations =  2.5

     negative rho (up, down):  2.044E-03 0.000E+00

     total cpu time spent up to now is       32.8 secs

     total energy              =   -1346.30306958 Ry
     estimated scf accuracy    <       0.00002927 Ry

     iteration #  9     ecut=    50.00 Ry     beta= 0.40
     Davidson diagonalization with overlap
     ethr =  3.66E-08,  avg # of iterations =  4.2

     negative rho (up, down):  2.041E-03 0.000E+00

     total cpu time spent up to now is       37.0 secs

     total energy              =   -1346.30307146 Ry
     estimated scf accuracy    <       0.00008975 Ry

     iteration # 10     ecut=    50.00 Ry     beta= 0.40
     Davidson diagonalization with overlap
     ethr =  3.66E-08,  avg # of iterations =  4.0

     negative rho (up, down):  2.041E-03 0.000E+00

     total cpu time spent up to now is       40.6 secs

     total energy              =   -1346.30308486 Ry
     estimated scf accuracy    <       0.00000056 Ry

     iteration # 11     ecut=    50.00 Ry     beta= 0.40
     Davidson diagonalization with overlap
     ethr =  7.04E-10,  avg # of iterations =  4.0

     negative rho (up, down):  2.041E-03 0.000E+00

     total cpu time spent up to now is       44.7 secs

     total energy              =   -1346.30308508 Ry
     estimated scf accuracy    <       0.00000034 Ry

     iteration # 12     ecut=    50.00 Ry     beta= 0.40
     Davidson diagonalization with overlap
     ethr =  4.24E-10,  avg # of iterations =  3.2

     negative rho (up, down):  2.041E-03 0.000E+00

     total cpu time spent up to now is       48.2 secs

     total energy              =   -1346.30308514 Ry
     estimated scf accuracy    <       0.00000002 Ry

     iteration # 13     ecut=    50.00 Ry     beta= 0.40
     Davidson diagonalization with overlap
     ethr =  2.04E-11,  avg # of iterations =  4.4

     negative rho (up, down):  2.041E-03 0.000E+00

     total cpu time spent up to now is       52.1 secs

     total energy              =   -1346.30308515 Ry
     estimated scf accuracy    <       0.00000001 Ry

     iteration # 14     ecut=    50.00 Ry     beta= 0.40
     Davidson diagonalization with overlap
     ethr =  1.66E-11,  avg # of iterations =  2.0

     negative rho (up, down):  2.041E-03 0.000E+00

     total cpu time spent up to now is       55.6 secs

     End of self-consistent calculation

          k = 0.0000 0.0000 0.0000 (  5281 PWs)   bands (ev):

   -46.2534 -46.2516 -22.6958 -22.6929 -22.5465 -22.5465 -22.5017 -22.5017
   -14.9032 -14.7265  -6.8671  -6.7132  -6.2116  -5.9736  -5.9571  -5.9571
    -0.1354  -0.1354  -0.0912  -0.0912  -0.0381   0.3103   5.7311   6.0669
     6.3488   7.1837   7.1837   7.6721   7.6721   7.6731   7.9603   8.3615
     8.3615   8.7224   8.7224   8.9731   9.5181   9.7125   9.7125   9.9833
    11.8647  12.2544  12.2544  13.8883  13.8883  13.9924  14.0328  14.1647

          k = 0.0000 0.2020 0.0000 (  5289 PWs)   bands (ev):

   -46.2532 -46.2515 -22.7053 -22.7019 -22.5460 -22.5460 -22.5013 -22.5013
   -14.8836 -14.7153  -6.8241  -6.6209  -6.2522  -5.9672  -5.9256  -5.9256
    -0.2626  -0.2626  -0.0636  -0.0636   0.0384   0.0835   5.7359   6.3500
     6.4010   7.2341   7.2341   7.2831   7.4853   7.6044   7.6044   8.1974
     8.1974   8.7920   8.8672   8.8672   9.1731   9.6329   9.6329   9.9976
    11.8947  12.5669  12.5669  13.9780  13.9780  14.0341  14.0348  14.6471

          k = 0.0000 0.4041 0.0000 (  5301 PWs)   bands (ev):

   -46.2528 -46.2511 -22.7264 -22.7222 -22.5450 -22.5450 -22.5005 -22.5005
   -14.8389 -14.6898  -6.8076  -6.4044  -6.2511  -5.9525  -5.8517  -5.8517
    -0.5380  -0.5380  -0.3593   0.0002   0.0002   0.2083   5.7207   6.3518
     6.4996   6.5705   7.0867   7.2885   7.2885   7.4563   7.4563   7.8557
     7.8557   8.4379   8.5887   9.2958   9.2958   9.4869   9.4869  10.0302
    11.9642  13.2117  13.2117  14.0358  14.1302  14.1936  14.1936  15.3720

          k = 0.0000 0.6061 0.0000 (  5254 PWs)   bands (ev):

   -46.2525 -46.2508 -22.7433 -22.7383 -22.5441 -22.5441 -22.4998 -22.4998
   -14.8024 -14.6691  -6.8745  -6.2199  -6.1582  -5.9407  -5.7891  -5.7891
    -0.7507  -0.7507  -0.6676   0.0532   0.0532   0.3435   5.5767   5.9270
     6.0612   6.3524   7.2364   7.2364   7.3628   7.3628   7.5908   7.6633
     7.6633   8.1923   8.2102   9.3499   9.3499   9.7396   9.7396  10.0567
    12.0224  13.7033  13.7033  14.0368  14.2065  14.3970  14.3970  15.6894

          k = 0.1414 0.0000-0.1414 (  5282 PWs)   bands (ev):

   -46.2532 -46.2518 -22.6955 -22.6931 -22.5425 -22.5422 -22.5062 -22.5059
   -14.8835 -14.7404  -6.8886  -6.7813  -6.1787  -5.9729  -5.9594  -5.9517
    -0.1300  -0.0937  -0.0520  -0.0013   0.0041   0.2720   5.8899   6.2832
     6.4887   7.1478   7.2638   7.4056   7.6160   7.6281   8.0821   8.1600
     8.2504   8.4898   8.7076   8.8703   9.2190   9.4007   9.5669   9.8703
    12.2203  12.3813  12.4692  13.6843  13.7418  13.8361  14.3455  14.4717

          k = 0.1414 0.2020-0.1414 (  5278 PWs)   bands (ev):

   -46.2530 -46.2516 -22.7049 -22.7022 -22.5420 -22.5418 -22.5058 -22.5056
   -14.8651 -14.7288  -6.8311  -6.6867  -6.2241  -5.9639  -5.9365  -5.9302
    -0.2432  -0.2122  -0.0816  -0.0641   0.1336   0.1510   5.8949   6.4881
     6.4949   7.0941   7.2199   7.2824   7.3750   7.5541   7.6611   7.9955
     8.0109   8.7076   8.8125   8.9388   8.9767   9.3575   9.4837   9.8743
    12.2464  12.6574  12.6948  13.7981  13.8306  13.8807  14.4720  14.8370

          k = 0.1414 0.4041-0.1414 (  5285 PWs)   bands (ev):

   -46.2527 -46.2513 -22.7260 -22.7225 -22.5409 -22.5407 -22.5049 -22.5047
   -14.8232 -14.7025  -6.7604  -6.4599  -6.2573  -5.9437  -5.9084  -5.8621
    -0.4975  -0.4901  -0.1744  -0.0545  -0.0132   0.2552   5.8766   6.4765
     6.4884   6.5138   6.9356   7.1691   7.2922   7.3928   7.4331   7.6185
     7.6503   8.6622   8.7171   9.1326   9.2727   9.2954   9.3265   9.8830
    12.3085  13.2463  13.2514  13.9751  14.0476  14.0585  14.4726  15.6233

          k = 0.1414 0.6061-0.1414 (  5284 PWs)   bands (ev):

   -46.2523 -46.2509 -22.7427 -22.7387 -22.5400 -22.5399 -22.5042 -22.5040
   -14.7891 -14.6812  -6.7874  -6.2527  -6.1907  -5.9273  -5.9008  -5.8047
    -0.6821  -0.6249  -0.4940  -0.0330   0.0943   0.2785   5.6647   5.9046
     6.1690   6.4897   7.0196   7.0366   7.2477   7.2899   7.3550   7.4711
     7.6122   8.5407   8.6293   8.9832   9.1859   9.6230   9.6570   9.8631
    12.3597  13.7171  13.7200  14.0551  14.2539  14.2932  14.4806  16.0082

          k = 0.2828 0.0000-0.2828 (  5316 PWs)   bands (ev):

   -46.2528 -46.2522 -22.6948 -22.6939 -22.5317 -22.5310 -22.5179 -22.5172
   -14.8346 -14.7798  -6.9181  -6.8857  -6.0886  -5.9912  -5.9700  -5.9648
    -0.1168  -0.1025   0.0636   0.1318   0.1499   0.1789   6.2503   6.7397
     6.8558   6.9358   7.2621   7.2815   7.4540   7.6090   7.7415   7.9424
     7.9724   8.3282   8.6541   8.6818   8.7259   9.0708   9.4603   9.6239
    12.7493  12.8313  12.9413  13.2444  13.4088  13.4128  14.6849  14.9809

          k = 0.2828 0.2020-0.2828 (  5302 PWs)   bands (ev):

   -46.2526 -46.2521 -22.7041 -22.7030 -22.5312 -22.5306 -22.5174 -22.5168
   -14.8190 -14.7668  -6.8372  -6.7922  -6.1305  -6.0087  -5.9547  -5.9418
    -0.1924  -0.1303  -0.1289  -0.0795   0.2808   0.2965   6.2008   6.6034
     6.8519   6.8527   7.1785   7.2584   7.3321   7.4856   7.6753   7.6930
     7.7083   8.1303   8.7993   8.8530   8.9348   9.0962   9.3999   9.6027
    12.8713  12.9550  13.0600  13.3904  13.4629  13.5021  15.2090  15.4119

          k = 0.2828 0.4041-0.2828 (  5297 PWs)   bands (ev):

   -46.2522 -46.2517 -22.7249 -22.7235 -22.5301 -22.5296 -22.5163 -22.5159
   -14.7835 -14.7374  -6.6616  -6.5646  -6.2126  -6.0616  -5.9197  -5.8886
    -0.3610  -0.3332  -0.1946  -0.1371   0.1578   0.3215   6.0918   6.2808
     6.5250   6.7005   6.8457   7.0600   7.2427   7.3252   7.3616   7.4300
     7.5053   8.0294   9.0108   9.1484   9.1526   9.2126   9.2947   9.5703
    12.9563  13.4195  13.4276  13.5705  13.7532  13.7555  15.3962  16.1237

          k = 0.2828 0.6061-0.2828 (  5286 PWs)   bands (ev):

   -46.2519 -46.2514 -22.7414 -22.7399 -22.5292 -22.5289 -22.5155 -22.5151
   -14.7547 -14.7134  -6.5556  -6.3287  -6.2381  -6.1508  -5.8911  -5.8443
    -0.4952  -0.3419  -0.2481  -0.1022  -0.0274   0.1858   5.7684   5.8551
     6.4338   6.5111   6.7142   6.8445   7.0779   7.2035   7.2711   7.3074
     7.7112   8.1671   9.0160   9.0912   9.1168   9.3617   9.3972   9.5234
    13.0200  13.6239  13.8166  13.8496  14.0391  14.0625  15.3781  16.3715

          k = 0.2828 0.0000 0.0000 (  5287 PWs)   bands (ev):

   -46.2531 -46.2519 -22.6953 -22.6934 -22.5476 -22.5304 -22.5183 -22.5010
   -14.8668 -14.7508  -6.9285  -6.8539  -6.1607  -6.0160  -5.9418  -5.8764
    -0.0742  -0.0361  -0.0180   0.0317   0.0401   0.2414   5.9422   6.4680
     6.6778   7.0732   7.2008   7.2545   7.5782   7.6787   8.0763   8.0878
     8.1094   8.4908   8.5304   8.8042   8.9609   9.3220   9.4211   9.7162
    12.2712  12.5419  12.8308  13.3129  13.7631  13.8727  14.2085  14.9257

          k = 0.2828 0.2020 0.0000 (  5293 PWs)   bands (ev):

   -46.2529 -46.2518 -22.7047 -22.7025 -22.5471 -22.5300 -22.5179 -22.5007
   -14.8495 -14.7390  -6.8595  -6.7567  -6.1998  -5.9958  -5.9420  -5.8691
    -0.2290  -0.1222  -0.0648  -0.0064   0.1510   0.1684   5.9387   6.5759
     6.6804   6.9640   7.0920   7.2842   7.3057   7.5196   7.7223   7.7718
     8.0332   8.6710   8.7304   8.7914   8.9010   9.3174   9.3359   9.7100
    12.5223  12.6129  12.9537  13.4759  13.8022  13.9405  14.4174  15.2182

          k = 0.2828 0.4041 0.0000 (  5291 PWs)   bands (ev):

   -46.2525 -46.2514 -22.7256 -22.7228 -22.5459 -22.5291 -22.5168 -22.4998
   -14.8101 -14.7123  -6.7381  -6.5188  -6.2559  -5.9602  -5.9312  -5.8544
    -0.4654  -0.3655  -0.0840  -0.0802   0.0624   0.2168   5.9056   6.4089
     6.4837   6.7373   6.7413   6.9956   7.2447   7.3606   7.3993   7.4497
     7.6805   8.5563   8.8907   9.0028   9.1120   9.2956   9.3860   9.7128
    12.5935  13.2197  13.3565  13.8233  13.8931  14.1169  14.5327  15.9501

          k = 0.2828 0.6061 0.0000 (  5278 PWs)   bands (ev):

   -46.2522 -46.2511 -22.7423 -22.7390 -22.5449 -22.5283 -22.5160 -22.4992
   -14.7780 -14.6907  -6.7137  -6.2879  -6.2219  -5.9598  -5.9202  -5.8445
    -0.5547  -0.5357  -0.3743  -0.0433   0.1196   0.2113   5.6789   5.8869
     6.1431   6.6824   6.8058   6.8401   7.0472   7.2453   7.3141   7.4037
     7.6043   8.5140   8.9205   8.9277   9.1195   9.4580   9.6499   9.7512
    12.6329  13.7074  13.7661  13.9674  14.1219  14.3061  14.5577  16.3584

          k = 0.4243 0.0000-0.1414 (  5296 PWs)   bands (ev):

   -46.2527 -46.2523 -22.6947 -22.6939 -22.5441 -22.5329 -22.5162 -22.5050
   -14.8258 -14.7814  -6.9848  -6.9622  -6.1169  -6.0656  -5.8786  -5.8418
    -0.0423  -0.0266   0.0735   0.1574   0.1616   0.1769   6.1565   6.5821
     6.9397   7.0740   7.1410   7.2264   7.4088   7.7329   7.8639   7.8643
     7.9666   8.0827   8.7054   8.7578   8.7941   9.0699   9.2190   9.3772
    12.4485  12.8530  13.0700  13.3156  13.5061  13.7122  14.4377  14.8200

          k = 0.4243 0.2020-0.1414 (  5303 PWs)   bands (ev):

   -46.2526 -46.2521 -22.7039 -22.7031 -22.5435 -22.5324 -22.5158 -22.5046
   -14.8110 -14.7687  -6.8975  -6.8650  -6.1348  -6.0594  -5.8934  -5.8543
    -0.1440  -0.0532  -0.0338  -0.0222   0.2508   0.2614   6.1272   6.5021
     6.7816   6.9963   7.0275   7.1405   7.2870   7.4792   7.5027   7.8118
     7.9300   8.2826   8.7406   8.8086   8.9391   9.1118   9.1865   9.3519
    12.7108  13.0504  13.0926  13.3818  13.5410  13.7654  14.7491  15.2576

          k = 0.4243 0.4041-0.1414 (  5290 PWs)   bands (ev):

   -46.2522 -46.2517 -22.7247 -22.7236 -22.5422 -22.5312 -22.5150 -22.5038
   -14.7772 -14.7398  -6.6930  -6.6232  -6.1995  -6.0738  -5.9036  -5.8728
    -0.2818  -0.2325  -0.1396  -0.0480   0.1586   0.2667   6.0388   6.2415
     6.4340   6.5526   6.6623   6.8493   7.1056   7.2214   7.4999   7.6048
     7.6840   8.2626   8.8218   8.9439   9.1424   9.3206   9.3591   9.4181
    13.1305  13.2953  13.4950  13.5963  13.6630  13.9387  14.9998  15.7608

          k = 0.4243 0.6061-0.1414 (  5274 PWs)   bands (ev):

   -46.2519 -46.2514 -22.7412 -22.7399 -22.5412 -22.5302 -22.5142 -22.5031
   -14.7497 -14.7163  -6.5244  -6.3625  -6.2594  -6.1549  -5.9022  -5.8781
    -0.3780  -0.2776  -0.1818  -0.0414  -0.0006   0.1815   5.7423   5.8404
     6.2271   6.3351   6.3890   6.6763   7.1167   7.1619   7.3508   7.3897
     7.7034   8.3288   8.8627   9.0664   9.2184   9.3553   9.4224   9.6315
    13.1761  13.6588  13.7637  13.8949  13.9414  14.1469  15.0496  15.8237

          k = 0.5657 0.0000 0.0000 (  5303 PWs)   bands (ev):

   -46.2526 -46.2524 -22.6944 -22.6941 -22.5494 -22.5451 -22.5043 -22.5000
   -14.8064 -14.7894  -7.0793  -7.0723  -6.1266  -6.1086  -5.7662  -5.7479
     0.0495   0.0574   0.1006   0.1354   0.2409   0.2478   6.1056   6.2745
     6.9786   7.0106   7.1981   7.3096   7.4309   7.5902   7.6546   7.9990
     8.0700   8.2177   8.3215   8.8174   8.8785   8.9917   9.0321   9.1787
    12.3056  12.4682  13.4272  13.5779  13.6949  13.8495  14.2370  14.4479

          k = 0.5657 0.2020 0.0000 (  5305 PWs)   bands (ev):

   -46.2524 -46.2523 -22.7036 -22.7033 -22.5487 -22.5445 -22.5039 -22.4996
   -14.7930 -14.7768  -6.9819  -6.9713  -6.1267  -6.1011  -5.8037  -5.7828
    -0.0299   0.0360   0.0909   0.1442   0.1760   0.2028   6.0794   6.2359
     6.8263   6.8873   6.9687   7.0734   7.1061   7.2166   7.6949   8.0568
     8.2503   8.4001   8.4893   8.7799   8.8030   8.8716   9.1354   9.1867
    12.5980  12.7307  13.4348  13.5941  13.7169  13.8740  14.4963  14.7542

          k = 0.5657 0.4041 0.0000 (  5290 PWs)   bands (ev):

   -46.2520 -46.2519 -22.7242 -22.7238 -22.5474 -22.5431 -22.5031 -22.4989
   -14.7626 -14.7482  -6.7376  -6.7150  -6.1570  -6.1069  -5.8775  -5.8634
    -0.1118  -0.0822  -0.0570   0.0834   0.1683   0.1814   5.9983   6.1051
     6.2729   6.2914   6.5458   6.5711   6.9741   6.9882   7.6571   7.7125
     8.1634   8.4953   8.6457   8.9207   8.9444   8.9948   9.4593   9.4760
    13.2184  13.3021  13.4547  13.6264  13.8618  13.9962  14.7488  15.0689

          k = 0.5657 0.6061 0.0000 (  5288 PWs)   bands (ev):

   -46.2517 -46.2516 -22.7407 -22.7402 -22.5462 -22.5420 -22.5025 -22.4983
   -14.7378 -14.7250  -6.4690  -6.4245  -6.2570  -6.1888  -5.9298  -5.9273
    -0.2194  -0.1493  -0.1322  -0.0145   0.1492   0.2332   5.7201   5.7988
     5.9349   5.9633   6.2183   6.3244   6.9354   6.9443   7.4435   7.5007
     8.0364   8.3785   8.9677   9.1153   9.1723   9.1812   9.6201   9.6902
    13.4654  13.6469  13.7225  13.7747  14.0605  14.1615  14.8180  15.1366

     the Fermi energy is    11.0532 ev

!    total energy              =   -1346.30308515 Ry
     estimated scf accuracy    <          5.5E-10 Ry
     smearing contrib. (-TS)   =      -0.00000000 Ry
     internal energy E=F+TS    =   -1346.30308515 Ry

     The total energy is F=E-TS. E is the sum of the following terms:
     one-electron contribution =    -146.88218676 Ry
     hartree contribution      =     122.22289983 Ry
     xc contribution           =    -120.21550141 Ry
     ewald contribution        =    -409.09650178 Ry
     one-center paw contrib.   =    -792.33179503 Ry

     convergence has been achieved in  14 iterations

     negative rho (up, down):  2.041E-03 0.000E+00

     Forces acting on atoms (cartesian axes, Ry/au):

     atom    1 type  1   force =     0.00000000    0.00000000    0.00000000
     atom    2 type  1   force =     0.00000000    0.00000000    0.00000000
     atom    3 type  2   force =    -0.00000000   -0.03388628    0.00000000
     atom    4 type  2   force =     0.00000000    0.03388628   -0.00000000
     atom    5 type  3   force =    -0.00000000   -0.00000000    0.00000000
     atom    6 type  3   force =    -0.00000000   -0.00000000   -0.00000000
     atom    7 type  3   force =     0.00000000    0.04203704    0.00000000
     atom    8 type  3   force =    -0.00000000   -0.04203704    0.00000000
     atom    9 type  3   force =     0.00000000    0.00000000    0.00000000
     atom   10 type  3   force =    -0.00000000    0.00000000   -0.00000000

     Total force =     0.076360     Total SCF correction =     0.000020
     Message from routine punch:
     Nothing written, as per user request (disk_io='none')

     init_run     :      2.67s CPU      3.03s WALL (       1 calls)
     electrons    :     45.55s CPU     52.02s WALL (       1 calls)
     forces       :      0.65s CPU      0.82s WALL (       1 calls)

     Called by init_run:
     wfcinit      :      0.83s CPU      0.90s WALL (       1 calls)
     potinit      :      0.78s CPU      0.94s WALL (       1 calls)
     hinit0       :      0.62s CPU      0.64s WALL (       1 calls)

     Called by electrons:
     c_bands      :     26.98s CPU     28.57s WALL (      14 calls)
     sum_band     :      7.60s CPU      9.59s WALL (      14 calls)
     v_of_rho     :      0.70s CPU      0.75s WALL (      15 calls)
     newd         :      3.47s CPU      5.14s WALL (      15 calls)
     PAW_pot      :      7.38s CPU      8.77s WALL (      15 calls)
     mix_rho      :      0.08s CPU      0.09s WALL (      14 calls)

     Called by c_bands:
     init_us_2    :      0.58s CPU      0.58s WALL (     360 calls)
     cegterg      :     23.44s CPU     25.03s WALL (     168 calls)

     Called by *egterg:
     cdiaghg      :      2.05s CPU      2.05s WALL (     785 calls)
     h_psi        :     15.53s CPU     17.09s WALL (     797 calls)
     s_psi        :      0.93s CPU      0.94s WALL (     797 calls)
     g_psi        :      0.13s CPU      0.13s WALL (     617 calls)

     Called by h_psi:
     h_psi:calbec :      2.38s CPU      2.45s WALL (     797 calls)
     vloc_psi     :     11.95s CPU     13.41s WALL (     797 calls)
                                        0.00s GPU  (     797 calls)
     add_vuspsi   :      1.04s CPU      1.05s WALL (     797 calls)

     General routines
     calbec       :      3.15s CPU      3.26s WALL (    1013 calls)
     fft          :      0.70s CPU      0.77s WALL (     204 calls)
     ffts         :      0.16s CPU      0.17s WALL (      29 calls)
     fftw         :     13.25s CPU     14.89s WALL (   49594 calls)
     interpolate  :      0.20s CPU      0.21s WALL (      15 calls)

     Parallel routines

     PWSCF        :     49.42s CPU     56.46s WALL


   This run was terminated on:   3:35:12   5Oct2026            

=------------------------------------------------------------------------------=
   JOB DONE.
=------------------------------------------------------------------------------=
