
     Program PWSCF v.7.5 starts on  4Oct2026 at  4: 7:34 

     This program is part of the open-source Quantum ESPRESSO suite
     for quantum simulation of materials; please cite
         "P. Giannozzi et al., J. Phys.:Condens. Matter 21 395502 (2009);
         "P. Giannozzi et al., J. Phys.:Condens. Matter 29 465901 (2017);
         "P. Giannozzi et al., J. Chem. Phys. 152 154105 (2020);
          URL http://www.quantum-espresso.org", 
     in publications or presentations arising from this work. More details at
     http://www.quantum-espresso.org/quote

     Parallel version (MPI & OpenMP), running on       8 processor cores
     Number of MPI processes:                 8
     Threads/MPI process:                     1

     MPI processes distributed on     1 nodes
     55186 MiB available memory on the printing compute node when the environment starts

     Reading input from pw.in

     Current dimensions of program PWSCF are:
     Max number of different atomic species (ntypx) = 10
     Max number of k-points (npk) =  40000
     Max angular momentum in pseudopotentials (lmaxx) =  4

     K-points division:     npool     =       4
     R & G space division:  proc/nbgrp/npool/nimage =       2
     Subspace diagonalization in iterative solution of the eigenvalue problem:
     a serial algorithm will be used


     Parallelization info
     --------------------
     sticks:   dense  smooth     PW     G-vecs:    dense   smooth      PW
     Min        9562    4784   1245               994512   351678   46690
     Max        9563    4785   1248               994513   351681   46691
     Sum       19125    9569   2493              1989025   703359   93381

     Using Slab Decomposition



     bravais-lattice index     =            0
     lattice parameter (alat)  =      22.3764  a.u.
     unit-cell volume          =   11203.9580 (a.u.)^3
     number of atoms/cell      =           40
     number of atomic types    =            3
     number of electrons       =       352.00
     number of Kohn-Sham states=          211
     kinetic-energy cutoff     =      60.0000  Ry
     charge density cutoff     =     480.0000  Ry
     scf convergence threshold =      4.0E-09
     mixing beta               =       0.4000
     number of iterations used =            8  plain     mixing
     Exchange-correlation=  SLA  PW   PBX  PBC
                           (   1   4   3   4   0   0   0)

     celldm(1)=  22.376412  celldm(2)=   0.000000  celldm(3)=   0.000000
     celldm(4)=   0.000000  celldm(5)=   0.000000  celldm(6)=   0.000000

     crystal axes: (cart. coord. in units of alat)
               a(1) = (   1.000000  -0.000000   0.000000 )  
               a(2) = (  -0.000000   1.000001   0.000000 )  
               a(3) = (   0.000000   0.000000   0.999999 )  

     reciprocal axes: (cart. coord. in units 2 pi/alat)
               b(1) = (  1.000000  0.000000 -0.000000 )  
               b(2) = (  0.000000  0.999999 -0.000000 )  
               b(3) = ( -0.000000 -0.000000  1.000001 )  


     PseudoPot. # 1 for Cs read from file:
     /root/sssp/Cs_pbe_v1.uspp.F.UPF
     MD5 check sum: 3476d69cb178dfad3ffaa59df4e07ca4
     Pseudo is Ultrasoft + core correction, Zval =  9.0
     Generated by new atomic code, or converted to UPF format
     Using radial grid of  905 points,  6 beta functions with: 
                l(1) =   0
                l(2) =   0
                l(3) =   1
                l(4) =   1
                l(5) =   2
                l(6) =   2
     Q(r) pseudized with  6 coefficients,  rinner =    1.500   1.500   1.500
                                                       1.500   1.500

     PseudoPot. # 2 for Sn read from file:
     /root/sssp/Sn_pbe_v1.uspp.F.UPF
     MD5 check sum: 4cf58ce39ec5d5d420df3dd08604eb00
     Pseudo is Ultrasoft + core correction, Zval = 14.0
     Generated by new atomic code, or converted to UPF format
     Using radial grid of  891 points,  6 beta functions with: 
                l(1) =   0
                l(2) =   0
                l(3) =   1
                l(4) =   1
                l(5) =   2
                l(6) =   2
     Q(r) pseudized with  6 coefficients,  rinner =    1.200   1.200   1.200
                                                       1.200   1.200

     PseudoPot. # 3 for Br read from file:
     /root/sssp/br_pbe_v1.4.uspp.F.UPF
     MD5 check sum: d3ffb7b29f6225aa16fe06858fb2a80b
     Pseudo is Ultrasoft + core correction, Zval =  7.0
     Generated by new atomic code, or converted to UPF format
     Using radial grid of  879 points,  6 beta functions with: 
                l(1) =   0
                l(2) =   0
                l(3) =   1
                l(4) =   1
                l(5) =   2
                l(6) =   2
     Q(r) pseudized with  8 coefficients,  rinner =    1.100   1.100   1.100
                                                       1.100   1.100

     atomic species   valence    mass     pseudopotential
     Cs                9.00   132.90550     Cs( 1.00)
     Sn               14.00   118.71000     Sn( 1.00)
     Br                7.00    79.90400     Br( 1.00)

     No symmetry found



   Cartesian axes

     site n.     atom                  positions (alat units)
         1        Cs     tau(   1) = (   0.5676003   0.4666032   0.0656840  )
         2        Cs     tau(   2) = (   0.9630081   0.5007878  -0.0249796  )
         3        Cs     tau(   3) = (   0.5563225   0.9733910  -0.0361771  )
         4        Cs     tau(   4) = (   1.0153692   0.9568336   0.0091243  )
         5        Cs     tau(   5) = (   0.4975753   0.4214955   0.4931659  )
         6        Cs     tau(   6) = (   1.0288713   0.5716600   0.4852146  )
         7        Cs     tau(   7) = (   0.4371656   0.9262065   0.5179829  )
         8        Cs     tau(   8) = (   1.0206562   1.0122423   0.4705530  )
         9        Sn     tau(   9) = (   0.2466668   0.2376871   0.1892957  )
        10        Sn     tau(  10) = (   0.7622292   0.3126987   0.2699483  )
        11        Sn     tau(  11) = (   0.2428664   0.7176694   0.2564373  )
        12        Sn     tau(  12) = (   0.7448968   0.8083431   0.2730388  )
        13        Sn     tau(  13) = (   0.3028917   0.2680984   0.7084437  )
        14        Sn     tau(  14) = (   0.7934585   0.2651872   0.7547669  )
        15        Sn     tau(  15) = (   0.2030158   0.7576910   0.7687747  )
        16        Sn     tau(  16) = (   0.6687087   0.7432048   0.7686859  )
        17        Br     tau(  17) = (   0.5017356   0.2805997   0.2994924  )
        18        Br     tau(  18) = (   0.9927914   0.2205183   0.1976844  )
        19        Br     tau(  19) = (   0.5105793   0.7965618   0.3082307  )
        20        Br     tau(  20) = (   0.9944694   0.8032320   0.2469231  )
        21        Br     tau(  21) = (   0.5218821   0.2254329   0.7852336  )
        22        Br     tau(  22) = (   1.0220225   0.1688951   0.7411405  )
        23        Br     tau(  23) = (   0.4482900   0.7113727   0.7394371  )
        24        Br     tau(  24) = (   0.9562111   0.6713323   0.7570904  )
        25        Br     tau(  25) = (   0.2648051   0.5057490   0.2327342  )
        26        Br     tau(  26) = (   0.7912885   0.5399220   0.2827109  )
        27        Br     tau(  27) = (   0.2046280   1.0050035   0.2967175  )
        28        Br     tau(  28) = (   0.7668412   1.0522981   0.2137686  )
        29        Br     tau(  29) = (   0.1694432   0.4963662   0.7543837  )
        30        Br     tau(  30) = (   0.6767757   0.5135282   0.7990243  )
        31        Br     tau(  31) = (   0.2200445   1.0021311   0.7186211  )
        32        Br     tau(  32) = (   0.7151784   0.9789954   0.6405597  )
        33        Br     tau(  33) = (   0.1690196   0.4412737  -0.0351824  )
        34        Br     tau(  34) = (   0.7452682   0.2469979   0.0116612  )
        35        Br     tau(  35) = (   0.3066717   0.7706237   0.0232221  )
        36        Br     tau(  36) = (   0.7902094   0.7069043   0.0404253  )
        37        Br     tau(  37) = (   0.2664280   0.2001208   0.4831207  )
        38        Br     tau(  38) = (   0.7638079   0.3215705   0.5288332  )
        39        Br     tau(  39) = (   0.2791316   0.7205796   0.5043650  )
        40        Br     tau(  40) = (   0.8308793   0.7398008   0.4778681  )

     number of k points=    14  Marzari-Vanderbilt smearing, width (Ry)=  0.0050
                       cart. coord. in units 2pi/alat
        k(    1) = (   0.0000000   0.0000000   0.0000000), wk =   0.0740741
        k(    2) = (  -0.0000000  -0.0000000   0.3333336), wk =   0.1481481
        k(    3) = (   0.0000000   0.3333330  -0.0000000), wk =   0.1481481
        k(    4) = (   0.0000000   0.3333330   0.3333336), wk =   0.1481481
        k(    5) = (   0.3333333   0.0000000   0.3333336), wk =   0.1481481
        k(    6) = (   0.3333333   0.3333330   0.3333336), wk =   0.1481481
        k(    7) = (   0.3333333   0.0000000  -0.0000000), wk =   0.1481481
        k(    8) = (  -0.0000000  -0.3333330   0.3333336), wk =   0.1481481
        k(    9) = (   0.3333333  -0.3333330   0.0000000), wk =   0.1481481
        k(   10) = (  -0.3333333  -0.3333330   0.0000000), wk =   0.1481481
        k(   11) = (  -0.3333333  -0.0000000   0.3333336), wk =   0.1481481
        k(   12) = (  -0.3333333  -0.3333330   0.3333336), wk =   0.1481481
        k(   13) = (  -0.3333333   0.3333330  -0.3333336), wk =   0.1481481
        k(   14) = (   0.3333333  -0.3333330  -0.3333336), wk =   0.1481481

     Dense  grid:  1989025 G-vectors     FFT dimensions: ( 160, 160, 160)

     Smooth grid:   703359 G-vectors     FFT dimensions: ( 120, 120, 120)

     Estimated max dynamical RAM per process >       2.72 GB

     Estimated total dynamical RAM >      20.33 GB

     Initial potential from superposition of free atoms

     starting charge     343.6841, renormalised to     352.0000
     Starting wfcs are  272 randomized atomic wfcs

     total cpu time spent up to now is       94.5 secs

     per-process dynamical memory:  1661.1 Mb

     Self-consistent Calculation

     iteration #  1     ecut=    60.00 Ry     beta= 0.40
     Davidson diagonalization with overlap
     ethr =  1.00E-02,  avg # of iterations =  3.0

     Threshold (ethr) on eigenvalues was too large:
     Diagonalizing with lowered threshold

     Davidson diagonalization with overlap
     ethr =  5.59E-04,  avg # of iterations =  2.0

     total cpu time spent up to now is      470.8 secs

     total energy              =   -2937.15483254 Ry
     estimated scf accuracy    <       1.89285479 Ry

     iteration #  2     ecut=    60.00 Ry     beta= 0.40
     Davidson diagonalization with overlap
     ethr =  5.38E-04,  avg # of iterations =  2.0

     total cpu time spent up to now is      694.5 secs

     total energy              =   -2937.24266675 Ry
     estimated scf accuracy    <       0.70339171 Ry

     iteration #  3     ecut=    60.00 Ry     beta= 0.40
     Davidson diagonalization with overlap
     ethr =  2.00E-04,  avg # of iterations =  7.4

     total cpu time spent up to now is      916.4 secs

     total energy              =   -2937.44653038 Ry
     estimated scf accuracy    <       0.45334241 Ry

     iteration #  4     ecut=    60.00 Ry     beta= 0.40
     Davidson diagonalization with overlap
     ethr =  1.29E-04,  avg # of iterations =  2.2

     total cpu time spent up to now is     1114.5 secs

     total energy              =   -2937.45157467 Ry
     estimated scf accuracy    <       0.09218663 Ry

     iteration #  5     ecut=    60.00 Ry     beta= 0.40
     Davidson diagonalization with overlap
     ethr =  2.62E-05,  avg # of iterations = 13.1

     total cpu time spent up to now is     1351.5 secs

     total energy              =   -2937.45807655 Ry
     estimated scf accuracy    <       0.01067240 Ry

     iteration #  6     ecut=    60.00 Ry     beta= 0.40
     Davidson diagonalization with overlap
     ethr =  3.03E-06,  avg # of iterations = 12.9

     total cpu time spent up to now is     1600.3 secs

     WARNING: integrated charge=   352.00124891, expected=   352.00000000

     total energy              =   -2937.45836419 Ry
     estimated scf accuracy    <       0.00433273 Ry

     iteration #  7     ecut=    60.00 Ry     beta= 0.40
     Davidson diagonalization with overlap
     ethr =  1.23E-06,  avg # of iterations =  2.0

     total cpu time spent up to now is     1792.4 secs

     WARNING: integrated charge=   352.00096599, expected=   352.00000000

     total energy              =   -2937.45980971 Ry
     estimated scf accuracy    <       0.00068681 Ry

     iteration #  8     ecut=    60.00 Ry     beta= 0.40
     Davidson diagonalization with overlap
     ethr =  1.95E-07,  avg # of iterations =  2.0

     total cpu time spent up to now is     1980.0 secs

     WARNING: integrated charge=   352.00060175, expected=   352.00000000

     total energy              =   -2937.45983487 Ry
     estimated scf accuracy    <       0.00005652 Ry

     iteration #  9     ecut=    60.00 Ry     beta= 0.40
     Davidson diagonalization with overlap
     ethr =  1.61E-08,  avg # of iterations =  5.0

     total cpu time spent up to now is     2203.3 secs

     WARNING: integrated charge=   352.00045253, expected=   352.00000000

     total energy              =   -2937.45981213 Ry
     estimated scf accuracy    <       0.00002917 Ry

     iteration # 10     ecut=    60.00 Ry     beta= 0.40
     Davidson diagonalization with overlap
     ethr =  8.29E-09,  avg # of iterations =  2.0

     total cpu time spent up to now is     2389.6 secs

     WARNING: integrated charge=   352.00035342, expected=   352.00000000

     total energy              =   -2937.45984489 Ry
     estimated scf accuracy    <       0.00000096 Ry

     iteration # 11     ecut=    60.00 Ry     beta= 0.40
     Davidson diagonalization with overlap
     ethr =  2.73E-10,  avg # of iterations =  6.6

     total cpu time spent up to now is     2804.2 secs

     WARNING: integrated charge=   352.00029290, expected=   352.00000000

     total energy              =   -2937.45985219 Ry
     estimated scf accuracy    <       0.00000071 Ry

     iteration # 12     ecut=    60.00 Ry     beta= 0.40
     Davidson diagonalization with overlap
     ethr =  2.01E-10,  avg # of iterations =  2.0

     total cpu time spent up to now is     2985.8 secs

     WARNING: integrated charge=   352.00026368, expected=   352.00000000

     total energy              =   -2937.45985019 Ry
     estimated scf accuracy    <       0.00000005 Ry

     iteration # 13     ecut=    60.00 Ry     beta= 0.40
     Davidson diagonalization with overlap
     ethr =  1.35E-11,  avg # of iterations =  4.6

     total cpu time spent up to now is     3212.1 secs

     WARNING: integrated charge=   352.00025624, expected=   352.00000000

     total energy              =   -2937.45984996 Ry
     estimated scf accuracy    <          4.8E-09 Ry

     iteration # 14     ecut=    60.00 Ry     beta= 0.40
     Davidson diagonalization with overlap
     ethr =  1.37E-12,  avg # of iterations =  3.6

     total cpu time spent up to now is     3452.5 secs

     End of self-consistent calculation

          k = 0.0000 0.0000 0.0000 ( 87703 PWs)   bands (ev):

   -18.9903 -18.9774 -18.9549 -18.9023 -18.8982 -18.7905 -18.7682 -18.7565
   -18.7556 -18.7260 -18.7121 -18.7068 -18.7044 -18.7023 -18.6846 -18.6727
   -18.6705 -18.6669 -18.6655 -18.6387 -18.6361 -18.6252 -18.6203 -18.6123
   -18.6110 -18.6006 -18.4869 -18.4819 -18.4375 -18.4288 -18.4178 -18.3434
   -18.3071 -18.3064 -18.2923 -18.2697 -18.0553 -18.0548 -18.0459 -17.7731
   -17.7593 -17.7464 -17.7429 -17.7247 -17.5200 -17.3850 -17.2811 -17.0765
   -11.9548 -11.8291 -11.5301 -11.5234 -11.4430 -11.3821 -11.3191 -11.3177
   -11.2479 -11.1666 -11.1602 -11.1320 -10.9906 -10.9310 -10.8999 -10.8842
   -10.7281 -10.6229 -10.5927 -10.5648 -10.4439 -10.4256 -10.0825 -10.0592
    -5.5433  -5.3865  -5.3707  -5.0941  -5.0656  -4.9691  -4.9109  -4.9032
    -4.8989  -4.8889  -4.8650  -4.8520  -4.5453  -4.4839  -4.4572  -4.3666
    -4.3547  -4.2938  -4.2841  -4.2631  -4.2472  -4.2283  -4.1835  -4.0634
    -4.0150  -3.9569  -3.9005  -3.7663  -3.4453  -3.3936  -3.2654  -2.8717
    -1.0428  -0.9332  -0.8602  -0.7531  -0.6781  -0.6215  -0.5502  -0.5148
    -0.4170  -0.3876  -0.2692  -0.1007   0.0183   0.1006   0.1256   0.2563
     0.3223   0.3552   0.3733   0.4003   0.4918   0.5089   0.5464   0.5884
     0.6319   0.6722   0.7103   0.7114   0.7686   0.7887   0.8392   0.8674
     0.9069   0.9402   0.9773   1.0062   1.0147   1.0568   1.0792   1.1258
     1.1632   1.1983   1.2320   1.2671   1.2829   1.3117   1.3347   1.3660
     1.4105   1.4309   1.4562   1.5513   1.5795   1.5819   1.6843   1.7178
     1.7747   1.8400   1.8577   1.9206   2.0324   2.0429   2.1166   2.2100
     2.2687   2.3115   2.4255   2.4682   2.6546   2.8296   3.1668   3.7655
     4.1850   4.3738   4.4293   4.6255   4.6814   4.7743   4.8500   5.0503
     5.1092   5.2213   5.3477   5.6035   5.6576   6.2407   6.3412   6.4229
     6.5589   6.5671   6.7096   6.8948   7.0713   7.2034   7.3199   7.5805
     7.6939   7.7179   7.8492   7.8798   7.9594   8.0505   8.1119   8.2071
     8.2539   8.3115   8.3527

          k =-0.0000-0.0000 0.3333 ( 87875 PWs)   bands (ev):

   -18.9903 -18.9774 -18.9549 -18.9023 -18.8982 -18.7905 -18.7682 -18.7565
   -18.7556 -18.7260 -18.7121 -18.7068 -18.7044 -18.7023 -18.6846 -18.6727
   -18.6705 -18.6669 -18.6655 -18.6387 -18.6361 -18.6252 -18.6203 -18.6123
   -18.6110 -18.6006 -18.4869 -18.4819 -18.4375 -18.4288 -18.4178 -18.3434
   -18.3071 -18.3064 -18.2923 -18.2697 -18.0553 -18.0548 -18.0460 -17.7731
   -17.7593 -17.7464 -17.7429 -17.7247 -17.5200 -17.3850 -17.2811 -17.0765
   -11.9540 -11.8298 -11.5308 -11.5212 -11.4470 -11.3822 -11.3251 -11.3120
   -11.2462 -11.1681 -11.1607 -11.1281 -10.9850 -10.9329 -10.9034 -10.8845
   -10.7262 -10.6314 -10.6186 -10.5140 -10.4487 -10.4394 -10.0826 -10.0594
    -5.5433  -5.3866  -5.3708  -5.0926  -5.0635  -4.9667  -4.9134  -4.9043
    -4.9008  -4.8849  -4.8682  -4.8519  -4.5447  -4.4860  -4.4442  -4.3666
    -4.3369  -4.2957  -4.2805  -4.2642  -4.2410  -4.2262  -4.1783  -4.0783
    -4.0248  -3.9564  -3.8581  -3.7554  -3.5259  -3.4340  -3.2538  -2.9265
    -0.9496  -0.8956  -0.8635  -0.7590  -0.6316  -0.5840  -0.5580  -0.4902
    -0.3510  -0.3166  -0.2182  -0.1046  -0.0036   0.1081   0.1497   0.2405
     0.3163   0.3521   0.3821   0.4087   0.4501   0.4986   0.5394   0.5806
     0.6245   0.6720   0.7091   0.7220   0.7573   0.7732   0.8075   0.8482
     0.8972   0.9280   0.9491   0.9663   1.0107   1.0570   1.0870   1.0973
     1.1339   1.1564   1.2207   1.2346   1.2767   1.3065   1.3283   1.3493
     1.3946   1.4232   1.4692   1.5004   1.5857   1.6365   1.6785   1.7034
     1.7744   1.8474   1.8674   1.9711   2.0381   2.0474   2.0876   2.1985
     2.2586   2.3196   2.3562   2.4522   2.5121   2.7954   3.2006   3.7567
     4.2226   4.3971   4.4561   4.6715   4.7060   4.8538   5.0071   5.0568
     5.2196   5.3783   5.4717   5.6306   5.6485   6.1910   6.3014   6.3685
     6.5092   6.5572   6.7657   6.9022   6.9724   7.0805   7.3208   7.5167
     7.6271   7.6860   7.8208   7.9076   7.9278   8.0297   8.1353   8.1954
     8.2060   8.2826   8.3600

          k = 0.0000 0.3333-0.0000 ( 87875 PWs)   bands (ev):

   -18.9903 -18.9774 -18.9549 -18.9023 -18.8982 -18.7905 -18.7682 -18.7565
   -18.7556 -18.7260 -18.7121 -18.7068 -18.7044 -18.7023 -18.6846 -18.6727
   -18.6705 -18.6669 -18.6655 -18.6387 -18.6361 -18.6252 -18.6203 -18.6123
   -18.6110 -18.6006 -18.4869 -18.4819 -18.4375 -18.4288 -18.4178 -18.3434
   -18.3071 -18.3064 -18.2923 -18.2697 -18.0553 -18.0549 -18.0459 -17.7731
   -17.7593 -17.7464 -17.7429 -17.7247 -17.5200 -17.3850 -17.2811 -17.0765
   -11.9547 -11.8290 -11.5303 -11.5233 -11.4438 -11.3796 -11.3226 -11.3152
   -11.2462 -11.1691 -11.1647 -11.1321 -10.9884 -10.9318 -10.8943 -10.8853
   -10.7286 -10.6227 -10.5933 -10.5643 -10.4439 -10.4264 -10.0826 -10.0593
    -5.5437  -5.3864  -5.3709  -5.0938  -5.0654  -4.9685  -4.9091  -4.9036
    -4.9001  -4.8893  -4.8642  -4.8527  -4.5444  -4.4824  -4.4495  -4.3713
    -4.3286  -4.2932  -4.2756  -4.2551  -4.2467  -4.2215  -4.1808  -4.0947
    -3.9852  -3.9593  -3.9116  -3.7298  -3.5305  -3.3641  -3.3070  -2.9827
    -0.9951  -0.9167  -0.8046  -0.7510  -0.6326  -0.5685  -0.5008  -0.3736
    -0.3666  -0.2882  -0.2089  -0.0766   0.0309   0.0967   0.1425   0.2007
     0.3098   0.3214   0.3580   0.3964   0.4308   0.4639   0.5283   0.5587
     0.6301   0.6481   0.6658   0.7288   0.7390   0.7761   0.7941   0.8514
     0.8932   0.9155   0.9722   0.9964   1.0106   1.0301   1.0870   1.1063
     1.1516   1.1856   1.2119   1.2550   1.2807   1.3117   1.3272   1.3652
     1.3957   1.4546   1.4700   1.5148   1.5375   1.5626   1.6532   1.7177
     1.7617   1.8398   1.8653   1.9232   1.9849   2.0288   2.0685   2.1845
     2.3242   2.3619   2.3855   2.4674   2.6460   2.8401   3.0897   3.7718
     4.1670   4.3913   4.4724   4.5950   4.7014   4.7709   4.9249   5.0538
     5.1962   5.3954   5.4065   5.8212   5.9906   6.1846   6.3428   6.4197
     6.5440   6.5900   6.7235   6.8844   6.9878   7.0704   7.2519   7.4402
     7.5587   7.7528   7.8574   7.9289   7.9930   8.0431   8.0575   8.1546
     8.1905   8.2365   8.3227

          k = 0.0000 0.3333 0.3333 ( 87927 PWs)   bands (ev):

   -18.9903 -18.9774 -18.9549 -18.9023 -18.8982 -18.7905 -18.7682 -18.7565
   -18.7556 -18.7260 -18.7121 -18.7068 -18.7044 -18.7023 -18.6846 -18.6727
   -18.6705 -18.6669 -18.6655 -18.6387 -18.6361 -18.6252 -18.6203 -18.6123
   -18.6110 -18.6006 -18.4869 -18.4819 -18.4375 -18.4288 -18.4178 -18.3434
   -18.3071 -18.3064 -18.2923 -18.2697 -18.0553 -18.0548 -18.0460 -17.7731
   -17.7593 -17.7464 -17.7429 -17.7247 -17.5200 -17.3850 -17.2811 -17.0765
   -11.9539 -11.8297 -11.5308 -11.5213 -11.4475 -11.3800 -11.3275 -11.3098
   -11.2461 -11.1698 -11.1656 -11.1276 -10.9831 -10.9333 -10.8987 -10.8852
   -10.7266 -10.6308 -10.6189 -10.5147 -10.4453 -10.4432 -10.0826 -10.0595
    -5.5437  -5.3864  -5.3710  -5.0924  -5.0630  -4.9661  -4.9116  -4.9060
    -4.9006  -4.8853  -4.8676  -4.8525  -4.5442  -4.4843  -4.4412  -4.3706
    -4.3235  -4.2942  -4.2722  -4.2559  -4.2416  -4.2090  -4.1724  -4.0700
    -4.0132  -3.9565  -3.8866  -3.7320  -3.5661  -3.4267  -3.3012  -3.0444
    -0.9290  -0.8617  -0.7845  -0.6805  -0.6146  -0.5256  -0.4652  -0.3699
    -0.3219  -0.2870  -0.1796  -0.0879   0.0160   0.1200   0.1532   0.1759
     0.2989   0.3302   0.3695   0.4108   0.4354   0.4678   0.5048   0.5576
     0.6160   0.6465   0.6609   0.6915   0.7214   0.7624   0.7787   0.8126
     0.8513   0.9057   0.9257   0.9841   1.0024   1.0347   1.0659   1.1065
     1.1324   1.1538   1.2144   1.2390   1.2585   1.3034   1.3489   1.3545
     1.3840   1.4304   1.4634   1.5003   1.5527   1.6116   1.6826   1.7254
     1.7961   1.8256   1.8574   1.9611   1.9831   2.0271   2.0863   2.1442
     2.2177   2.3080   2.3785   2.4618   2.5069   2.8141   3.1298   3.7759
     4.1929   4.4139   4.4832   4.6697   4.7465   4.8392   4.9878   5.2221
     5.3658   5.4532   5.5094   5.7941   5.9976   6.1615   6.3030   6.3455
     6.5250   6.5617   6.8007   6.8153   6.9148   7.0542   7.2057   7.3257
     7.5501   7.6789   7.8074   7.9156   8.0038   8.0405   8.1150   8.1259
     8.2138   8.2265   8.2914

          k = 0.3333 0.0000 0.3333 ( 87927 PWs)   bands (ev):

   -18.9903 -18.9775 -18.9549 -18.9023 -18.8982 -18.7905 -18.7682 -18.7565
   -18.7556 -18.7260 -18.7121 -18.7068 -18.7044 -18.7023 -18.6846 -18.6726
   -18.6705 -18.6669 -18.6655 -18.6387 -18.6361 -18.6253 -18.6203 -18.6123
   -18.6110 -18.6006 -18.4869 -18.4819 -18.4375 -18.4288 -18.4178 -18.3434
   -18.3071 -18.3064 -18.2923 -18.2697 -18.0553 -18.0548 -18.0460 -17.7731
   -17.7593 -17.7464 -17.7429 -17.7247 -17.5200 -17.3850 -17.2811 -17.0765
   -11.9540 -11.8297 -11.5264 -11.5239 -11.4478 -11.3826 -11.3285 -11.3111
   -11.2448 -11.1715 -11.1601 -11.1243 -10.9825 -10.9426 -10.9014 -10.8809
   -10.7239 -10.6312 -10.6189 -10.5145 -10.4495 -10.4394 -10.0826 -10.0594
    -5.5431  -5.3866  -5.3708  -5.0931  -5.0635  -4.9672  -4.9115  -4.9056
    -4.9014  -4.8847  -4.8683  -4.8524  -4.5433  -4.4885  -4.4346  -4.3669
    -4.3250  -4.2946  -4.2769  -4.2658  -4.2358  -4.2067  -4.1699  -4.0507
    -3.9930  -3.9580  -3.8748  -3.7866  -3.5924  -3.4245  -3.2856  -3.0249
    -0.9730  -0.8762  -0.8320  -0.6634  -0.6166  -0.5122  -0.4627  -0.3687
    -0.3243  -0.1882  -0.1349  -0.0407   0.0325   0.0689   0.1435   0.2119
     0.2537   0.3023   0.3587   0.3971   0.4561   0.4817   0.5216   0.5504
     0.5934   0.6349   0.6778   0.7113   0.7306   0.7583   0.7970   0.8280
     0.8394   0.8944   0.9174   0.9377   0.9919   1.0213   1.0407   1.0907
     1.1272   1.1637   1.1898   1.2267   1.2833   1.2947   1.3324   1.3716
     1.4112   1.4321   1.4713   1.5069   1.5868   1.6303   1.6570   1.7107
     1.7583   1.8565   1.8806   1.9667   2.0110   2.0429   2.0901   2.1459
     2.1940   2.2441   2.3457   2.4833   2.5621   2.7663   3.0898   3.7647
     4.2400   4.3869   4.4057   4.5997   4.9096   4.9816   5.1062   5.2432
     5.3230   5.4542   5.5617   5.7281   5.8513   6.0683   6.2566   6.3531
     6.5209   6.5779   6.6490   6.8234   6.9576   7.0552   7.2706   7.4668
     7.6017   7.6794   7.7902   7.8703   7.9350   8.0524   8.0752   8.1494
     8.1945   8.2708   8.2919

          k = 0.3333 0.3333 0.3333 ( 87860 PWs)   bands (ev):

   -18.9903 -18.9774 -18.9549 -18.9023 -18.8982 -18.7905 -18.7682 -18.7565
   -18.7556 -18.7260 -18.7121 -18.7068 -18.7044 -18.7023 -18.6846 -18.6726
   -18.6705 -18.6669 -18.6655 -18.6387 -18.6361 -18.6253 -18.6203 -18.6123
   -18.6110 -18.6006 -18.4869 -18.4819 -18.4375 -18.4288 -18.4178 -18.3434
   -18.3071 -18.3064 -18.2923 -18.2697 -18.0553 -18.0548 -18.0460 -17.7731
   -17.7593 -17.7464 -17.7429 -17.7247 -17.5200 -17.3850 -17.2811 -17.0765
   -11.9540 -11.8296 -11.5267 -11.5233 -11.4484 -11.3806 -11.3305 -11.3088
   -11.2451 -11.1764 -11.1604 -11.1256 -10.9819 -10.9394 -10.8990 -10.8810
   -10.7244 -10.6306 -10.6191 -10.5151 -10.4461 -10.4433 -10.0826 -10.0594
    -5.5436  -5.3865  -5.3710  -5.0929  -5.0631  -4.9672  -4.9127  -4.9049
    -4.9008  -4.8844  -4.8678  -4.8530  -4.5426  -4.4872  -4.4335  -4.3707
    -4.3237  -4.2923  -4.2747  -4.2518  -4.2420  -4.1994  -4.1647  -4.0095
    -3.9837  -3.9514  -3.8856  -3.7629  -3.5471  -3.4945  -3.3722  -3.1431
    -0.8390  -0.7633  -0.7011  -0.6722  -0.5789  -0.4968  -0.3970  -0.3589
    -0.3035  -0.1725  -0.1093  -0.0894   0.0103   0.0976   0.1480   0.2054
     0.2338   0.3207   0.3424   0.3649   0.4189   0.4711   0.4898   0.5398
     0.5773   0.6302   0.6629   0.6800   0.7082   0.7293   0.7580   0.7927
     0.8522   0.8790   0.8970   0.9431   0.9821   1.0196   1.0555   1.1192
     1.1312   1.1450   1.1762   1.2353   1.2518   1.3049   1.3232   1.3489
     1.3965   1.4415   1.4759   1.5193   1.5852   1.6193   1.6800   1.7002
     1.7744   1.8012   1.8425   1.9563   1.9850   2.0150   2.0634   2.1358
     2.2092   2.2990   2.3222   2.4063   2.4726   2.7944   3.0108   3.7843
     4.1839   4.3737   4.4863   4.6972   4.9457   5.0283   5.2603   5.3346
     5.3756   5.5799   5.7014   5.8563   5.9640   6.0390   6.1608   6.2985
     6.5053   6.5956   6.6840   6.8341   6.8772   6.9698   7.2398   7.3673
     7.5438   7.6525   7.7700   7.8962   8.0220   8.0365   8.0685   8.1133
     8.1347   8.1919   8.2229

          k = 0.3333 0.0000-0.0000 ( 87875 PWs)   bands (ev):

   -18.9903 -18.9774 -18.9549 -18.9023 -18.8982 -18.7905 -18.7682 -18.7565
   -18.7556 -18.7260 -18.7121 -18.7068 -18.7044 -18.7023 -18.6846 -18.6726
   -18.6705 -18.6669 -18.6655 -18.6387 -18.6361 -18.6253 -18.6203 -18.6123
   -18.6110 -18.6006 -18.4869 -18.4819 -18.4375 -18.4288 -18.4178 -18.3434
   -18.3071 -18.3064 -18.2923 -18.2697 -18.0553 -18.0548 -18.0459 -17.7731
   -17.7593 -17.7464 -17.7429 -17.7247 -17.5200 -17.3850 -17.2811 -17.0765
   -11.9549 -11.8289 -11.5310 -11.5195 -11.4459 -11.3813 -11.3227 -11.3178
   -11.2471 -11.1692 -11.1590 -11.1272 -10.9881 -10.9421 -10.8981 -10.8803
   -10.7252 -10.6226 -10.5930 -10.5651 -10.4445 -10.4261 -10.0825 -10.0592
    -5.5431  -5.3866  -5.3707  -5.0945  -5.0661  -4.9688  -4.9088  -4.9035
    -4.9004  -4.8894  -4.8650  -4.8527  -4.5439  -4.4864  -4.4400  -4.3680
    -4.3311  -4.2942  -4.2825  -4.2651  -4.2424  -4.2134  -4.1811  -4.0804
    -3.9708  -3.9557  -3.9084  -3.7703  -3.5373  -3.4059  -3.2555  -2.9764
    -1.0251  -0.9296  -0.8653  -0.7158  -0.6738  -0.5390  -0.5045  -0.3824
    -0.3382  -0.2076  -0.1098  -0.0554   0.0115   0.1061   0.1215   0.2353
     0.2554   0.3450   0.3685   0.3825   0.4229   0.4740   0.4992   0.5402
     0.5979   0.6620   0.6906   0.7198   0.7326   0.7690   0.7893   0.8198
     0.8540   0.9104   0.9310   0.9520   1.0039   1.0632   1.0758   1.1106
     1.1451   1.1784   1.2188   1.2426   1.2783   1.3087   1.3469   1.3796
     1.4287   1.4441   1.4727   1.4960   1.5591   1.6357   1.6957   1.7160
     1.7773   1.8132   1.8942   1.9595   2.0049   2.0326   2.0654   2.1654
     2.1972   2.2930   2.4485   2.4790   2.6771   2.8003   3.0652   3.7621
     4.1952   4.3300   4.4082   4.5511   4.7717   4.8174   5.0020   5.1323
     5.2755   5.4562   5.5776   5.6599   5.8267   6.0516   6.2939   6.4220
     6.5256   6.6353   6.6736   6.9295   6.9900   7.1701   7.2071   7.4673
     7.6092   7.7223   7.7886   7.9139   7.9373   8.0369   8.1394   8.1626
     8.2165   8.2633   8.3454

          k =-0.0000-0.3333 0.3333 ( 87927 PWs)   bands (ev):

   -18.9903 -18.9774 -18.9549 -18.9023 -18.8982 -18.7905 -18.7682 -18.7565
   -18.7556 -18.7260 -18.7121 -18.7068 -18.7044 -18.7023 -18.6846 -18.6727
   -18.6705 -18.6669 -18.6655 -18.6387 -18.6361 -18.6252 -18.6203 -18.6123
   -18.6110 -18.6006 -18.4869 -18.4819 -18.4375 -18.4288 -18.4178 -18.3434
   -18.3071 -18.3064 -18.2923 -18.2697 -18.0553 -18.0548 -18.0460 -17.7731
   -17.7593 -17.7464 -17.7429 -17.7247 -17.5200 -17.3850 -17.2811 -17.0765
   -11.9539 -11.8297 -11.5309 -11.5211 -11.4477 -11.3798 -11.3279 -11.3100
   -11.2453 -11.1705 -11.1651 -11.1277 -10.9831 -10.9336 -10.8979 -10.8857
   -10.7268 -10.6314 -10.6185 -10.5140 -10.4485 -10.4404 -10.0826 -10.0595
    -5.5438  -5.3865  -5.3710  -5.0923  -5.0631  -4.9660  -4.9117  -4.9060
    -4.9006  -4.8850  -4.8678  -4.8524  -4.5441  -4.4845  -4.4403  -4.3708
    -4.3215  -4.2943  -4.2729  -4.2545  -4.2403  -4.2113  -4.1704  -4.0761
    -4.0115  -3.9585  -3.8914  -3.7197  -3.5726  -3.4258  -3.3090  -3.0331
    -0.9307  -0.8583  -0.8042  -0.7154  -0.6128  -0.5057  -0.4502  -0.3844
    -0.3119  -0.2492  -0.2067  -0.0535   0.0149   0.0988   0.1623   0.1944
     0.2901   0.3265   0.3506   0.4178   0.4223   0.4619   0.5117   0.5763
     0.6062   0.6379   0.6808   0.6993   0.7205   0.7445   0.7849   0.8148
     0.8607   0.8771   0.9332   0.9747   1.0142   1.0225   1.0788   1.1076
     1.1317   1.1839   1.1929   1.2505   1.2647   1.3124   1.3148   1.3540
     1.3829   1.4313   1.4747   1.4956   1.5259   1.6205   1.6624   1.7157
     1.7779   1.8404   1.8918   1.9450   1.9835   2.0456   2.0757   2.1205
     2.2315   2.3182   2.3934   2.4588   2.5088   2.8112   3.1371   3.7670
     4.2031   4.4202   4.4779   4.6562   4.7426   4.8453   5.0033   5.2360
     5.3644   5.4092   5.5156   5.7815   6.0102   6.1606   6.3122   6.3782
     6.5027   6.5609   6.7350   6.8563   6.9158   7.0239   7.2673   7.3814
     7.4594   7.7274   7.8112   7.8996   7.9345   8.0100   8.0946   8.1701
     8.2008   8.2420   8.3022

          k = 0.3333-0.3333 0.0000 ( 87927 PWs)   bands (ev):

   -18.9903 -18.9775 -18.9549 -18.9023 -18.8982 -18.7905 -18.7682 -18.7565
   -18.7556 -18.7260 -18.7121 -18.7068 -18.7044 -18.7023 -18.6846 -18.6726
   -18.6705 -18.6669 -18.6655 -18.6387 -18.6361 -18.6253 -18.6203 -18.6123
   -18.6110 -18.6006 -18.4869 -18.4819 -18.4375 -18.4288 -18.4178 -18.3434
   -18.3071 -18.3064 -18.2923 -18.2697 -18.0553 -18.0549 -18.0459 -17.7731
   -17.7593 -17.7464 -17.7429 -17.7247 -17.5200 -17.3850 -17.2811 -17.0765
   -11.9549 -11.8288 -11.5313 -11.5193 -11.4463 -11.3802 -11.3237 -11.3150
   -11.2470 -11.1740 -11.1607 -11.1284 -10.9874 -10.9390 -10.8943 -10.8812
   -10.7261 -10.6224 -10.5935 -10.5646 -10.4444 -10.4270 -10.0825 -10.0592
    -5.5435  -5.3864  -5.3709  -5.0942  -5.0656  -4.9687  -4.9090  -4.9030
    -4.9002  -4.8896  -4.8648  -4.8532  -4.5429  -4.4857  -4.4368  -4.3720
    -4.3219  -4.2920  -4.2718  -4.2583  -4.2425  -4.1960  -4.1761  -4.0834
    -3.9669  -3.9495  -3.9074  -3.7538  -3.5376  -3.4142  -3.3329  -3.0992
    -0.9500  -0.8383  -0.7810  -0.6870  -0.5938  -0.5667  -0.4248  -0.3613
    -0.2504  -0.2024  -0.1138  -0.0034   0.0354   0.0924   0.1185   0.1701
     0.2869   0.3274   0.3407   0.3837   0.4211   0.4352   0.4758   0.5137
     0.5744   0.6360   0.6795   0.6992   0.7303   0.7469   0.7728   0.8141
     0.8383   0.8858   0.9121   0.9540   0.9740   1.0336   1.0870   1.1148
     1.1352   1.1741   1.2031   1.2348   1.2835   1.2878   1.3405   1.3744
     1.4183   1.4605   1.4737   1.5087   1.5263   1.5857   1.6532   1.7253
     1.7545   1.8226   1.8992   1.9113   1.9679   2.0134   2.0534   2.1520
     2.2626   2.3396   2.4037   2.4362   2.6378   2.8182   2.9838   3.7778
     4.1616   4.3386   4.4454   4.5728   4.7792   4.8703   5.1179   5.3194
     5.3463   5.5401   5.6010   5.8661   5.9445   6.1116   6.2426   6.4347
     6.5230   6.6109   6.6624   6.8248   6.9995   7.0260   7.1756   7.4995
     7.5616   7.6825   7.7344   7.8982   7.9749   8.0233   8.0634   8.1077
     8.1501   8.2255   8.2514

          k =-0.3333-0.3333 0.0000 ( 87927 PWs)   bands (ev):

   -18.9903 -18.9775 -18.9549 -18.9023 -18.8982 -18.7905 -18.7682 -18.7565
   -18.7556 -18.7260 -18.7121 -18.7068 -18.7044 -18.7023 -18.6846 -18.6726
   -18.6705 -18.6669 -18.6655 -18.6387 -18.6361 -18.6253 -18.6203 -18.6123
   -18.6110 -18.6006 -18.4869 -18.4819 -18.4375 -18.4288 -18.4178 -18.3434
   -18.3071 -18.3064 -18.2923 -18.2697 -18.0553 -18.0548 -18.0459 -17.7731
   -17.7593 -17.7464 -17.7429 -17.7247 -17.5200 -17.3850 -17.2811 -17.0765
   -11.9549 -11.8288 -11.5311 -11.5191 -11.4467 -11.3795 -11.3246 -11.3161
   -11.2462 -11.1730 -11.1606 -11.1289 -10.9876 -10.9384 -10.8965 -10.8799
   -10.7258 -10.6224 -10.5935 -10.5646 -10.4444 -10.4270 -10.0825 -10.0592
    -5.5435  -5.3864  -5.3709  -5.0942  -5.0659  -4.9687  -4.9105  -4.9015
    -4.9003  -4.8893  -4.8646  -4.8532  -4.5430  -4.4851  -4.4380  -4.3720
    -4.3274  -4.2915  -4.2801  -4.2544  -4.2404  -4.2069  -4.1759  -4.0478
    -3.9673  -3.9477  -3.9213  -3.7482  -3.5494  -3.3922  -3.3614  -3.0931
    -0.9602  -0.8319  -0.7700  -0.6572  -0.6050  -0.5063  -0.4496  -0.3697
    -0.3349  -0.1706  -0.1212  -0.0489   0.0201   0.0962   0.1557   0.1994
     0.2668   0.3054   0.3413   0.3716   0.4094   0.4338   0.4932   0.5535
     0.5970   0.6434   0.6645   0.6977   0.7200   0.7350   0.7741   0.8016
     0.8474   0.8907   0.9156   0.9810   0.9990   1.0370   1.0737   1.0983
     1.1519   1.1885   1.1963   1.2275   1.2493   1.3044   1.3369   1.3745
     1.4195   1.4447   1.4887   1.5120   1.5306   1.6182   1.6328   1.7030
     1.7475   1.8142   1.8839   1.9210   1.9761   2.0346   2.0616   2.1643
     2.2595   2.3361   2.3730   2.4499   2.5964   2.8351   2.9786   3.7787
     4.1564   4.3313   4.4510   4.6023   4.7878   4.8811   5.0918   5.3212
     5.3976   5.5365   5.6233   5.8534   5.9794   6.0218   6.1839   6.3709
     6.5339   6.6271   6.7028   6.8626   6.9423   7.0527   7.3306   7.3957
     7.5613   7.6515   7.7532   7.8919   7.9685   8.0050   8.0685   8.1009
     8.1516   8.2191   8.3103

          k =-0.3333-0.0000 0.3333 ( 87927 PWs)   bands (ev):

   -18.9903 -18.9775 -18.9549 -18.9023 -18.8982 -18.7905 -18.7682 -18.7565
   -18.7556 -18.7260 -18.7121 -18.7068 -18.7044 -18.7023 -18.6846 -18.6726
   -18.6705 -18.6669 -18.6655 -18.6387 -18.6361 -18.6253 -18.6203 -18.6123
   -18.6110 -18.6006 -18.4869 -18.4819 -18.4375 -18.4288 -18.4178 -18.3434
   -18.3071 -18.3064 -18.2923 -18.2697 -18.0553 -18.0548 -18.0460 -17.7731
   -17.7593 -17.7464 -17.7429 -17.7247 -17.5200 -17.3850 -17.2811 -17.0765
   -11.9540 -11.8298 -11.5301 -11.5195 -11.4492 -11.3809 -11.3291 -11.3110
   -11.2448 -11.1705 -11.1611 -11.1253 -10.9824 -10.9426 -10.9004 -10.8811
   -10.7242 -10.6312 -10.6189 -10.5144 -10.4496 -10.4394 -10.0826 -10.0594
    -5.5431  -5.3866  -5.3708  -5.0930  -5.0638  -4.9667  -4.9115  -4.9054
    -4.9016  -4.8853  -4.8683  -4.8523  -4.5435  -4.4874  -4.4350  -4.3668
    -4.3248  -4.2942  -4.2831  -4.2650  -4.2346  -4.2058  -4.1656  -4.0624
    -3.9911  -3.9536  -3.8643  -3.7822  -3.6178  -3.4010  -3.2926  -3.0295
    -0.9671  -0.8924  -0.8089  -0.6626  -0.5760  -0.5304  -0.4488  -0.3812
    -0.3556  -0.2137  -0.1108  -0.0556  -0.0122   0.0987   0.1388   0.1938
     0.2312   0.3447   0.3731   0.3991   0.4576   0.4754   0.5283   0.5662
     0.6050   0.6343   0.6762   0.6936   0.7387   0.7619   0.7928   0.8160
     0.8455   0.8915   0.9104   0.9437   0.9767   1.0361   1.0743   1.0935
     1.1310   1.1578   1.1877   1.2165   1.2544   1.3218   1.3553   1.3683
     1.4101   1.4279   1.4656   1.4982   1.5503   1.6384   1.6717   1.7121
     1.8007   1.8259   1.8864   1.9681   2.0110   2.0288   2.0589   2.1580
     2.2172   2.2605   2.3181   2.4690   2.5702   2.7698   3.0916   3.7639
     4.2319   4.3902   4.4134   4.6002   4.9085   5.0077   5.0816   5.2427
     5.3171   5.4578   5.5961   5.7339   5.8252   6.0552   6.2417   6.3370
     6.5084   6.5943   6.6919   6.8266   6.9669   7.0430   7.2126   7.4937
     7.6405   7.6760   7.7297   7.8738   7.9314   8.0515   8.0782   8.1497
     8.2291   8.2664   8.3129

          k =-0.3333-0.3333 0.3333 ( 87860 PWs)   bands (ev):

   -18.9903 -18.9774 -18.9549 -18.9023 -18.8982 -18.7905 -18.7682 -18.7565
   -18.7556 -18.7260 -18.7121 -18.7068 -18.7044 -18.7023 -18.6846 -18.6726
   -18.6705 -18.6669 -18.6655 -18.6387 -18.6361 -18.6253 -18.6203 -18.6123
   -18.6110 -18.6006 -18.4869 -18.4819 -18.4375 -18.4288 -18.4178 -18.3434
   -18.3071 -18.3064 -18.2923 -18.2697 -18.0553 -18.0548 -18.0460 -17.7731
   -17.7593 -17.7464 -17.7429 -17.7247 -17.5200 -17.3850 -17.2811 -17.0765
   -11.9539 -11.8297 -11.5300 -11.5192 -11.4499 -11.3795 -11.3293 -11.3104
   -11.2443 -11.1754 -11.1616 -11.1269 -10.9818 -10.9395 -10.8972 -10.8816
   -10.7250 -10.6312 -10.6187 -10.5144 -10.4491 -10.4406 -10.0826 -10.0594
    -5.5436  -5.3865  -5.3710  -5.0927  -5.0635  -4.9666  -4.9128  -4.9047
    -4.9006  -4.8848  -4.8683  -4.8528  -4.5426  -4.4863  -4.4332  -4.3714
    -4.3211  -4.2920  -4.2790  -4.2559  -4.2368  -4.1999  -4.1581  -4.0267
    -3.9856  -3.9476  -3.8785  -3.7515  -3.5796  -3.4525  -3.3988  -3.1340
    -0.8470  -0.7724  -0.6934  -0.6707  -0.5816  -0.4697  -0.4042  -0.3445
    -0.3211  -0.2046  -0.0991  -0.0838   0.0066   0.0960   0.1367   0.2144
     0.2435   0.3134   0.3288   0.3807   0.4240   0.4757   0.4986   0.5604
     0.5846   0.6036   0.6308   0.6631   0.7279   0.7448   0.7703   0.8241
     0.8459   0.8592   0.8997   0.9563   0.9811   1.0147   1.0524   1.0999
     1.1557   1.1716   1.1923   1.2114   1.2585   1.2967   1.3190   1.3387
     1.3681   1.4319   1.4724   1.5324   1.5667   1.6007   1.6570   1.7170
     1.7709   1.8315   1.8697   1.9495   2.0020   2.0487   2.0795   2.1076
     2.1663   2.2624   2.3263   2.4004   2.5086   2.7896   3.0225   3.7795
     4.1858   4.3746   4.4864   4.7049   4.9485   5.0312   5.2814   5.3208
     5.3842   5.5656   5.6798   5.8081   5.9550   6.1098   6.1471   6.3384
     6.5044   6.5293   6.7031   6.8120   6.9236   6.9408   7.2820   7.3630
     7.4682   7.6999   7.7812   7.8947   7.9315   8.0100   8.0691   8.1060
     8.1729   8.2209   8.2692

          k =-0.3333 0.3333-0.3333 ( 87860 PWs)   bands (ev):

   -18.9903 -18.9774 -18.9549 -18.9023 -18.8982 -18.7905 -18.7682 -18.7565
   -18.7556 -18.7260 -18.7121 -18.7068 -18.7044 -18.7023 -18.6846 -18.6726
   -18.6705 -18.6669 -18.6655 -18.6387 -18.6361 -18.6253 -18.6203 -18.6123
   -18.6110 -18.6006 -18.4869 -18.4819 -18.4375 -18.4288 -18.4178 -18.3434
   -18.3071 -18.3064 -18.2923 -18.2697 -18.0553 -18.0548 -18.0460 -17.7731
   -17.7593 -17.7464 -17.7429 -17.7247 -17.5200 -17.3850 -17.2811 -17.0765
   -11.9540 -11.8296 -11.5268 -11.5234 -11.4482 -11.3819 -11.3291 -11.3080
   -11.2454 -11.1768 -11.1617 -11.1248 -10.9819 -10.9398 -10.8975 -10.8816
   -10.7249 -10.6312 -10.6187 -10.5144 -10.4490 -10.4407 -10.0826 -10.0594
    -5.5436  -5.3865  -5.3710  -5.0928  -5.0630  -4.9670  -4.9112  -4.9062
    -4.9008  -4.8848  -4.8681  -4.8529  -4.5424  -4.4876  -4.4327  -4.3701
    -4.3203  -4.2925  -4.2711  -4.2572  -4.2353  -4.1960  -4.1552  -4.0365
    -3.9885  -3.9551  -3.8864  -3.7625  -3.5549  -3.4788  -3.3638  -3.1407
    -0.8822  -0.7846  -0.7219  -0.6458  -0.5591  -0.5013  -0.4060  -0.3423
    -0.2424  -0.1905  -0.1535  -0.0081   0.0289   0.0906   0.1345   0.1572
     0.2807   0.2999   0.3426   0.3727   0.4302   0.4796   0.4993   0.5520
     0.5801   0.6095   0.6370   0.6551   0.7085   0.7303   0.7719   0.7975
     0.8478   0.8575   0.9014   0.9263   0.9780   1.0141   1.0820   1.1103
     1.1303   1.1512   1.1729   1.2128   1.2705   1.3084   1.3244   1.3588
     1.3819   1.4143   1.4757   1.5206   1.5787   1.6098   1.6617   1.7157
     1.7672   1.8178   1.8752   1.9516   2.0002   2.0293   2.0732   2.1122
     2.1786   2.2460   2.3253   2.4257   2.5547   2.7805   3.0259   3.7786
     4.1967   4.3727   4.4647   4.6718   4.9431   5.0402   5.2395   5.3237
     5.3943   5.5306   5.7068   5.8300   5.9337   6.1220   6.2845   6.3577
     6.5021   6.5231   6.6787   6.7577   6.8596   7.0150   7.1906   7.3683
     7.5298   7.7191   7.8083   7.8316   7.9394   8.0190   8.0786   8.1393
     8.1823   8.2262   8.2601

          k = 0.3333-0.3333-0.3333 ( 87860 PWs)   bands (ev):

   -18.9903 -18.9774 -18.9549 -18.9023 -18.8982 -18.7905 -18.7682 -18.7565
   -18.7556 -18.7260 -18.7121 -18.7068 -18.7044 -18.7023 -18.6846 -18.6726
   -18.6705 -18.6669 -18.6655 -18.6387 -18.6361 -18.6253 -18.6203 -18.6123
   -18.6110 -18.6006 -18.4869 -18.4819 -18.4375 -18.4288 -18.4178 -18.3434
   -18.3071 -18.3064 -18.2923 -18.2697 -18.0553 -18.0548 -18.0460 -17.7731
   -17.7593 -17.7464 -17.7429 -17.7247 -17.5200 -17.3850 -17.2811 -17.0765
   -11.9539 -11.8297 -11.5303 -11.5194 -11.4495 -11.3803 -11.3288 -11.3082
   -11.2461 -11.1770 -11.1615 -11.1257 -10.9818 -10.9398 -10.8963 -10.8821
   -10.7251 -10.6306 -10.6190 -10.5150 -10.4461 -10.4433 -10.0826 -10.0594
    -5.5435  -5.3865  -5.3710  -5.0928  -5.0632  -4.9667  -4.9112  -4.9061
    -4.9008  -4.8853  -4.8681  -4.8530  -4.5426  -4.4867  -4.4332  -4.3714
    -4.3200  -4.2925  -4.2721  -4.2574  -4.2410  -4.1923  -4.1538  -4.0524
    -3.9808  -3.9503  -3.8691  -3.7528  -3.5956  -3.4524  -3.3585  -3.1568
    -0.8485  -0.7599  -0.6888  -0.6486  -0.6031  -0.5225  -0.4078  -0.3407
    -0.2783  -0.2203  -0.1148  -0.0123   0.0423   0.0755   0.1074   0.1428
     0.2828   0.3063   0.3532   0.3965   0.4354   0.4609   0.4766   0.5367
     0.5839   0.6089   0.6542   0.6819   0.7191   0.7561   0.7773   0.7934
     0.8272   0.8587   0.8931   0.9226   0.9955   1.0309   1.0529   1.0898
     1.1202   1.1794   1.2013   1.2259   1.2443   1.2862   1.3498   1.3719
     1.3918   1.4240   1.4609   1.5135   1.5650   1.6056   1.6897   1.6947
     1.7828   1.8354   1.8464   1.9770   1.9869   2.0103   2.0580   2.1215
     2.1932   2.2471   2.3185   2.4471   2.5132   2.7995   3.0033   3.7820
     4.1904   4.3911   4.4651   4.6763   4.9412   5.0398   5.2331   5.3036
     5.3908   5.5682   5.7043   5.8741   5.9185   6.1323   6.1762   6.3568
     6.4958   6.5662   6.6842   6.8311   6.8795   6.9758   7.1659   7.3289
     7.5855   7.6848   7.7549   7.9066   7.9543   8.0204   8.0846   8.1367
     8.1621   8.1928   8.2510

     the Fermi energy is     4.0210 ev

     WARNING: integrated charge=   352.00025244, expected=   352.00000000

!    total energy              =   -2937.45985011 Ry
     estimated scf accuracy    <          8.1E-10 Ry
     smearing contrib. (-TS)   =       0.00000094 Ry
     internal energy E=F+TS    =   -2937.45985105 Ry

     The total energy is F=E-TS. E is the sum of the following terms:
     one-electron contribution =   -1054.82477284 Ry
     hartree contribution      =     676.12844201 Ry
     xc contribution           =   -1250.02086819 Ry
     ewald contribution        =   -1308.74265203 Ry

     convergence has been achieved in  14 iterations

     Forces acting on atoms (cartesian axes, Ry/au):

     atom    1 type  1   force =    -0.01613688    0.01665457   -0.00411436
     atom    2 type  1   force =    -0.20941215    0.03477181    0.02217386
     atom    3 type  1   force =     0.00082370    0.00497247    0.00920425
     atom    4 type  1   force =    -0.00380370    0.00690043   -0.00537436
     atom    5 type  1   force =    -0.00920272    0.06513102    0.07061913
     atom    6 type  1   force =     0.01532166   -0.03248283    0.00038998
     atom    7 type  1   force =     0.01620269    0.06102538    0.02892203
     atom    8 type  1   force =    -0.04715784    0.00140590    0.03540157
     atom    9 type  2   force =    -0.03329999    0.00563527    0.01578685
     atom   10 type  2   force =     0.00598272   -0.03565163   -0.00268499
     atom   11 type  2   force =     0.00166510    0.07355908   -0.00090336
     atom   12 type  2   force =     0.01728910    0.00386591   -0.01306365
     atom   13 type  2   force =    -0.04305923   -0.01157312    0.00767956
     atom   14 type  2   force =     0.00566838   -0.02149271    0.00258005
     atom   15 type  2   force =    -0.00671282   -0.02299035   -0.00747775
     atom   16 type  2   force =     0.05910999    0.00128370    0.00085628
     atom   17 type  3   force =     0.00812831   -0.04994654   -0.08359660
     atom   18 type  3   force =     0.04001226    0.01813586    0.00685042
     atom   19 type  3   force =    -0.00865974   -0.02880795   -0.04075594
     atom   20 type  3   force =     0.02220285   -0.01889291   -0.00102618
     atom   21 type  3   force =    -0.00309150    0.00212932   -0.00720940
     atom   22 type  3   force =    -0.04320295    0.03453279    0.00854319
     atom   23 type  3   force =    -0.00767451    0.00033939    0.00381392
     atom   24 type  3   force =    -0.00257095    0.04203732   -0.00678821
     atom   25 type  3   force =     0.00604185   -0.05802541    0.01120671
     atom   26 type  3   force =    -0.00686212   -0.01689729   -0.00828015
     atom   27 type  3   force =     0.05291141    0.00983519   -0.06307816
     atom   28 type  3   force =    -0.01312247   -0.02628712    0.01366350
     atom   29 type  3   force =     0.03124943    0.03137079   -0.13898883
     atom   30 type  3   force =     0.00440777   -0.01058399   -0.01432227
     atom   31 type  3   force =     0.02521773   -0.02525534    0.01225106
     atom   32 type  3   force =    -0.00455603    0.00398038    0.02272589
     atom   33 type  3   force =     0.23464336   -0.13250074    0.12274224
     atom   34 type  3   force =     0.00283511    0.01002124   -0.01133027
     atom   35 type  3   force =    -0.00788278    0.00505272   -0.01296857
     atom   36 type  3   force =    -0.03470954    0.03365258   -0.02219496
     atom   37 type  3   force =     0.01058717    0.02820236    0.01727897
     atom   38 type  3   force =     0.01358821   -0.00283556   -0.00966915
     atom   39 type  3   force =    -0.03566676   -0.02849172    0.00718768
     atom   40 type  3   force =    -0.03710409    0.02821971    0.03395000

     Total force =     0.483663     Total SCF correction =     0.000048
     Message from routine punch:
     Nothing written, as per user request (disk_io='none')

     init_run     :     89.57s CPU     94.10s WALL (       1 calls)
     electrons    :   3230.20s CPU   3358.12s WALL (       1 calls)
     forces       :     44.82s CPU     48.53s WALL (       1 calls)

     Called by init_run:
     wfcinit      :     80.36s CPU     83.58s WALL (       1 calls)
     potinit      :      2.99s CPU      3.18s WALL (       1 calls)
     hinit0       :      1.79s CPU      1.92s WALL (       1 calls)

     Called by electrons:
     c_bands      :   2695.68s CPU   2763.33s WALL (      15 calls)
     sum_band     :    455.71s CPU    488.63s WALL (      15 calls)
     v_of_rho     :     27.79s CPU     31.73s WALL (      15 calls)
     newd         :     47.78s CPU     71.93s WALL (      15 calls)
     mix_rho      :      4.36s CPU      4.57s WALL (      15 calls)

     Called by c_bands:
     init_us_2    :     39.18s CPU     39.47s WALL (     128 calls)
     cegterg      :   2456.93s CPU   2524.54s WALL (      60 calls)

     Called by *egterg:
     cdiaghg      :     25.60s CPU     25.61s WALL (     335 calls)
     h_psi        :   1676.19s CPU   1719.47s WALL (     343 calls)
     s_psi        :    241.70s CPU    241.73s WALL (     343 calls)
     g_psi        :      6.02s CPU      6.03s WALL (     279 calls)

     Called by h_psi:
     h_psi:calbec :    252.03s CPU    252.22s WALL (     343 calls)
     vloc_psi     :   1175.71s CPU   1206.92s WALL (     343 calls)
                                        0.00s GPU  (     343 calls)
     add_vuspsi   :    243.39s CPU    243.44s WALL (     343 calls)

     General routines
     calbec       :    370.12s CPU    370.42s WALL (     419 calls)
     fft          :     22.49s CPU     24.64s WALL (     205 calls)
     ffts         :      1.64s CPU      1.70s WALL (      30 calls)
     fftw         :   1148.57s CPU   1183.61s WALL (   75824 calls)
     interpolate  :      3.01s CPU      3.14s WALL (      15 calls)

     Parallel routines

     PWSCF        :  56m 4.95s CPU  58m21.27s WALL


   This run was terminated on:   5: 5:56   4Oct2026            

=------------------------------------------------------------------------------=
   JOB DONE.
=------------------------------------------------------------------------------=
