
     Program PWSCF v.7.5 starts on  5Oct2026 at  0:12:14 

     This program is part of the open-source Quantum ESPRESSO suite
     for quantum simulation of materials; please cite
         "P. Giannozzi et al., J. Phys.:Condens. Matter 21 395502 (2009);
         "P. Giannozzi et al., J. Phys.:Condens. Matter 29 465901 (2017);
         "P. Giannozzi et al., J. Chem. Phys. 152 154105 (2020);
          URL http://www.quantum-espresso.org", 
     in publications or presentations arising from this work. More details at
     http://www.quantum-espresso.org/quote

     Parallel version (MPI & OpenMP), running on       8 processor cores
     Number of MPI processes:                 8
     Threads/MPI process:                     1

     MPI processes distributed on     1 nodes
     103481 MiB available memory on the printing compute node when the environment starts

     Reading input from pw.in

     Current dimensions of program PWSCF are:
     Max number of different atomic species (ntypx) = 10
     Max number of k-points (npk) =  40000
     Max angular momentum in pseudopotentials (lmaxx) =  4
     file Ba.pbe-spn-kjpaw_psl.1.0.0.UPF: wavefunction(s)  5S 6S renormalized
     file O.pbe-n-kjpaw_psl.0.1.UPF: wavefunction(s)  2P renormalized

     K-points division:     npool     =       8
     Subspace diagonalization in iterative solution of the eigenvalue problem:
     a serial algorithm will be used


     G-vector sticks info
     --------------------
     sticks:   dense  smooth     PW     G-vecs:    dense   smooth      PW
     Sum        3713    1855    547               119949    42425    6649

     Using Slab Decomposition



     bravais-lattice index     =            0
     lattice parameter (alat)  =      15.2492  a.u.
     unit-cell volume          =     887.1631 (a.u.)^3
     number of atoms/cell      =           10
     number of atomic types    =            3
     number of electrons       =        80.00
     number of Kohn-Sham states=           48
     kinetic-energy cutoff     =      50.0000  Ry
     charge density cutoff     =     400.0000  Ry
     scf convergence threshold =      1.0E-09
     mixing beta               =       0.4000
     number of iterations used =            8  plain     mixing
     Exchange-correlation= SLA  PW   PBX  PBC
                           (   1   4   3   4   0   0   0)

     celldm(1)=  15.249185  celldm(2)=   0.000000  celldm(3)=   0.000000
     celldm(4)=   0.000000  celldm(5)=   0.000000  celldm(6)=   0.000000

     crystal axes: (cart. coord. in units of alat)
               a(1) = (  -1.000000   0.000002  -0.000000 )  
               a(2) = (  -0.000001   0.500131  -0.000000 )  
               a(3) = (  -0.000000   0.000000  -0.500241 )  

     reciprocal axes: (cart. coord. in units 2 pi/alat)
               b(1) = ( -1.000000 -0.000002  0.000000 )  
               b(2) = (  0.000004  1.999475  0.000001 )  
               b(3) = (  0.000000 -0.000001 -1.999035 )  


     PseudoPot. # 1 for Ba read from file:
     /root/sssp/Ba.pbe-spn-kjpaw_psl.1.0.0.UPF
     MD5 check sum: c432291d3e53af55f19d5e8866385beb
     Pseudo is Projector augmented-wave + core cor, Zval = 10.0
     Generated using "atomic" code by A. Dal Corso  v.5.1
     Shape of augmentation charge: PSQ
     Using radial grid of 1251 points,  7 beta functions with: 
                l(1) =   0
                l(2) =   0
                l(3) =   0
                l(4) =   1
                l(5) =   1
                l(6) =   2
                l(7) =   2
     Q(r) pseudized with 0 coefficients 


     PseudoPot. # 2 for Ti read from file:
     /root/sssp/ti_pbe_v1.4.uspp.F.UPF
     MD5 check sum: 88a00a6731bd790ddea75d31a80cb452
     Pseudo is Ultrasoft + core correction, Zval = 12.0
     Generated by new atomic code, or converted to UPF format
     Using radial grid of  851 points,  6 beta functions with: 
                l(1) =   0
                l(2) =   0
                l(3) =   1
                l(4) =   1
                l(5) =   2
                l(6) =   2
     Q(r) pseudized with  6 coefficients,  rinner =    1.000   1.000   1.000
                                                       1.000   1.000

     PseudoPot. # 3 for O  read from file:
     /root/sssp/O.pbe-n-kjpaw_psl.0.1.UPF
     MD5 check sum: 0234752ac141de4415c5fc33072bef88
     Pseudo is Projector augmented-wave + core cor, Zval =  6.0
     Generated using "atomic" code by A. Dal Corso  v.5.0.99 svn rev. 10869
     Shape of augmentation charge: BESSEL
     Using radial grid of 1095 points,  4 beta functions with: 
                l(1) =   0
                l(2) =   0
                l(3) =   1
                l(4) =   1
     Q(r) pseudized with 0 coefficients 


     atomic species   valence    mass     pseudopotential
     Ba               10.00   137.32700     Ba( 1.00)
     Ti               12.00    47.86700     Ti( 1.00)
     O                 6.00    15.99900     O ( 1.00)

     No symmetry found



   Cartesian axes

     site n.     atom                  positions (alat units)
         1        Ba     tau(   1) = (  -0.0000213   0.5001166  -0.5002411  )
         2        Ba     tau(   2) = (  -0.5000045   0.5001217  -0.5002415  )
         3        Ti     tau(   3) = (  -0.2501896   0.2390704  -0.2444706  )
         4        Ti     tau(   4) = (  -0.7498261   0.2610795  -0.2557636  )
         5        O      tau(   5) = (  -0.4999848   0.2500622  -0.2501294  )
         6        O      tau(   6) = (  -0.9999960   0.2500918  -0.2501252  )
         7        O      tau(   7) = (  -0.2499641   0.5004093  -0.2501014  )
         8        O      tau(   8) = (  -0.7500269   0.4998510  -0.2501411  )
         9        O      tau(   9) = (  -0.2499881   0.2500531  -0.0000970  )
        10        O      tau(  10) = (  -0.7500055   0.2500953   0.0000894  )

     number of k points=    99  Marzari-Vanderbilt smearing, width (Ry)=  0.0050
                       cart. coord. in units 2pi/alat
        k(    1) = (   0.0000000   0.0000000   0.0000000), wk =   0.0102041
        k(    2) = (   0.0000000  -0.0000001  -0.2855764), wk =   0.0204082
        k(    3) = (   0.0000001  -0.0000002  -0.5711529), wk =   0.0204082
        k(    4) = (   0.0000001  -0.0000003  -0.8567293), wk =   0.0204082
        k(    5) = (   0.0000006   0.2856393   0.0000001), wk =   0.0204082
        k(    6) = (   0.0000006   0.2856392  -0.2855763), wk =   0.0204082
        k(    7) = (   0.0000006   0.2856391  -0.5711528), wk =   0.0204082
        k(    8) = (   0.0000007   0.2856390  -0.8567292), wk =   0.0204082
        k(    9) = (   0.0000011   0.5712786   0.0000002), wk =   0.0204082
        k(   10) = (   0.0000011   0.5712785  -0.2855762), wk =   0.0204082
        k(   11) = (   0.0000012   0.5712784  -0.5711527), wk =   0.0204082
        k(   12) = (   0.0000012   0.5712783  -0.8567291), wk =   0.0204082
        k(   13) = (   0.0000017   0.8569180   0.0000003), wk =   0.0204082
        k(   14) = (   0.0000017   0.8569179  -0.2855761), wk =   0.0204082
        k(   15) = (   0.0000017   0.8569178  -0.5711526), wk =   0.0204082
        k(   16) = (   0.0000018   0.8569177  -0.8567290), wk =   0.0204082
        k(   17) = (  -0.2500000  -0.0000005   0.0000000), wk =   0.0204082
        k(   18) = (  -0.2500000  -0.0000006  -0.2855764), wk =   0.0204082
        k(   19) = (  -0.2499999  -0.0000007  -0.5711528), wk =   0.0204082
        k(   20) = (  -0.2499999  -0.0000008  -0.8567293), wk =   0.0204082
        k(   21) = (  -0.2499994   0.2856388   0.0000001), wk =   0.0204082
        k(   22) = (  -0.2499994   0.2856387  -0.2855763), wk =   0.0204082
        k(   23) = (  -0.2499994   0.2856386  -0.5711527), wk =   0.0204082
        k(   24) = (  -0.2499993   0.2856385  -0.8567292), wk =   0.0204082
        k(   25) = (  -0.2499989   0.5712782   0.0000002), wk =   0.0204082
        k(   26) = (  -0.2499989   0.5712781  -0.2855762), wk =   0.0204082
        k(   27) = (  -0.2499988   0.5712780  -0.5711526), wk =   0.0204082
        k(   28) = (  -0.2499988   0.5712779  -0.8567291), wk =   0.0204082
        k(   29) = (  -0.2499983   0.8569175   0.0000003), wk =   0.0204082
        k(   30) = (  -0.2499983   0.8569174  -0.2855761), wk =   0.0204082
        k(   31) = (  -0.2499983   0.8569173  -0.5711525), wk =   0.0204082
        k(   32) = (  -0.2499982   0.8569172  -0.8567290), wk =   0.0204082
        k(   33) = (  -0.2500017  -0.8569185  -0.0000003), wk =   0.0204082
        k(   34) = (  -0.2500016  -0.8569186  -0.2855767), wk =   0.0204082
        k(   35) = (  -0.2500016  -0.8569187  -0.5711531), wk =   0.0204082
        k(   36) = (  -0.2500015  -0.8569188  -0.8567296), wk =   0.0204082
        k(   37) = (  -0.2500011  -0.5712791  -0.0000002), wk =   0.0204082
        k(   38) = (  -0.2500011  -0.5712792  -0.2855766), wk =   0.0204082
        k(   39) = (  -0.2500010  -0.5712793  -0.5711530), wk =   0.0204082
        k(   40) = (  -0.2500010  -0.5712794  -0.8567295), wk =   0.0204082
        k(   41) = (  -0.2500006  -0.2856398  -0.0000001), wk =   0.0204082
        k(   42) = (  -0.2500005  -0.2856399  -0.2855765), wk =   0.0204082
        k(   43) = (  -0.2500005  -0.2856400  -0.5711529), wk =   0.0204082
        k(   44) = (  -0.2500004  -0.2856401  -0.8567294), wk =   0.0204082
        k(   45) = (   0.5000000   0.0000010  -0.0000001), wk =   0.0102041
        k(   46) = (   0.5000000   0.0000009  -0.2855765), wk =   0.0204082
        k(   47) = (   0.5000001   0.0000008  -0.5711529), wk =   0.0204082
        k(   48) = (   0.5000001   0.0000007  -0.8567294), wk =   0.0204082
        k(   49) = (   0.5000006   0.2856403   0.0000000), wk =   0.0204082
        k(   50) = (   0.5000006   0.2856402  -0.2855764), wk =   0.0204082
        k(   51) = (   0.5000006   0.2856401  -0.5711528), wk =   0.0204082
        k(   52) = (   0.5000007   0.2856400  -0.8567293), wk =   0.0204082
        k(   53) = (   0.5000011   0.5712796   0.0000001), wk =   0.0204082
        k(   54) = (   0.5000011   0.5712795  -0.2855763), wk =   0.0204082
        k(   55) = (   0.5000012   0.5712794  -0.5711527), wk =   0.0204082
        k(   56) = (   0.5000012   0.5712793  -0.8567292), wk =   0.0204082
        k(   57) = (   0.5000017   0.8569189   0.0000002), wk =   0.0204082
        k(   58) = (   0.5000017   0.8569188  -0.2855762), wk =   0.0204082
        k(   59) = (   0.5000017   0.8569187  -0.5711526), wk =   0.0204082
        k(   60) = (   0.5000018   0.8569186  -0.8567291), wk =   0.0204082
        k(   61) = (  -0.0000005  -0.2856394  -0.2855765), wk =   0.0204082
        k(   62) = (  -0.0000005  -0.2856395  -0.5711530), wk =   0.0204082
        k(   63) = (  -0.0000004  -0.2856396  -0.8567294), wk =   0.0204082
        k(   64) = (  -0.0000011  -0.5712788  -0.2855766), wk =   0.0204082
        k(   65) = (  -0.0000010  -0.5712789  -0.5711531), wk =   0.0204082
        k(   66) = (  -0.0000010  -0.5712790  -0.8567295), wk =   0.0204082
        k(   67) = (  -0.0000016  -0.8569181  -0.2855767), wk =   0.0204082
        k(   68) = (  -0.0000016  -0.8569182  -0.5711532), wk =   0.0204082
        k(   69) = (  -0.0000015  -0.8569183  -0.8567296), wk =   0.0204082
        k(   70) = (   0.2500000   0.0000004  -0.2855765), wk =   0.0204082
        k(   71) = (   0.2500001   0.0000003  -0.5711529), wk =   0.0204082
        k(   72) = (   0.2500001   0.0000002  -0.8567293), wk =   0.0204082
        k(   73) = (   0.2499995  -0.2856389  -0.2855766), wk =   0.0204082
        k(   74) = (   0.2499995  -0.2856390  -0.5711530), wk =   0.0204082
        k(   75) = (   0.2499996  -0.2856391  -0.8567294), wk =   0.0204082
        k(   76) = (   0.2499989  -0.5712783  -0.2855767), wk =   0.0204082
        k(   77) = (   0.2499990  -0.5712784  -0.5711531), wk =   0.0204082
        k(   78) = (   0.2499990  -0.5712785  -0.8567295), wk =   0.0204082
        k(   79) = (   0.2499984  -0.8569176  -0.2855768), wk =   0.0204082
        k(   80) = (   0.2499984  -0.8569177  -0.5711532), wk =   0.0204082
        k(   81) = (   0.2499985  -0.8569178  -0.8567296), wk =   0.0204082
        k(   82) = (   0.2500017   0.8569184  -0.2855762), wk =   0.0204082
        k(   83) = (   0.2500017   0.8569183  -0.5711526), wk =   0.0204082
        k(   84) = (   0.2500018   0.8569182  -0.8567290), wk =   0.0204082
        k(   85) = (   0.2500011   0.5712790  -0.2855763), wk =   0.0204082
        k(   86) = (   0.2500012   0.5712789  -0.5711527), wk =   0.0204082
        k(   87) = (   0.2500012   0.5712788  -0.8567291), wk =   0.0204082
        k(   88) = (   0.2500006   0.2856397  -0.2855764), wk =   0.0204082
        k(   89) = (   0.2500006   0.2856396  -0.5711528), wk =   0.0204082
        k(   90) = (   0.2500007   0.2856395  -0.8567292), wk =   0.0204082
        k(   91) = (  -0.5000005  -0.2856404  -0.2855765), wk =   0.0204082
        k(   92) = (  -0.5000005  -0.2856405  -0.5711529), wk =   0.0204082
        k(   93) = (  -0.5000004  -0.2856406  -0.8567293), wk =   0.0204082
        k(   94) = (  -0.5000011  -0.5712797  -0.2855766), wk =   0.0204082
        k(   95) = (  -0.5000010  -0.5712798  -0.5711530), wk =   0.0204082
        k(   96) = (  -0.5000010  -0.5712799  -0.8567294), wk =   0.0204082
        k(   97) = (  -0.5000016  -0.8569190  -0.2855767), wk =   0.0204082
        k(   98) = (  -0.5000016  -0.8569191  -0.5711531), wk =   0.0204082
        k(   99) = (  -0.5000015  -0.8569192  -0.8567295), wk =   0.0204082

     Dense  grid:   119949 G-vectors     FFT dimensions: ( 100,  50,  50)

     Smooth grid:    42425 G-vectors     FFT dimensions: (  72,  36,  36)

     Estimated max dynamical RAM per process >     195.87 MB

     Estimated total dynamical RAM >       1.33 GB

     Check: negative core charge=   -0.000004

     Initial potential from superposition of free atoms

     starting charge      77.9659, renormalised to      80.0000

     negative rho (up, down):  2.378E-03 0.000E+00
     Starting wfcs are   54 randomized atomic wfcs
     Checking if some PAW data can be deallocated... 

     total cpu time spent up to now is       20.4 secs

     per-process dynamical memory:   136.4 Mb

     Self-consistent Calculation

     iteration #  1     ecut=    50.00 Ry     beta= 0.40
     Davidson diagonalization with overlap
     ethr =  1.00E-02,  avg # of iterations =  2.0

     negative rho (up, down):  8.185E-03 0.000E+00

     total cpu time spent up to now is       57.9 secs

     total energy              =   -1361.63044015 Ry
     estimated scf accuracy    <       1.88760740 Ry

     iteration #  2     ecut=    50.00 Ry     beta= 0.40
     Davidson diagonalization with overlap
     ethr =  2.36E-03,  avg # of iterations =  4.0

     negative rho (up, down):  1.482E-02 0.000E+00

     total cpu time spent up to now is      102.2 secs

     total energy              =   -1361.71538680 Ry
     estimated scf accuracy    <       2.91361226 Ry

     iteration #  3     ecut=    50.00 Ry     beta= 0.40
     Davidson diagonalization with overlap
     ethr =  2.36E-03,  avg # of iterations =  3.5

     negative rho (up, down):  3.527E-02 0.000E+00

     total cpu time spent up to now is      136.3 secs

     total energy              =   -1362.25398155 Ry
     estimated scf accuracy    <       0.16074119 Ry

     iteration #  4     ecut=    50.00 Ry     beta= 0.40
     Davidson diagonalization with overlap
     ethr =  2.01E-04,  avg # of iterations =  2.9

     negative rho (up, down):  4.029E-02 0.000E+00

     total cpu time spent up to now is      172.1 secs

     total energy              =   -1362.25529496 Ry
     estimated scf accuracy    <       0.03695947 Ry

     iteration #  5     ecut=    50.00 Ry     beta= 0.40
     Davidson diagonalization with overlap
     ethr =  4.62E-05,  avg # of iterations =  3.9

     negative rho (up, down):  3.736E-02 0.000E+00

     total cpu time spent up to now is      210.6 secs

     total energy              =   -1362.26318445 Ry
     estimated scf accuracy    <       0.01065066 Ry

     iteration #  6     ecut=    50.00 Ry     beta= 0.40
     Davidson diagonalization with overlap
     ethr =  1.33E-05,  avg # of iterations =  1.6

     negative rho (up, down):  6.235E-02 0.000E+00

     total cpu time spent up to now is      240.4 secs

     total energy              =   -1362.26406834 Ry
     estimated scf accuracy    <       0.01511055 Ry

     iteration #  7     ecut=    50.00 Ry     beta= 0.40
     Davidson diagonalization with overlap
     ethr =  1.33E-05,  avg # of iterations =  1.6

     negative rho (up, down):  1.129E-01 0.000E+00

     total cpu time spent up to now is      273.9 secs

     total energy              =   -1362.26375237 Ry
     estimated scf accuracy    <       0.04221002 Ry

     iteration #  8     ecut=    50.00 Ry     beta= 0.40
     Davidson diagonalization with overlap
     ethr =  1.33E-05,  avg # of iterations =  1.0

     negative rho (up, down):  4.676E-01 0.000E+00

     total cpu time spent up to now is      302.0 secs

     total energy              =   -1362.26765850 Ry
     estimated scf accuracy    <       0.07695286 Ry

     iteration #  9     ecut=    50.00 Ry     beta= 0.40
     Davidson diagonalization with overlap
     ethr =  1.33E-05,  avg # of iterations =  4.2

     negative rho (up, down):  8.727E-01 0.000E+00

     total cpu time spent up to now is      343.2 secs

     total energy              =   -1362.28101276 Ry
     estimated scf accuracy    <       0.59952460 Ry

     iteration # 10     ecut=    50.00 Ry     beta= 0.40
     Davidson diagonalization with overlap
     ethr =  1.33E-05,  avg # of iterations =  4.1

     negative rho (up, down):  7.487E-01 0.000E+00

     total cpu time spent up to now is      388.0 secs

     total energy              =   -1362.26004633 Ry
     estimated scf accuracy    <       1.80874840 Ry

     iteration # 11     ecut=    50.00 Ry     beta= 0.40
     Davidson diagonalization with overlap
     ethr =  1.33E-05,  avg # of iterations =  4.8

     negative rho (up, down):  9.762E-02 0.000E+00

     total cpu time spent up to now is      433.0 secs

     total energy              =   -1362.26230403 Ry
     estimated scf accuracy    <       0.80384836 Ry

     iteration # 12     ecut=    50.00 Ry     beta= 0.40
     Davidson diagonalization with overlap
     ethr =  1.33E-05,  avg # of iterations =  3.0

     negative rho (up, down):  6.917E-03 0.000E+00

     total cpu time spent up to now is      470.6 secs

     total energy              =   -1362.26326356 Ry
     estimated scf accuracy    <       0.08969474 Ry

     iteration # 13     ecut=    50.00 Ry     beta= 0.40
     Davidson diagonalization with overlap
     ethr =  1.33E-05,  avg # of iterations =  2.0

     negative rho (up, down):  2.281E-03 0.000E+00

     total cpu time spent up to now is      505.7 secs

     total energy              =   -1362.26428945 Ry
     estimated scf accuracy    <       0.04145919 Ry

     iteration # 14     ecut=    50.00 Ry     beta= 0.40
     Davidson diagonalization with overlap
     ethr =  1.33E-05,  avg # of iterations =  2.0

     negative rho (up, down):  2.280E-03 0.000E+00

     total cpu time spent up to now is      542.2 secs

     total energy              =   -1362.26465006 Ry
     estimated scf accuracy    <       0.00037549 Ry

     iteration # 15     ecut=    50.00 Ry     beta= 0.40
     Davidson diagonalization with overlap
     ethr =  4.69E-07,  avg # of iterations =  2.3

     negative rho (up, down):  2.278E-03 0.000E+00

     total cpu time spent up to now is      578.5 secs

     total energy              =   -1362.26466970 Ry
     estimated scf accuracy    <       0.00146755 Ry

     iteration # 16     ecut=    50.00 Ry     beta= 0.40
     Davidson diagonalization with overlap
     ethr =  4.69E-07,  avg # of iterations =  1.3

     negative rho (up, down):  2.278E-03 0.000E+00

     total cpu time spent up to now is      609.9 secs

     total energy              =   -1362.26466483 Ry
     estimated scf accuracy    <       0.00084178 Ry

     iteration # 17     ecut=    50.00 Ry     beta= 0.40
     Davidson diagonalization with overlap
     ethr =  4.69E-07,  avg # of iterations =  1.0

     negative rho (up, down):  2.277E-03 0.000E+00

     total cpu time spent up to now is      638.0 secs

     total energy              =   -1362.26466404 Ry
     estimated scf accuracy    <       0.00044311 Ry

     iteration # 18     ecut=    50.00 Ry     beta= 0.40
     Davidson diagonalization with overlap
     ethr =  4.69E-07,  avg # of iterations =  1.0

     negative rho (up, down):  2.276E-03 0.000E+00

     total cpu time spent up to now is      664.6 secs

     total energy              =   -1362.26465885 Ry
     estimated scf accuracy    <       0.00041786 Ry

     iteration # 19     ecut=    50.00 Ry     beta= 0.40
     Davidson diagonalization with overlap
     ethr =  4.69E-07,  avg # of iterations =  1.0

     negative rho (up, down):  2.277E-03 0.000E+00

     total cpu time spent up to now is      691.0 secs

     total energy              =   -1362.26466354 Ry
     estimated scf accuracy    <       0.00003945 Ry

     iteration # 20     ecut=    50.00 Ry     beta= 0.40
     Davidson diagonalization with overlap
     ethr =  4.93E-08,  avg # of iterations =  2.0

     negative rho (up, down):  2.277E-03 0.000E+00

     total cpu time spent up to now is      726.5 secs

     total energy              =   -1362.26466584 Ry
     estimated scf accuracy    <       0.00002498 Ry

     iteration # 21     ecut=    50.00 Ry     beta= 0.40
     Davidson diagonalization with overlap
     ethr =  3.12E-08,  avg # of iterations =  1.0

     negative rho (up, down):  2.277E-03 0.000E+00

     total cpu time spent up to now is      755.1 secs

     total energy              =   -1362.26466611 Ry
     estimated scf accuracy    <       0.00000367 Ry

     iteration # 22     ecut=    50.00 Ry     beta= 0.40
     Davidson diagonalization with overlap
     ethr =  4.59E-09,  avg # of iterations =  1.0

     negative rho (up, down):  2.277E-03 0.000E+00

     total cpu time spent up to now is      780.7 secs

     total energy              =   -1362.26466615 Ry
     estimated scf accuracy    <       0.00000010 Ry

     iteration # 23     ecut=    50.00 Ry     beta= 0.40
     Davidson diagonalization with overlap
     ethr =  1.20E-10,  avg # of iterations =  2.4

     negative rho (up, down):  2.277E-03 0.000E+00

     total cpu time spent up to now is      808.4 secs

     total energy              =   -1362.26466616 Ry
     estimated scf accuracy    <       0.00000007 Ry

     iteration # 24     ecut=    50.00 Ry     beta= 0.40
     Davidson diagonalization with overlap
     ethr =  8.98E-11,  avg # of iterations =  1.8

     negative rho (up, down):  2.277E-03 0.000E+00

     total cpu time spent up to now is      824.0 secs

     total energy              =   -1362.26466617 Ry
     estimated scf accuracy    <       0.00000002 Ry

     iteration # 25     ecut=    50.00 Ry     beta= 0.40
     Davidson diagonalization with overlap
     ethr =  2.45E-11,  avg # of iterations =  2.0

     negative rho (up, down):  2.277E-03 0.000E+00

     total cpu time spent up to now is      847.1 secs

     total energy              =   -1362.26466617 Ry
     estimated scf accuracy    <       0.00000002 Ry

     iteration # 26     ecut=    50.00 Ry     beta= 0.40
     Davidson diagonalization with overlap
     ethr =  2.45E-11,  avg # of iterations =  2.2

     negative rho (up, down):  2.277E-03 0.000E+00

     total cpu time spent up to now is      873.5 secs

     total energy              =   -1362.26466617 Ry
     estimated scf accuracy    <          9.5E-09 Ry

     iteration # 27     ecut=    50.00 Ry     beta= 0.40
     Davidson diagonalization with overlap
     ethr =  1.19E-11,  avg # of iterations =  3.4

     negative rho (up, down):  2.277E-03 0.000E+00

     total cpu time spent up to now is      903.1 secs

     total energy              =   -1362.26466617 Ry
     estimated scf accuracy    <          9.5E-09 Ry

     iteration # 28     ecut=    50.00 Ry     beta= 0.40
     Davidson diagonalization with overlap
     ethr =  1.19E-11,  avg # of iterations =  1.3

     negative rho (up, down):  2.277E-03 0.000E+00

     total cpu time spent up to now is      928.9 secs

     End of self-consistent calculation

          k = 0.0000 0.0000 0.0000 (  5267 PWs)   bands (ev):

   -46.5911 -46.5902 -22.8471 -22.8182 -22.8166 -22.8052 -22.8035 -22.8014
   -14.8010 -14.6957  -6.9836  -6.7838  -6.1251  -6.0864  -6.0781  -5.8195
     0.0242   0.0289   0.0367   0.1873   0.1971   0.3977   6.1588   7.3129
     7.3327   7.7385   7.7409   7.7431   8.0717   8.1756   8.2437   8.2810
     8.9111   8.9560   8.9792   9.1826   9.2530   9.7991   9.8082   9.8386
    11.8102  11.8645  11.9645  12.1103  13.4752  13.5241  13.8476  13.9457

          k = 0.0000-0.0000-0.2856 (  5307 PWs)   bands (ev):

   -46.5909 -46.5901 -22.8466 -22.8180 -22.8164 -22.8138 -22.8119 -22.8010
   -14.7818 -14.6831  -6.8975  -6.7935  -6.1126  -6.0710  -6.0698  -5.8593
     0.0516   0.0633   0.0998   0.1444   0.2303   0.3147   6.1230   7.2309
     7.3117   7.3413   7.4345   7.6918   7.6954   8.0931   8.2881   8.6875
     8.7313   8.7397   9.0128   9.0218   9.0866   9.4102   9.6954   9.7134
    11.8877  12.1916  12.2615  12.3609  13.5011  13.5255  13.8771  14.2956

          k = 0.0000-0.0000-0.5712 (  5323 PWs)   bands (ev):

   -46.5905 -46.5897 -22.8454 -22.8336 -22.8312 -22.8170 -22.8154 -22.8003
   -14.7380 -14.6543  -6.8687  -6.6881  -6.0899  -6.0459  -5.9812  -5.9496
     0.0518   0.1065   0.1220   0.1566   0.2586   0.3074   6.0386   6.5909
     6.7469   6.7533   7.3853   7.5255   7.5490   7.7627   8.3677   8.4098
     8.4273   8.5842   8.7024   8.7488   8.9156   9.4512   9.4975   9.6841
    11.9501  12.8940  12.9150  12.9557  13.5294  13.6409  13.8786  14.6225

          k = 0.0000-0.0000-0.8567 (  5310 PWs)   bands (ev):

   -46.5902 -46.5894 -22.8491 -22.8463 -22.8444 -22.8165 -22.8149 -22.7997
   -14.7022 -14.6309  -6.9616  -6.4918  -6.0795  -6.0482  -6.0225  -5.8579
    -0.0054  -0.0022   0.1740   0.1877   0.3719   0.3820   5.8785   6.1893
     6.2313   6.3552   7.3369   7.3473   7.4586   7.5219   8.1439   8.2260
     8.2539   8.2748   8.3911   9.0185   9.0696   9.2933   9.3405   9.9494
    12.0016  13.3926  13.4150  13.4268  13.5331  13.8364  13.8714  14.6982

          k = 0.0000 0.2856 0.0000 (  5307 PWs)   bands (ev):

   -46.5909 -46.5901 -22.8466 -22.8270 -22.8252 -22.8049 -22.8032 -22.8010
   -14.7818 -14.6831  -6.8926  -6.7832  -6.1199  -6.0747  -6.0721  -5.8593
     0.0497   0.0570   0.1067   0.1562   0.2206   0.3139   6.1245   7.2293
     7.2677   7.3186   7.4216   7.6924   7.6994   8.1128   8.3664   8.6749
     8.6794   8.8010   8.9950   9.0161   9.0803   9.3803   9.7022   9.7171
    11.8406  12.2272  12.2959  12.4003  13.4761  13.5484  13.8616  14.2747

          k = 0.0000 0.2856-0.2856 (  5292 PWs)   bands (ev):

   -46.5907 -46.5899 -22.8461 -22.8267 -22.8249 -22.8135 -22.8116 -22.8007
   -14.7638 -14.6707  -6.8065  -6.7722  -6.1192  -6.0623  -6.0562  -5.8853
     0.0179   0.0327   0.0831   0.1834   0.2342   0.2816   6.0962   7.1135
     7.1853   7.2667   7.3164   7.5262   7.6601   7.7376   8.2710   8.4917
     8.5367   8.9679   9.0114   9.0258   9.0547   9.1271   9.5474   9.5608
    12.1655  12.2891  12.4853  12.6191  13.5193  13.5670  14.1073  14.6927

          k = 0.0000 0.2856-0.5712 (  5303 PWs)   bands (ev):

   -46.5904 -46.5895 -22.8449 -22.8332 -22.8309 -22.8256 -22.8239 -22.8000
   -14.7227 -14.6426  -6.8050  -6.5972  -6.0913  -6.0244  -5.9991  -5.9460
    -0.1007   0.0217   0.0695   0.1457   0.2598   0.2911   6.0310   6.6760
     6.7072   6.7707   7.3266   7.3423   7.5274   7.6611   7.7589   8.1253
     8.2304   8.6411   8.9610   9.0172   9.0313   9.2720   9.3911   9.6680
    12.2827  12.9076  12.9903  13.1228  13.6027  13.6792  14.1963  15.1750

          k = 0.0000 0.2856-0.8567 (  5300 PWs)   bands (ev):

   -46.5901 -46.5892 -22.8486 -22.8459 -22.8440 -22.8251 -22.8234 -22.7994
   -14.6892 -14.6198  -6.8731  -6.4010  -6.0691  -6.0202  -5.9972  -5.8956
    -0.1332  -0.1194   0.1360   0.1598   0.2249   0.3159   5.8822   6.1944
     6.3606   6.4844   7.2358   7.2879   7.3513   7.5446   7.5602   7.8401
     8.1106   8.4315   8.9772   9.0487   9.1292   9.1988   9.2081   9.9595
    12.3259  13.3951  13.4413  13.5373  13.6300  13.8796  14.2035  15.2695

          k = 0.0000 0.5713 0.0000 (  5327 PWs)   bands (ev):

   -46.5905 -46.5897 -22.8467 -22.8454 -22.8444 -22.8042 -22.8025 -22.8003
   -14.7380 -14.6543  -6.8444  -6.6674  -6.0639  -6.0587  -6.0334  -5.9495
     0.0535   0.1126   0.1292   0.1409   0.2681   0.2980   6.0415   6.5520
     6.7112   6.7246   7.3331   7.5420   7.5535   7.7749   8.3285   8.3625
     8.4688   8.6152   8.7049   8.7915   8.9537   9.4918   9.5061   9.6564
    11.9042  12.9197  12.9573  13.0040  13.4789  13.6828  13.8652  14.5989

          k = 0.0000 0.5713-0.2856 (  5306 PWs)   bands (ev):

   -46.5904 -46.5895 -22.8463 -22.8449 -22.8440 -22.8127 -22.8109 -22.8000
   -14.7228 -14.6426  -6.7865  -6.5812  -6.0729  -6.0374  -6.0347  -5.9460
    -0.0975   0.0251   0.0614   0.1476   0.2554   0.2947   6.0330   6.6508
     6.6776   6.7377   7.2963   7.3415   7.5402   7.6815   7.7667   8.1384
     8.1872   8.6473   8.9635   9.0487   9.1065   9.2839   9.3880   9.6349
    12.2476  12.9329  13.0103  13.1377  13.5562  13.7194  14.1941  15.1636

          k = 0.0000 0.5713-0.5712 (  5288 PWs)   bands (ev):

   -46.5900 -46.5892 -22.8453 -22.8439 -22.8432 -22.8319 -22.8298 -22.7993
   -14.6880 -14.6161  -6.6870  -6.3749  -6.1006  -6.0010  -5.9850  -5.9401
    -0.3278  -0.2017   0.0122   0.0359   0.2299   0.2622   5.9999   6.4419
     6.7314   6.8606   6.8991   6.9209   7.0990   7.5111   7.6143   7.7503
     7.8767   8.6072   8.9163   9.0906   9.2614   9.5404   9.5690   9.7017
    12.8615  13.0041  13.2677  13.4804  13.7613  13.8004  14.4754  16.0902

          k = 0.0000 0.5713-0.8567 (  5278 PWs)   bands (ev):

   -46.5897 -46.5889 -22.8476 -22.8453 -22.8441 -22.8431 -22.8422 -22.7987
   -14.6597 -14.5946  -6.6575  -6.1866  -6.0658  -5.9723  -5.9569  -5.9378
    -0.4046  -0.3752  -0.2172   0.0439   0.1663   0.2880   5.8583   6.1049
     6.3706   6.5994   6.7514   6.8647   7.0915   7.3860   7.6045   7.6260
     7.7650   8.6758   8.7608   9.0379   9.5272   9.5804   9.6350   9.9845
    12.9600  13.4016  13.5921  13.7944  13.8647  13.9770  14.5406  16.3068

          k = 0.0000 0.8569 0.0000 (  5310 PWs)   bands (ev):

   -46.5902 -46.5894 -22.8624 -22.8597 -22.8444 -22.8036 -22.8019 -22.7997
   -14.7023 -14.6309  -6.9334  -6.4419  -6.0919  -6.0509  -6.0209  -5.9127
    -0.0029   0.0012   0.1765   0.1778   0.3628   0.3917   5.8685   6.1521
     6.1888   6.3148   7.2849   7.3668   7.4647   7.5210   8.1208   8.2022
     8.2096   8.2610   8.4349   9.1129   9.1252   9.3508   9.3685   9.9141
    11.9563  13.4178  13.4437  13.4578  13.4817  13.8659  13.8712  14.6860

          k = 0.0000 0.8569-0.2856 (  5300 PWs)   bands (ev):

   -46.5901 -46.5892 -22.8619 -22.8593 -22.8440 -22.8121 -22.8104 -22.7994
   -14.6893 -14.6198  -6.8474  -6.3536  -6.0625  -6.0385  -5.9964  -5.9496
    -0.1264  -0.1204   0.1264   0.1611   0.2172   0.3250   5.8724   6.1539
     6.3198   6.4473   7.2157   7.2722   7.3829   7.5275   7.5713   7.8798
     8.0420   8.4402   8.9818   9.1110   9.1514   9.2403   9.2594   9.9232
    12.2904  13.4185  13.4570  13.5430  13.5844  13.9129  14.2063  15.2619

          k = 0.0000 0.8569-0.5712 (  5278 PWs)   bands (ev):

   -46.5897 -46.5889 -22.8607 -22.8584 -22.8431 -22.8311 -22.8292 -22.7987
   -14.6597 -14.5946  -6.6406  -6.1498  -6.0516  -6.0022  -5.9910  -5.9377
    -0.4000  -0.3760  -0.2211   0.0371   0.1730   0.2874   5.8497   6.0718
     6.3296   6.5807   6.7620   6.9321   7.0551   7.4299   7.6130   7.6319
     7.7035   8.6977   8.7660   9.0400   9.5533   9.6254   9.6302   9.9480
    12.9339  13.4248  13.5957  13.7927  13.8284  14.0076  14.5420  16.3039

          k = 0.0000 0.8569-0.8567 (  5286 PWs)   bands (ev):

   -46.5894 -46.5886 -22.8598 -22.8577 -22.8463 -22.8442 -22.8423 -22.7981
   -14.6357 -14.5742  -6.4555  -6.0922  -6.0294  -5.9917  -5.9156  -5.8886
    -0.5835  -0.5730  -0.5198  -0.0055   0.0395   0.3517   5.7198   5.9164
     6.2004   6.3464   6.3759   6.3997   7.4233   7.4894   7.5204   7.6280
     7.6403   8.4207   9.0625   9.1746   9.8703   9.8860   9.9395  10.0075
    13.3890  13.4409  13.8055  14.0346  14.0552  14.0865  14.6311  16.6586

          k =-0.2500-0.0000 0.0000 (  5290 PWs)   bands (ev):

   -46.5909 -46.5903 -22.8405 -22.8180 -22.8169 -22.8081 -22.8049 -22.8037
   -14.7861 -14.7112  -6.9399  -6.7917  -6.1179  -6.0910  -6.0692  -5.8783
     0.0502   0.0581   0.0760   0.1642   0.1764   0.3456   6.3813   7.3907
     7.4040   7.5203   7.7025   7.7069   8.2118   8.2888   8.3059   8.3222
     8.7599   8.8215   8.8304   9.2541   9.3192   9.4612   9.6729   9.6981
    11.9850  12.0879  12.1138  12.1616  13.2639  13.3076  13.9467  13.9597

          k =-0.2500-0.0000-0.2856 (  5297 PWs)   bands (ev):

   -46.5908 -46.5902 -22.8400 -22.8178 -22.8167 -22.8135 -22.8121 -22.8077
   -14.7678 -14.6976  -6.8642  -6.7855  -6.1006  -6.0767  -6.0731  -5.9137
     0.0215   0.0815   0.1079   0.1713   0.2120   0.3128   6.3341   7.2325
     7.2957   7.4156   7.5109   7.5764   7.6716   8.1202   8.3410   8.3958
     8.6088   8.8588   8.9184   9.0587   9.2171   9.2421   9.5928   9.5997
    12.1595  12.2935  12.3409  12.3678  13.2977  13.3143  14.1393  14.2930

          k =-0.2500-0.0000-0.5712 (  5313 PWs)   bands (ev):

   -46.5904 -46.5898 -22.8389 -22.8332 -22.8315 -22.8168 -22.8157 -22.8069
   -14.7262 -14.6665  -6.8262  -6.6938  -6.0781  -6.0542  -6.0029  -5.9756
     0.0134   0.0640   0.1497   0.2085   0.2703   0.2946   6.2141   6.6803
     6.7417   6.8371   7.3534   7.4717   7.5483   7.7823   7.8980   8.2510
     8.4880   8.6100   8.7993   8.9237   8.9559   9.3463   9.3783   9.6711
    12.2220  12.9225  12.9398  12.9487  13.3278  13.4804  14.1626  14.5983

          k =-0.2500-0.0000-0.8567 (  5302 PWs)   bands (ev):

   -46.5901 -46.5895 -22.8487 -22.8467 -22.8379 -22.8162 -22.8152 -22.8062
   -14.6922 -14.6412  -6.8980  -6.5663  -6.0682  -6.0405  -6.0059  -5.8879
    -0.0066   0.0703   0.1361   0.2134   0.3291   0.3454   5.9924   6.1946
     6.3605   6.4788   7.2621   7.3752   7.4601   7.4976   7.5806   8.1208
     8.3077   8.4895   8.8596   8.9320   9.0196   9.1200   9.1687   9.8650
    12.2648  13.3249  13.4121  13.4180  13.4301  13.7260  14.1513  14.6650

          k =-0.2500 0.2856 0.0000 (  5297 PWs)   bands (ev):

   -46.5908 -46.5902 -22.8400 -22.8267 -22.8255 -22.8077 -22.8046 -22.8034
   -14.7678 -14.6976  -6.8583  -6.7753  -6.1190  -6.0827  -6.0645  -5.9122
     0.0234   0.0786   0.1091   0.1817   0.2000   0.3139   6.3359   7.2133
     7.3025   7.4003   7.4777   7.5622   7.6665   8.1437   8.3428   8.4442
     8.5690   8.8858   8.9747   9.0729   9.1794   9.2338   9.5621   9.5884
    12.1251  12.3196  12.3817  12.4033  13.2688  13.3402  14.1188  14.2734

          k =-0.2500 0.2856-0.2856 (  5300 PWs)   bands (ev):

   -46.5906 -46.5900 -22.8395 -22.8264 -22.8252 -22.8133 -22.8119 -22.8073
   -14.7506 -14.6843  -6.7813  -6.7534  -6.1110  -6.0647  -6.0638  -5.9365
     0.0170   0.0257   0.0363   0.1113   0.2902   0.3609   6.2937   7.0697
     7.1163   7.3525   7.4608   7.5073   7.5556   7.7828   8.2291   8.2485
     8.4565   8.7923   9.0296   9.0993   9.1418   9.1829   9.4776   9.4899
    12.3663  12.4498  12.5119  12.6015  13.3198  13.3645  14.5462  14.7134

          k =-0.2500 0.2856-0.5712 (  5304 PWs)   bands (ev):

   -46.5903 -46.5897 -22.8385 -22.8328 -22.8312 -22.8253 -22.8241 -22.8066
   -14.7115 -14.6543  -6.7592  -6.6073  -6.0764  -6.0344  -6.0152  -5.9769
    -0.0822  -0.0129   0.0337   0.0572   0.3269   0.3697   6.1980   6.6130
     6.7368   6.8995   7.2329   7.3849   7.4696   7.6950   7.8077   7.9402
     8.0810   8.5212   8.9653   9.0801   9.1671   9.2501   9.3266   9.6448
    12.4810  12.9685  13.0155  13.1040  13.4109  13.5213  14.5784  15.1633

          k =-0.2500 0.2856-0.8567 (  5305 PWs)   bands (ev):

   -46.5900 -46.5894 -22.8482 -22.8463 -22.8375 -22.8248 -22.8237 -22.8059
   -14.6795 -14.6298  -6.8090  -6.4758  -6.0552  -6.0160  -5.9891  -5.9157
    -0.1248  -0.0757   0.0344   0.1829   0.2304   0.3239   5.9966   6.1685
     6.4804   6.5758   7.1206   7.2990   7.3507   7.4500   7.6020   7.7919
     7.9771   8.6192   8.9739   9.0450   9.0541   9.0879   9.2001   9.8645
    12.5272  13.4288  13.4384  13.4576  13.5274  13.7682  14.5623  15.2454

          k =-0.2500 0.5713 0.0000 (  5313 PWs)   bands (ev):

   -46.5904 -46.5898 -22.8464 -22.8447 -22.8387 -22.8069 -22.8039 -22.8027
   -14.7262 -14.6665  -6.8005  -6.6697  -6.0832  -6.0613  -6.0411  -5.9688
     0.0166   0.0663   0.1456   0.2081   0.2694   0.2938   6.2146   6.6340
     6.7216   6.8062   7.3629   7.4208   7.5498   7.7924   7.8576   8.2139
     8.5762   8.6568   8.7621   8.9423   9.0378   9.3381   9.3880   9.6408
    12.1803  12.9634  12.9750  12.9908  13.2818  13.5172  14.1494  14.5765

          k =-0.2500 0.5713-0.2856 (  5305 PWs)   bands (ev):

   -46.5903 -46.5897 -22.8460 -22.8444 -22.8383 -22.8125 -22.8112 -22.8066
   -14.7115 -14.6543  -6.7395  -6.5885  -6.0688  -6.0592  -6.0402  -5.9690
    -0.0779  -0.0154   0.0292   0.0606   0.3244   0.3708   6.1975   6.5867
     6.7119   6.8694   7.2217   7.3682   7.4672   7.7116   7.8007   7.9074
     8.1228   8.5479   8.9887   9.0840   9.2116   9.2746   9.3163   9.6087
    12.4449  12.9981  13.0348  13.1195  13.3679  13.5577  14.5741  15.1521

          k =-0.2500 0.5713-0.5712 (  5300 PWs)   bands (ev):

   -46.5899 -46.5893 -22.8451 -22.8435 -22.8373 -22.8316 -22.8301 -22.8058
   -14.6780 -14.6265  -6.6309  -6.4033  -6.0857  -6.0056  -6.0026  -5.9661
    -0.2784  -0.2303  -0.0378   0.0084   0.1691   0.3788   6.1649   6.3970
     6.7015   6.8634   6.8884   7.0559   7.1166   7.5207   7.6287   7.6896
     7.7977   8.2387   9.0354   9.2395   9.2954   9.4857   9.5258   9.6685
    12.9759  13.0870  13.3004  13.4526  13.6103  13.6460  14.9437  16.1244

          k =-0.2500 0.5713-0.8567 (  5281 PWs)   bands (ev):

   -46.5896 -46.5890 -22.8473 -22.8457 -22.8438 -22.8425 -22.8365 -22.8052
   -14.6507 -14.6039  -6.5923  -6.2594  -6.0465  -5.9710  -5.9629  -5.9512
    -0.3828  -0.3305  -0.0976  -0.0431   0.0395   0.2907   5.9765   6.0961
     6.4913   6.6629   6.7727   6.8383   7.0579   7.3792   7.6140   7.6496
     7.7003   8.2531   8.9909   9.1499   9.4457   9.5455   9.6157   9.8765
    13.0797  13.4631  13.6205  13.7147  13.7665  13.8640  15.0004  16.3250

          k =-0.2500 0.8569 0.0000 (  5301 PWs)   bands (ev):

   -46.5901 -46.5895 -22.8620 -22.8601 -22.8379 -22.8063 -22.8033 -22.8021
   -14.6923 -14.6412  -6.8678  -6.5208  -6.0828  -6.0385  -6.0051  -5.9419
    -0.0048   0.0716   0.1430   0.2024   0.3332   0.3413   5.9686   6.1420
     6.3345   6.4533   7.2752   7.3357   7.4597   7.4712   7.5630   8.0429
     8.3608   8.5188   8.9167   8.9368   9.1047   9.1600   9.1861   9.8298
    12.2230  13.2809  13.4391  13.4466  13.4576  13.7559  14.1496  14.6557

          k =-0.2500 0.8569-0.2856 (  5304 PWs)   bands (ev):

   -46.5900 -46.5894 -22.8615 -22.8597 -22.8375 -22.8118 -22.8106 -22.8059
   -14.6796 -14.6298  -6.7815  -6.4329  -6.0605  -6.0243  -5.9839  -5.9695
    -0.1256  -0.0708   0.0325   0.1865   0.2228   0.3246   5.9731   6.1260
     6.4526   6.5431   7.1048   7.2667   7.3616   7.4659   7.5930   7.7604
     8.0228   8.6550   8.9519   9.0659   9.0924   9.1230   9.2551   9.8281
    12.4914  13.3940  13.4581  13.4723  13.5352  13.7981  14.5635  15.2395

          k =-0.2500 0.8569-0.5712 (  5280 PWs)   bands (ev):

   -46.5896 -46.5890 -22.8604 -22.8588 -22.8366 -22.8308 -22.8295 -22.8052
   -14.6507 -14.6039  -6.5738  -6.2262  -6.0399  -6.0096  -5.9936  -5.9363
    -0.3862  -0.3240  -0.0961  -0.0559   0.0492   0.2885   5.9570   6.0637
     6.4629   6.6367   6.7722   6.9028   7.0309   7.4100   7.6120   7.6520
     7.6835   8.2748   8.9935   9.1515   9.4818   9.5752   9.6087   9.8420
    13.0516  13.4873  13.6213  13.6848  13.7659  13.8921  15.0000  16.3118

          k =-0.2500 0.8569-0.8567 (  5272 PWs)   bands (ev):

   -46.5893 -46.5887 -22.8595 -22.8580 -22.8460 -22.8445 -22.8358 -22.8046
   -14.6272 -14.5829  -6.3876  -6.0713  -6.0512  -6.0096  -5.9540  -5.9111
    -0.5261  -0.5015  -0.3738  -0.0947  -0.0716   0.2227   5.8186   5.9176
     6.3739   6.3784   6.4236   6.5148   7.3436   7.4540   7.5256   7.6197
     7.6476   8.0380   9.1663   9.2676   9.7846   9.8174   9.8747   9.9285
    13.4728  13.5224  13.8353  13.9414  13.9706  14.0013  15.0957  16.7888

          k =-0.2500-0.8569-0.0000 (  5301 PWs)   bands (ev):

   -46.5901 -46.5895 -22.8620 -22.8601 -22.8379 -22.8063 -22.8033 -22.8021
   -14.6923 -14.6412  -6.8678  -6.5208  -6.0822  -6.0400  -6.0042  -5.9419
    -0.0063   0.0761   0.1397   0.2023   0.3333   0.3415   5.9681   6.1420
     6.3355   6.4530   7.2757   7.3337   7.4648   7.4731   7.5563   8.0444
     8.3607   8.5182   8.9195   8.9351   9.1031   9.1605   9.1865   9.8297
    12.2231  13.2809  13.4389  13.4462  13.4577  13.7563  14.1497  14.6556

          k =-0.2500-0.8569-0.2856 (  5305 PWs)   bands (ev):

   -46.5900 -46.5894 -22.8615 -22.8597 -22.8375 -22.8118 -22.8106 -22.8059
   -14.6796 -14.6298  -6.7815  -6.4327  -6.0599  -6.0255  -5.9833  -5.9695
    -0.1265  -0.0749   0.0365   0.1861   0.2210   0.3273   5.9692   6.1236
     6.4521   6.5417   7.0836   7.2885   7.3565   7.4697   7.5791   7.7665
     8.0458   8.6518   8.9494   9.0676   9.0759   9.1451   9.2595   9.8270
    12.4917  13.3894  13.4586  13.4672  13.5266  13.7980  14.5634  15.2434

          k =-0.2500-0.8569-0.5712 (  5280 PWs)   bands (ev):

   -46.5896 -46.5890 -22.8604 -22.8588 -22.8366 -22.8308 -22.8295 -22.8052
   -14.6507 -14.6039  -6.5737  -6.2259  -6.0401  -6.0093  -5.9940  -5.9362
    -0.3871  -0.3273  -0.0848  -0.0623   0.0469   0.2896   5.9519   6.0581
     6.4522   6.6233   6.7688   6.9206   7.0458   7.4071   7.5943   7.6685
     7.7031   8.2715   8.9909   9.1507   9.4865   9.5713   9.6166   9.8397
    13.0532  13.4841  13.6190  13.6841  13.7622  13.8915  14.9942  16.3100

          k =-0.2500-0.8569-0.8567 (  5272 PWs)   bands (ev):

   -46.5893 -46.5887 -22.8595 -22.8580 -22.8460 -22.8445 -22.8358 -22.8046
   -14.6272 -14.5829  -6.3874  -6.0736  -6.0488  -6.0091  -5.9547  -5.9110
    -0.5254  -0.5053  -0.3703  -0.0962  -0.0712   0.2230   5.8167   5.9126
     6.3319   6.3789   6.4697   6.5162   7.3468   7.4407   7.5285   7.6278
     7.6521   8.0367   9.1633   9.2690   9.7865   9.8183   9.8759   9.9266
    13.4840  13.5100  13.8359  13.9411  13.9696  14.0009  15.0928  16.7742

          k =-0.2500-0.5713-0.0000 (  5313 PWs)   bands (ev):

   -46.5904 -46.5898 -22.8464 -22.8447 -22.8387 -22.8069 -22.8039 -22.8027
   -14.7262 -14.6665  -6.8005  -6.6697  -6.0830  -6.0614  -6.0417  -5.9685
     0.0151   0.0691   0.1454   0.2059   0.2696   0.2948   6.2141   6.6347
     6.7199   6.8082   7.3629   7.4194   7.5539   7.7887   7.8559   8.2165
     8.5752   8.6581   8.7610   8.9435   9.0366   9.3383   9.3887   9.6401
    12.1805  12.9635  12.9739  12.9909  13.2817  13.5180  14.1495  14.5763

          k =-0.2500-0.5713-0.2856 (  5305 PWs)   bands (ev):

   -46.5903 -46.5897 -22.8460 -22.8444 -22.8383 -22.8125 -22.8112 -22.8066
   -14.7115 -14.6542  -6.7395  -6.5881  -6.0695  -6.0580  -6.0409  -5.9687
    -0.0851  -0.0186   0.0345   0.0616   0.3246   0.3737   6.1956   6.5799
     6.7078   6.8585   7.1977   7.3753   7.4447   7.6982   7.8223   7.9187
     8.1770   8.5438   8.9938   9.0764   9.2104   9.2740   9.3497   9.6079
    12.4465  12.9947  13.0128  13.0928  13.3673  13.5577  14.5718  15.1647

          k =-0.2500-0.5713-0.5712 (  5300 PWs)   bands (ev):

   -46.5899 -46.5893 -22.8450 -22.8435 -22.8373 -22.8316 -22.8302 -22.8058
   -14.6779 -14.6265  -6.6307  -6.4028  -6.0859  -6.0058  -6.0026  -5.9659
    -0.2831  -0.2325  -0.0397   0.0167   0.1660   0.3810   6.1613   6.3848
     6.7073   6.7831   6.8384   7.1236   7.1558   7.4921   7.6760   7.6963
     7.8319   8.2282   9.0305   9.2322   9.3090   9.4841   9.5454   9.6618
    12.9980  13.0625  13.2897  13.4375  13.6052  13.6480  14.9304  16.1341

          k =-0.2500-0.5713-0.8567 (  5281 PWs)   bands (ev):

   -46.5896 -46.5890 -22.8472 -22.8457 -22.8439 -22.8425 -22.8365 -22.8052
   -14.6506 -14.6039  -6.5922  -6.2593  -6.0460  -5.9708  -5.9631  -5.9516
    -0.3850  -0.3325  -0.0821  -0.0546   0.0379   0.2920   5.9720   6.0900
     6.4807   6.6366   6.7714   6.8701   7.0689   7.3778   7.6012   7.6615
     7.7195   8.2496   8.9875   9.1490   9.4495   9.5444   9.6216   9.8749
    13.0812  13.4599  13.6182  13.7139  13.7632  13.8631  14.9946  16.3225

          k =-0.2500-0.2856-0.0000 (  5297 PWs)   bands (ev):

   -46.5908 -46.5902 -22.8400 -22.8267 -22.8255 -22.8077 -22.8046 -22.8034
   -14.7678 -14.6976  -6.8583  -6.7753  -6.1191  -6.0824  -6.0647  -5.9122
     0.0259   0.0782   0.1028   0.1858   0.2011   0.3129   6.3357   7.2155
     7.3004   7.4001   7.4780   7.5626   7.6670   8.1427   8.3403   8.4443
     8.5704   8.8911   8.9707   9.0735   9.1770   9.2364   9.5622   9.5873
    12.1256  12.3192  12.3818  12.4027  13.2688  13.3406  14.1190  14.2732

          k =-0.2500-0.2856-0.2856 (  5300 PWs)   bands (ev):

   -46.5906 -46.5900 -22.8395 -22.8264 -22.8251 -22.8133 -22.8120 -22.8073
   -14.7506 -14.6843  -6.7811  -6.7534  -6.1111  -6.0651  -6.0632  -5.9364
     0.0007   0.0233   0.0472   0.1158   0.2922   0.3612   6.2945   7.0789
     7.0979   7.3351   7.4654   7.4861   7.5394   7.7916   8.2342   8.2430
     8.5142   8.7415   9.0543   9.0889   9.1316   9.2273   9.4949   9.5167
    12.3764  12.4284  12.4888  12.5632  13.3182  13.3653  14.5350  14.7381

          k =-0.2500-0.2856-0.5712 (  5304 PWs)   bands (ev):

   -46.5903 -46.5897 -22.8385 -22.8328 -22.8312 -22.8254 -22.8242 -22.8066
   -14.7114 -14.6543  -6.7592  -6.6069  -6.0766  -6.0339  -6.0155  -5.9769
    -0.0867  -0.0215   0.0369   0.0632   0.3262   0.3730   6.1965   6.6053
     6.7350   6.8858   7.2053   7.3975   7.4425   7.6867   7.8260   7.9458
     8.1436   8.5155   8.9733   9.0746   9.1576   9.2572   9.3558   9.6446
    12.4825  12.9663  12.9933  13.0765  13.4102  13.5208  14.5761  15.1759

          k =-0.2500-0.2856-0.8567 (  5305 PWs)   bands (ev):

   -46.5900 -46.5894 -22.8482 -22.8463 -22.8375 -22.8248 -22.8237 -22.8059
   -14.6795 -14.6298  -6.8090  -6.4757  -6.0547  -6.0160  -5.9895  -5.9157
    -0.1257  -0.0799   0.0388   0.1834   0.2270   0.3272   5.9932   6.1659
     6.4797   6.5734   7.0954   7.3364   7.3430   7.4448   7.5892   7.7934
     8.0062   8.6147   8.9715   9.0351   9.0535   9.0972   9.2126   9.8638
    12.5274  13.4180  13.4425  13.4545  13.5195  13.7677  14.5623  15.2494

          k = 0.5000 0.0000-0.0000 (  5338 PWs)   bands (ev):

   -46.5907 -46.5906 -22.8247 -22.8242 -22.8173 -22.8172 -22.8043 -22.8043
   -14.7547 -14.7433  -6.8491  -6.8476  -6.1029  -6.1027  -6.0105  -5.9870
     0.0959   0.1050   0.1084   0.1175   0.2163   0.2257   6.9210   6.9396
     7.5747   7.5756   7.5893   7.5902   8.3844   8.3937   8.4723   8.4916
     8.6196   8.6294   8.7872   8.7952   9.4390   9.4460   9.4883   9.4949
    12.0350  12.0360  12.7243  12.7318  12.7664  12.7739  13.9546  13.9548

          k = 0.5000 0.0000-0.2856 (  5320 PWs)   bands (ev):

   -46.5905 -46.5905 -22.8243 -22.8238 -22.8171 -22.8170 -22.8128 -22.8128
   -14.7387 -14.7273  -6.8048  -6.8025  -6.0874  -6.0872  -6.0324  -6.0096
     0.0372   0.0417   0.1379   0.1494   0.2707   0.2729   6.8268   6.8411
     7.3665   7.3706   7.5836   7.5850   7.9110   7.9229   8.2837   8.2986
     8.6691   8.6753   8.8809   8.8834   9.3172   9.3209   9.4801   9.4840
    12.3013  12.3020  12.7788  12.7845  12.8232  12.8281  14.2710  14.2715

          k = 0.5000 0.0000-0.5712 (  5308 PWs)   bands (ev):

   -46.5901 -46.5901 -22.8324 -22.8324 -22.8232 -22.8227 -22.8162 -22.8161
   -14.7022 -14.6909  -6.7435  -6.7386  -6.0667  -6.0532  -6.0214  -6.0147
     0.0081   0.0091   0.2072   0.2180   0.2771   0.2787   6.5164   6.5196
     6.9970   7.0103   7.2830   7.2940   7.5331   7.5387   7.9708   7.9806
     8.5120   8.5173   8.8906   8.8952   9.0902   9.0960   9.5676   9.5765
    12.7720  12.7786  12.9601  12.9607  13.1586  13.1639  14.4841  14.4861

          k = 0.5000 0.0000-0.8567 (  5290 PWs)   bands (ev):

   -46.5899 -46.5898 -22.8477 -22.8477 -22.8225 -22.8220 -22.8156 -22.8155
   -14.6725 -14.6612  -6.7415  -6.7341  -6.0504  -6.0329  -5.9567  -5.9564
     0.0482   0.0540   0.2003   0.2094   0.2718   0.2838   6.1223   6.1227
     6.7883   6.7985   6.9292   6.9450   7.4122   7.4250   7.8401   7.8413
     8.5936   8.5952   8.7573   8.7697   8.9144   8.9198   9.5652   9.5757
    12.8185  12.8260  13.4217  13.4221  13.5241  13.5284  14.5139  14.5166

          k = 0.5000 0.2856 0.0000 (  5324 PWs)   bands (ev):

   -46.5905 -46.5905 -22.8266 -22.8264 -22.8237 -22.8233 -22.8040 -22.8040
   -14.7387 -14.7273  -6.7963  -6.7940  -6.1045  -6.1024  -6.0229  -6.0021
     0.0413   0.0462   0.1306   0.1428   0.2731   0.2755   6.8287   6.8431
     7.3595   7.3641   7.5678   7.5694   7.8798   7.8912   8.2846   8.3016
     8.7078   8.7117   8.9372   8.9422   9.2875   9.2944   9.4434   9.4490
    12.3380  12.3387  12.7414  12.7486  12.8572  12.8636  14.2517  14.2521

          k = 0.5000 0.2856-0.2856 (  5320 PWs)   bands (ev):

   -46.5903 -46.5903 -22.8263 -22.8261 -22.8233 -22.8229 -22.8126 -22.8126
   -14.7234 -14.7121  -6.7457  -6.7426  -6.0870  -6.0859  -6.0397  -6.0187
     0.0158   0.0209   0.0292   0.0364   0.3716   0.3758   6.7198   6.7291
     7.2738   7.2831   7.4398   7.4409   7.9170   7.9241   7.9636   7.9711
     8.4182   8.4188   9.1277   9.1334   9.2877   9.2982   9.3703   9.3739
    12.5532  12.5539  12.8475  12.8537  12.8897  12.8958  14.7194  14.7199

          k = 0.5000 0.2856-0.5712 (  5300 PWs)   bands (ev):

   -46.5900 -46.5899 -22.8321 -22.8321 -22.8251 -22.8250 -22.8223 -22.8220
   -14.6887 -14.6774  -6.6677  -6.6620  -6.0487  -6.0373  -6.0341  -6.0260
    -0.0500  -0.0485  -0.0050   0.0060   0.3945   0.4003   6.4478   6.4498
     6.9831   6.9930   7.2037   7.2055   7.5633   7.5702   7.8167   7.8240
     8.1171   8.1224   9.0803   9.0862   9.2036   9.2055   9.5119   9.5224
    12.9347  12.9404  13.0699  13.0703  13.2014  13.2066  15.0498  15.0515

          k = 0.5000 0.2856-0.8567 (  5292 PWs)   bands (ev):

   -46.5897 -46.5896 -22.8473 -22.8473 -22.8246 -22.8245 -22.8216 -22.8212
   -14.6605 -14.6491  -6.6521  -6.6438  -6.0312  -6.0142  -5.9621  -5.9619
    -0.0803  -0.0773   0.0493   0.0620   0.2993   0.3053   6.1097   6.1100
     6.7956   6.7997   6.9708   6.9848   7.3524   7.3585   7.6947   7.6980
     8.2225   8.2335   8.9689   8.9723   9.0820   9.0826   9.5395   9.5512
    12.9874  12.9936  13.4904  13.4907  13.5611  13.5656  15.0656  15.0680

          k = 0.5000 0.5713 0.0000 (  5308 PWs)   bands (ev):

   -46.5901 -46.5901 -22.8456 -22.8456 -22.8231 -22.8226 -22.8033 -22.8033
   -14.7022 -14.6909  -6.7160  -6.7107  -6.0978  -6.0907  -6.0147  -6.0020
     0.0105   0.0121   0.2008   0.2129   0.2790   0.2820   6.4995   6.5027
     6.9760   6.9894   7.2573   7.2667   7.5167   7.5223   7.9488   7.9596
     8.5595   8.5635   8.9698   8.9770   9.0755   9.0776   9.5394   9.5481
    12.7426  12.7496  12.9946  12.9949  13.1905  13.1958  14.4662  14.4682

          k = 0.5000 0.5713-0.2856 (  5302 PWs)   bands (ev):

   -46.5900 -46.5899 -22.8452 -22.8452 -22.8227 -22.8223 -22.8118 -22.8118
   -14.6887 -14.6774  -6.6464  -6.6402  -6.0828  -6.0775  -6.0192  -6.0054
    -0.0488  -0.0461  -0.0068   0.0050   0.3939   0.3996   6.4347   6.4369
     6.9554   6.9645   7.1970   7.1990   7.5339   7.5397   7.8235   7.8309
     8.1572   8.1623   9.0949   9.0997   9.2458   9.2491   9.4764   9.4871
    12.9002  12.9061  13.0862  13.0866  13.2319  13.2372  15.0404  15.0421

          k = 0.5000 0.5713-0.5712 (  5290 PWs)   bands (ev):

   -46.5896 -46.5896 -22.8444 -22.8443 -22.8309 -22.8309 -22.8218 -22.8213
   -14.6580 -14.6467  -6.5081  -6.4992  -6.0500  -6.0471  -6.0046  -5.9909
    -0.1774  -0.1747  -0.1608  -0.1499   0.3333   0.3381   6.3176   6.3191
     6.8731   6.8735   6.9780   6.9903   7.3354   7.3410   7.6735   7.6798
     7.7193   7.7295   9.2929   9.2994   9.3717   9.3806   9.5333   9.5412
    13.2741  13.2788  13.3254  13.3303  13.3841  13.3848  15.8780  15.8806

          k = 0.5000 0.5713-0.8567 (  5278 PWs)   bands (ev):

   -46.5893 -46.5893 -22.8465 -22.8465 -22.8432 -22.8431 -22.8211 -22.8207
   -14.6331 -14.6217  -6.4355  -6.4244  -6.0037  -5.9934  -5.9685  -5.9643
    -0.2707  -0.2680  -0.1636  -0.1518   0.1514   0.1540   6.0711   6.0716
     6.7275   6.7290   6.8991   6.8997   7.0553   7.0725   7.6254   7.6330
     7.7907   7.7996   9.2162   9.2280   9.4698   9.4811   9.6245   9.6279
    13.3823  13.3873  13.6295  13.6328  13.7012  13.7021  15.8928  15.8942

          k = 0.5000 0.8569 0.0000 (  5302 PWs)   bands (ev):

   -46.5898 -46.5898 -22.8611 -22.8610 -22.8223 -22.8219 -22.8027 -22.8027
   -14.6726 -14.6612  -6.7058  -6.6973  -6.0394  -6.0285  -5.9984  -5.9927
     0.0481   0.0547   0.2100   0.2193   0.2611   0.2733   6.0784   6.0788
     6.7614   6.7721   6.9246   6.9419   7.3992   7.4121   7.7894   7.7916
     8.6436   8.6447   8.7988   8.8112   8.9803   8.9844   9.5312   9.5423
    12.7783  12.7856  13.4511  13.4515  13.5520  13.5565  14.5098  14.5125

          k = 0.5000 0.8569-0.2856 (  5292 PWs)   bands (ev):

   -46.5897 -46.5896 -22.8607 -22.8606 -22.8220 -22.8215 -22.8112 -22.8112
   -14.6605 -14.6492  -6.6191  -6.6097  -6.0240  -6.0192  -5.9982  -5.9871
    -0.0830  -0.0802   0.0567   0.0690   0.2944   0.3003   6.0695   6.0699
     6.7645   6.7694   6.9634   6.9792   7.3406   7.3463   7.6889   7.6911
     8.2659   8.2765   9.0015   9.0038   9.1272   9.1275   9.5052   9.5176
    12.9499  12.9560  13.5048  13.5050  13.5872  13.5918  15.0635  15.0659

          k = 0.5000 0.8569-0.5712 (  5280 PWs)   bands (ev):

   -46.5893 -46.5893 -22.8596 -22.8596 -22.8302 -22.8302 -22.8211 -22.8206
   -14.6331 -14.6218  -6.4122  -6.3996  -6.0230  -6.0227  -5.9706  -5.9579
    -0.2754  -0.2730  -0.1548  -0.1438   0.1476   0.1501   6.0398   6.0404
     6.7066   6.7074   6.9145   6.9172   7.0560   7.0734   7.6119   7.6188
     7.8262   7.8359   9.2461   9.2566   9.4577   9.4708   9.6166   9.6193
    13.3503  13.3551  13.6599  13.6637  13.7007  13.7013  15.8844  15.8858

          k = 0.5000 0.8569-0.8567 (  5274 PWs)   bands (ev):

   -46.5890 -46.5890 -22.8588 -22.8587 -22.8453 -22.8453 -22.8205 -22.8200
   -14.6108 -14.5995  -6.2283  -6.2104  -6.0186  -6.0161  -5.9643  -5.9588
    -0.3312  -0.3256  -0.3056  -0.2938  -0.0728  -0.0696   5.9043   5.9051
     6.3816   6.3817   6.8815   6.8830   7.0897   7.1121   7.5838   7.5904
     7.6631   7.6697   9.4412   9.4577   9.5180   9.5358   9.8901   9.8903
    13.6872  13.6913  13.7292  13.7336  13.9216  13.9218  16.0509  16.0522

          k =-0.0000-0.2856-0.2856 (  5292 PWs)   bands (ev):

   -46.5907 -46.5899 -22.8461 -22.8266 -22.8249 -22.8136 -22.8117 -22.8007
   -14.7638 -14.6707  -6.8061  -6.7723  -6.1193  -6.0623  -6.0561  -5.8854
     0.0076   0.0262   0.0943   0.1968   0.2246   0.2823   6.0978   7.1077
     7.2021   7.2448   7.3032   7.4999   7.6284   7.7777   8.2572   8.5041
     8.5724   8.9475   8.9824   8.9993   9.0686   9.2021   9.5562   9.5938
    12.1907  12.2643  12.4556  12.5805  13.5179  13.5649  14.0983  14.7258

          k =-0.0000-0.2856-0.5712 (  5303 PWs)   bands (ev):

   -46.5904 -46.5895 -22.8449 -22.8331 -22.8309 -22.8257 -22.8239 -22.8000
   -14.7227 -14.6426  -6.8049  -6.5967  -6.0914  -6.0243  -5.9991  -5.9461
    -0.1059   0.0158   0.0718   0.1535   0.2580   0.2929   6.0310   6.6760
     6.7013   6.7589   7.2817   7.3431   7.5186   7.6734   7.7528   8.1955
     8.2426   8.6357   8.9590   9.0148   9.0199   9.2764   9.4232   9.6696
    12.2875  12.9034  12.9717  13.0947  13.6011  13.6766  14.1910  15.1882

          k =-0.0000-0.2856-0.8567 (  5300 PWs)   bands (ev):

   -46.5901 -46.5892 -22.8486 -22.8459 -22.8440 -22.8251 -22.8234 -22.7994
   -14.6892 -14.6198  -6.8730  -6.4007  -6.0691  -6.0202  -5.9972  -5.8957
    -0.1356  -0.1202   0.1347   0.1664   0.2207   0.3176   5.8796   6.1937
     6.3589   6.4818   7.1880   7.3541   7.3633   7.4774   7.5573   7.8912
     8.1164   8.4322   8.9626   9.0428   9.1141   9.2021   9.2423   9.9589
    12.3272  13.3935  13.4358  13.5264  13.6298  13.8785  14.2031  15.2735

          k =-0.0000-0.5713-0.2856 (  5306 PWs)   bands (ev):

   -46.5904 -46.5895 -22.8462 -22.8449 -22.8440 -22.8128 -22.8110 -22.8000
   -14.7227 -14.6426  -6.7865  -6.5806  -6.0732  -6.0371  -6.0347  -5.9461
    -0.1027   0.0182   0.0646   0.1558   0.2532   0.2965   6.0329   6.6506
     6.6722   6.7259   7.2643   7.3323   7.5296   7.6951   7.7613   8.1985
     8.2053   8.6419   8.9596   9.0520   9.0884   9.2911   9.4207   9.6368
    12.2522  12.9289  12.9918  13.1100  13.5547  13.7167  14.1885  15.1770

          k =-0.0000-0.5713-0.5712 (  5288 PWs)   bands (ev):

   -46.5900 -46.5892 -22.8452 -22.8439 -22.8432 -22.8320 -22.8298 -22.7992
   -14.6880 -14.6161  -6.6868  -6.3741  -6.1008  -6.0010  -5.9851  -5.9402
    -0.3319  -0.2044   0.0100   0.0435   0.2273   0.2650   5.9976   6.4325
     6.7294   6.7728   6.8907   6.9130   7.1834   7.4745   7.6587   7.7904
     7.8847   8.5987   8.9088   9.0876   9.2710   9.5419   9.5846   9.6999
    12.8886  12.9776  13.2590  13.4657  13.7575  13.7982  14.4612  16.1125

          k =-0.0000-0.5713-0.8567 (  5278 PWs)   bands (ev):

   -46.5897 -46.5889 -22.8475 -22.8454 -22.8441 -22.8431 -22.8422 -22.7987
   -14.6597 -14.5946  -6.6573  -6.1861  -6.0660  -5.9723  -5.9570  -5.9378
    -0.4078  -0.3762  -0.2133   0.0415   0.1691   0.2877   5.8545   6.0997
     6.3591   6.5788   6.7674   6.8840   7.0853   7.3849   7.6024   7.6382
     7.7776   8.6737   8.7563   9.0376   9.5283   9.5806   9.6421   9.9834
    12.9629  13.3985  13.5908  13.7908  13.8633  13.9759  14.5343  16.3084

          k =-0.0000-0.8569-0.2856 (  5300 PWs)   bands (ev):

   -46.5901 -46.5892 -22.8619 -22.8593 -22.8440 -22.8121 -22.8104 -22.7994
   -14.6893 -14.6198  -6.8474  -6.3532  -6.0629  -6.0382  -5.9964  -5.9496
    -0.1289  -0.1212   0.1252   0.1693   0.2115   0.3265   5.8694   6.1532
     6.3184   6.4450   7.1788   7.3178   7.3850   7.4893   7.5686   7.9204
     8.0477   8.4407   8.9672   9.1062   9.1424   9.2619   9.2691   9.9225
    12.2917  13.4166  13.4516  13.5324  13.5846  13.9118  14.2057  15.2659

          k =-0.0000-0.8569-0.5712 (  5278 PWs)   bands (ev):

   -46.5897 -46.5889 -22.8607 -22.8584 -22.8431 -22.8311 -22.8292 -22.7987
   -14.6597 -14.5946  -6.6404  -6.1491  -6.0519  -6.0025  -5.9910  -5.9377
    -0.4034  -0.3770  -0.2170   0.0349   0.1755   0.2871   5.8455   6.0671
     6.3190   6.5691   6.7709   6.9481   7.0500   7.4258   7.6251   7.6256
     7.7223   8.6958   8.7615   9.0398   9.5532   9.6303   9.6339   9.9468
    12.9366  13.4219  13.5944  13.7892  13.8270  14.0065  14.5357  16.3046

          k =-0.0000-0.8569-0.8567 (  5286 PWs)   bands (ev):

   -46.5894 -46.5886 -22.8598 -22.8577 -22.8463 -22.8442 -22.8423 -22.7981
   -14.6357 -14.5742  -6.4553  -6.0927  -6.0286  -5.9917  -5.9158  -5.8886
    -0.5868  -0.5735  -0.5163  -0.0080   0.0422   0.3517   5.7182   5.9101
     6.1813   6.3496   6.3789   6.4203   7.4129   7.4876   7.5264   7.6306
     7.6473   8.4205   9.0577   9.1779   9.8721   9.8866   9.9409  10.0057
    13.4024  13.4269  13.8060  14.0344  14.0550  14.0855  14.6280  16.6924

          k = 0.2500 0.0000-0.2856 (  5297 PWs)   bands (ev):

   -46.5908 -46.5902 -22.8400 -22.8178 -22.8167 -22.8135 -22.8121 -22.8077
   -14.7678 -14.6976  -6.8642  -6.7855  -6.1005  -6.0763  -6.0736  -5.9137
     0.0230   0.0805   0.1049   0.1741   0.2122   0.3123   6.3340   7.2344
     7.2938   7.4155   7.5110   7.5765   7.6719   8.1196   8.3419   8.3937
     8.6099   8.8606   8.9165   9.0594   9.2127   9.2467   9.5926   9.5992
    12.1599  12.2931  12.3410  12.3673  13.2979  13.3142  14.1394  14.2929

          k = 0.2500 0.0000-0.5712 (  5313 PWs)   bands (ev):

   -46.5904 -46.5898 -22.8389 -22.8332 -22.8315 -22.8168 -22.8157 -22.8069
   -14.7262 -14.6665  -6.8262  -6.6938  -6.0772  -6.0553  -6.0030  -5.9752
     0.0126   0.0656   0.1493   0.2075   0.2707   0.2949   6.2138   6.6815
     6.7401   6.8381   7.3534   7.4702   7.5512   7.7805   7.8971   8.2525
     8.4874   8.6107   8.7986   8.9249   8.9546   9.3465   9.3788   9.6707
    12.2221  12.9228  12.9394  12.9482  13.3278  13.4808  14.1627  14.5982

          k = 0.2500 0.0000-0.8567 (  5302 PWs)   bands (ev):

   -46.5901 -46.5895 -22.8487 -22.8467 -22.8379 -22.8162 -22.8152 -22.8062
   -14.6922 -14.6412  -6.8980  -6.5663  -6.0673  -6.0421  -6.0052  -5.8878
    -0.0074   0.0728   0.1342   0.2134   0.3294   0.3453   5.9922   6.1947
     6.3608   6.4787   7.2624   7.3730   7.4649   7.4973   7.5773   8.1219
     8.3076   8.4890   8.8604   8.9317   9.0192   9.1201   9.1688   9.8650
    12.2648  13.3248  13.4124  13.4174  13.4301  13.7263  14.1513  14.6650

          k = 0.2500-0.2856-0.2856 (  5300 PWs)   bands (ev):

   -46.5906 -46.5900 -22.8395 -22.8264 -22.8252 -22.8133 -22.8120 -22.8073
   -14.7506 -14.6843  -6.7810  -6.7534  -6.1110  -6.0660  -6.0624  -5.9364
     0.0015   0.0214   0.0478   0.1167   0.2913   0.3616   6.2946   7.0758
     7.1012   7.3350   7.4649   7.4858   7.5394   7.7918   8.2343   8.2439
     8.5142   8.7421   9.0438   9.0983   9.1311   9.2273   9.4956   9.5164
    12.3764  12.4283  12.4890  12.5632  13.3185  13.3649  14.5350  14.7351

          k = 0.2500-0.2856-0.5712 (  5304 PWs)   bands (ev):

   -46.5903 -46.5897 -22.8385 -22.8328 -22.8312 -22.8254 -22.8242 -22.8066
   -14.7114 -14.6543  -6.7592  -6.6069  -6.0761  -6.0348  -6.0154  -5.9765
    -0.0885  -0.0172   0.0381   0.0590   0.3278   0.3720   6.1964   6.6061
     6.7340   6.8860   7.2068   7.3963   7.4425   7.6849   7.8283   7.9449
     8.1435   8.5163   8.9695   9.0747   9.1622   9.2580   9.3542   9.6441
    12.4827  12.9656  12.9936  13.0768  13.4097  13.5211  14.5762  15.1759

          k = 0.2500-0.2856-0.8567 (  5305 PWs)   bands (ev):

   -46.5900 -46.5894 -22.8482 -22.8463 -22.8375 -22.8248 -22.8237 -22.8059
   -14.6795 -14.6298  -6.8090  -6.4756  -6.0546  -6.0170  -5.9887  -5.9157
    -0.1255  -0.0796   0.0376   0.1823   0.2297   0.3262   5.9931   6.1660
     6.4797   6.5737   7.0963   7.3335   7.3421   7.4492   7.5860   7.7945
     8.0053   8.6160   8.9723   9.0329   9.0531   9.1005   9.2109   9.8636
    12.5275  13.4177  13.4429  13.4543  13.5194  13.7677  14.5624  15.2495

          k = 0.2500-0.5713-0.2856 (  5305 PWs)   bands (ev):

   -46.5903 -46.5897 -22.8460 -22.8444 -22.8383 -22.8125 -22.8112 -22.8066
   -14.7115 -14.6542  -6.7395  -6.5881  -6.0692  -6.0592  -6.0396  -5.9690
    -0.0832  -0.0219   0.0322   0.0654   0.3249   0.3732   6.1961   6.5787
     6.7095   6.8576   7.1962   7.3759   7.4444   7.7006   7.8206   7.9193
     8.1769   8.5441   8.9962   9.0750   9.2068   9.2734   9.3519   9.6085
    12.4463  12.9957  13.0126  13.0925  13.3677  13.5569  14.5717  15.1648

          k = 0.2500-0.5713-0.5712 (  5300 PWs)   bands (ev):

   -46.5899 -46.5893 -22.8450 -22.8435 -22.8373 -22.8316 -22.8302 -22.8058
   -14.6779 -14.6265  -6.6307  -6.4028  -6.0859  -6.0069  -6.0013  -5.9661
    -0.2831  -0.2322  -0.0398   0.0156   0.1672   0.3807   6.1616   6.3846
     6.7076   6.7827   6.8387   7.1239   7.1547   7.4922   7.6770   7.6957
     7.8316   8.2286   9.0303   9.2325   9.3085   9.4847   9.5450   9.6618
    12.9980  13.0627  13.2897  13.4376  13.6055  13.6474  14.9304  16.1353

          k = 0.2500-0.5713-0.8567 (  5281 PWs)   bands (ev):

   -46.5896 -46.5890 -22.8472 -22.8457 -22.8439 -22.8425 -22.8365 -22.8052
   -14.6506 -14.6039  -6.5922  -6.2591  -6.0465  -5.9711  -5.9632  -5.9509
    -0.3839  -0.3333  -0.0909  -0.0457   0.0378   0.2915   5.9721   6.0900
     6.4805   6.6369   6.7711   6.8698   7.0705   7.3764   7.5993   7.6628
     7.7199   8.2496   8.9881   9.1493   9.4493   9.5444   9.6216   9.8746
    13.0816  13.4598  13.6183  13.7136  13.7630  13.8631  14.9946  16.3233

          k = 0.2500-0.8569-0.2856 (  5304 PWs)   bands (ev):

   -46.5900 -46.5894 -22.8615 -22.8597 -22.8375 -22.8118 -22.8106 -22.8059
   -14.6796 -14.6298  -6.7815  -6.4327  -6.0606  -6.0239  -5.9843  -5.9694
    -0.1264  -0.0749   0.0360   0.1876   0.2201   0.3272   5.9695   6.1235
     6.4519   6.5414   7.0823   7.2921   7.3564   7.4646   7.5832   7.7660
     8.0458   8.6517   8.9489   9.0669   9.0778   9.1426   9.2609   9.8272
    12.4916  13.3894  13.4586  13.4675  13.5268  13.7976  14.5634  15.2434

          k = 0.2500-0.8569-0.5712 (  5280 PWs)   bands (ev):

   -46.5896 -46.5890 -22.8604 -22.8588 -22.8366 -22.8308 -22.8295 -22.8052
   -14.6507 -14.6039  -6.5737  -6.2260  -6.0401  -6.0098  -5.9930  -5.9367
    -0.3879  -0.3263  -0.0788  -0.0697   0.0481   0.2895   5.9521   6.0580
     6.4526   6.6226   6.7693   6.9209   7.0441   7.4085   7.5970   7.6647
     7.7039   8.2718   8.9906   9.1507   9.4862   9.5714   9.6167   9.8400
    13.0530  13.4844  13.6189  13.6842  13.7625  13.8912  14.9942  16.3099

          k = 0.2500-0.8569-0.8567 (  5272 PWs)   bands (ev):

   -46.5893 -46.5887 -22.8595 -22.8580 -22.8460 -22.8445 -22.8358 -22.8046
   -14.6272 -14.5829  -6.3874  -6.0721  -6.0505  -6.0094  -5.9539  -5.9113
    -0.5254  -0.5050  -0.3709  -0.0964  -0.0706   0.2228   5.8168   5.9125
     6.3319   6.3789   6.4695   6.5163   7.3466   7.4404   7.5297   7.6283
     7.6508   8.0367   9.1634   9.2690   9.7864   9.8184   9.8759   9.9265
    13.4839  13.5102  13.8359  13.9411  13.9694  14.0009  15.0928  16.7746

          k = 0.2500 0.8569-0.2856 (  5305 PWs)   bands (ev):

   -46.5900 -46.5894 -22.8615 -22.8597 -22.8375 -22.8118 -22.8106 -22.8059
   -14.6796 -14.6298  -6.7815  -6.4329  -6.0599  -6.0252  -5.9836  -5.9694
    -0.1264  -0.0708   0.0350   0.1855   0.2208   0.3260   5.9727   6.1261
     6.4527   6.5431   7.1057   7.2647   7.3618   7.4695   7.5904   7.7597
     8.0240   8.6539   8.9517   9.0664   9.0909   9.1249   9.2550   9.8280
    12.4913  13.3943  13.4578  13.4723  13.5350  13.7985  14.5634  15.2393

          k = 0.2500 0.8569-0.5712 (  5280 PWs)   bands (ev):

   -46.5896 -46.5890 -22.8604 -22.8588 -22.8366 -22.8308 -22.8295 -22.8052
   -14.6507 -14.6039  -6.5738  -6.2263  -6.0399  -6.0093  -5.9936  -5.9366
    -0.3865  -0.3245  -0.0862  -0.0639   0.0474   0.2892   5.9566   6.0639
     6.4625   6.6376   6.7719   6.9022   7.0316   7.4094   7.6114   7.6536
     7.6830   8.2746   8.9934   9.1509   9.4825   9.5751   9.6087   9.8420
    13.0513  13.4871  13.6211  13.6853  13.7658  13.8925  15.0000  16.3114

          k = 0.2500 0.8569-0.8567 (  5272 PWs)   bands (ev):

   -46.5893 -46.5887 -22.8595 -22.8580 -22.8460 -22.8445 -22.8358 -22.8046
   -14.6272 -14.5829  -6.3875  -6.0726  -6.0505  -6.0083  -5.9541  -5.9115
    -0.5270  -0.5016  -0.3720  -0.0947  -0.0729   0.2231   5.8183   5.9179
     6.3739   6.3784   6.4238   6.5148   7.3428   7.4549   7.5247   7.6200
     7.6476   8.0386   9.1658   9.2674   9.7848   9.8173   9.8747   9.9286
    13.4724  13.5223  13.8352  13.9418  13.9708  14.0012  15.0957  16.7878

          k = 0.2500 0.5713-0.2856 (  5305 PWs)   bands (ev):

   -46.5903 -46.5897 -22.8460 -22.8444 -22.8383 -22.8125 -22.8112 -22.8066
   -14.7115 -14.6543  -6.7395  -6.5884  -6.0690  -6.0586  -6.0408  -5.9687
    -0.0786  -0.0156   0.0314   0.0599   0.3217   0.3729   6.1969   6.5880
     6.7102   6.8707   7.2221   7.3689   7.4675   7.7107   7.8008   7.9058
     8.1239   8.5468   8.9887   9.0858   9.2121   9.2734   9.3168   9.6083
    12.4448  12.9974  13.0348  13.1195  13.3679  13.5585  14.5741  15.1518

          k = 0.2500 0.5713-0.5712 (  5300 PWs)   bands (ev):

   -46.5899 -46.5893 -22.8451 -22.8436 -22.8373 -22.8316 -22.8301 -22.8058
   -14.6780 -14.6265  -6.6309  -6.4033  -6.0857  -6.0070  -6.0014  -5.9661
    -0.2784  -0.2311  -0.0378   0.0119   0.1654   0.3798   6.1641   6.3976
     6.7011   6.8636   6.8881   7.0545   7.1196   7.5207   7.6278   7.6891
     7.7986   8.2376   9.0358   9.2385   9.2965   9.4856   9.5257   9.6687
    12.9752  13.0868  13.3004  13.4525  13.6106  13.6468  14.9435  16.1169

          k = 0.2500 0.5713-0.8567 (  5281 PWs)   bands (ev):

   -46.5896 -46.5890 -22.8473 -22.8457 -22.8438 -22.8425 -22.8365 -22.8052
   -14.6507 -14.6039  -6.5923  -6.2596  -6.0458  -5.9711  -5.9632  -5.9514
    -0.3837  -0.3305  -0.0877  -0.0512   0.0379   0.2915   5.9762   6.0964
     6.4912   6.6634   6.7729   6.8379   7.0574   7.3794   7.6159   7.6489
     7.6999   8.2528   8.9905   9.1492   9.4466   9.5455   9.6156   9.8767
    13.0793  13.4630  13.6203  13.7153  13.7663  13.8643  15.0004  16.3243

          k = 0.2500 0.2856-0.2856 (  5300 PWs)   bands (ev):

   -46.5906 -46.5900 -22.8395 -22.8264 -22.8252 -22.8133 -22.8119 -22.8073
   -14.7506 -14.6843  -6.7814  -6.7532  -6.1111  -6.0649  -6.0637  -5.9364
     0.0159   0.0304   0.0341   0.1086   0.2928   0.3595   6.2933   7.0740
     7.1117   7.3528   7.4619   7.5073   7.5559   7.7830   8.2274   8.2470
     8.4567   8.7916   9.0352   9.1051   9.1329   9.1844   9.4765   9.4895
    12.3660  12.4498  12.5118  12.6014  13.3199  13.3650  14.5460  14.7040

          k = 0.2500 0.2856-0.5712 (  5304 PWs)   bands (ev):

   -46.5903 -46.5897 -22.8385 -22.8328 -22.8312 -22.8253 -22.8241 -22.8066
   -14.7115 -14.6543  -6.7592  -6.6073  -6.0762  -6.0344  -6.0159  -5.9764
    -0.0817  -0.0157   0.0347   0.0591   0.3238   0.3721   6.1975   6.6138
     6.7357   6.9003   7.2324   7.3860   7.4699   7.6961   7.8060   7.9391
     8.0822   8.5198   8.9676   9.0818   9.1635   9.2493   9.3281   9.6447
    12.4808  12.9686  13.0153  13.1037  13.4112  13.5218  14.5783  15.1631

          k = 0.2500 0.2856-0.8567 (  5305 PWs)   bands (ev):

   -46.5900 -46.5894 -22.8482 -22.8463 -22.8375 -22.8248 -22.8237 -22.8059
   -14.6795 -14.6298  -6.8090  -6.4758  -6.0543  -6.0172  -5.9888  -5.9156
    -0.1256  -0.0759   0.0370   0.1828   0.2272   0.3256   5.9963   6.1686
     6.4805   6.5755   7.1208   7.2982   7.3508   7.4519   7.6020   7.7902
     7.9790   8.6173   8.9730   9.0478   9.0545   9.0852   9.2011   9.8646
    12.5270  13.4288  13.4387  13.4575  13.5272  13.7686  14.5622  15.2453

          k =-0.5000-0.2856-0.2856 (  5320 PWs)   bands (ev):

   -46.5903 -46.5903 -22.8262 -22.8261 -22.8233 -22.8229 -22.8126 -22.8126
   -14.7234 -14.7121  -6.7456  -6.7425  -6.0871  -6.0859  -6.0395  -6.0185
     0.0008   0.0084   0.0417   0.0475   0.3732   0.3773   6.7184   6.7275
     7.2664   7.2746   7.4254   7.4271   7.8852   7.8897   7.9961   7.9995
     8.4427   8.4434   9.1107   9.1166   9.2826   9.2903   9.4215   9.4229
    12.5140  12.5145  12.8401  12.8448  12.8998  12.9048  14.7369  14.7372

          k =-0.5000-0.2856-0.5712 (  5300 PWs)   bands (ev):

   -46.5900 -46.5899 -22.8321 -22.8320 -22.8252 -22.8250 -22.8224 -22.8220
   -14.6887 -14.6774  -6.6676  -6.6619  -6.0486  -6.0373  -6.0340  -6.0258
    -0.0575  -0.0535  -0.0007   0.0092   0.3965   0.4023   6.4423   6.4439
     6.9743   6.9832   7.1863   7.1909   7.5579   7.5651   7.8380   7.8462
     8.1361   8.1403   9.0750   9.0801   9.2228   9.2255   9.5120   9.5223
    12.9243  12.9294  13.0540  13.0552  13.2006  13.2060  15.0590  15.0608

          k =-0.5000-0.2856-0.8567 (  5292 PWs)   bands (ev):

   -46.5897 -46.5896 -22.8473 -22.8472 -22.8246 -22.8245 -22.8216 -22.8212
   -14.6605 -14.6491  -6.6520  -6.6438  -6.0311  -6.0141  -5.9622  -5.9619
    -0.0816  -0.0785   0.0491   0.0615   0.3007   0.3067   6.1063   6.1065
     6.7895   6.7942   6.9696   6.9842   7.3541   7.3600   7.7022   7.7060
     8.2242   8.2348   8.9722   8.9754   9.0846   9.0859   9.5387   9.5503
    12.9860  12.9921  13.4840  13.4842  13.5596  13.5642  15.0687  15.0711

          k =-0.5000-0.5713-0.2856 (  5302 PWs)   bands (ev):

   -46.5900 -46.5899 -22.8452 -22.8451 -22.8227 -22.8223 -22.8118 -22.8118
   -14.6887 -14.6774  -6.6463  -6.6401  -6.0827  -6.0775  -6.0191  -6.0052
    -0.0561  -0.0518  -0.0021   0.0084   0.3958   0.4015   6.4288   6.4307
     6.9460   6.9544   7.1831   7.1882   7.5290   7.5351   7.8406   7.8488
     8.1772   8.1814   9.0952   9.0994   9.2583   9.2622   9.4773   9.4876
    12.8930  12.8985  13.0670  13.0678  13.2315  13.2370  15.0494  15.0511

          k =-0.5000-0.5713-0.5712 (  5290 PWs)   bands (ev):

   -46.5896 -46.5896 -22.8443 -22.8442 -22.8309 -22.8309 -22.8218 -22.8213
   -14.6580 -14.6467  -6.5079  -6.4990  -6.0501  -6.0473  -6.0044  -5.9907
    -0.1914  -0.1853  -0.1492  -0.1410   0.3347   0.3395   6.3110   6.3116
     6.8098   6.8099   6.9951   7.0094   7.3935   7.3979   7.6550   7.6578
     7.7471   7.7492   9.2879   9.2944   9.3848   9.3946   9.5310   9.5378
    13.2731  13.2762  13.3207  13.3245  13.3737  13.3750  15.8666  15.8692

          k =-0.5000-0.5713-0.8567 (  5278 PWs)   bands (ev):

   -46.5893 -46.5893 -22.8464 -22.8464 -22.8432 -22.8432 -22.8211 -22.8207
   -14.6331 -14.6217  -6.4354  -6.4243  -6.0038  -5.9936  -5.9684  -5.9642
    -0.2730  -0.2700  -0.1620  -0.1507   0.1519   0.1543   6.0662   6.0666
     6.6966   6.6979   6.9166   6.9212   7.0734   7.0875   7.6304   7.6380
     7.7894   7.7977   9.2158   9.2276   9.4725   9.4840   9.6238   9.6269
    13.3816  13.3866  13.6294  13.6328  13.6968  13.6978  15.8887  15.8901

          k =-0.5000-0.8569-0.2856 (  5292 PWs)   bands (ev):

   -46.5897 -46.5896 -22.8607 -22.8606 -22.8220 -22.8215 -22.8112 -22.8112
   -14.6605 -14.6492  -6.6191  -6.6096  -6.0238  -6.0190  -5.9983  -5.9871
    -0.0842  -0.0813   0.0564   0.0684   0.2959   0.3018   6.0660   6.0663
     6.7594   6.7647   6.9626   6.9788   7.3415   7.3468   7.6953   7.6984
     8.2684   8.2788   9.0058   9.0078   9.1284   9.1296   9.5042   9.5166
    12.9485  12.9546  13.4979  13.4980  13.5863  13.5909  15.0665  15.0689

          k =-0.5000-0.8569-0.5712 (  5280 PWs)   bands (ev):

   -46.5893 -46.5893 -22.8596 -22.8595 -22.8302 -22.8302 -22.8211 -22.8206
   -14.6331 -14.6217  -6.4121  -6.3995  -6.0231  -6.0229  -5.9705  -5.9578
    -0.2776  -0.2748  -0.1535  -0.1428   0.1482   0.1504   6.0349   6.0353
     6.6822   6.6829   6.9248   6.9306   7.0747   7.0889   7.6168   7.6238
     7.8253   7.8347   9.2460   9.2564   9.4599   9.4731   9.6163   9.6186
    13.3495  13.3543  13.6606  13.6647  13.6955  13.6960  15.8804  15.8818

          k =-0.5000-0.8569-0.8567 (  5274 PWs)   bands (ev):

   -46.5890 -46.5890 -22.8588 -22.8587 -22.8453 -22.8453 -22.8205 -22.8200
   -14.6108 -14.5995  -6.2281  -6.2102  -6.0189  -6.0165  -5.9641  -5.9586
    -0.3337  -0.3322  -0.2985  -0.2916  -0.0728  -0.0702   5.9012   5.9020
     6.3778   6.3779   6.8911   6.8919   7.0854   7.1079   7.6000   7.6064
     7.6505   7.6570   9.4403   9.4559   9.5200   9.5369   9.8903   9.8905
    13.6915  13.6954  13.7242  13.7286  13.9210  13.9211  16.0481  16.0494

     the Fermi energy is    11.3996 ev

!    total energy              =   -1362.26466617 Ry
     estimated scf accuracy    <          6.9E-10 Ry
     smearing contrib. (-TS)   =      -0.00000000 Ry
     internal energy E=F+TS    =   -1362.26466617 Ry

     The total energy is F=E-TS. E is the sum of the following terms:
     one-electron contribution =    -143.58523063 Ry
     hartree contribution      =     120.93276972 Ry
     xc contribution           =    -121.58565973 Ry
     ewald contribution        =    -411.01267432 Ry
     one-center paw contrib.   =    -807.01387120 Ry

     convergence has been achieved in  28 iterations

     negative rho (up, down):  2.277E-03 0.000E+00

     Forces acting on atoms (cartesian axes, Ry/au):

     atom    1 type  1   force =     0.00003488    0.00004045    0.00000101
     atom    2 type  1   force =     0.00000767    0.00002708    0.00000406
     atom    3 type  2   force =     0.00158038   -0.00140556    0.00199716
     atom    4 type  2   force =    -0.00164916    0.00139264   -0.00198916
     atom    5 type  3   force =    -0.00001003    0.00000717    0.00001120
     atom    6 type  3   force =     0.00002970   -0.00004611    0.00000121
     atom    7 type  3   force =    -0.00047355    0.01832164    0.00141953
     atom    8 type  3   force =     0.00047509   -0.01830265   -0.00142386
     atom    9 type  3   force =    -0.00043235   -0.00288680   -0.01054143
     atom   10 type  3   force =     0.00043737    0.00285215    0.01052027

     Total force =     0.030511     Total SCF correction =     0.000029
     Message from routine punch:
     Nothing written, as per user request (disk_io='none')

     init_run     :     18.47s CPU     19.45s WALL (       1 calls)
     electrons    :    888.00s CPU    908.62s WALL (       1 calls)
     forces       :      5.31s CPU      5.58s WALL (       1 calls)

     Called by init_run:
     wfcinit      :      4.95s CPU      5.12s WALL (       1 calls)
     potinit      :      4.43s CPU      4.85s WALL (       1 calls)
     hinit0       :      2.46s CPU      2.58s WALL (       1 calls)

     Called by electrons:
     c_bands      :    682.29s CPU    685.06s WALL (      28 calls)
     sum_band     :    123.83s CPU    130.08s WALL (      28 calls)
     v_of_rho     :      9.90s CPU     10.94s WALL (      29 calls)
     newd         :     27.57s CPU     33.54s WALL (      29 calls)
     PAW_pot      :     44.10s CPU     49.24s WALL (      29 calls)
     mix_rho      :      1.68s CPU      1.69s WALL (      28 calls)

     Called by c_bands:
     init_us_2    :     19.61s CPU     19.67s WALL (     754 calls)
     cegterg      :    232.30s CPU    234.50s WALL (     364 calls)

     Called by *egterg:
     cdiaghg      :      4.25s CPU      4.27s WALL (    1186 calls)
     h_psi        :    144.63s CPU    146.02s WALL (    1199 calls)
     s_psi        :     19.47s CPU     19.50s WALL (    1199 calls)
     g_psi        :      1.23s CPU      1.23s WALL (     822 calls)

     Called by h_psi:
     h_psi:calbec :     23.22s CPU     23.26s WALL (    1199 calls)
     vloc_psi     :     97.94s CPU     98.56s WALL (    1199 calls)
                                        0.00s GPU  (    1199 calls)
     add_vuspsi   :     19.82s CPU     19.85s WALL (    1199 calls)

     General routines
     calbec       :     33.48s CPU     33.54s WALL (    1615 calls)
     fft          :      3.52s CPU      3.55s WALL (     386 calls)
     ffts         :      0.68s CPU      0.69s WALL (      57 calls)
     fftw         :     94.62s CPU     95.19s WALL (   94498 calls)
     interpolate  :      1.11s CPU      1.12s WALL (      29 calls)

     Parallel routines

     PWSCF        :  15m12.94s CPU  15m34.92s WALL


   This run was terminated on:   0:27:49   5Oct2026            

=------------------------------------------------------------------------------=
   JOB DONE.
=------------------------------------------------------------------------------=
