
     Program PWSCF v.7.5 starts on  5Oct2026 at  1:54:22 

     This program is part of the open-source Quantum ESPRESSO suite
     for quantum simulation of materials; please cite
         "P. Giannozzi et al., J. Phys.:Condens. Matter 21 395502 (2009);
         "P. Giannozzi et al., J. Phys.:Condens. Matter 29 465901 (2017);
         "P. Giannozzi et al., J. Chem. Phys. 152 154105 (2020);
          URL http://www.quantum-espresso.org", 
     in publications or presentations arising from this work. More details at
     http://www.quantum-espresso.org/quote

     Parallel version (MPI & OpenMP), running on       8 processor cores
     Number of MPI processes:                 8
     Threads/MPI process:                     1

     MPI processes distributed on     1 nodes
     117510 MiB available memory on the printing compute node when the environment starts

     Reading input from pw.in

     Current dimensions of program PWSCF are:
     Max number of different atomic species (ntypx) = 10
     Max number of k-points (npk) =  40000
     Max angular momentum in pseudopotentials (lmaxx) =  4
     file K.pbe-spn-kjpaw_psl.1.0.0.UPF: wavefunction(s)  3S renormalized
     file Nb.pbe-spn-kjpaw_psl.0.3.0.UPF: wavefunction(s)  4S 4P renormalized
     file O.pbe-n-kjpaw_psl.0.1.UPF: wavefunction(s)  2P renormalized

     IMPORTANT: XC functional enforced from input :
     Exchange-correlation= PBESOL
                           (   1   4  10   8   0   0   0)
     Any further DFT definition will be discarded
     Please, verify this is what you really want


     K-points division:     npool     =       2
     R & G space division:  proc/nbgrp/npool/nimage =       4
     Subspace diagonalization in iterative solution of the eigenvalue problem:
     a serial algorithm will be used


     Parallelization info
     --------------------
     sticks:   dense  smooth     PW     G-vecs:    dense   smooth      PW
     Min         560     279     81                20042     7087    1095
     Max         561     280     82                20045     7090    1098
     Sum        2241    1117    325                80173    28353    4385

     Using Slab Decomposition



     bravais-lattice index     =            0
     lattice parameter (alat)  =       7.6674  a.u.
     unit-cell volume          =     450.7662 (a.u.)^3
     number of atoms/cell      =            5
     number of atomic types    =            3
     number of electrons       =        40.00
     number of Kohn-Sham states=           24
     kinetic-energy cutoff     =      60.0000  Ry
     charge density cutoff     =     480.0000  Ry
     scf convergence threshold =      5.0E-10
     mixing beta               =       0.4000
     number of iterations used =            8  plain     mixing
     Exchange-correlation= PBESOL
                           (   1   4  10   8   0   0   0)

     celldm(1)=   7.667441  celldm(2)=   0.000000  celldm(3)=   0.000000
     celldm(4)=   0.000000  celldm(5)=   0.000000  celldm(6)=   0.000000

     crystal axes: (cart. coord. in units of alat)
               a(1) = (   1.000000   0.000000  -0.000000 )  
               a(2) = (   0.000000   1.000000  -0.000000 )  
               a(3) = (  -0.000000  -0.000000   1.000000 )  

     reciprocal axes: (cart. coord. in units 2 pi/alat)
               b(1) = (  1.000000 -0.000000  0.000000 )  
               b(2) = ( -0.000000  1.000000  0.000000 )  
               b(3) = (  0.000000  0.000000  1.000000 )  


     PseudoPot. # 1 for K  read from file:
     /root/sssp/K.pbe-spn-kjpaw_psl.1.0.0.UPF
     MD5 check sum: 7d58810084cac21f60fbe77ea2b688fd
     Pseudo is Projector augmented-wave + core cor, Zval =  9.0
     Generated using "atomic" code by A. Dal Corso  v.5.1
     Shape of augmentation charge: PSQ
     Using radial grid of 1165 points,  6 beta functions with: 
                l(1) =   0
                l(2) =   0
                l(3) =   1
                l(4) =   1
                l(5) =   2
                l(6) =   2
     Q(r) pseudized with 0 coefficients 


     PseudoPot. # 2 for Nb read from file:
     /root/sssp/Nb.pbe-spn-kjpaw_psl.0.3.0.UPF
     MD5 check sum: 411d72ad547312f8017e2943ceca08cc
     Pseudo is Projector augmented-wave + core cor, Zval = 13.0
     Generated using "atomic" code by A. Dal Corso  v.5.0.99 svn rev. 10869
     Shape of augmentation charge: PSQ
     Using radial grid of 1227 points,  6 beta functions with: 
                l(1) =   0
                l(2) =   0
                l(3) =   1
                l(4) =   1
                l(5) =   2
                l(6) =   2
     Q(r) pseudized with 0 coefficients 


     PseudoPot. # 3 for O  read from file:
     /root/sssp/O.pbe-n-kjpaw_psl.0.1.UPF
     MD5 check sum: 0234752ac141de4415c5fc33072bef88
     Pseudo is Projector augmented-wave + core cor, Zval =  6.0
     Generated using "atomic" code by A. Dal Corso  v.5.0.99 svn rev. 10869
     Shape of augmentation charge: BESSEL
     Using radial grid of 1095 points,  4 beta functions with: 
                l(1) =   0
                l(2) =   0
                l(3) =   1
                l(4) =   1
     Q(r) pseudized with 0 coefficients 


     atomic species   valence    mass     pseudopotential
     K                 9.00    39.09830     K ( 1.00)
     Nb               13.00    92.90640     Nb( 1.00)
     O                 6.00    15.99900     O ( 1.00)

     No symmetry found



   Cartesian axes

     site n.     atom                  positions (alat units)
         1        K      tau(   1) = (  -0.0005653   0.0021105   1.0021089  )
         2        Nb     tau(   2) = (   0.4955168   0.5167368   0.5167245  )
         3        O      tau(   3) = (   1.0090767   0.4657692   0.4657938  )
         4        O      tau(   4) = (   0.5091696   0.9661164   0.4657940  )
         5        O      tau(   5) = (   0.5091695   0.4657694  -0.0338592  )

     number of k points=   172  Marzari-Vanderbilt smearing, width (Ry)=  0.0050

     Number of k-points >= 100: set verbosity='high' to print them.

     Dense  grid:    80173 G-vectors     FFT dimensions: (  54,  54,  54)

     Smooth grid:    28353 G-vectors     FFT dimensions: (  40,  40,  40)

     Estimated max dynamical RAM per process >      76.19 MB

     Estimated total dynamical RAM >     589.93 MB

     Check: negative core charge=   -0.000003

     Initial potential from superposition of free atoms

     starting charge      39.9790, renormalised to      40.0000
     Starting wfcs are   30 randomized atomic wfcs
     Checking if some PAW data can be deallocated... 

     total cpu time spent up to now is        2.8 secs

     per-process dynamical memory:    62.0 Mb

     Self-consistent Calculation

     iteration #  1     ecut=    60.00 Ry     beta= 0.40
     Davidson diagonalization with overlap
     ethr =  1.00E-02,  avg # of iterations =  2.8

     total cpu time spent up to now is        6.4 secs

     total energy              =    -564.82641770 Ry
     estimated scf accuracy    <       2.28564171 Ry

     iteration #  2     ecut=    60.00 Ry     beta= 0.40
     Davidson diagonalization with overlap
     ethr =  5.71E-03,  avg # of iterations =  3.9

     total cpu time spent up to now is       11.4 secs

     total energy              =    -565.42547930 Ry
     estimated scf accuracy    <       0.62724920 Ry

     iteration #  3     ecut=    60.00 Ry     beta= 0.40
     Davidson diagonalization with overlap
     ethr =  1.57E-03,  avg # of iterations =  2.1

     total cpu time spent up to now is       15.4 secs

     total energy              =    -565.54772069 Ry
     estimated scf accuracy    <       0.02797652 Ry

     iteration #  4     ecut=    60.00 Ry     beta= 0.40
     Davidson diagonalization with overlap
     ethr =  6.99E-05,  avg # of iterations =  7.8

     total cpu time spent up to now is       20.8 secs

     total energy              =    -565.55090300 Ry
     estimated scf accuracy    <       0.00618619 Ry

     iteration #  5     ecut=    60.00 Ry     beta= 0.40
     Davidson diagonalization with overlap
     c_bands:  1 eigenvalues not converged
     ethr =  1.55E-05,  avg # of iterations =  3.8

     total cpu time spent up to now is       25.5 secs

     total energy              =    -565.55171280 Ry
     estimated scf accuracy    <       0.00197286 Ry

     iteration #  6     ecut=    60.00 Ry     beta= 0.40
     Davidson diagonalization with overlap
     ethr =  4.93E-06,  avg # of iterations =  1.9

     total cpu time spent up to now is       29.2 secs

     total energy              =    -565.55154715 Ry
     estimated scf accuracy    <       0.00044718 Ry

     iteration #  7     ecut=    60.00 Ry     beta= 0.40
     Davidson diagonalization with overlap
     ethr =  1.12E-06,  avg # of iterations =  4.7

     total cpu time spent up to now is       34.3 secs

     total energy              =    -565.55171401 Ry
     estimated scf accuracy    <       0.00028891 Ry

     iteration #  8     ecut=    60.00 Ry     beta= 0.40
     Davidson diagonalization with overlap
     ethr =  7.22E-07,  avg # of iterations =  1.9

     total cpu time spent up to now is       38.0 secs

     total energy              =    -565.55174306 Ry
     estimated scf accuracy    <       0.00001261 Ry

     iteration #  9     ecut=    60.00 Ry     beta= 0.40
     Davidson diagonalization with overlap
     ethr =  3.15E-08,  avg # of iterations =  4.1

     total cpu time spent up to now is       42.8 secs

     total energy              =    -565.55174804 Ry
     estimated scf accuracy    <       0.00000070 Ry

     iteration # 10     ecut=    60.00 Ry     beta= 0.40
     Davidson diagonalization with overlap
     ethr =  1.74E-09,  avg # of iterations =  3.8

     total cpu time spent up to now is       47.6 secs

     total energy              =    -565.55174802 Ry
     estimated scf accuracy    <       0.00000077 Ry

     iteration # 11     ecut=    60.00 Ry     beta= 0.40
     Davidson diagonalization with overlap
     ethr =  1.74E-09,  avg # of iterations =  1.2

     total cpu time spent up to now is       51.5 secs

     total energy              =    -565.55174804 Ry
     estimated scf accuracy    <       0.00000014 Ry

     iteration # 12     ecut=    60.00 Ry     beta= 0.40
     Davidson diagonalization with overlap
     ethr =  3.50E-10,  avg # of iterations =  3.2

     total cpu time spent up to now is       56.1 secs

     total energy              =    -565.55174806 Ry
     estimated scf accuracy    <          6.6E-09 Ry

     iteration # 13     ecut=    60.00 Ry     beta= 0.40
     Davidson diagonalization with overlap
     ethr =  1.66E-11,  avg # of iterations =  3.9

     total cpu time spent up to now is       61.3 secs

     total energy              =    -565.55174807 Ry
     estimated scf accuracy    <          1.2E-09 Ry

     iteration # 14     ecut=    60.00 Ry     beta= 0.40
     Davidson diagonalization with overlap
     ethr =  2.98E-12,  avg # of iterations =  2.4

     total cpu time spent up to now is       66.0 secs

     End of self-consistent calculation

     Number of k-points >= 100: set verbosity='high' to print the bands.

     the Fermi energy is     8.8884 ev

!    total energy              =    -565.55174807 Ry
     total all-electron energy =     -9289.038113 Ry
     estimated scf accuracy    <          6.2E-11 Ry
     smearing contrib. (-TS)   =       0.00000000 Ry
     internal energy E=F+TS    =    -565.55174807 Ry

     The total energy is F=E-TS. E is the sum of the following terms:
     one-electron contribution =     -74.40163605 Ry
     hartree contribution      =      59.47774009 Ry
     xc contribution           =     -61.78344606 Ry
     ewald contribution        =    -202.91877367 Ry
     one-center paw contrib.   =    -285.92563238 Ry

     convergence has been achieved in  14 iterations

     Forces acting on atoms (cartesian axes, Ry/au):

     atom    1 type  1   force =     0.00098416   -0.00223151   -0.00223212
     atom    2 type  2   force =    -0.00561546   -0.03581541   -0.03570384
     atom    3 type  3   force =     0.00757963    0.01193165    0.01191745
     atom    4 type  3   force =    -0.00147346    0.01621859    0.00987839
     atom    5 type  3   force =    -0.00147487    0.00989667    0.01614012

     Total force =     0.060541     Total SCF correction =     0.000012
     Message from routine punch:
     Nothing written, as per user request (disk_io='none')

     init_run     :      2.11s CPU      2.37s WALL (       1 calls)
     electrons    :     57.33s CPU     63.23s WALL (       1 calls)
     forces       :      0.40s CPU      0.42s WALL (       1 calls)

     Called by init_run:
     wfcinit      :      1.20s CPU      1.35s WALL (       1 calls)
     potinit      :      0.35s CPU      0.39s WALL (       1 calls)
     hinit0       :      0.46s CPU      0.47s WALL (       1 calls)

     Called by electrons:
     c_bands      :     43.45s CPU     48.33s WALL (      14 calls)
     sum_band     :      9.73s CPU     10.69s WALL (      14 calls)
     v_of_rho     :      0.30s CPU      0.33s WALL (      15 calls)
     newd         :      1.90s CPU      1.96s WALL (      15 calls)
     PAW_pot      :      2.04s CPU      2.10s WALL (      15 calls)
     mix_rho      :      0.05s CPU      0.05s WALL (      14 calls)

     Called by c_bands:
     init_us_2    :      1.15s CPU      1.18s WALL (    2580 calls)
     cegterg      :     35.67s CPU     40.51s WALL (    1204 calls)

     Called by *egterg:
     cdiaghg      :      3.30s CPU      3.43s WALL (    5206 calls)
     h_psi        :     27.15s CPU     31.77s WALL (    5292 calls)
     s_psi        :      1.15s CPU      1.20s WALL (    5292 calls)
     g_psi        :      0.30s CPU      0.31s WALL (    4002 calls)

     Called by h_psi:
     h_psi:calbec :      1.62s CPU      1.86s WALL (    5292 calls)
     vloc_psi     :     24.15s CPU     28.42s WALL (    5292 calls)
                                        0.00s GPU  (    5292 calls)
     add_vuspsi   :      1.20s CPU      1.30s WALL (    5292 calls)

     General routines
     calbec       :      2.28s CPU      2.60s WALL (    6840 calls)
     fft          :      0.30s CPU      0.33s WALL (     204 calls)
     ffts         :      0.18s CPU      0.18s WALL (      29 calls)
     fftw         :     26.66s CPU     31.31s WALL (  178334 calls)
     interpolate  :      0.20s CPU      0.20s WALL (      15 calls)

     Parallel routines

     PWSCF        :   1m 0.23s CPU   1m 6.44s WALL


   This run was terminated on:   1:55:28   5Oct2026            

=------------------------------------------------------------------------------=
   JOB DONE.
=------------------------------------------------------------------------------=
