
     Program PWSCF v.7.5 starts on  4Oct2026 at 10:50:44 

     This program is part of the open-source Quantum ESPRESSO suite
     for quantum simulation of materials; please cite
         "P. Giannozzi et al., J. Phys.:Condens. Matter 21 395502 (2009);
         "P. Giannozzi et al., J. Phys.:Condens. Matter 29 465901 (2017);
         "P. Giannozzi et al., J. Chem. Phys. 152 154105 (2020);
          URL http://www.quantum-espresso.org", 
     in publications or presentations arising from this work. More details at
     http://www.quantum-espresso.org/quote

     Parallel version (MPI & OpenMP), running on       8 processor cores
     Number of MPI processes:                 8
     Threads/MPI process:                     1

     MPI processes distributed on     1 nodes
     81605 MiB available memory on the printing compute node when the environment starts

     Reading input from pw.in

     Current dimensions of program PWSCF are:
     Max number of different atomic species (ntypx) = 10
     Max number of k-points (npk) =  40000
     Max angular momentum in pseudopotentials (lmaxx) =  4
     file K.pbe-spn-kjpaw_psl.1.0.0.UPF: wavefunction(s)  3S renormalized
     file Nb.pbe-spn-kjpaw_psl.0.3.0.UPF: wavefunction(s)  4S 4P renormalized
     file O.pbe-n-kjpaw_psl.0.1.UPF: wavefunction(s)  2P renormalized

     K-points division:     npool     =       4
     R & G space division:  proc/nbgrp/npool/nimage =       2
     Subspace diagonalization in iterative solution of the eigenvalue problem:
     a serial algorithm will be used


     Parallelization info
     --------------------
     sticks:   dense  smooth     PW     G-vecs:    dense   smooth      PW
     Min        4496    2246    612               320300   113319   16210
     Max        4497    2247    613               320303   113320   16213
     Sum        8993    4493   1225               640603   226639   32423

     Using Slab Decomposition



     bravais-lattice index     =            0
     lattice parameter (alat)  =      15.3349  a.u.
     unit-cell volume          =    3606.1296 (a.u.)^3
     number of atoms/cell      =           40
     number of atomic types    =            3
     number of electrons       =       320.00
     number of Kohn-Sham states=          192
     kinetic-energy cutoff     =      60.0000  Ry
     charge density cutoff     =     480.0000  Ry
     scf convergence threshold =      4.0E-09
     mixing beta               =       0.4000
     number of iterations used =            8  plain     mixing
     Exchange-correlation= SLA  PW   PBX  PBC
                           (   1   4   3   4   0   0   0)

     celldm(1)=  15.334882  celldm(2)=   0.000000  celldm(3)=   0.000000
     celldm(4)=   0.000000  celldm(5)=   0.000000  celldm(6)=   0.000000

     crystal axes: (cart. coord. in units of alat)
               a(1) = (   1.000000   0.000000  -0.000000 )  
               a(2) = (   0.000000   1.000000   0.000000 )  
               a(3) = (  -0.000000   0.000000   1.000000 )  

     reciprocal axes: (cart. coord. in units 2 pi/alat)
               b(1) = (  1.000000 -0.000000  0.000000 )  
               b(2) = ( -0.000000  1.000000 -0.000000 )  
               b(3) = (  0.000000 -0.000000  1.000000 )  


     PseudoPot. # 1 for K  read from file:
     /root/sssp/K.pbe-spn-kjpaw_psl.1.0.0.UPF
     MD5 check sum: 7d58810084cac21f60fbe77ea2b688fd
     Pseudo is Projector augmented-wave + core cor, Zval =  9.0
     Generated using "atomic" code by A. Dal Corso  v.5.1
     Shape of augmentation charge: PSQ
     Using radial grid of 1165 points,  6 beta functions with: 
                l(1) =   0
                l(2) =   0
                l(3) =   1
                l(4) =   1
                l(5) =   2
                l(6) =   2
     Q(r) pseudized with 0 coefficients 


     PseudoPot. # 2 for Nb read from file:
     /root/sssp/Nb.pbe-spn-kjpaw_psl.0.3.0.UPF
     MD5 check sum: 411d72ad547312f8017e2943ceca08cc
     Pseudo is Projector augmented-wave + core cor, Zval = 13.0
     Generated using "atomic" code by A. Dal Corso  v.5.0.99 svn rev. 10869
     Shape of augmentation charge: PSQ
     Using radial grid of 1227 points,  6 beta functions with: 
                l(1) =   0
                l(2) =   0
                l(3) =   1
                l(4) =   1
                l(5) =   2
                l(6) =   2
     Q(r) pseudized with 0 coefficients 


     PseudoPot. # 3 for O  read from file:
     /root/sssp/O.pbe-n-kjpaw_psl.0.1.UPF
     MD5 check sum: 0234752ac141de4415c5fc33072bef88
     Pseudo is Projector augmented-wave + core cor, Zval =  6.0
     Generated using "atomic" code by A. Dal Corso  v.5.0.99 svn rev. 10869
     Shape of augmentation charge: BESSEL
     Using radial grid of 1095 points,  4 beta functions with: 
                l(1) =   0
                l(2) =   0
                l(3) =   1
                l(4) =   1
     Q(r) pseudized with 0 coefficients 


     atomic species   valence    mass     pseudopotential
     K                 9.00    39.09830     K ( 1.00)
     Nb               13.00    92.90640     Nb( 1.00)
     O                 6.00    15.99900     O ( 1.00)

     No symmetry found



   Cartesian axes

     site n.     atom                  positions (alat units)
         1        K      tau(   1) = (   0.5010222   0.0048732   0.5023327  )
         2        K      tau(   2) = (   0.9930862  -0.0005391   0.4975985  )
         3        K      tau(   3) = (   0.5002721   0.4950800   0.4862115  )
         4        K      tau(   4) = (   0.9911252   0.5046932   0.5108522  )
         5        K      tau(   5) = (   0.4964815  -0.0198907   1.0005164  )
         6        K      tau(   6) = (   0.9863791   0.0178915   1.0122420  )
         7        K      tau(   7) = (   0.5071157   0.5002637   1.0043063  )
         8        K      tau(   8) = (   1.0103803   0.5068190   1.0021509  )
         9        Nb     tau(   9) = (   0.2497799   0.2455402   0.2498775  )
        10        Nb     tau(  10) = (   0.7485750   0.2349900   0.2872199  )
        11        Nb     tau(  11) = (   0.2560467   0.7401966   0.2577029  )
        12        Nb     tau(  12) = (   0.7559027   0.7356265   0.2021649  )
        13        Nb     tau(  13) = (   0.2526728   0.2790831   0.7541601  )
        14        Nb     tau(  14) = (   0.7571862   0.2391950   0.7812291  )
        15        Nb     tau(  15) = (   0.2352904   0.7838737   0.7589886  )
        16        Nb     tau(  16) = (   0.7430370   0.7389268   0.7079752  )
        17        O      tau(  17) = (  -0.0110248   0.2580238   0.2382981  )
        18        O      tau(  18) = (   0.4907470   0.2557532   0.2445443  )
        19        O      tau(  19) = (   0.0048444   0.7508202   0.2551580  )
        20        O      tau(  20) = (   0.5011450   0.7460677   0.2505204  )
        21        O      tau(  21) = (   0.0021454   0.2368396   0.7466853  )
        22        O      tau(  22) = (   0.5022607   0.2482989   0.7379633  )
        23        O      tau(  23) = (   0.0036031   0.7357531   0.7637710  )
        24        O      tau(  24) = (   0.5030335   0.7552073   0.7414323  )
        25        O      tau(  25) = (   0.2629364   0.5020762   0.2592108  )
        26        O      tau(  26) = (   0.7544510   0.4965118   0.2534433  )
        27        O      tau(  27) = (   0.2580211   1.0007707   0.2381290  )
        28        O      tau(  28) = (   0.7446563   1.0025916   0.2451449  )
        29        O      tau(  29) = (   0.2568790   0.4942549   0.7506562  )
        30        O      tau(  30) = (   0.7534036   0.4967232   0.7538058  )
        31        O      tau(  31) = (   0.2555328   0.9972775   0.7593941  )
        32        O      tau(  32) = (   0.7512963   1.0004310   0.7566506  )
        33        O      tau(  33) = (   0.2422903   0.2421322   0.4952511  )
        34        O      tau(  34) = (   0.7369285   0.2626028   0.4872787  )
        35        O      tau(  35) = (   0.2502542   0.7546223   0.5006485  )
        36        O      tau(  36) = (   0.7684131   0.7597347   0.4980215  )
        37        O      tau(  37) = (   0.2444981   0.2514352   1.0056393  )
        38        O      tau(  38) = (   0.7415073   0.2522218   0.9884085  )
        39        O      tau(  39) = (   0.2639335   0.7543468   0.9912111  )
        40        O      tau(  40) = (   0.7615565   0.7379578   1.0030801  )

     number of k points=    36  Marzari-Vanderbilt smearing, width (Ry)=  0.0050
                       cart. coord. in units 2pi/alat
        k(    1) = (   0.0000000   0.0000000   0.0000000), wk =   0.0312500
        k(    2) = (   0.0000000  -0.0000000   0.2500000), wk =   0.0625000
        k(    3) = (  -0.0000000   0.0000000  -0.5000000), wk =   0.0312500
        k(    4) = (   0.0000000   0.2500000   0.2500000), wk =   0.0625000
        k(    5) = (  -0.0000000   0.2500000  -0.5000000), wk =   0.0625000
        k(    6) = (  -0.0000000  -0.5000000  -0.5000000), wk =   0.0312500
        k(    7) = (   0.2500000   0.2500000   0.2500000), wk =   0.0625000
        k(    8) = (   0.2500000   0.2500000  -0.5000000), wk =   0.0625000
        k(    9) = (   0.2500000  -0.5000000  -0.5000000), wk =   0.0625000
        k(   10) = (  -0.5000000  -0.5000000  -0.5000000), wk =   0.0312500
        k(   11) = (   0.2500000  -0.0000000   0.0000000), wk =   0.0625000
        k(   12) = (  -0.0000000   0.2500000  -0.0000000), wk =   0.0625000
        k(   13) = (  -0.5000000   0.0000000  -0.0000000), wk =   0.0312500
        k(   14) = (   0.0000000  -0.5000000   0.0000000), wk =   0.0312500
        k(   15) = (   0.0000000  -0.2500000   0.2500000), wk =   0.0625000
        k(   16) = (   0.2500000   0.0000000  -0.2500000), wk =   0.0625000
        k(   17) = (  -0.2500000   0.0000000  -0.2500000), wk =   0.0625000
        k(   18) = (   0.2500000  -0.2500000   0.0000000), wk =   0.0625000
        k(   19) = (  -0.2500000  -0.2500000   0.0000000), wk =   0.0625000
        k(   20) = (   0.2500000  -0.0000000   0.5000000), wk =   0.0625000
        k(   21) = (  -0.5000000  -0.2500000  -0.0000000), wk =   0.0625000
        k(   22) = (   0.0000000  -0.5000000   0.2500000), wk =   0.0625000
        k(   23) = (   0.2500000  -0.5000000   0.0000000), wk =   0.0625000
        k(   24) = (  -0.5000000  -0.0000000   0.2500000), wk =   0.0625000
        k(   25) = (  -0.5000000  -0.0000000   0.5000000), wk =   0.0312500
        k(   26) = (  -0.5000000   0.5000000  -0.0000000), wk =   0.0312500
        k(   27) = (  -0.2500000  -0.2500000   0.2500000), wk =   0.0625000
        k(   28) = (  -0.2500000   0.2500000  -0.2500000), wk =   0.0625000
        k(   29) = (   0.2500000  -0.2500000  -0.2500000), wk =   0.0625000
        k(   30) = (  -0.2500000   0.2500000   0.5000000), wk =   0.0625000
        k(   31) = (  -0.5000000  -0.2500000   0.2500000), wk =   0.0625000
        k(   32) = (   0.5000000  -0.2500000  -0.2500000), wk =   0.0625000
        k(   33) = (  -0.2500000  -0.5000000   0.2500000), wk =   0.0625000
        k(   34) = (  -0.2500000   0.5000000  -0.2500000), wk =   0.0625000
        k(   35) = (  -0.5000000   0.2500000   0.5000000), wk =   0.0625000
        k(   36) = (  -0.5000000   0.5000000   0.2500000), wk =   0.0625000

     Dense  grid:   640603 G-vectors     FFT dimensions: ( 108, 108, 108)

     Smooth grid:   226639 G-vectors     FFT dimensions: (  75,  75,  75)

     Estimated max dynamical RAM per process >       1.01 GB

     Estimated total dynamical RAM >       7.61 GB

     Check: negative core charge=   -0.000003

     Initial potential from superposition of free atoms

     starting charge     319.8323, renormalised to     320.0000
     Starting wfcs are  240 randomized atomic wfcs
     Checking if some PAW data can be deallocated... 

     total cpu time spent up to now is       72.4 secs

     per-process dynamical memory:   704.7 Mb

     Self-consistent Calculation

     iteration #  1     ecut=    60.00 Ry     beta= 0.40
     Davidson diagonalization with overlap
     ethr =  1.00E-02,  avg # of iterations =  2.1

     total cpu time spent up to now is      240.1 secs

     total energy              =   -4575.62040067 Ry
     estimated scf accuracy    <      19.81996390 Ry

     iteration #  2     ecut=    60.00 Ry     beta= 0.40
     Davidson diagonalization with overlap
     ethr =  6.19E-03,  avg # of iterations =  4.0
     Minimization algorithm failed to find Fermi energy: reverting to bisection
     Possible cause: smearing is larger than the electronic band-gap.

     total cpu time spent up to now is      443.5 secs

     total energy              =   -4580.71666151 Ry
     estimated scf accuracy    <       5.37984859 Ry

     iteration #  3     ecut=    60.00 Ry     beta= 0.40
     Davidson diagonalization with overlap
     ethr =  1.68E-03,  avg # of iterations =  2.1

     total cpu time spent up to now is      609.1 secs

     total energy              =   -4581.84069779 Ry
     estimated scf accuracy    <       0.34205200 Ry

     iteration #  4     ecut=    60.00 Ry     beta= 0.40
     Davidson diagonalization with overlap
     ethr =  1.07E-04,  avg # of iterations = 12.1

     total cpu time spent up to now is      872.7 secs

     total energy              =   -4581.85347163 Ry
     estimated scf accuracy    <       0.11549845 Ry

     iteration #  5     ecut=    60.00 Ry     beta= 0.40
     Davidson diagonalization with overlap
     c_bands:  1 eigenvalues not converged
     c_bands:  1 eigenvalues not converged
     ethr =  3.61E-05,  avg # of iterations =  9.2

     total cpu time spent up to now is     1132.0 secs

     total energy              =   -4581.87297858 Ry
     estimated scf accuracy    <       0.02801413 Ry

     iteration #  6     ecut=    60.00 Ry     beta= 0.40
     Davidson diagonalization with overlap
     c_bands:  1 eigenvalues not converged
     ethr =  8.75E-06,  avg # of iterations =  8.2

     total cpu time spent up to now is     1367.7 secs

     total energy              =   -4581.87403385 Ry
     estimated scf accuracy    <       0.00869590 Ry

     iteration #  7     ecut=    60.00 Ry     beta= 0.40
     Davidson diagonalization with overlap
     ethr =  2.72E-06,  avg # of iterations =  6.4

     total cpu time spent up to now is     1566.9 secs

     total energy              =   -4581.87360734 Ry
     estimated scf accuracy    <       0.00206397 Ry

     iteration #  8     ecut=    60.00 Ry     beta= 0.40
     Davidson diagonalization with overlap
     ethr =  6.45E-07,  avg # of iterations =  8.0

     total cpu time spent up to now is     1841.4 secs

     total energy              =   -4581.87435596 Ry
     estimated scf accuracy    <       0.00052009 Ry

     iteration #  9     ecut=    60.00 Ry     beta= 0.40
     Davidson diagonalization with overlap
     ethr =  1.63E-07,  avg # of iterations =  2.3

     total cpu time spent up to now is     2015.1 secs

     total energy              =   -4581.87432513 Ry
     estimated scf accuracy    <       0.00018238 Ry

     iteration # 10     ecut=    60.00 Ry     beta= 0.40
     Davidson diagonalization with overlap
     ethr =  5.70E-08,  avg # of iterations =  2.2

     total cpu time spent up to now is     2195.9 secs

     total energy              =   -4581.87435834 Ry
     estimated scf accuracy    <       0.00000567 Ry

     iteration # 11     ecut=    60.00 Ry     beta= 0.40
     Davidson diagonalization with overlap
     ethr =  1.77E-09,  avg # of iterations =  5.0

     total cpu time spent up to now is     2458.5 secs

     total energy              =   -4581.87436083 Ry
     estimated scf accuracy    <       0.00000772 Ry

     iteration # 12     ecut=    60.00 Ry     beta= 0.40
     Davidson diagonalization with overlap
     ethr =  1.77E-09,  avg # of iterations =  2.8

     total cpu time spent up to now is     2649.0 secs

     total energy              =   -4581.87436265 Ry
     estimated scf accuracy    <       0.00000053 Ry

     iteration # 13     ecut=    60.00 Ry     beta= 0.40
     Davidson diagonalization with overlap
     ethr =  1.67E-10,  avg # of iterations =  2.0

     total cpu time spent up to now is     2827.3 secs

     total energy              =   -4581.87436276 Ry
     estimated scf accuracy    <       0.00000006 Ry

     iteration # 14     ecut=    60.00 Ry     beta= 0.40
     Davidson diagonalization with overlap
     ethr =  1.88E-11,  avg # of iterations =  3.1

     total cpu time spent up to now is     3029.6 secs

     total energy              =   -4581.87436278 Ry
     estimated scf accuracy    <       0.00000002 Ry

     iteration # 15     ecut=    60.00 Ry     beta= 0.40
     Davidson diagonalization with overlap
     ethr =  4.74E-12,  avg # of iterations =  2.7

     total cpu time spent up to now is     3219.1 secs

     End of self-consistent calculation

          k = 0.0000 0.0000 0.0000 ( 28353 PWs)   bands (ev):

   -46.9223 -46.9036 -46.8698 -46.8311 -46.7713 -46.6372 -46.6217 -46.5841
   -24.0967 -23.6880 -23.4594 -23.4126 -23.3971 -23.1508 -23.0538 -23.0399
   -23.0096 -22.9576 -22.9141 -22.9045 -22.8989 -22.8930 -22.8871 -22.8570
   -22.8525 -22.8466 -22.7306 -22.7240 -22.7154 -22.6870 -22.6733 -22.6305
   -19.6505 -19.5661 -19.5456 -19.5429 -19.5192 -19.4408 -19.3855 -19.3540
    -9.5239  -9.2955  -9.1661  -8.8314  -8.6887  -8.6446  -8.5754  -8.4993
    -8.4765  -8.4664  -8.3864  -8.3686  -8.3463  -8.2955  -8.1754  -7.7485
    -7.7347  -7.7328  -7.6896  -7.6577  -7.5977  -7.5798  -7.5698  -7.5668
    -3.3661  -3.3096  -3.2992  -3.2032  -3.1727  -3.1484  -3.1343  -3.1304
    -3.1010  -3.0866  -3.0793  -3.0580  -3.0427  -3.0224  -3.0213  -2.9976
    -2.9727  -2.9545  -2.9410  -2.9358  -2.9028  -2.8828  -2.8607  -2.8192
     2.4664   2.7295   2.8093   3.0748   3.1248   3.2065   3.2381   3.2537
     3.2785   3.3728   3.4151   3.4947   3.5247   3.6134   3.8052   3.8137
     3.8906   4.0877   4.3416   4.4869   4.4937   4.6412   4.8152   4.9678
     5.0150   5.1263   5.1605   5.1652   5.2274   5.3399   5.4997   5.5335
     5.6430   5.7082   5.8034   5.8433   5.8805   5.9319   5.9386   6.0138
     6.0640   6.1039   6.1389   6.1669   6.2887   6.3363   6.4057   6.5183
     6.5538   6.5682   6.6563   6.6965   6.7618   6.7834   6.8266   6.8528
     6.9333   6.9904   7.0533   7.0717   7.0882   7.1449   7.1768   7.2594
     7.2634   7.3579   7.5018   7.8290   7.9511   7.9710   7.9734   8.1704
     9.9703  10.2977  10.3163  10.5809  10.7140  11.0995  11.8933  12.1065
    12.1284  12.2388  12.2917  12.4265  12.4669  12.4970  12.5476  12.5942
    12.7017  12.8982  12.9063  13.0281  13.1510  13.2133  13.2946  13.3794
    13.3908  13.4471  13.5323  13.6367  13.7402  14.2648  14.3294  14.4520

          k = 0.0000-0.0000 0.2500 ( 28242 PWs)   bands (ev):

   -46.9222 -46.9036 -46.8697 -46.8311 -46.7713 -46.6372 -46.6217 -46.5841
   -24.0949 -23.6834 -23.4617 -23.4175 -23.3972 -23.1509 -23.0538 -23.0399
   -23.0051 -22.9425 -22.9139 -22.9041 -22.8989 -22.8933 -22.8872 -22.8648
   -22.8570 -22.8499 -22.7345 -22.7238 -22.7156 -22.6881 -22.6732 -22.6306
   -19.6502 -19.5652 -19.5460 -19.5435 -19.5191 -19.4406 -19.3856 -19.3542
    -9.4271  -9.1964  -9.1573  -8.8295  -8.7240  -8.6282  -8.6022  -8.5281
    -8.4948  -8.4285  -8.4091  -8.3519  -8.3274  -8.2897  -8.1742  -7.8002
    -7.7484  -7.7316  -7.7231  -7.7160  -7.6845  -7.5903  -7.5746  -7.5714
    -3.3505  -3.2856  -3.2758  -3.2028  -3.1730  -3.1513  -3.1340  -3.1261
    -3.1089  -3.0902  -3.0744  -3.0575  -3.0412  -3.0303  -3.0208  -3.0012
    -2.9758  -2.9611  -2.9496  -2.9400  -2.9110  -2.8867  -2.8708  -2.8322
     2.7003   2.8185   2.9393   3.1501   3.1846   3.2394   3.2883   3.3397
     3.4009   3.4410   3.4697   3.5556   3.6630   3.7683   3.8671   3.8818
     3.9887   4.1001   4.2685   4.3447   4.3844   4.4647   4.6961   4.8888
     5.0066   5.0710   5.1183   5.1764   5.2032   5.2460   5.3591   5.4443
     5.4860   5.5965   5.6697   5.7559   5.7887   5.8588   5.9162   5.9466
     6.0301   6.0908   6.1456   6.1718   6.2848   6.3741   6.4350   6.5245
     6.5773   6.5964   6.6698   6.7411   6.7637   6.8025   6.8338   6.8629
     6.8902   7.0071   7.0393   7.0761   7.0924   7.1287   7.1720   7.2137
     7.2829   7.3080   7.4311   7.7376   7.8512   7.8834   7.9718   8.1697
     9.9768  10.3175  10.5836  10.8024  10.9157  11.2451  11.8891  12.0329
    12.0785  12.1095  12.1615  12.2221  12.3196  12.3860  12.4813  12.5951
    12.7158  12.8731  12.9094  13.0095  13.1188  13.1675  13.2176  13.2678
    13.4049  13.5853  13.7713  13.7984  13.9193  14.2890  14.3326  14.7197

          k =-0.0000 0.0000-0.5000 ( 28326 PWs)   bands (ev):

   -46.9222 -46.9036 -46.8697 -46.8311 -46.7713 -46.6371 -46.6218 -46.5841
   -24.0930 -23.6787 -23.4639 -23.4226 -23.3972 -23.1510 -23.0537 -23.0399
   -23.0004 -22.9155 -22.9119 -22.9037 -22.8990 -22.8941 -22.8937 -22.8872
   -22.8571 -22.8502 -22.7388 -22.7237 -22.7158 -22.6890 -22.6732 -22.6306
   -19.6500 -19.5641 -19.5467 -19.5440 -19.5189 -19.4404 -19.3858 -19.3544
    -9.2775  -9.1497  -9.0417  -8.9068  -8.7961  -8.7420  -8.5738  -8.5217
    -8.4912  -8.4570  -8.3781  -8.3480  -8.2167  -8.1891  -8.1407  -8.0400
    -7.8988  -7.7489  -7.7280  -7.7240  -7.6816  -7.5936  -7.5789  -7.5755
    -3.3320  -3.2485  -3.2376  -3.2291  -3.1782  -3.1493  -3.1349  -3.1182
    -3.1171  -3.0933  -3.0689  -3.0651  -3.0400  -3.0316  -3.0235  -2.9990
    -2.9902  -2.9740  -2.9506  -2.9457  -2.9149  -2.8919  -2.8782  -2.8477
     2.8226   2.9808   3.1407   3.1508   3.2382   3.2657   3.3824   3.4178
     3.4644   3.4902   3.6003   3.7199   3.8151   3.8747   3.9361   4.0147
     4.2052   4.2581   4.2691   4.3650   4.4270   4.4915   4.5878   4.6283
     4.7220   4.8347   4.8665   4.9832   5.1908   5.1926   5.2242   5.2748
     5.2845   5.3792   5.4862   5.5719   5.6725   5.8234   5.8297   5.9964
     6.0395   6.0686   6.1873   6.2700   6.3804   6.4694   6.5096   6.5401
     6.5653   6.6180   6.6718   6.7045   6.7517   6.7898   6.8075   6.8191
     6.8696   6.9466   7.0302   7.0789   7.0916   7.1339   7.1784   7.3277
     7.3834   7.4221   7.5144   7.5473   7.6278   7.7229   7.9721   8.1690
     9.9824  10.3231  11.0934  11.2649  11.3438  11.5187  11.5599  11.6549
    11.7159  11.8682  11.9352  12.1558  12.1686  12.4036  12.5739  12.6850
    12.7697  12.7984  12.8908  12.9476  12.9731  13.0133  13.1362  13.2267
    13.4330  13.4780  14.0162  14.0907  14.1271  14.2798  14.5528  14.6825

          k = 0.0000 0.2500 0.2500 ( 28303 PWs)   bands (ev):

   -46.9222 -46.9036 -46.8697 -46.8311 -46.7713 -46.6372 -46.6217 -46.5841
   -24.0949 -23.6834 -23.4617 -23.4176 -23.3913 -23.1572 -23.0466 -23.0398
   -23.0047 -22.9426 -22.9139 -22.8990 -22.8981 -22.8876 -22.8865 -22.8653
   -22.8572 -22.8570 -22.7346 -22.7313 -22.7217 -22.6881 -22.6732 -22.6306
   -19.6500 -19.5641 -19.5463 -19.5445 -19.5190 -19.4403 -19.3860 -19.3543
    -9.4214  -9.1901  -9.0452  -8.7776  -8.6773  -8.6174  -8.5937  -8.5176
    -8.4712  -8.4105  -8.3772  -8.3411  -8.3156  -8.2844  -8.2723  -7.8508
    -7.8385  -7.8007  -7.7273  -7.7230  -7.6957  -7.6873  -7.5890  -7.5763
    -3.3444  -3.2687  -3.2425  -3.2031  -3.1758  -3.1492  -3.1400  -3.1217
    -3.1167  -3.1041  -3.0741  -3.0593  -3.0522  -3.0255  -3.0188  -3.0064
    -2.9804  -2.9589  -2.9493  -2.9433  -2.9186  -2.9022  -2.8688  -2.8330
     2.7437   2.9255   3.1295   3.2518   3.3033   3.3396   3.3863   3.4387
     3.4636   3.4945   3.5643   3.6773   3.6963   3.7933   3.9419   4.0129
     4.0840   4.1703   4.3164   4.3526   4.4358   4.4781   4.6483   4.7657
     4.8557   4.9797   4.9926   5.0614   5.1119   5.2254   5.2992   5.3816
     5.4083   5.4740   5.5577   5.6129   5.7071   5.7188   5.7548   5.8156
     5.8651   5.9509   6.0670   6.1601   6.2638   6.3570   6.4688   6.4974
     6.5985   6.6239   6.7145   6.7482   6.7673   6.8491   6.8969   6.9446
     6.9603   6.9642   7.0012   7.0267   7.0622   7.1199   7.1585   7.2101
     7.2433   7.2966   7.3694   7.7282   7.8077   7.8413   7.8860   8.0465
    10.3094  10.5615  10.8037  10.8574  10.9215  11.4839  11.7486  11.8737
    12.0251  12.0625  12.1171  12.1976  12.3225  12.4090  12.4622  12.5807
    12.6886  12.7195  12.8028  12.9870  13.0646  13.1276  13.1414  13.2396
    13.4961  13.6541  13.8432  14.1093  14.1512  14.3431  14.8216  14.9580

          k =-0.0000 0.2500-0.5000 ( 28312 PWs)   bands (ev):

   -46.9222 -46.9036 -46.8697 -46.8311 -46.7713 -46.6371 -46.6218 -46.5841
   -24.0930 -23.6787 -23.4640 -23.4227 -23.3914 -23.1572 -23.0465 -23.0398
   -23.0001 -22.9155 -22.9119 -22.8988 -22.8980 -22.8941 -22.8876 -22.8868
   -22.8580 -22.8570 -22.7388 -22.7311 -22.7219 -22.6890 -22.6732 -22.6307
   -19.6498 -19.5630 -19.5469 -19.5451 -19.5188 -19.4401 -19.3861 -19.3546
    -9.2719  -9.0447  -9.0183  -8.8983  -8.7687  -8.6758  -8.5540  -8.5168
    -8.4814  -8.4258  -8.3423  -8.3241  -8.2887  -8.2143  -8.1500  -8.0452
    -7.9012  -7.8485  -7.8321  -7.7255  -7.7028  -7.6908  -7.5907  -7.5790
    -3.3285  -3.2502  -3.2241  -3.2155  -3.1728  -3.1566  -3.1387  -3.1231
    -3.1123  -3.0962  -3.0722  -3.0633  -3.0522  -3.0334  -3.0226  -3.0060
    -2.9872  -2.9726  -2.9557  -2.9518  -2.9181  -2.9067  -2.8645  -2.8393
     3.0633   3.1341   3.2098   3.2830   3.3133   3.4036   3.4657   3.4987
     3.5167   3.6130   3.6311   3.7692   3.8713   3.9326   4.0533   4.0924
     4.2090   4.2551   4.3468   4.4120   4.4196   4.4659   4.5550   4.6498
     4.7462   4.8065   4.8335   4.8807   4.9689   5.0462   5.1857   5.2506
     5.2875   5.3256   5.4032   5.4290   5.5465   5.6025   5.7040   5.7236
     5.8388   5.9070   5.9807   6.0685   6.3015   6.4749   6.5394   6.5694
     6.6246   6.6501   6.7071   6.7520   6.7915   6.8137   6.8611   6.9275
     6.9395   6.9683   7.0039   7.0449   7.0581   7.1250   7.2206   7.2659
     7.3006   7.4241   7.5130   7.5509   7.6286   7.6986   7.8775   8.0481
    10.3165  10.5812  11.2549  11.2739  11.3480  11.5246  11.6904  11.7160
    11.7594  11.7890  11.9410  12.0344  12.1661  12.3308  12.4474  12.6425
    12.6628  12.7136  12.8068  12.8543  12.9582  13.0024  13.0648  13.1021
    13.5079  13.6640  14.0925  14.1413  14.4938  14.6688  14.8919  15.0708

          k =-0.0000-0.5000-0.5000 ( 28276 PWs)   bands (ev):

   -46.9222 -46.9036 -46.8697 -46.8311 -46.7713 -46.6371 -46.6218 -46.5841
   -24.0931 -23.6787 -23.4640 -23.4227 -23.3852 -23.1639 -23.0405 -23.0378
   -22.9995 -22.9155 -22.9119 -22.8988 -22.8941 -22.8918 -22.8883 -22.8790
   -22.8662 -22.8570 -22.7396 -22.7386 -22.7284 -22.6891 -22.6732 -22.6307
   -19.6496 -19.5617 -19.5470 -19.5464 -19.5187 -19.4397 -19.3865 -19.3547
    -9.2669  -9.0160  -8.8964  -8.7848  -8.7518  -8.7106  -8.5987  -8.5088
    -8.4479  -8.4048  -8.3133  -8.2992  -8.2124  -8.1846  -8.1646  -8.0655
    -8.0282  -7.9882  -7.9002  -7.8488  -7.7240  -7.6950  -7.5913  -7.5791
    -3.3248  -3.2468  -3.2063  -3.1980  -3.1732  -3.1711  -3.1356  -3.1336
    -3.1243  -3.0859  -3.0790  -3.0644  -3.0440  -3.0333  -3.0308  -3.0086
    -2.9946  -2.9815  -2.9593  -2.9502  -2.9199  -2.9090  -2.8601  -2.8331
     3.1018   3.2410   3.3052   3.3777   3.3886   3.4697   3.5517   3.5918
     3.6471   3.8452   3.9045   4.0388   4.0813   4.1351   4.1800   4.2199
     4.2634   4.2969   4.3342   4.3936   4.4530   4.4773   4.5181   4.6305
     4.7084   4.7630   4.8046   4.8217   4.9128   4.9474   4.9810   5.0243
     5.0801   5.1298   5.2093   5.2659   5.3243   5.4323   5.4576   5.5130
     5.5775   5.6631   5.7876   5.9415   6.3776   6.4895   6.5807   6.5929
     6.6118   6.6335   6.7150   6.7434   6.7685   6.8176   6.8375   6.8895
     6.9437   6.9877   7.0125   7.1152   7.1222   7.1767   7.3498   7.3929
     7.4447   7.4813   7.4845   7.6290   7.6573   7.6751   7.7012   7.7274
    10.9034  11.1199  11.1659  11.2349  11.3611  11.4264  11.5832  11.6507
    11.7238  11.8569  12.0000  12.0749  12.3015  12.3410  12.3622  12.4088
    12.5217  12.6031  12.6120  12.6568  12.8781  12.8924  12.9673  13.0444
    13.6669  13.9294  14.0051  14.1703  15.1360  15.3154  15.5146  15.6701

          k = 0.2500 0.2500 0.2500 ( 28324 PWs)   bands (ev):

   -46.9222 -46.9036 -46.8697 -46.8311 -46.7713 -46.6372 -46.6217 -46.5841
   -24.0949 -23.6834 -23.4617 -23.4176 -23.3914 -23.1571 -23.0464 -23.0329
   -23.0047 -22.9426 -22.9087 -22.8984 -22.8934 -22.8864 -22.8828 -22.8653
   -22.8644 -22.8569 -22.7363 -22.7313 -22.7216 -22.6923 -22.6789 -22.6362
   -19.6499 -19.5636 -19.5462 -19.5444 -19.5194 -19.4404 -19.3861 -19.3544
    -9.4172  -9.1845  -9.0334  -8.7309  -8.6621  -8.5790  -8.5724  -8.4695
    -8.4327  -8.4041  -8.3722  -8.3122  -8.2941  -8.2569  -8.2230  -7.8708
    -7.8376  -7.8299  -7.8192  -7.7774  -7.7385  -7.7061  -7.6858  -7.6700
    -3.3398  -3.2618  -3.2221  -3.1940  -3.1745  -3.1507  -3.1453  -3.1348
    -3.1206  -3.1048  -3.0800  -3.0746  -3.0547  -3.0329  -3.0165  -3.0018
    -2.9841  -2.9604  -2.9478  -2.9369  -2.9165  -2.9083  -2.8673  -2.8316
     2.7587   2.9379   3.1368   3.2496   3.3039   3.4506   3.4964   3.5400
     3.5809   3.6554   3.6689   3.7027   3.7462   3.9399   4.0043   4.0806
     4.1503   4.2212   4.3753   4.4233   4.4981   4.5777   4.6813   4.7318
     4.8466   4.9012   4.9430   4.9784   5.0587   5.1086   5.2086   5.3169
     5.3583   5.3906   5.4216   5.5084   5.5826   5.6471   5.6796   5.7358
     5.8086   5.9116   5.9962   6.0752   6.1548   6.2198   6.3197   6.4870
     6.5536   6.6592   6.7429   6.7776   6.8234   6.8539   6.9161   6.9351
     6.9781   7.0035   7.0227   7.0505   7.0876   7.1136   7.1718   7.2100
     7.2848   7.3086   7.3576   7.6742   7.7740   7.7877   7.8512   7.9580
    10.5155  10.7390  10.8593  10.9258  11.0182  11.4968  11.7012  11.8771
    11.9144  12.0269  12.1022  12.1454  12.2219  12.3064  12.3629  12.4222
    12.4468  12.6140  12.7571  12.8737  12.9510  13.0003  13.0460  13.2254
    13.8814  14.0118  14.1761  14.2609  14.3591  14.8539  14.8934  15.1060

          k = 0.2500 0.2500-0.5000 ( 28314 PWs)   bands (ev):

   -46.9222 -46.9036 -46.8697 -46.8311 -46.7713 -46.6371 -46.6218 -46.5841
   -24.0931 -23.6787 -23.4640 -23.4227 -23.3914 -23.1572 -23.0463 -23.0329
   -23.0000 -22.9140 -22.9081 -22.8980 -22.8941 -22.8934 -22.8867 -22.8828
   -22.8645 -22.8577 -22.7403 -22.7311 -22.7218 -22.6935 -22.6789 -22.6362
   -19.6497 -19.5625 -19.5468 -19.5450 -19.5193 -19.4402 -19.3862 -19.3546
    -9.2673  -9.0308  -9.0146  -8.8794  -8.7471  -8.6486  -8.5000  -8.4632
    -8.4386  -8.4059  -8.3179  -8.2884  -8.2655  -8.1878  -8.1549  -8.0460
    -7.9072  -7.8659  -7.8343  -7.8273  -7.7919  -7.7178  -7.6886  -7.6799
    -3.3295  -3.2449  -3.2228  -3.2044  -3.1702  -3.1594  -3.1466  -3.1331
    -3.1163  -3.1023  -3.0849  -3.0704  -3.0565  -3.0435  -3.0174  -3.0092
    -2.9856  -2.9655  -2.9481  -2.9389  -2.9108  -2.9080  -2.8612  -2.8362
     3.1088   3.1490   3.2473   3.3027   3.3718   3.4709   3.5478   3.6000
     3.6723   3.7357   3.7633   3.8487   3.9183   3.9738   4.0736   4.1809
     4.2668   4.3244   4.4020   4.4414   4.4643   4.5422   4.5720   4.6578
     4.7270   4.7942   4.8431   4.8743   4.9431   5.0180   5.0953   5.1324
     5.2274   5.2377   5.2785   5.3637   5.3967   5.4363   5.5897   5.6680
     5.7662   5.8338   5.9216   6.0055   6.0851   6.1765   6.3017   6.5309
     6.6526   6.6961   6.7624   6.7851   6.8412   6.8645   6.9125   6.9458
     6.9675   7.0202   7.0303   7.0471   7.1032   7.1656   7.2555   7.2682
     7.3377   7.4139   7.4842   7.5164   7.6089   7.6849   7.8407   7.9591
    10.5219  10.7487  11.2646  11.2816  11.3921  11.5919  11.6739  11.7097
    11.7326  11.7977  11.9165  11.9652  12.1031  12.2413  12.3469  12.4786
    12.5038  12.5800  12.6956  12.7415  12.8133  12.8496  12.9240  13.0643
    13.9095  14.0643  14.5877  14.6268  14.6977  14.8005  15.0433  15.1134

          k = 0.2500-0.5000-0.5000 ( 28280 PWs)   bands (ev):

   -46.9222 -46.9036 -46.8697 -46.8311 -46.7713 -46.6371 -46.6218 -46.5841
   -24.0931 -23.6787 -23.4640 -23.4227 -23.3853 -23.1638 -23.0385 -23.0328
   -22.9995 -22.9141 -22.9080 -22.8941 -22.8933 -22.8919 -22.8838 -22.8790
   -22.8657 -22.8643 -22.7404 -22.7393 -22.7284 -22.6936 -22.6789 -22.6363
   -19.6495 -19.5612 -19.5469 -19.5463 -19.5192 -19.4398 -19.3866 -19.3548
    -9.2626  -9.0092  -8.8743  -8.7670  -8.7312  -8.6929  -8.5395  -8.4546
    -8.3891  -8.3555  -8.3002  -8.2818  -8.1951  -8.1813  -8.1653  -8.0650
    -8.0315  -7.9963  -7.9050  -7.8565  -7.8271  -7.7900  -7.7075  -7.6803
    -3.3256  -3.2434  -3.2115  -3.2000  -3.1744  -3.1704  -3.1495  -3.1356
    -3.1309  -3.1057  -3.0888  -3.0770  -3.0642  -3.0413  -3.0082  -2.9937
    -2.9857  -2.9814  -2.9499  -2.9380  -2.9115  -2.8998  -2.8521  -2.8284
     3.1699   3.2798   3.3735   3.3940   3.5098   3.6239   3.6731   3.7546
     3.7802   3.9208   3.9535   4.0638   4.0820   4.1454   4.1853   4.2413
     4.2759   4.3412   4.3718   4.4226   4.4811   4.5083   4.5696   4.6561
     4.7334   4.7631   4.8033   4.8667   4.9106   4.9399   4.9995   5.0343
     5.1006   5.1332   5.1359   5.2015   5.2431   5.2820   5.3452   5.4135
     5.4770   5.5527   5.6024   5.7017   6.0435   6.1587   6.2155   6.3425
     6.6425   6.7349   6.7793   6.8020   6.8671   6.8994   6.9271   6.9533
     7.0146   7.0419   7.0780   7.1293   7.2019   7.2552   7.3386   7.3763
     7.4348   7.4647   7.5062   7.5725   7.6279   7.6716   7.6900   7.7098
    11.0187  11.2478  11.2500  11.3269  11.4037  11.4587  11.6298  11.6640
    11.7248  11.8590  11.9937  12.0631  12.0855  12.1207  12.3156  12.3530
    12.4658  12.4918  12.5573  12.6015  12.6403  12.6845  12.7365  12.8238
    14.2389  14.4730  14.6046  14.7730  15.1607  15.3480  15.5480  15.6784

          k =-0.5000-0.5000-0.5000 ( 28480 PWs)   bands (ev):

   -46.9222 -46.9037 -46.8698 -46.8311 -46.7713 -46.6372 -46.6218 -46.5841
   -24.0931 -23.6787 -23.4640 -23.4227 -23.3853 -23.1637 -23.0384 -23.0252
   -22.9995 -22.9138 -22.9028 -22.8941 -22.8920 -22.8875 -22.8796 -22.8790
   -22.8724 -22.8645 -22.7422 -22.7394 -22.7283 -22.6980 -22.6848 -22.6421
   -19.6494 -19.5607 -19.5468 -19.5462 -19.5196 -19.4399 -19.3867 -19.3549
    -9.2588  -9.0034  -8.8563  -8.7550  -8.7130  -8.6749  -8.4820  -8.3575
    -8.3082  -8.2850  -8.2662  -8.2282  -8.1852  -8.1698  -8.1231  -8.0515
    -8.0474  -8.0212  -7.9895  -7.9235  -7.9063  -7.8845  -7.8460  -7.7992
    -3.3265  -3.2394  -3.2157  -3.2007  -3.1770  -3.1710  -3.1561  -3.1461
    -3.1359  -3.1218  -3.1006  -3.0808  -3.0683  -3.0611  -2.9954  -2.9847
    -2.9817  -2.9708  -2.9350  -2.9310  -2.9035  -2.8939  -2.8453  -2.8241
     3.2305   3.2738   3.3734   3.4443   3.5426   3.6874   3.8499   3.9728
     4.0004   4.0405   4.0824   4.1196   4.1819   4.2456   4.2665   4.2822
     4.3485   4.3523   4.4126   4.5102   4.5265   4.5889   4.6633   4.6796
     4.6992   4.7182   4.7521   4.8327   4.8400   4.8820   4.8935   4.9935
     5.0509   5.0728   5.0957   5.1746   5.2581   5.2990   5.3526   5.4050
     5.4633   5.4815   5.5410   5.5692   5.6276   5.6573   5.7404   5.7804
     6.6427   6.7735   6.8115   6.9045   6.9117   6.9463   6.9764   7.0215
     7.0339   7.0915   7.1151   7.1544   7.2882   7.3253   7.3581   7.4117
     7.4269   7.4748   7.5488   7.5662   7.5954   7.6274   7.6819   7.7037
    11.2581  11.3329  11.4248  11.5299  11.5953  11.6223  11.6739  11.7044
    11.7349  11.8124  11.8429  11.8861  11.9949  12.0730  12.0895  12.1983
    12.3183  12.3523  12.3816  12.4602  12.5013  12.5253  12.5672  12.6672
    14.8779  15.1015  15.3292  15.3649  15.5166  15.5884  15.6562  15.8070

          k = 0.2500-0.0000 0.0000 ( 28242 PWs)   bands (ev):

   -46.9222 -46.9036 -46.8697 -46.8311 -46.7713 -46.6372 -46.6217 -46.5841
   -24.0967 -23.6880 -23.4594 -23.4126 -23.3972 -23.1508 -23.0537 -23.0330
   -23.0095 -22.9576 -22.9088 -22.9045 -22.8948 -22.8917 -22.8822 -22.8643
   -22.8524 -22.8466 -22.7325 -22.7239 -22.7153 -22.6910 -22.6790 -22.6361
   -19.6503 -19.5655 -19.5455 -19.5428 -19.5197 -19.4409 -19.3856 -19.3541
    -9.5194  -9.2892  -9.1569  -8.7961  -8.6595  -8.6304  -8.5616  -8.4873
    -8.4674  -8.3932  -8.3594  -8.3416  -8.3002  -8.2312  -8.1729  -7.8478
    -7.8145  -7.7572  -7.7135  -7.6957  -7.6818  -7.6606  -7.5873  -7.5719
    -3.3522  -3.2840  -3.2766  -3.1953  -3.1695  -3.1549  -3.1342  -3.1273
    -3.0985  -3.0864  -3.0820  -3.0620  -3.0440  -3.0304  -3.0248  -3.0141
    -2.9823  -2.9599  -2.9467  -2.9400  -2.9071  -2.8892  -2.8661  -2.8246
     2.4616   2.7284   2.8079   3.1045   3.1341   3.2011   3.2434   3.2813
     3.3705   3.4387   3.5314   3.6404   3.7433   3.8365   3.8646   3.9739
     4.0421   4.2076   4.3983   4.4993   4.5480   4.6472   4.7779   4.8278
     4.8730   5.0238   5.0996   5.1283   5.1644   5.1747   5.2816   5.4232
     5.5663   5.6408   5.6840   5.7848   5.8056   5.8766   5.9314   5.9740
     6.0084   6.0926   6.1339   6.1752   6.2051   6.3559   6.4031   6.5189
     6.5911   6.6324   6.6722   6.7221   6.7828   6.8173   6.8514   6.9130
     6.9323   6.9458   7.0032   7.0419   7.0760   7.1002   7.1410   7.2067
     7.2775   7.3566   7.4781   7.7548   7.8625   7.8879   7.9728   8.0490
    10.2435  10.3154  10.5698  10.6713  10.7788  11.1034  11.6552  12.0266
    12.0919  12.1561  12.2299  12.3168  12.4019  12.4344  12.4550  12.5282
    12.5765  12.7687  12.9931  13.0471  13.0698  13.1842  13.2852  13.3420
    13.4027  13.4675  13.7928  13.8584  14.0322  14.3659  14.6206  14.7587

          k =-0.0000 0.2500-0.0000 ( 28242 PWs)   bands (ev):

   -46.9222 -46.9036 -46.8697 -46.8311 -46.7713 -46.6372 -46.6217 -46.5841
   -24.0967 -23.6880 -23.4594 -23.4126 -23.3913 -23.1571 -23.0466 -23.0398
   -23.0091 -22.9576 -22.9140 -22.8991 -22.8983 -22.8875 -22.8862 -22.8591
   -22.8570 -22.8479 -22.7316 -22.7305 -22.7214 -22.6871 -22.6733 -22.6305
   -19.6502 -19.5652 -19.5458 -19.5437 -19.5191 -19.4405 -19.3858 -19.3541
    -9.5182  -9.2908  -9.0560  -8.7672  -8.6914  -8.5989  -8.5469  -8.5033
    -8.4578  -8.4228  -8.3850  -8.3617  -8.3174  -8.2878  -8.2777  -7.8487
    -7.8391  -7.7307  -7.7124  -7.6971  -7.6478  -7.5968  -7.5819  -7.5725
    -3.3492  -3.2861  -3.2744  -3.2037  -3.1662  -3.1480  -3.1361  -3.1267
    -3.1048  -3.0975  -3.0805  -3.0638  -3.0481  -3.0247  -3.0171  -3.0032
    -2.9726  -2.9632  -2.9463  -2.9389  -2.9095  -2.8888  -2.8715  -2.8298
     2.4776   2.7241   3.0723   3.1619   3.2331   3.2473   3.3121   3.3244
     3.4223   3.4774   3.5071   3.5503   3.6575   3.6914   3.8670   3.9571
     4.0104   4.1476   4.4259   4.4821   4.5449   4.6377   4.7480   4.7848
     4.7937   4.9753   5.0141   5.1582   5.2145   5.2428   5.3234   5.4546
     5.5076   5.5826   5.6911   5.7368   5.7969   5.8325   5.8740   5.9053
     5.9430   6.0240   6.1379   6.2195   6.2790   6.3098   6.3933   6.4921
     6.5755   6.6355   6.6762   6.7258   6.7725   6.8137   6.8387   6.9061
     6.9327   6.9899   7.0347   7.0477   7.0648   7.0936   7.1414   7.2157
     7.2685   7.2997   7.4269   7.8267   7.8686   7.8770   7.9496   8.0429
    10.3049  10.5142  10.5661  10.6407  10.7605  11.3514  11.7481  11.8963
    11.9993  12.0817  12.3230  12.4198  12.4791  12.5262  12.5582  12.6266
    12.6840  12.7592  12.7976  13.0482  13.1772  13.1934  13.2254  13.3665
    13.4329  13.4768  13.7240  13.8378  13.8664  14.2820  14.6006  14.7041

          k =-0.5000 0.0000-0.0000 ( 28326 PWs)   bands (ev):

   -46.9222 -46.9037 -46.8698 -46.8311 -46.7713 -46.6372 -46.6217 -46.5841
   -24.0967 -23.6880 -23.4594 -23.4126 -23.3972 -23.1507 -23.0537 -23.0254
   -23.0094 -22.9576 -22.9048 -22.9031 -22.8937 -22.8872 -22.8771 -22.8722
   -22.8522 -22.8464 -22.7351 -22.7239 -22.7153 -22.6948 -22.6849 -22.6419
   -19.6502 -19.5649 -19.5455 -19.5426 -19.5202 -19.4410 -19.3857 -19.3542
    -9.5151  -9.2832  -9.1485  -8.7636  -8.6347  -8.6156  -8.5520  -8.4828
    -8.4648  -8.3582  -8.2611  -8.2284  -8.2120  -8.1593  -8.0477  -8.0355
    -7.9630  -7.9413  -7.8362  -7.7367  -7.7096  -7.6623  -7.5885  -7.5751
    -3.3385  -3.2623  -3.2190  -3.2006  -3.1747  -3.1591  -3.1308  -3.1246
    -3.1012  -3.0940  -3.0823  -3.0664  -3.0639  -3.0469  -3.0258  -3.0086
    -2.9903  -2.9673  -2.9529  -2.9447  -2.9113  -2.8956  -2.8715  -2.8300
     2.4571   2.7273   2.8062   3.1363   3.1438   3.2261   3.2548   3.2921
     3.3879   3.4634   3.5731   3.8318   3.8918   4.0477   4.3114   4.3480
     4.3973   4.4108   4.4790   4.5094   4.5604   4.6237   4.6528   4.7870
     4.8589   4.8650   4.8979   4.9683   5.0435   5.1210   5.1364   5.1670
     5.2972   5.3031   5.4268   5.6765   5.7702   5.8242   5.8377   5.9167
     5.9868   6.0337   6.1066   6.1553   6.3665   6.4135   6.4549   6.5235
     6.5419   6.6792   6.6841   6.7405   6.7639   6.7972   6.8171   6.8650
     6.9099   6.9545   6.9628   7.0093   7.0591   7.1777   7.2427   7.2687
     7.2906   7.4514   7.6345   7.6593   7.7122   7.7386   7.7525   7.9741
    10.3027  10.8183  10.8608  10.9244  11.0520  11.0999  11.1425  11.7200
    11.8201  11.9567  12.2271  12.2726  12.3816  12.4025  12.4966  12.5256
    12.6065  12.6284  12.8414  12.8602  13.0080  13.0520  13.3320  13.3665
    13.4236  13.4991  13.9255  14.0884  14.4482  14.5932  14.7862  14.9319

          k = 0.0000-0.5000 0.0000 ( 28326 PWs)   bands (ev):

   -46.9222 -46.9036 -46.8698 -46.8311 -46.7713 -46.6372 -46.6217 -46.5841
   -24.0967 -23.6880 -23.4594 -23.4126 -23.3852 -23.1637 -23.0405 -23.0382
   -23.0084 -22.9577 -22.9139 -22.8989 -22.8922 -22.8881 -22.8786 -22.8670
   -22.8569 -22.8482 -22.7398 -22.7306 -22.7279 -22.6871 -22.6733 -22.6305
   -19.6500 -19.5641 -19.5462 -19.5445 -19.5190 -19.4402 -19.3862 -19.3542
    -9.5128  -9.2863  -8.8239  -8.7921  -8.6873  -8.6119  -8.5298  -8.4919
    -8.4337  -8.4115  -8.3855  -8.3450  -8.3167  -8.2500  -8.1784  -8.0374
    -7.9935  -7.8752  -7.7278  -7.6987  -7.6523  -7.5994  -7.5851  -7.5756
    -3.3309  -3.2474  -3.2350  -3.2261  -3.1593  -3.1374  -3.1360  -3.1282
    -3.1239  -3.1128  -3.0851  -3.0676  -3.0400  -3.0363  -3.0176  -2.9995
    -2.9884  -2.9657  -2.9465  -2.9368  -2.9217  -2.8914  -2.8844  -2.8413
     2.4849   2.7184   3.2134   3.2413   3.2592   3.3115   3.3725   3.4223
     3.4559   3.4710   3.6257   3.6898   4.0267   4.1618   4.2390   4.2754
     4.3229   4.3816   4.4016   4.4557   4.5138   4.5454   4.5867   4.6578
     4.7421   4.7601   4.8142   4.8969   4.9362   4.9849   5.0074   5.0564
     5.3703   5.4599   5.5343   5.5874   5.6113   5.6838   5.8204   5.8668
     5.9093   6.0273   6.1748   6.2249   6.2608   6.3057   6.4226   6.5184
     6.5834   6.6424   6.6869   6.7012   6.7342   6.7564   6.8432   6.8873
     6.9184   7.0089   7.0277   7.0451   7.0720   7.1196   7.1582   7.2908
     7.3888   7.5243   7.6190   7.6325   7.6917   7.7070   7.8310   7.9490
    10.5938  10.6179  10.9056  11.1925  11.2337  11.2824  11.3452  11.3938
    11.8621  12.1368  12.2815  12.3142  12.3520  12.4931  12.5620  12.5992
    12.7266  12.7711  12.8141  12.8973  12.9604  13.0465  13.2363  13.3646
    13.4112  13.4927  13.9193  14.2305  14.2414  14.4114  14.4922  14.9043

          k = 0.0000-0.2500 0.2500 ( 28303 PWs)   bands (ev):

   -46.9222 -46.9036 -46.8697 -46.8311 -46.7713 -46.6372 -46.6217 -46.5841
   -24.0949 -23.6834 -23.4617 -23.4176 -23.3913 -23.1572 -23.0465 -23.0398
   -23.0047 -22.9426 -22.9139 -22.8989 -22.8981 -22.8876 -22.8865 -22.8654
   -22.8571 -22.8570 -22.7346 -22.7313 -22.7216 -22.6881 -22.6732 -22.6306
   -19.6500 -19.5641 -19.5462 -19.5445 -19.5190 -19.4403 -19.3860 -19.3543
    -9.4209  -9.1909  -9.0455  -8.7785  -8.6813  -8.6213  -8.5774  -8.5140
    -8.4731  -8.4174  -8.3852  -8.3400  -8.3112  -8.2835  -8.2722  -7.8509
    -7.8372  -7.8050  -7.7278  -7.7166  -7.6981  -7.6873  -7.5894  -7.5763
    -3.3348  -3.2780  -3.2610  -3.1962  -3.1597  -3.1538  -3.1359  -3.1297
    -3.1051  -3.0962  -3.0866  -3.0635  -3.0423  -3.0293  -3.0157  -3.0026
    -2.9848  -2.9760  -2.9534  -2.9449  -2.9101  -2.8903  -2.8736  -2.8334
     2.7129   2.9821   3.1220   3.2201   3.2787   3.3486   3.4031   3.4319
     3.4676   3.5265   3.5786   3.6756   3.7193   3.7757   3.9066   3.9977
     4.0861   4.1886   4.3183   4.3394   4.4433   4.5157   4.6031   4.7657
     4.8372   4.9649   5.0242   5.0689   5.1111   5.2014   5.3023   5.3794
     5.4186   5.4509   5.5692   5.6132   5.6997   5.7410   5.7784   5.8157
     5.9030   5.9270   6.0699   6.1259   6.2587   6.3562   6.4394   6.5414
     6.6157   6.6274   6.6818   6.7509   6.8219   6.8296   6.8730   6.8999
     6.9538   6.9733   6.9997   7.0236   7.0575   7.1350   7.1782   7.1986
     7.2569   7.3148   7.3638   7.7359   7.8078   7.8401   7.8811   8.0468
    10.3135  10.5646  10.7832  10.8517  10.9195  11.4639  11.7488  11.8865
    12.0254  12.0545  12.1216  12.2094  12.3252  12.4209  12.4746  12.5711
    12.6820  12.7504  12.7827  12.9887  13.0573  13.1213  13.1433  13.2454
    13.4917  13.6555  13.8451  14.1414  14.1548  14.3379  14.7960  14.9829

          k = 0.2500 0.0000-0.2500 ( 28303 PWs)   bands (ev):

   -46.9222 -46.9036 -46.8697 -46.8311 -46.7713 -46.6372 -46.6217 -46.5841
   -24.0949 -23.6834 -23.4617 -23.4175 -23.3972 -23.1508 -23.0537 -23.0330
   -23.0050 -22.9425 -22.9087 -22.9042 -22.8950 -22.8919 -22.8823 -22.8648
   -22.8644 -22.8497 -22.7362 -22.7238 -22.7155 -22.6923 -22.6789 -22.6362
   -19.6501 -19.5646 -19.5460 -19.5434 -19.5195 -19.4407 -19.3857 -19.3543
    -9.4219  -9.1889  -9.1489  -8.7928  -8.7196  -8.6106  -8.5595  -8.5080
    -8.4612  -8.4071  -8.3695  -8.3090  -8.2982  -8.2268  -8.1718  -7.8564
    -7.8212  -7.7757  -7.7580  -7.7323  -7.7120  -7.6938  -7.6684  -7.5761
    -3.3449  -3.2665  -3.2533  -3.2018  -3.1694  -3.1515  -3.1343  -3.1283
    -3.1034  -3.0928  -3.0776  -3.0678  -3.0544  -3.0320  -3.0259  -3.0108
    -2.9765  -2.9690  -2.9459  -2.9389  -2.9122  -2.8920  -2.8739  -2.8353
     2.6940   2.8194   2.9429   3.1599   3.1943   3.2455   3.3159   3.4025
     3.5396   3.6264   3.6387   3.6953   3.7695   3.8776   3.9477   3.9977
     4.0652   4.2208   4.3157   4.3804   4.4764   4.5111   4.7022   4.8111
     4.8926   4.9340   5.0288   5.0454   5.1344   5.1890   5.2239   5.3024
     5.3708   5.4591   5.6139   5.6630   5.7215   5.8275   5.8550   5.9418
     5.9689   6.0205   6.1039   6.1433   6.1869   6.2659   6.4087   6.5590
     6.6124   6.6427   6.7184   6.7853   6.8070   6.8614   6.8938   6.9053
     6.9241   6.9750   6.9998   7.0163   7.0589   7.1326   7.1691   7.1943
     7.2776   7.3120   7.3946   7.6765   7.7893   7.8588   7.9145   8.0493
    10.2572  10.5249  10.6217  10.8288  10.9396  11.2434  11.6591  12.0081
    12.0635  12.0965  12.1178  12.2138  12.2763  12.3001  12.4161  12.4545
    12.5040  12.7327  12.9233  12.9913  13.0389  13.0936  13.1805  13.2600
    13.5181  13.7044  13.8187  14.1780  14.3478  14.3951  14.8109  14.9003

          k =-0.2500 0.0000-0.2500 ( 28303 PWs)   bands (ev):

   -46.9222 -46.9036 -46.8697 -46.8311 -46.7713 -46.6372 -46.6217 -46.5841
   -24.0949 -23.6834 -23.4617 -23.4175 -23.3972 -23.1508 -23.0537 -23.0330
   -23.0051 -22.9425 -22.9087 -22.9042 -22.8950 -22.8918 -22.8823 -22.8648
   -22.8644 -22.8497 -22.7362 -22.7238 -22.7155 -22.6923 -22.6789 -22.6362
   -19.6501 -19.5646 -19.5460 -19.5434 -19.5195 -19.4407 -19.3857 -19.3543
    -9.4228  -9.1903  -9.1481  -8.7878  -8.7189  -8.6096  -8.5576  -8.5063
    -8.4574  -8.4068  -8.3835  -8.3127  -8.2996  -8.2258  -8.1717  -7.8452
    -7.8217  -7.7834  -7.7596  -7.7293  -7.7096  -7.6946  -7.6696  -7.5760
    -3.3379  -3.2799  -3.2490  -3.1948  -3.1652  -3.1536  -3.1390  -3.1332
    -3.1106  -3.0874  -3.0759  -3.0720  -3.0504  -3.0313  -3.0180  -3.0096
    -2.9818  -2.9669  -2.9530  -2.9423  -2.9102  -2.8888  -2.8739  -2.8336
     2.7121   2.8204   2.9519   3.1578   3.2051   3.2563   3.3075   3.4058
     3.5286   3.5969   3.6431   3.6690   3.7312   3.8812   3.9386   3.9945
     4.0556   4.1845   4.3224   4.4057   4.4541   4.5575   4.7004   4.8352
     4.8849   4.9501   5.0016   5.1032   5.1453   5.1824   5.2302   5.3611
     5.3836   5.5050   5.5936   5.6825   5.7141   5.7337   5.8263   5.9446
     6.0267   6.0420   6.1016   6.1416   6.2136   6.2351   6.4180   6.5500
     6.5879   6.6509   6.7215   6.7655   6.7966   6.8428   6.8869   6.9094
     6.9353   6.9652   6.9979   7.0529   7.0839   7.1220   7.1410   7.1694
     7.2334   7.3117   7.3929   7.6806   7.7792   7.8564   7.9121   8.0522
    10.2515  10.5250  10.6271  10.9084  11.0149  11.2637  11.6498  12.0023
    12.0302  12.0775  12.1081  12.1926  12.2592  12.3239  12.3911  12.4399
    12.4882  12.7428  12.9194  12.9907  13.0585  13.0689  13.1756  13.2563
    13.5422  13.7014  13.8212  14.1207  14.2992  14.4066  14.8515  14.8870

          k = 0.2500-0.2500 0.0000 ( 28303 PWs)   bands (ev):

   -46.9222 -46.9036 -46.8698 -46.8311 -46.7713 -46.6372 -46.6217 -46.5841
   -24.0967 -23.6880 -23.4594 -23.4126 -23.3913 -23.1571 -23.0465 -23.0330
   -23.0091 -22.9576 -22.9087 -22.8987 -22.8936 -22.8861 -22.8827 -22.8643
   -22.8588 -22.8478 -22.7327 -22.7313 -22.7214 -22.6910 -22.6790 -22.6361
   -19.6501 -19.5646 -19.5458 -19.5436 -19.5196 -19.4406 -19.3859 -19.3542
    -9.5137  -9.2851  -9.0455  -8.7240  -8.6605  -8.5829  -8.5249  -8.4442
    -8.4303  -8.4139  -8.3591  -8.3409  -8.2990  -8.2567  -8.2284  -7.8770
    -7.8559  -7.8302  -7.7818  -7.7145  -7.7041  -7.6802  -7.6495  -7.5866
    -3.3351  -3.2778  -3.2593  -3.1949  -3.1592  -3.1525  -3.1403  -3.1223
    -3.1066  -3.1000  -3.0816  -3.0615  -3.0456  -3.0351  -3.0233  -3.0174
    -2.9754  -2.9678  -2.9502  -2.9421  -2.9121  -2.8914  -2.8720  -2.8348
     2.4748   2.7231   3.0774   3.1873   3.2102   3.2695   3.3835   3.4350
     3.5203   3.5927   3.6519   3.6902   3.7664   3.8893   3.9462   4.0358
     4.0779   4.2629   4.4492   4.5144   4.5850   4.6654   4.7390   4.7874
     4.8171   4.8412   4.8974   5.0771   5.1345   5.2180   5.2335   5.3137
     5.4048   5.4665   5.5665   5.6551   5.6996   5.7344   5.7900   5.8998
     5.9308   5.9811   6.0512   6.1017   6.2085   6.2608   6.3424   6.4768
     6.5403   6.6388   6.6991   6.7344   6.8024   6.8285   6.8785   6.9054
     6.9606   6.9996   7.0379   7.0482   7.0755   7.1169   7.1828   7.2191
     7.2868   7.3033   7.4219   7.7537   7.7898   7.8599   7.8822   7.9506
    10.5145  10.5807  10.7056  10.7522  10.8424  11.3551  11.7084  11.8876
    11.9509  11.9967  12.1341  12.2480  12.3629  12.4376  12.4613  12.5313
    12.6029  12.6800  12.7725  12.8774  13.0791  13.1872  13.2135  13.3394
    13.6023  13.8029  13.8523  14.0586  14.1609  14.7082  14.8302  14.8807

          k =-0.2500-0.2500 0.0000 ( 28303 PWs)   bands (ev):

   -46.9222 -46.9036 -46.8698 -46.8311 -46.7713 -46.6372 -46.6217 -46.5841
   -24.0967 -23.6880 -23.4594 -23.4126 -23.3913 -23.1570 -23.0465 -23.0330
   -23.0091 -22.9576 -22.9088 -22.8986 -22.8935 -22.8862 -22.8827 -22.8643
   -22.8588 -22.8478 -22.7326 -22.7314 -22.7214 -22.6910 -22.6790 -22.6361
   -19.6501 -19.5646 -19.5458 -19.5436 -19.5196 -19.4406 -19.3859 -19.3542
    -9.5138  -9.2851  -9.0443  -8.7243  -8.6610  -8.5856  -8.5188  -8.4492
    -8.4348  -8.4147  -8.3605  -8.3398  -8.2939  -8.2591  -8.2260  -7.8710
    -7.8420  -7.8264  -7.8025  -7.7252  -7.6939  -7.6806  -7.6499  -7.5866
    -3.3472  -3.2713  -3.2345  -3.2036  -3.1668  -3.1602  -3.1365  -3.1270
    -3.1098  -3.0949  -3.0825  -3.0657  -3.0457  -3.0318  -3.0216  -3.0097
    -2.9828  -2.9667  -2.9453  -2.9375  -2.9117  -2.8969  -2.8747  -2.8338
     2.4747   2.7229   3.0742   3.1676   3.2244   3.2713   3.3686   3.4545
     3.5085   3.5892   3.6507   3.6879   3.7608   3.8938   3.9868   3.9987
     4.1157   4.2831   4.4569   4.5337   4.6174   4.6347   4.7430   4.7563
     4.7845   4.8670   4.8872   5.0826   5.1504   5.1891   5.2283   5.3197
     5.3889   5.4265   5.5789   5.6180   5.6965   5.7335   5.7929   5.8885
     5.9204   6.0039   6.0657   6.1595   6.2041   6.2726   6.3353   6.4533
     6.5630   6.6318   6.6777   6.7618   6.7884   6.8414   6.8694   6.8868
     6.9600   6.9834   7.0240   7.0415   7.0617   7.1353   7.1883   7.2479
     7.2734   7.3284   7.4243   7.7535   7.8152   7.8583   7.8837   7.9519
    10.5128  10.5869  10.6907  10.7521  10.8009  11.3586  11.7032  11.8873
    11.9425  12.0009  12.1828  12.2504  12.3563  12.4408  12.4721  12.5065
    12.6030  12.6811  12.7782  12.8753  13.0808  13.1811  13.2163  13.3452
    13.5935  13.7982  13.8499  14.0602  14.1906  14.7045  14.7974  14.8866

          k = 0.2500-0.0000 0.5000 ( 28312 PWs)   bands (ev):

   -46.9222 -46.9036 -46.8697 -46.8311 -46.7713 -46.6371 -46.6218 -46.5841
   -24.0930 -23.6787 -23.4640 -23.4226 -23.3972 -23.1509 -23.0536 -23.0329
   -23.0004 -22.9140 -22.9081 -22.9038 -22.8953 -22.8941 -22.8919 -22.8823
   -22.8645 -22.8500 -22.7402 -22.7236 -22.7157 -22.6935 -22.6789 -22.6362
   -19.6499 -19.5636 -19.5466 -19.5439 -19.5194 -19.4405 -19.3859 -19.3545
    -9.2726  -9.1411  -9.0354  -8.8862  -8.7725  -8.7305  -8.5324  -8.5029
    -8.4267  -8.4120  -8.3314  -8.2992  -8.1924  -8.1870  -8.1412  -8.0410
    -7.9058  -7.8403  -7.7991  -7.7623  -7.7111  -7.6968  -7.6793  -7.5783
    -3.3287  -3.2452  -3.2257  -3.2193  -3.1726  -3.1464  -3.1408  -3.1287
    -3.1210  -3.0914  -3.0733  -3.0708  -3.0503  -3.0350  -3.0238  -3.0076
    -2.9888  -2.9726  -2.9491  -2.9419  -2.9129  -2.8954  -2.8766  -2.8465
     2.8255   3.0001   3.1461   3.1848   3.2557   3.3214   3.4525   3.5087
     3.6126   3.6929   3.7285   3.8313   3.8750   3.9170   4.0165   4.0931
     4.2531   4.2919   4.3733   4.4241   4.4747   4.5227   4.5909   4.6584
     4.6922   4.7971   4.8660   4.9459   5.0521   5.0830   5.1528   5.1869
     5.2204   5.2798   5.3185   5.3639   5.6477   5.6976   5.8077   5.8273
     5.9836   6.0362   6.0900   6.1881   6.2173   6.3252   6.4145   6.5977
     6.6214   6.6564   6.7055   6.7337   6.8215   6.8570   6.8785   6.9136
     6.9444   6.9700   7.0195   7.0416   7.0658   7.0908   7.1548   7.3029
     7.3652   7.3900   7.4807   7.5183   7.6086   7.7097   7.9006   8.0512
    10.2587  10.5514  11.0992  11.2667  11.3912  11.5401  11.5791  11.6549
    11.6871  11.7168  11.9072  12.0791  12.1445  12.2773  12.5200  12.5684
    12.5843  12.6109  12.7145  12.9111  12.9243  13.0167  13.0834  13.1807
    13.6099  13.6449  14.0738  14.3335  14.5817  14.7019  14.8608  14.9480

          k =-0.5000-0.2500-0.0000 ( 28312 PWs)   bands (ev):

   -46.9222 -46.9037 -46.8697 -46.8311 -46.7713 -46.6372 -46.6217 -46.5841
   -24.0968 -23.6880 -23.4594 -23.4126 -23.3914 -23.1570 -23.0465 -23.0254
   -23.0090 -22.9576 -22.9033 -22.8987 -22.8886 -22.8854 -22.8778 -22.8721
   -22.8584 -22.8478 -22.7352 -22.7314 -22.7214 -22.6948 -22.6849 -22.6419
   -19.6500 -19.5640 -19.5457 -19.5435 -19.5201 -19.4407 -19.3861 -19.3543
    -9.5095  -9.2798  -9.0349  -8.6864  -8.6304  -8.5758  -8.4953  -8.4407
    -8.4190  -8.3598  -8.3403  -8.2378  -8.2237  -8.1857  -8.0531  -8.0466
    -7.9706  -7.9552  -7.8501  -7.8237  -7.8011  -7.7090  -7.6514  -7.5873
    -3.3328  -3.2513  -3.2287  -3.1871  -3.1740  -3.1590  -3.1384  -3.1207
    -3.1094  -3.0985  -3.0763  -3.0737  -3.0581  -3.0367  -3.0280  -3.0188
    -2.9833  -2.9722  -2.9506  -2.9411  -2.9140  -2.8988  -2.8755  -2.8385
     2.4718   2.7220   3.0770   3.2020   3.2349   3.2785   3.3950   3.4573
     3.5478   3.6650   3.6856   3.9626   3.9821   4.0764   4.2916   4.3789
     4.3939   4.4404   4.4828   4.5616   4.5747   4.5999   4.6726   4.7674
     4.8011   4.8389   4.8733   4.9145   4.9574   5.0611   5.1588   5.2067
     5.2186   5.2401   5.3127   5.3993   5.5023   5.6502   5.7262   5.7697
     5.8684   5.9716   6.0040   6.0893   6.1236   6.2267   6.2816   6.3806
     6.5005   6.6568   6.7161   6.7650   6.8046   6.8352   6.8800   6.9250
     6.9613   7.0369   7.0473   7.1137   7.1615   7.1940   7.2025   7.2512
     7.2889   7.3974   7.6100   7.6489   7.6911   7.7129   7.7414   7.8796
    10.5990  10.8467  10.9800  11.0515  11.1069  11.2605  11.3818  11.7709
    11.8327  11.9320  11.9983  12.1130  12.1746  12.2683  12.4590  12.5232
    12.6008  12.6348  12.6789  12.7904  12.8740  13.0103  13.2133  13.3714
    13.6653  13.8691  14.0685  14.3230  14.6918  14.9306  14.9718  15.1466

          k = 0.0000-0.5000 0.2500 ( 28312 PWs)   bands (ev):

   -46.9222 -46.9036 -46.8697 -46.8311 -46.7713 -46.6372 -46.6217 -46.5841
   -24.0949 -23.6834 -23.4617 -23.4176 -23.3852 -23.1638 -23.0405 -23.0380
   -23.0041 -22.9426 -22.9138 -22.8988 -22.8920 -22.8883 -22.8788 -22.8685
   -22.8622 -22.8570 -22.7396 -22.7345 -22.7282 -22.6882 -22.6732 -22.6306
   -19.6498 -19.5630 -19.5464 -19.5456 -19.5189 -19.4399 -19.3863 -19.3544
    -9.4157  -9.1852  -8.8011  -8.7719  -8.7224  -8.6160  -8.5767  -8.5170
    -8.4438  -8.4041  -8.3699  -8.3345  -8.3022  -8.2495  -8.1789  -8.0365
    -7.9942  -7.8882  -7.7838  -7.7230  -7.7144  -7.6933  -7.5915  -7.5784
    -3.3281  -3.2477  -3.2229  -3.2155  -3.1637  -3.1559  -3.1365  -3.1266
    -3.1108  -3.1047  -3.0888  -3.0664  -3.0473  -3.0354  -3.0182  -3.0050
    -2.9861  -2.9751  -2.9540  -2.9459  -2.9183  -2.9070  -2.8669  -2.8368
     2.7442   2.9614   3.2700   3.3297   3.3772   3.4013   3.4484   3.4704
     3.5916   3.6340   3.6975   3.7943   4.0415   4.1113   4.2021   4.2463
     4.2908   4.3320   4.3691   4.4316   4.4667   4.5101   4.5792   4.6238
     4.6607   4.7322   4.8141   4.8882   4.9527   4.9933   5.0630   5.0882
     5.1940   5.3348   5.3602   5.4741   5.5057   5.5602   5.6353   5.6954
     5.8149   5.8725   5.9919   6.1079   6.2855   6.3800   6.4660   6.5491
     6.5967   6.6520   6.6985   6.7188   6.7538   6.8023   6.8711   6.8950
     6.9438   6.9924   7.0266   7.0491   7.1057   7.1640   7.2037   7.2364
     7.3653   7.5198   7.6045   7.6321   7.6671   7.6987   7.7667   7.8639
    10.8012  10.8270  10.9137  11.1947  11.2362  11.3567  11.4160  11.5052
    11.9402  12.0966  12.1441  12.2123  12.3048  12.3804  12.4736  12.5495
    12.5895  12.7064  12.7571  12.8088  12.8330  12.8904  13.1373  13.2387
    13.5667  13.7987  13.9276  14.2142  14.6675  14.7945  14.8340  15.3536

          k = 0.2500-0.5000 0.0000 ( 28312 PWs)   bands (ev):

   -46.9222 -46.9036 -46.8697 -46.8311 -46.7713 -46.6372 -46.6217 -46.5841
   -24.0968 -23.6880 -23.4594 -23.4126 -23.3852 -23.1637 -23.0389 -23.0329
   -23.0084 -22.9577 -22.9087 -22.8935 -22.8923 -22.8837 -22.8786 -22.8665
   -22.8642 -22.8482 -22.7398 -22.7326 -22.7279 -22.6911 -22.6790 -22.6361
   -19.6498 -19.5636 -19.5461 -19.5444 -19.5195 -19.4403 -19.3863 -19.3543
    -9.5084  -9.2812  -8.8091  -8.7654  -8.6301  -8.5778  -8.5270  -8.4385
    -8.4047  -8.3646  -8.3584  -8.3275  -8.2999  -8.2214  -8.1735  -8.0431
    -8.0036  -7.8851  -7.8311  -7.7920  -7.7099  -7.6857  -7.6551  -7.5871
    -3.3290  -3.2440  -3.2361  -3.2047  -3.1592  -3.1466  -3.1410  -3.1310
    -3.1207  -3.1035  -3.0908  -3.0625  -3.0430  -3.0369  -3.0219  -3.0088
    -2.9888  -2.9682  -2.9435  -2.9372  -2.9256  -2.8941  -2.8830  -2.8440
     2.4838   2.7165   3.2127   3.2518   3.2775   3.3019   3.4763   3.5906
     3.6250   3.7206   3.7967   3.9398   4.0711   4.1977   4.2538   4.2806
     4.3214   4.3881   4.4477   4.5061   4.5371   4.5609   4.6202   4.6905
     4.7504   4.7702   4.8188   4.8396   4.8764   4.9641   5.0280   5.0698
     5.2537   5.2979   5.3790   5.4408   5.4717   5.5842   5.6786   5.7362
     5.8311   5.9341   5.9839   6.1174   6.1617   6.2633   6.3028   6.3740
     6.4736   6.5880   6.7594   6.7773   6.8376   6.8632   6.8814   6.9033
     6.9282   6.9865   7.0490   7.0688   7.1404   7.2082   7.2401   7.3023
     7.3937   7.4916   7.5852   7.6186   7.6806   7.6922   7.7676   7.8654
    10.6621  10.7547  11.0258  11.2780  11.2868  11.3166  11.3804  11.4722
    11.8603  12.0404  12.0997  12.1411  12.2443  12.3578  12.4393  12.4701
    12.5318  12.5702  12.7397  12.9031  12.9660  13.0380  13.1034  13.2254
    13.7508  13.7976  14.3062  14.4100  14.6108  14.6568  14.8486  15.0476

          k =-0.5000-0.0000 0.2500 ( 28312 PWs)   bands (ev):

   -46.9222 -46.9037 -46.8697 -46.8311 -46.7713 -46.6372 -46.6217 -46.5841
   -24.0949 -23.6834 -23.4617 -23.4175 -23.3972 -23.1507 -23.0536 -23.0253
   -23.0050 -22.9425 -22.9044 -22.9030 -22.8941 -22.8871 -22.8772 -22.8724
   -22.8647 -22.8494 -22.7384 -22.7238 -22.7155 -22.6964 -22.6849 -22.6420
   -19.6500 -19.5640 -19.5459 -19.5433 -19.5200 -19.4408 -19.3858 -19.3544
    -9.4179  -9.1832  -9.1405  -8.7417  -8.7287  -8.5973  -8.5137  -8.4946
    -8.4470  -8.3908  -8.2621  -8.2276  -8.2113  -8.1586  -8.0463  -8.0348
    -7.9631  -7.9453  -7.8455  -7.7874  -7.7367  -7.7108  -7.7028  -7.5779
    -3.3322  -3.2528  -3.2168  -3.1974  -3.1774  -3.1532  -3.1395  -3.1313
    -3.1094  -3.0892  -3.0830  -3.0751  -3.0545  -3.0480  -3.0281  -3.0104
    -2.9840  -2.9740  -2.9495  -2.9406  -2.9114  -2.8947  -2.8767  -2.8367
     2.7045   2.8205   2.9526   3.1713   3.2064   3.2690   3.3382   3.4218
     3.5802   3.6831   3.7078   3.8896   3.9722   3.9880   4.1636   4.2092
     4.3028   4.4523   4.4764   4.5264   4.5787   4.6304   4.6586   4.7323
     4.7743   4.8558   4.8857   4.9137   5.0019   5.1020   5.1261   5.1496
     5.2026   5.3029   5.3465   5.4140   5.5525   5.7227   5.7701   5.8088
     5.9470   5.9931   6.0452   6.1047   6.1202   6.3728   6.4499   6.5185
     6.5815   6.6940   6.7188   6.7516   6.8090   6.8385   6.8531   6.8924
     6.9267   6.9872   7.0020   7.0450   7.0856   7.1612   7.2338   7.2436
     7.2793   7.3376   7.5975   7.6482   7.6914   7.7246   7.7449   7.9005
    10.5599  10.8377  10.9345  11.0100  11.0918  11.1974  11.3147  11.7198
    11.8867  12.0114  12.1198  12.1622  12.2504  12.2733  12.3497  12.4042
    12.4920  12.5912  12.6852  12.8307  12.8671  13.0306  13.1822  13.3418
    13.5923  13.7894  13.8756  14.4221  14.7087  14.8440  15.0067  15.3279

          k =-0.5000-0.0000 0.5000 ( 28276 PWs)   bands (ev):

   -46.9222 -46.9036 -46.8697 -46.8311 -46.7713 -46.6371 -46.6218 -46.5841
   -24.0931 -23.6787 -23.4640 -23.4226 -23.3972 -23.1508 -23.0536 -23.0253
   -23.0003 -22.9137 -22.9039 -22.9029 -22.8945 -22.8940 -22.8869 -22.8772
   -22.8726 -22.8498 -22.7422 -22.7236 -22.7157 -22.6979 -22.6848 -22.6421
   -19.6498 -19.5631 -19.5464 -19.5439 -19.5199 -19.4406 -19.3860 -19.3546
    -9.2683  -9.1332  -9.0297  -8.8688  -8.7496  -8.7224  -8.5047  -8.4922
    -8.3374  -8.2934  -8.2529  -8.2312  -8.1894  -8.1436  -8.0593  -8.0353
    -8.0068  -7.9548  -7.9389  -7.9159  -7.8030  -7.7366  -7.7091  -7.5784
    -3.3251  -3.2321  -3.2247  -3.1964  -3.1677  -3.1636  -3.1428  -3.1350
    -3.1275  -3.0933  -3.0815  -3.0774  -3.0449  -3.0379  -3.0266  -3.0082
    -2.9930  -2.9754  -2.9465  -2.9384  -2.9114  -2.8991  -2.8751  -2.8458
     2.8274   3.0103   3.1517   3.1987   3.2831   3.3348   3.4925   3.5941
     3.6852   3.7949   3.9026   3.9157   4.1022   4.1280   4.1982   4.2527
     4.3591   4.4219   4.4898   4.5193   4.5764   4.5866   4.6487   4.6807
     4.6988   4.7677   4.7947   4.8233   4.8713   4.9490   4.9855   5.0782
     5.0932   5.2051   5.2353   5.3047   5.4144   5.5011   5.5892   5.6705
     5.7736   5.8011   5.9819   6.0655   6.2213   6.4136   6.4414   6.5203
     6.6490   6.6593   6.6772   6.7530   6.8314   6.8485   6.8943   6.9178
     6.9462   6.9970   7.0270   7.0602   7.1063   7.1559   7.2506   7.2746
     7.3632   7.4555   7.5050   7.6188   7.6472   7.6628   7.7400   7.8121
    10.8342  10.8683  11.0684  11.1588  11.3420  11.5050  11.5866  11.6087
    11.7137  11.7987  11.8932  11.9554  12.1131  12.1396  12.3200  12.3958
    12.4269  12.5580  12.5948  12.6101  12.8558  12.9302  13.0456  13.2530
    13.7163  13.7983  14.0980  14.4452  15.1773  15.3540  15.4122  15.6870

          k =-0.5000 0.5000-0.0000 ( 28276 PWs)   bands (ev):

   -46.9222 -46.9037 -46.8697 -46.8311 -46.7713 -46.6372 -46.6217 -46.5841
   -24.0968 -23.6880 -23.4594 -23.4126 -23.3852 -23.1636 -23.0388 -23.0254
   -23.0083 -22.9576 -22.9032 -22.8924 -22.8878 -22.8794 -22.8785 -22.8720
   -22.8654 -22.8481 -22.7397 -22.7351 -22.7279 -22.6949 -22.6849 -22.6420
   -19.6497 -19.5631 -19.5460 -19.5443 -19.5199 -19.4403 -19.3864 -19.3544
    -9.5043  -9.2765  -8.7965  -8.7409  -8.5857  -8.5505  -8.5219  -8.3787
    -8.3571  -8.3411  -8.2906  -8.2647  -8.2265  -8.1544  -8.1249  -8.0615
    -8.0525  -7.9921  -7.9212  -7.8881  -7.8603  -7.8242  -7.6560  -7.5874
    -3.3261  -3.2379  -3.2272  -3.1900  -3.1740  -3.1610  -3.1456  -3.1269
    -3.1147  -3.1000  -3.0824  -3.0541  -3.0456  -3.0399  -3.0266  -3.0178
    -2.9950  -2.9696  -2.9428  -2.9382  -2.9294  -2.8969  -2.8810  -2.8463
     2.4824   2.7147   3.2301   3.2560   3.2770   3.3008   3.5127   3.6143
     3.9594   4.0616   4.1816   4.2071   4.2384   4.2745   4.3084   4.3280
     4.3724   4.4438   4.4777   4.4872   4.5416   4.5904   4.6169   4.6720
     4.7057   4.7421   4.7944   4.8176   4.8593   4.9234   4.9820   5.0740
     5.0917   5.1932   5.3072   5.3792   5.4020   5.4071   5.4750   5.5073
     5.6028   5.6078   5.7385   5.8689   6.0736   6.1378   6.2598   6.3616
     6.4900   6.5923   6.7823   6.7895   6.8482   6.8932   6.9045   6.9816
     7.0236   7.0597   7.0776   7.1133   7.1801   7.2670   7.3059   7.3864
     7.4319   7.4740   7.5324   7.6031   7.6275   7.6878   7.7020   7.7391
    10.8220  11.0496  11.2476  11.2867  11.3735  11.4474  11.5833  11.6768
    11.7083  11.7170  11.9125  11.9616  11.9886  12.0845  12.2658  12.2994
    12.4690  12.5395  12.7369  12.8517  12.9417  12.9551  12.9818  13.1322
    13.9433  13.9682  14.3837  14.8004  14.8774  15.1794  15.6013  15.7056

          k =-0.2500-0.2500 0.2500 ( 28324 PWs)   bands (ev):

   -46.9222 -46.9036 -46.8697 -46.8311 -46.7713 -46.6372 -46.6217 -46.5841
   -24.0949 -23.6834 -23.4617 -23.4176 -23.3914 -23.1571 -23.0464 -23.0329
   -23.0047 -22.9426 -22.9087 -22.8983 -22.8935 -22.8865 -22.8828 -22.8654
   -22.8644 -22.8568 -22.7362 -22.7313 -22.7216 -22.6924 -22.6789 -22.6362
   -19.6499 -19.5636 -19.5461 -19.5444 -19.5194 -19.4404 -19.3861 -19.3544
    -9.4158  -9.1841  -9.0342  -8.7431  -8.6646  -8.5813  -8.5569  -8.4660
    -8.4402  -8.3911  -8.3830  -8.3104  -8.2890  -8.2570  -8.2219  -7.8781
    -7.8427  -7.8329  -7.8142  -7.7742  -7.7316  -7.7134  -7.6841  -7.6696
    -3.3378  -3.2670  -3.2309  -3.1986  -3.1655  -3.1584  -3.1420  -3.1268
    -3.1011  -3.0954  -3.0920  -3.0688  -3.0564  -3.0405  -3.0252  -3.0030
    -2.9819  -2.9738  -2.9462  -2.9410  -2.9057  -2.8950  -2.8745  -2.8347
     2.7093   2.9823   3.1272   3.2126   3.3143   3.4742   3.4824   3.5349
     3.6069   3.6488   3.6951   3.7455   3.7969   3.9304   3.9741   4.0837
     4.1444   4.2961   4.3430   4.3936   4.5167   4.5820   4.6182   4.7642
     4.8128   4.9007   4.9341   4.9775   5.0391   5.1107   5.1589   5.2823
     5.3291   5.3743   5.4374   5.4955   5.5832   5.6348   5.6918   5.7778
     5.8429   5.9413   5.9936   6.0938   6.1468   6.1666   6.2949   6.4900
     6.5378   6.7052   6.7332   6.7830   6.8388   6.8719   6.9063   6.9175
     6.9451   6.9741   7.0246   7.0621   7.1280   7.1546   7.1715   7.2515
     7.2821   7.3275   7.3669   7.6754   7.7794   7.7929   7.8474   7.9560
    10.5184  10.7352  10.8169  10.8679  10.9316  11.4669  11.7068  11.8891
    11.9327  12.0320  12.1286  12.1777  12.2573  12.3192  12.3692  12.4303
    12.4678  12.6073  12.7698  12.8653  12.9395  13.0165  13.0564  13.2235
    13.8715  14.0153  14.2102  14.2876  14.4049  14.8086  14.8707  15.0804

          k =-0.2500 0.2500-0.2500 ( 28324 PWs)   bands (ev):

   -46.9222 -46.9036 -46.8697 -46.8311 -46.7713 -46.6372 -46.6217 -46.5841
   -24.0949 -23.6834 -23.4617 -23.4176 -23.3914 -23.1571 -23.0464 -23.0329
   -23.0047 -22.9426 -22.9086 -22.8984 -22.8936 -22.8863 -22.8828 -22.8654
   -22.8643 -22.8568 -22.7363 -22.7313 -22.7216 -22.6924 -22.6789 -22.6362
   -19.6499 -19.5636 -19.5461 -19.5444 -19.5194 -19.4404 -19.3861 -19.3544
    -9.4168  -9.1853  -9.0346  -8.7343  -8.6673  -8.5757  -8.5503  -8.4634
    -8.4468  -8.4039  -8.3783  -8.3170  -8.2932  -8.2529  -8.2231  -7.8731
    -7.8595  -7.8285  -7.8071  -7.7709  -7.7330  -7.7042  -7.6903  -7.6700
    -3.3236  -3.2682  -3.2558  -3.1938  -3.1600  -3.1539  -3.1431  -3.1299
    -3.1104  -3.0984  -3.0872  -3.0716  -3.0460  -3.0317  -3.0108  -3.0054
    -2.9932  -2.9801  -2.9542  -2.9437  -2.9087  -2.8915  -2.8678  -2.8330
     2.7264   2.9957   3.1328   3.2489   3.2745   3.4610   3.5150   3.5393
     3.5953   3.6469   3.6843   3.7095   3.7621   3.9142   3.9664   4.0528
     4.1455   4.2394   4.3564   4.4032   4.4907   4.6031   4.6275   4.8009
     4.8493   4.8895   4.9422   4.9878   5.0257   5.1269   5.2057   5.3107
     5.3670   5.4158   5.4393   5.4968   5.6104   5.6632   5.6952   5.7540
     5.7962   5.9236   6.0112   6.0460   6.1336   6.2131   6.2801   6.4817
     6.5316   6.7026   6.7276   6.8076   6.8193   6.8767   6.8810   6.9362
     6.9701   7.0246   7.0406   7.0428   7.0993   7.1175   7.1561   7.2227
     7.2669   7.2925   7.3582   7.6849   7.7599   7.7850   7.8347   7.9571
    10.5199  10.7810  10.8416  10.9302  11.0176  11.4692  11.7070  11.8714
    11.9346  12.0303  12.0922  12.1365  12.2003  12.3115  12.3580  12.4402
    12.4706  12.6036  12.7609  12.8714  12.9372  13.0073  13.0525  13.2224
    13.8858  14.0200  14.1907  14.2384  14.3710  14.8478  14.8849  15.1090

          k = 0.2500-0.2500-0.2500 ( 28324 PWs)   bands (ev):

   -46.9222 -46.9036 -46.8697 -46.8311 -46.7713 -46.6372 -46.6217 -46.5841
   -24.0949 -23.6834 -23.4617 -23.4176 -23.3914 -23.1571 -23.0464 -23.0329
   -23.0046 -22.9426 -22.9086 -22.8984 -22.8936 -22.8863 -22.8828 -22.8653
   -22.8644 -22.8569 -22.7362 -22.7313 -22.7216 -22.6924 -22.6789 -22.6362
   -19.6499 -19.5636 -19.5462 -19.5443 -19.5194 -19.4404 -19.3861 -19.3544
    -9.4163  -9.1834  -9.0353  -8.7382  -8.6632  -8.5824  -8.5698  -8.4644
    -8.4381  -8.3872  -8.3705  -8.3143  -8.2964  -8.2525  -8.2257  -7.8839
    -7.8563  -7.8339  -7.7995  -7.7663  -7.7348  -7.7096  -7.6903  -7.6674
    -3.3375  -3.2615  -3.2295  -3.2014  -3.1722  -3.1490  -3.1428  -3.1274
    -3.1130  -3.1089  -3.0799  -3.0685  -3.0577  -3.0361  -3.0236  -3.0088
    -2.9749  -2.9591  -2.9505  -2.9384  -2.9194  -2.9012  -2.8669  -2.8341
     2.7372   2.9298   3.1412   3.2756   3.3096   3.4184   3.4871   3.5247
     3.6000   3.6624   3.7062   3.7280   3.7886   3.9163   4.0274   4.0857
     4.1357   4.2399   4.3528   4.3928   4.4666   4.5692   4.6514   4.7959
     4.8672   4.8792   4.9106   4.9737   5.0487   5.1151   5.1856   5.2882
     5.3322   5.4019   5.4475   5.4851   5.5797   5.6376   5.7228   5.7523
     5.8509   5.9285   5.9832   6.0582   6.1452   6.1987   6.2460   6.4978
     6.5425   6.6822   6.7504   6.7981   6.8527   6.8842   6.9053   6.9518
     6.9692   7.0107   7.0205   7.0494   7.0957   7.1282   7.1910   7.2051
     7.2809   7.3155   7.3569   7.6711   7.7632   7.7922   7.8407   7.9560
    10.5202  10.7922  10.8093  10.8713  10.9483  11.4827  11.7112  11.8919
    11.9418  12.0234  12.0818  12.1736  12.2410  12.3010  12.3562  12.4528
    12.4892  12.5934  12.7535  12.8816  12.9324  13.0204  13.0533  13.2195
    13.8824  14.0126  14.1957  14.2658  14.3943  14.8225  14.8902  15.0806

          k =-0.2500 0.2500 0.5000 ( 28314 PWs)   bands (ev):

   -46.9222 -46.9036 -46.8697 -46.8311 -46.7713 -46.6371 -46.6218 -46.5841
   -24.0931 -23.6787 -23.4640 -23.4227 -23.3914 -23.1572 -23.0463 -23.0329
   -23.0000 -22.9140 -22.9080 -22.8981 -22.8942 -22.8935 -22.8866 -22.8828
   -22.8645 -22.8577 -22.7403 -22.7311 -22.7218 -22.6935 -22.6789 -22.6362
   -19.6497 -19.5625 -19.5468 -19.5450 -19.5193 -19.4402 -19.3862 -19.3547
    -9.2674  -9.0322  -9.0147  -8.8786  -8.7469  -8.6480  -8.4951  -8.4604
    -8.4421  -8.4045  -8.3193  -8.2886  -8.2725  -8.1878  -8.1499  -8.0464
    -7.9088  -7.8683  -7.8489  -7.8256  -7.7769  -7.7102  -7.6968  -7.6788
    -3.3250  -3.2447  -3.2233  -3.2125  -3.1718  -3.1550  -3.1482  -3.1271
    -3.1226  -3.1064  -3.0841  -3.0694  -3.0597  -3.0331  -3.0202  -2.9945
    -2.9870  -2.9721  -2.9552  -2.9436  -2.9160  -2.9003  -2.8580  -2.8359
     3.1130   3.1538   3.2232   3.3109   3.3932   3.5009   3.5583   3.5846
     3.6532   3.7091   3.7678   3.8365   3.9454   3.9734   4.0709   4.1463
     4.2824   4.3012   4.3685   4.4117   4.4953   4.5570   4.5785   4.6728
     4.7298   4.7783   4.8418   4.8880   4.9685   5.0109   5.0980   5.1232
     5.1984   5.2619   5.2761   5.3642   5.4113   5.4582   5.6411   5.6930
     5.7401   5.8154   5.9350   5.9964   6.0765   6.1810   6.2406   6.5296
     6.6298   6.7302   6.7822   6.8072   6.8315   6.8825   6.9020   6.9566
     6.9774   7.0158   7.0392   7.0560   7.1055   7.1494   7.2209   7.2578
     7.3459   7.3948   7.4905   7.5209   7.6067   7.6788   7.8192   7.9592
    10.5238  10.8061  11.2533  11.2729  11.4010  11.5969  11.6821  11.7038
    11.7241  11.7918  11.9152  11.9732  12.0963  12.2157  12.3449  12.4739
    12.5090  12.5891  12.6998  12.7422  12.8104  12.8491  12.9181  13.0644
    13.9216  14.0434  14.5960  14.6328  14.6837  14.8019  15.0365  15.1270

          k =-0.5000-0.2500 0.2500 ( 28314 PWs)   bands (ev):

   -46.9222 -46.9037 -46.8697 -46.8311 -46.7713 -46.6372 -46.6217 -46.5841
   -24.0949 -23.6835 -23.4617 -23.4176 -23.3914 -23.1570 -23.0464 -23.0253
   -23.0046 -22.9426 -22.9032 -22.8984 -22.8886 -22.8856 -22.8779 -22.8723
   -22.8653 -22.8564 -22.7385 -22.7313 -22.7216 -22.6965 -22.6849 -22.6420
   -19.6498 -19.5631 -19.5460 -19.5443 -19.5199 -19.4405 -19.3862 -19.3545
    -9.4120  -9.1790  -9.0245  -8.7048  -8.6522  -8.5402  -8.5333  -8.4326
    -8.4206  -8.3768  -8.3391  -8.2377  -8.2177  -8.1871  -8.0502  -8.0454
    -7.9699  -7.9576  -7.8554  -7.8219  -7.8100  -7.7906  -7.7063  -7.6921
    -3.3266  -3.2544  -3.2178  -3.1959  -3.1799  -3.1555  -3.1492  -3.1294
    -3.1095  -3.1041  -3.0947  -3.0759  -3.0441  -3.0319  -3.0229  -3.0156
    -2.9865  -2.9819  -2.9482  -2.9393  -2.9044  -2.8949  -2.8699  -2.8344
     2.7207   2.9927   3.1353   3.2500   3.3042   3.4839   3.5227   3.5845
     3.6707   3.6924   3.7850   3.9765   4.0038   4.0771   4.1588   4.2305
     4.3322   4.4564   4.4781   4.5366   4.5823   4.6337   4.6764   4.6925
     4.7688   4.8287   4.8746   4.9058   4.9876   5.0057   5.0931   5.1179
     5.1751   5.2376   5.3123   5.3566   5.4063   5.4951   5.5272   5.6623
     5.7221   5.8662   5.9238   6.0029   6.0835   6.1265   6.1761   6.2426
     6.4981   6.7115   6.7824   6.8056   6.8295   6.8492   6.9362   6.9697
     7.0037   7.0429   7.0874   7.1271   7.1510   7.1832   7.2024   7.2628
     7.2943   7.3265   7.5933   7.6272   7.6760   7.7001   7.7299   7.8273
    10.8035  10.9774  11.0233  11.1054  11.1996  11.2639  11.5060  11.7990
    11.8534  11.9792  12.0242  12.1335  12.1687  12.2109  12.2636  12.3077
    12.3959  12.4964  12.6517  12.6918  12.7977  12.8375  13.0097  13.2450
    14.0672  14.2096  14.3178  14.6550  14.9045  14.9854  15.2199  15.3321

          k = 0.5000-0.2500-0.2500 ( 28314 PWs)   bands (ev):

   -46.9222 -46.9037 -46.8697 -46.8311 -46.7713 -46.6372 -46.6217 -46.5841
   -24.0949 -23.6835 -23.4617 -23.4176 -23.3914 -23.1570 -23.0464 -23.0253
   -23.0046 -22.9426 -22.9032 -22.8984 -22.8886 -22.8856 -22.8779 -22.8723
   -22.8653 -22.8564 -22.7385 -22.7313 -22.7216 -22.6965 -22.6849 -22.6420
   -19.6498 -19.5630 -19.5461 -19.5442 -19.5199 -19.4405 -19.3862 -19.3545
    -9.4124  -9.1783  -9.0246  -8.6944  -8.6523  -8.5670  -8.5331  -8.4231
    -8.4117  -8.3783  -8.3390  -8.2353  -8.2186  -8.1883  -8.0520  -8.0443
    -7.9718  -7.9567  -7.8561  -7.8243  -7.8073  -7.7864  -7.7126  -7.6891
    -3.3325  -3.2378  -3.2233  -3.1976  -3.1684  -3.1552  -3.1466  -3.1365
    -3.1185  -3.1101  -3.0912  -3.0701  -3.0654  -3.0413  -3.0300  -2.9969
    -2.9768  -2.9619  -2.9464  -2.9360  -2.9194  -2.9061  -2.8658  -2.8328
     2.7499   2.9400   3.1439   3.2852   3.3109   3.4506   3.5141   3.5823
     3.6525   3.6948   3.7831   3.9750   4.0494   4.0916   4.1802   4.2170
     4.3031   4.4001   4.4967   4.5569   4.5679   4.6367   4.6643   4.7093
     4.8176   4.8489   4.8627   4.9165   4.9469   5.0104   5.0970   5.1197
     5.1794   5.2448   5.3164   5.3428   5.4207   5.4561   5.5586   5.6448
     5.7578   5.8082   5.9374   5.9875   6.0547   6.0992   6.2169   6.2825
     6.5046   6.7029   6.7655   6.8015   6.8561   6.8700   6.9273   6.9625
     7.0256   7.0472   7.0853   7.1029   7.1495   7.1762   7.2172   7.2391
     7.2995   7.3178   7.5856   7.6253   7.6824   7.7074   7.7190   7.8330
    10.8204  10.9725  11.0214  11.1090  11.2005  11.2804  11.5129  11.8084
    11.8394  11.9781  12.0260  12.1361  12.1678  12.1912  12.2532  12.2959
    12.4146  12.4872  12.6591  12.6968  12.7826  12.8344  13.0109  13.2460
    14.0471  14.2002  14.3280  14.6535  14.9139  15.0076  15.2197  15.3277

          k =-0.2500-0.5000 0.2500 ( 28314 PWs)   bands (ev):

   -46.9222 -46.9036 -46.8697 -46.8311 -46.7713 -46.6372 -46.6217 -46.5841
   -24.0949 -23.6834 -23.4617 -23.4176 -23.3852 -23.1637 -23.0387 -23.0328
   -23.0040 -22.9426 -22.9086 -22.8934 -22.8921 -22.8838 -22.8788 -22.8682
   -22.8643 -22.8619 -22.7396 -22.7362 -22.7281 -22.6924 -22.6789 -22.6362
   -19.6497 -19.5625 -19.5463 -19.5455 -19.5193 -19.4400 -19.3864 -19.3545
    -9.4106  -9.1790  -8.7847  -8.7436  -8.6919  -8.5792  -8.5394  -8.4967
    -8.3972  -8.3609  -8.3390  -8.3103  -8.2895  -8.2200  -8.1753  -8.0441
    -8.0037  -7.8991  -7.8313  -7.8040  -7.7630  -7.7294  -7.7073  -7.6709
    -3.3291  -3.2446  -3.2264  -3.1997  -3.1666  -3.1573  -3.1465  -3.1308
    -3.1173  -3.1102  -3.0848  -3.0668  -3.0582  -3.0451  -3.0234  -3.0070
    -2.9771  -2.9681  -2.9478  -2.9417  -2.9145  -2.9028  -2.8623  -2.8375
     2.7412   2.9601   3.2812   3.3555   3.4854   3.5521   3.5878   3.6293
     3.6818   3.7578   3.8283   3.9556   4.0778   4.1406   4.2136   4.2730
     4.3042   4.3585   4.4274   4.4422   4.4892   4.5402   4.5837   4.6458
     4.6986   4.7814   4.8363   4.8582   4.9232   4.9814   5.0273   5.0543
     5.1737   5.2213   5.2904   5.3274   5.3819   5.4446   5.4682   5.5327
     5.6659   5.7376   5.9778   6.0496   6.0891   6.1597   6.2440   6.3241
     6.4491   6.6540   6.7901   6.8298   6.8744   6.8888   6.9277   6.9530
     6.9838   6.9967   7.0521   7.1140   7.1581   7.2170   7.2527   7.2795
     7.3713   7.4978   7.5727   7.6136   7.6423   7.6851   7.7349   7.8022
    10.8297  10.8961  11.0360  11.2798  11.3191  11.4048  11.4707  11.5086
    11.9366  12.0446  12.0979  12.1410  12.1640  12.2390  12.3678  12.4055
    12.4967  12.5495  12.5896  12.7180  12.7631  12.8609  12.9707  13.0731
    14.1168  14.2957  14.4271  14.7002  14.7838  14.8605  14.9382  15.3912

          k =-0.2500 0.5000-0.2500 ( 28314 PWs)   bands (ev):

   -46.9222 -46.9036 -46.8697 -46.8311 -46.7713 -46.6372 -46.6217 -46.5841
   -24.0949 -23.6834 -23.4617 -23.4176 -23.3852 -23.1637 -23.0387 -23.0328
   -23.0041 -22.9426 -22.9086 -22.8934 -22.8921 -22.8838 -22.8788 -22.8682
   -22.8643 -22.8620 -22.7396 -22.7362 -22.7281 -22.6924 -22.6789 -22.6362
   -19.6497 -19.5625 -19.5463 -19.5455 -19.5193 -19.4400 -19.3864 -19.3545
    -9.4116  -9.1801  -8.7839  -8.7325  -8.6942  -8.5763  -8.5371  -8.4951
    -8.4078  -8.3749  -8.3387  -8.3077  -8.2908  -8.2192  -8.1749  -8.0395
    -8.0030  -7.8944  -7.8345  -7.8004  -7.7677  -7.7295  -7.7034  -7.6729
    -3.3256  -3.2435  -3.2250  -3.2087  -3.1647  -3.1565  -3.1511  -3.1292
    -3.1169  -3.1113  -3.0926  -3.0735  -3.0526  -3.0277  -3.0179  -3.0005
    -2.9826  -2.9754  -2.9544  -2.9415  -2.9154  -2.9042  -2.8617  -2.8330
     2.7596   2.9719   3.2702   3.3488   3.5109   3.5425   3.5884   3.6232
     3.6687   3.7134   3.8178   3.9508   4.0592   4.1182   4.2161   4.2728
     4.3186   4.3461   4.3922   4.4554   4.5038   4.5659   4.5990   4.6451
     4.7226   4.7435   4.8439   4.8759   4.9328   4.9868   5.0188   5.0874
     5.1813   5.2488   5.2891   5.3319   5.3769   5.4628   5.5129   5.5561
     5.6896   5.7636   5.8431   5.9675   6.1306   6.2008   6.2584   6.3613
     6.4589   6.6504   6.7772   6.8181   6.8529   6.9015   6.9287   6.9516
     6.9899   7.0108   7.0397   7.0814   7.1501   7.1930   7.2121   7.2806
     7.3696   7.4848   7.5720   7.6186   7.6582   7.6854   7.7281   7.7966
    10.9128  10.9806  11.0405  11.2780  11.3191  11.4121  11.4630  11.5098
    11.9291  12.0285  12.0740  12.1224  12.1579  12.2315  12.3202  12.3881
    12.4829  12.5571  12.5790  12.7334  12.7783  12.8859  12.9476  13.0580
    14.0721  14.2548  14.4500  14.7134  14.7968  14.8752  14.9668  15.4182

          k =-0.5000 0.2500 0.5000 ( 28280 PWs)   bands (ev):

   -46.9222 -46.9036 -46.8697 -46.8311 -46.7713 -46.6371 -46.6218 -46.5841
   -24.0931 -23.6787 -23.4640 -23.4227 -23.3914 -23.1571 -23.0463 -23.0253
   -23.0000 -22.9137 -22.9029 -22.8981 -22.8941 -22.8886 -22.8857 -22.8779
   -22.8725 -22.8572 -22.7422 -22.7311 -22.7218 -22.6979 -22.6848 -22.6421
   -19.6496 -19.5620 -19.5466 -19.5449 -19.5198 -19.4402 -19.3863 -19.3547
    -9.2632  -9.0177  -9.0134  -8.8628  -8.7290  -8.6249  -8.4380  -8.4264
    -8.4015  -8.3260  -8.2536  -8.2358  -8.2046  -8.1646  -8.0593  -8.0454
    -8.0118  -7.9672  -7.9436  -7.9177  -7.8296  -7.8189  -7.7927  -7.6982
    -3.3258  -3.2369  -3.2193  -3.1991  -3.1717  -3.1642  -3.1548  -3.1380
    -3.1278  -3.1118  -3.0994  -3.0753  -3.0607  -3.0486  -3.0088  -2.9927
    -2.9815  -2.9695  -2.9475  -2.9348  -2.9087  -2.9021  -2.8554  -2.8334
     3.1377   3.1644   3.2482   3.3235   3.3913   3.5482   3.5797   3.6388
     3.7302   3.8940   3.9689   3.9859   4.1155   4.1336   4.2232   4.2779
     4.3690   4.3993   4.4535   4.5083   4.5764   4.6033   4.6550   4.6847
     4.7120   4.7479   4.7923   4.8440   4.8967   4.9716   4.9949   5.0446
     5.0590   5.1042   5.2124   5.2607   5.3278   5.3911   5.4531   5.5032
     5.6190   5.6546   5.7558   5.8195   5.8959   6.0631   6.1384   6.2141
     6.6412   6.7449   6.7823   6.8183   6.8445   6.9264   6.9560   6.9948
     7.0146   7.0499   7.0893   7.1284   7.1773   7.1952   7.2345   7.2707
     7.3874   7.4585   7.5126   7.6125   7.6274   7.6456   7.7170   7.7804
    10.9801  11.0629  11.2301  11.3039  11.3497  11.5331  11.6981  11.7298
    11.7717  11.8507  11.8974  11.9259  12.0602  12.1077  12.2549  12.3157
    12.3529  12.3756  12.4108  12.5554  12.6624  12.7377  12.8357  13.0875
    14.1843  14.3100  14.7302  14.9659  15.2176  15.3674  15.4482  15.6614

          k =-0.5000 0.5000 0.2500 ( 28280 PWs)   bands (ev):

   -46.9222 -46.9036 -46.8697 -46.8311 -46.7713 -46.6372 -46.6217 -46.5841
   -24.0950 -23.6835 -23.4617 -23.4176 -23.3853 -23.1637 -23.0385 -23.0253
   -23.0040 -22.9426 -22.9031 -22.8922 -22.8876 -22.8795 -22.8787 -22.8722
   -22.8675 -22.8615 -22.7396 -22.7384 -22.7281 -22.6965 -22.6849 -22.6420
   -19.6496 -19.5620 -19.5462 -19.5454 -19.5198 -19.4401 -19.3866 -19.3546
    -9.4069  -9.1744  -8.7713  -8.7068  -8.6756  -8.5348  -8.5170  -8.4645
    -8.3413  -8.3161  -8.2754  -8.2647  -8.2237  -8.1568  -8.1211  -8.0603
    -8.0500  -7.9928  -7.9262  -7.8891  -7.8657  -7.8337  -7.7749  -7.7041
    -3.3263  -3.2384  -3.2228  -3.1938  -3.1753  -3.1624  -3.1574  -3.1343
    -3.1233  -3.1163  -3.0918  -3.0747  -3.0607  -3.0442  -3.0117  -2.9955
    -2.9756  -2.9712  -2.9477  -2.9384  -2.9141  -2.9003  -2.8577  -2.8337
     2.7537   2.9684   3.2895   3.3541   3.5379   3.5743   3.6251   3.6986
     3.9614   4.0219   4.0945   4.1174   4.1619   4.2687   4.3063   4.3295
     4.3358   4.3782   4.4701   4.5102   4.5620   4.5748   4.6067   4.6537
     4.7077   4.7569   4.8055   4.8348   4.8712   4.9162   4.9664   5.0443
     5.1135   5.1751   5.2082   5.2877   5.3244   5.3694   5.4020   5.4652
     5.5067   5.5548   5.5984   5.6211   5.8340   5.9847   6.0897   6.1941
     6.4557   6.6670   6.7925   6.9039   6.9117   6.9344   6.9566   7.0041
     7.0286   7.0677   7.0983   7.1117   7.2190   7.2408   7.3028   7.3627
     7.4378   7.4754   7.5396   7.5753   7.6173   7.6797   7.6960   7.7159
    11.0055  11.2004  11.2562  11.3988  11.4438  11.4909  11.6063  11.6885
    11.7145  11.7259  11.9812  12.0038  12.0514  12.0943  12.2088  12.2365
    12.3341  12.3665  12.4936  12.6818  12.7388  12.7890  12.7945  12.9516
    14.5478  14.5930  14.7647  14.8773  15.1933  15.2796  15.6307  15.7408

     the Fermi energy is     8.4939 ev

!    total energy              =   -4581.87436278 Ry
     total all-electron energy =    -74369.765285 Ry
     estimated scf accuracy    <          3.0E-09 Ry
     smearing contrib. (-TS)   =       0.00000000 Ry
     internal energy E=F+TS    =   -4581.87436278 Ry

     The total energy is F=E-TS. E is the sum of the following terms:
     one-electron contribution =    -603.98194868 Ry
     hartree contribution      =     482.13550391 Ry
     xc contribution           =    -500.81093353 Ry
     ewald contribution        =   -1619.52480416 Ry
     one-center paw contrib.   =   -2339.69218032 Ry

     convergence has been achieved in  15 iterations

     Forces acting on atoms (cartesian axes, Ry/au):

     atom    1 type  1   force =    -0.01425672   -0.00676710   -0.00146915
     atom    2 type  1   force =     0.01868948    0.00122733   -0.00136142
     atom    3 type  1   force =    -0.00582196    0.00650382    0.01314866
     atom    4 type  1   force =     0.01825364   -0.00883577   -0.01824402
     atom    5 type  1   force =     0.00116332    0.02684903   -0.00018343
     atom    6 type  1   force =     0.02440557   -0.01430436   -0.00268810
     atom    7 type  1   force =    -0.01238731   -0.00858731   -0.00960245
     atom    8 type  1   force =     0.00058580   -0.01252113    0.00091134
     atom    9 type  2   force =     0.01612293   -0.04442044    0.01913085
     atom   10 type  2   force =     0.01306720    0.02252146   -0.36781128
     atom   11 type  2   force =    -0.00383633    0.03095761    0.02832645
     atom   12 type  2   force =    -0.00304139   -0.02324785    0.45927154
     atom   13 type  2   force =     0.03263494   -0.12960653   -0.01292762
     atom   14 type  2   force =    -0.02684363    0.00386781   -0.18883112
     atom   15 type  2   force =     0.02945101   -0.14147207   -0.00907747
     atom   16 type  2   force =    -0.04484771   -0.00432948    0.17963418
     atom   17 type  3   force =     0.00900502   -0.01386810    0.02891089
     atom   18 type  3   force =     0.02422055   -0.00721390    0.01158251
     atom   19 type  3   force =    -0.01216021   -0.00261235   -0.03697253
     atom   20 type  3   force =     0.02640069    0.00382113   -0.01800516
     atom   21 type  3   force =     0.00300801    0.02471616    0.00747783
     atom   22 type  3   force =    -0.02886629    0.00652074    0.01922198
     atom   23 type  3   force =    -0.01798439    0.03066370   -0.02450077
     atom   24 type  3   force =     0.04678933   -0.01206958   -0.01465026
     atom   25 type  3   force =    -0.02768394    0.01477336   -0.01762480
     atom   26 type  3   force =    -0.01081835    0.04946283   -0.02771283
     atom   27 type  3   force =    -0.01716260    0.00738383    0.01604809
     atom   28 type  3   force =     0.00270997   -0.02845782    0.00319290
     atom   29 type  3   force =    -0.00783055    0.08009614   -0.00347632
     atom   30 type  3   force =    -0.00096049    0.03365206   -0.02658488
     atom   31 type  3   force =    -0.00923312    0.10712256   -0.01050139
     atom   32 type  3   force =     0.00737380   -0.02648635   -0.01254312
     atom   33 type  3   force =    -0.00221971    0.01382551    0.01685425
     atom   34 type  3   force =     0.00328418    0.00477436    0.30161968
     atom   35 type  3   force =    -0.00283510    0.00321666   -0.01709947
     atom   36 type  3   force =    -0.00616440   -0.00575581   -0.09184987
     atom   37 type  3   force =     0.00078290    0.01847248   -0.05253070
     atom   38 type  3   force =    -0.00452650    0.00573883    0.17098188
     atom   39 type  3   force =    -0.01533490   -0.01957287    0.03227957
     atom   40 type  3   force =    -0.00313272    0.01396140   -0.34234443

     Total force =     0.868686     Total SCF correction =     0.000167
     Message from routine punch:
     Nothing written, as per user request (disk_io='none')

     init_run     :     66.36s CPU     71.98s WALL (       1 calls)
     electrons    :   3002.15s CPU   3146.71s WALL (       1 calls)
     forces       :     43.43s CPU     44.66s WALL (       1 calls)

     Called by init_run:
     wfcinit      :     57.48s CPU     61.64s WALL (       1 calls)
     potinit      :      3.84s CPU      4.01s WALL (       1 calls)
     hinit0       :      1.59s CPU      1.72s WALL (       1 calls)

     Called by electrons:
     c_bands      :   2588.46s CPU   2697.20s WALL (      15 calls)
     sum_band     :    303.56s CPU    325.06s WALL (      15 calls)
     v_of_rho     :     27.10s CPU     29.47s WALL (      16 calls)
     newd         :     40.12s CPU     52.97s WALL (      16 calls)
     PAW_pot      :     39.57s CPU     39.59s WALL (      16 calls)
     mix_rho      :      4.31s CPU      4.45s WALL (      15 calls)

     Called by c_bands:
     init_us_2    :     68.08s CPU     68.35s WALL (     288 calls)
     cegterg      :   2039.67s CPU   2148.07s WALL (     135 calls)

     Called by *egterg:
     cdiaghg      :     51.26s CPU     51.27s WALL (     761 calls)
     h_psi        :    976.06s CPU   1039.35s WALL (     770 calls)
     s_psi        :    172.80s CPU    172.82s WALL (     770 calls)
     g_psi        :      7.34s CPU      7.34s WALL (     626 calls)

     Called by h_psi:
     h_psi:calbec :    233.85s CPU    234.74s WALL (     770 calls)
     vloc_psi     :    550.73s CPU    593.45s WALL (     770 calls)
                                        0.00s GPU  (     770 calls)
     add_vuspsi   :    181.13s CPU    181.16s WALL (     770 calls)

     General routines
     calbec       :    323.95s CPU    325.34s WALL (     941 calls)
     fft          :     24.74s CPU     26.79s WALL (     217 calls)
     ffts         :      1.10s CPU      1.17s WALL (      31 calls)
     fftw         :    536.32s CPU    585.36s WALL (  156422 calls)
     interpolate  :      2.81s CPU      2.97s WALL (      16 calls)

     Parallel routines

     PWSCF        :  51m53.92s CPU  54m25.57s WALL


   This run was terminated on:  11:45:10   4Oct2026            

=------------------------------------------------------------------------------=
   JOB DONE.
=------------------------------------------------------------------------------=
