
     Program PWSCF v.7.5 starts on  5Oct2026 at  2:16:26 

     This program is part of the open-source Quantum ESPRESSO suite
     for quantum simulation of materials; please cite
         "P. Giannozzi et al., J. Phys.:Condens. Matter 21 395502 (2009);
         "P. Giannozzi et al., J. Phys.:Condens. Matter 29 465901 (2017);
         "P. Giannozzi et al., J. Chem. Phys. 152 154105 (2020);
          URL http://www.quantum-espresso.org", 
     in publications or presentations arising from this work. More details at
     http://www.quantum-espresso.org/quote

     Parallel version (MPI & OpenMP), running on       8 processor cores
     Number of MPI processes:                 8
     Threads/MPI process:                     1

     MPI processes distributed on     1 nodes
     107265 MiB available memory on the printing compute node when the environment starts

     Reading input from pw.in

     Current dimensions of program PWSCF are:
     Max number of different atomic species (ntypx) = 10
     Max number of k-points (npk) =  40000
     Max angular momentum in pseudopotentials (lmaxx) =  4

     IMPORTANT: XC functional enforced from input :
     Exchange-correlation= PBESOL
                           (   1   4  10   8   0   0   0)
     Any further DFT definition will be discarded
     Please, verify this is what you really want

     Message from routine setup:
     using ibrav=0 with symmetry is DISCOURAGED, use correct ibrav instead

     K-points division:     npool     =       2
     R & G space division:  proc/nbgrp/npool/nimage =       4
     Subspace diagonalization in iterative solution of the eigenvalue problem:
     a serial algorithm will be used


     Parallelization info
     --------------------
     sticks:   dense  smooth     PW     G-vecs:    dense   smooth      PW
     Min        2046    1023    277               122595    43365    6087
     Max        2047    1024    278               122598    43367    6090
     Sum        8185    4093   1111               490385   173463   24357

     Using Slab Decomposition



     bravais-lattice index     =            0
     lattice parameter (alat)  =      15.7535  a.u.
     unit-cell volume          =    2764.4861 (a.u.)^3
     number of atoms/cell      =           10
     number of atomic types    =            3
     number of electrons       =        88.00
     number of Kohn-Sham states=           53
     kinetic-energy cutoff     =      60.0000  Ry
     charge density cutoff     =     480.0000  Ry
     scf convergence threshold =      1.0E-09
     mixing beta               =       0.4000
     number of iterations used =            8  plain     mixing
     Exchange-correlation= PBESOL
                           (   1   4  10   8   0   0   0)

     celldm(1)=  15.753479  celldm(2)=   0.000000  celldm(3)=   0.000000
     celldm(4)=   0.000000  celldm(5)=   0.000000  celldm(6)=   0.000000

     crystal axes: (cart. coord. in units of alat)
               a(1) = (   0.707107   0.000000   0.707107 )  
               a(2) = (  -0.000000  -0.707107   0.707107 )  
               a(3) = (   0.707107  -0.707107  -0.000000 )  

     reciprocal axes: (cart. coord. in units 2 pi/alat)
               b(1) = (  0.707107  0.707107  0.707107 )  
               b(2) = ( -0.707107 -0.707107  0.707107 )  
               b(3) = (  0.707107 -0.707107 -0.707107 )  


     PseudoPot. # 1 for Cs read from file:
     /root/sssp/Cs_pbe_v1.uspp.F.UPF
     MD5 check sum: 3476d69cb178dfad3ffaa59df4e07ca4
     Pseudo is Ultrasoft + core correction, Zval =  9.0
     Generated by new atomic code, or converted to UPF format
     Using radial grid of  905 points,  6 beta functions with: 
                l(1) =   0
                l(2) =   0
                l(3) =   1
                l(4) =   1
                l(5) =   2
                l(6) =   2
     Q(r) pseudized with  6 coefficients,  rinner =    1.500   1.500   1.500
                                                       1.500   1.500

     PseudoPot. # 2 for Sn read from file:
     /root/sssp/Sn_pbe_v1.uspp.F.UPF
     MD5 check sum: 4cf58ce39ec5d5d420df3dd08604eb00
     Pseudo is Ultrasoft + core correction, Zval = 14.0
     Generated by new atomic code, or converted to UPF format
     Using radial grid of  891 points,  6 beta functions with: 
                l(1) =   0
                l(2) =   0
                l(3) =   1
                l(4) =   1
                l(5) =   2
                l(6) =   2
     Q(r) pseudized with  6 coefficients,  rinner =    1.200   1.200   1.200
                                                       1.200   1.200

     PseudoPot. # 3 for Br read from file:
     /root/sssp/br_pbe_v1.4.uspp.F.UPF
     MD5 check sum: d3ffb7b29f6225aa16fe06858fb2a80b
     Pseudo is Ultrasoft + core correction, Zval =  7.0
     Generated by new atomic code, or converted to UPF format
     Using radial grid of  879 points,  6 beta functions with: 
                l(1) =   0
                l(2) =   0
                l(3) =   1
                l(4) =   1
                l(5) =   2
                l(6) =   2
     Q(r) pseudized with  8 coefficients,  rinner =    1.100   1.100   1.100
                                                       1.100   1.100

     atomic species   valence    mass     pseudopotential
     Cs                9.00   132.90550     Cs( 1.00)
     Sn               14.00   118.71000     Sn( 1.00)
     Br                7.00    79.90400     Br( 1.00)

      2 Sym. Ops., with inversion, found ( 1 have fractional translation)



   Cartesian axes

     site n.     atom                  positions (alat units)
         1        Cs     tau(   1) = (   0.7071068  -0.7071068   0.7071068  )
         2        Cs     tau(   2) = (   0.0000000   0.0000000   0.0000000  )
         3        Sn     tau(   3) = (   1.0606602  -1.0606602   1.0606602  )
         4        Sn     tau(   4) = (   0.3535534  -0.3535534   0.3535534  )
         5        Br     tau(   5) = (   0.7071068  -1.0552027   0.3500114  )
         6        Br     tau(   6) = (   0.7071068  -0.3590109   0.3570954  )
         7        Br     tau(   7) = (   0.3590109  -0.7071068   1.0439996  )
         8        Br     tau(   8) = (   0.3480959  -0.7071068   0.3702140  )
         9        Br     tau(   9) = (   1.0571182  -1.0439996   0.7071068  )
        10        Br     tau(  10) = (   1.0642022  -0.3702140   0.7071068  )

     number of k points=    36  Marzari-Vanderbilt smearing, width (Ry)=  0.0050
                       cart. coord. in units 2pi/alat
        k(    1) = (   0.0000000   0.0000000   0.0000000), wk =   0.0312500
        k(    2) = (   0.1767767  -0.1767767  -0.1767767), wk =   0.0625000
        k(    3) = (  -0.3535534   0.3535534   0.3535534), wk =   0.0312500
        k(    4) = (   0.0000000  -0.3535534   0.0000000), wk =   0.0625000
        k(    5) = (  -0.5303301   0.1767767   0.5303301), wk =   0.0625000
        k(    6) = (  -0.3535534   0.0000000   0.3535534), wk =   0.0625000
        k(    7) = (   0.0000000   0.7071068   0.0000000), wk =   0.0312500
        k(    8) = (   0.3535534   0.7071068   0.0000000), wk =   0.0625000
        k(    9) = (  -0.1767767  -0.1767767   0.1767767), wk =   0.0625000
        k(   10) = (   0.1767767   0.1767767   0.1767767), wk =   0.0625000
        k(   11) = (   0.1767767  -0.1767767   0.1767767), wk =   0.0625000
        k(   12) = (   0.3535534   0.3535534  -0.3535534), wk =   0.0312500
        k(   13) = (  -0.3535534  -0.3535534  -0.3535534), wk =   0.0312500
        k(   14) = (  -0.3535534   0.3535534  -0.3535534), wk =   0.0312500
        k(   15) = (  -0.3535534   0.0000000   0.0000000), wk =   0.0625000
        k(   16) = (   0.0000000   0.0000000  -0.3535534), wk =   0.0625000
        k(   17) = (   0.5303301   0.1767767  -0.5303301), wk =   0.0625000
        k(   18) = (  -0.5303301  -0.1767767  -0.5303301), wk =   0.0625000
        k(   19) = (   0.1767767  -0.5303301  -0.5303301), wk =   0.0625000
        k(   20) = (  -0.1767767   0.5303301  -0.5303301), wk =   0.0625000
        k(   21) = (   0.1767767   0.5303301   0.5303301), wk =   0.0625000
        k(   22) = (  -0.1767767  -0.5303301   0.5303301), wk =   0.0625000
        k(   23) = (  -0.5303301   0.1767767  -0.5303301), wk =   0.0625000
        k(   24) = (   0.5303301   0.5303301   0.1767767), wk =   0.0625000
        k(   25) = (   0.5303301  -0.5303301  -0.1767767), wk =   0.0625000
        k(   26) = (  -0.5303301   0.5303301  -0.1767767), wk =   0.0625000
        k(   27) = (  -0.5303301  -0.5303301   0.1767767), wk =   0.0625000
        k(   28) = (  -0.3535534   0.0000000  -0.3535534), wk =   0.0625000
        k(   29) = (   0.0000000  -0.3535534  -0.3535534), wk =   0.0625000
        k(   30) = (   0.0000000   0.3535534  -0.3535534), wk =   0.0625000
        k(   31) = (   0.3535534   0.3535534   0.0000000), wk =   0.0625000
        k(   32) = (   0.3535534  -0.3535534   0.0000000), wk =   0.0625000
        k(   33) = (   0.7071068   0.0000000   0.0000000), wk =   0.0312500
        k(   34) = (   0.0000000   0.0000000   0.7071068), wk =   0.0312500
        k(   35) = (   0.7071068   0.3535534   0.0000000), wk =   0.0625000
        k(   36) = (   0.0000000  -0.7071068   0.3535534), wk =   0.0625000

     Dense  grid:   490385 G-vectors     FFT dimensions: ( 120, 120, 120)

     Smooth grid:   173463 G-vectors     FFT dimensions: (  80,  80,  80)

     Estimated max dynamical RAM per process >     380.93 MB

     Estimated total dynamical RAM >       2.86 GB

     Initial potential from superposition of free atoms

     starting charge      85.9210, renormalised to      88.0000
     Starting wfcs are   68 randomized atomic wfcs

     total cpu time spent up to now is       18.5 secs

     per-process dynamical memory:   194.7 Mb

     Self-consistent Calculation

     iteration #  1     ecut=    60.00 Ry     beta= 0.40
     Davidson diagonalization with overlap
     ethr =  1.00E-02,  avg # of iterations =  2.7

     Threshold (ethr) on eigenvalues was too large:
     Diagonalizing with lowered threshold

     Davidson diagonalization with overlap
     ethr =  4.90E-04,  avg # of iterations =  3.1

     total cpu time spent up to now is       90.9 secs

     total energy              =    -731.33792110 Ry
     estimated scf accuracy    <       0.41436233 Ry

     iteration #  2     ecut=    60.00 Ry     beta= 0.40
     Davidson diagonalization with overlap
     ethr =  4.71E-04,  avg # of iterations =  2.0

     total cpu time spent up to now is      129.1 secs

     total energy              =    -731.38200344 Ry
     estimated scf accuracy    <       0.03879985 Ry

     iteration #  3     ecut=    60.00 Ry     beta= 0.40
     Davidson diagonalization with overlap
     ethr =  4.41E-05,  avg # of iterations =  7.2

     total cpu time spent up to now is      183.9 secs

     total energy              =    -731.38596259 Ry
     estimated scf accuracy    <       0.00521010 Ry

     iteration #  4     ecut=    60.00 Ry     beta= 0.40
     Davidson diagonalization with overlap
     c_bands:  1 eigenvalues not converged
     ethr =  5.92E-06,  avg # of iterations =  6.2

     total cpu time spent up to now is      234.2 secs

     total energy              =    -731.38651903 Ry
     estimated scf accuracy    <       0.00050505 Ry

     iteration #  5     ecut=    60.00 Ry     beta= 0.40
     Davidson diagonalization with overlap
     ethr =  5.74E-07,  avg # of iterations =  8.1

     total cpu time spent up to now is      292.2 secs

     total energy              =    -731.38658751 Ry
     estimated scf accuracy    <       0.00001163 Ry

     iteration #  6     ecut=    60.00 Ry     beta= 0.40
     Davidson diagonalization with overlap
     ethr =  1.32E-08,  avg # of iterations =  5.0

     total cpu time spent up to now is      349.1 secs

     total energy              =    -731.38659897 Ry
     estimated scf accuracy    <       0.00000110 Ry

     iteration #  7     ecut=    60.00 Ry     beta= 0.40
     Davidson diagonalization with overlap
     ethr =  1.25E-09,  avg # of iterations =  2.7

     total cpu time spent up to now is      395.4 secs

     total energy              =    -731.38660048 Ry
     estimated scf accuracy    <       0.00000025 Ry

     iteration #  8     ecut=    60.00 Ry     beta= 0.40
     Davidson diagonalization with overlap
     ethr =  2.80E-10,  avg # of iterations =  2.2

     total cpu time spent up to now is      440.3 secs

     total energy              =    -731.38660091 Ry
     estimated scf accuracy    <       0.00000004 Ry

     iteration #  9     ecut=    60.00 Ry     beta= 0.40
     Davidson diagonalization with overlap
     ethr =  4.22E-11,  avg # of iterations =  4.1

     total cpu time spent up to now is      486.2 secs

     total energy              =    -731.38660103 Ry
     estimated scf accuracy    <          4.5E-09 Ry

     iteration # 10     ecut=    60.00 Ry     beta= 0.40
     Davidson diagonalization with overlap
     ethr =  5.06E-12,  avg # of iterations =  2.1

     total cpu time spent up to now is      530.2 secs

     End of self-consistent calculation

          k = 0.0000 0.0000 0.0000 ( 21595 PWs)   bands (ev):

   -18.0261 -18.0234 -17.9669 -17.9669 -17.9591 -17.9591 -17.9436 -17.9433
   -17.9433 -17.9432 -17.9430 -17.9430 -11.3605 -11.0484 -11.0438 -11.0434
   -10.8809 -10.8794  -4.8505  -4.8504  -4.8484  -4.8156  -4.8156  -4.8153
    -4.5389  -2.2259  -0.9610  -0.9517  -0.9506   0.4979   0.4981   0.5012
     0.9211   0.9214   1.2310   1.2370   1.2417   1.3572   1.3593   1.3606
     1.7123   1.7138   1.7148   3.9655   4.5574   4.5618   4.5634   6.3196
     7.4573   7.4749   7.8393   8.0850   8.0909

          k = 0.1768-0.1768-0.1768 ( 21719 PWs)   bands (ev):

   -18.0256 -18.0238 -17.9658 -17.9657 -17.9603 -17.9602 -17.9435 -17.9433
   -17.9433 -17.9432 -17.9430 -17.9430 -11.3193 -11.0973 -11.0232 -11.0207
   -10.9063 -10.9045  -4.8409  -4.8398  -4.8283  -4.8158  -4.8153  -4.8043
    -4.3223  -2.8711  -0.7560  -0.7528  -0.2763   0.4570   0.4828   0.4852
     0.6346   0.6358   1.1054   1.1114   1.2797   1.3046   1.3665   1.3677
     1.5874   1.5938   1.6382   2.8610   5.2263   5.2311   5.6433   6.7372
     7.6913   7.7098   8.0219   8.0329   8.0537

          k =-0.3536 0.3536 0.3536 ( 21668 PWs)   bands (ev):

   -18.0247 -18.0247 -17.9630 -17.9630 -17.9630 -17.9630 -17.9434 -17.9434
   -17.9432 -17.9432 -17.9431 -17.9431 -11.2136 -11.2135 -10.9661 -10.9660
   -10.9636 -10.9634  -4.8254  -4.8252  -4.8214  -4.8212  -4.7997  -4.7996
    -3.7227  -3.7227  -0.2085  -0.2084  -0.1944  -0.1944   0.3468   0.3469
     0.8221   0.8223   0.8293   0.8297   1.4221   1.4245   1.4475   1.4502
     1.4641   1.4642   1.6978   1.6981   6.5730   6.5739   6.6246   6.6260
     6.8572   6.8576   7.7702   7.7705   8.3862

          k = 0.0000-0.3536 0.0000 ( 21755 PWs)   bands (ev):

   -18.0255 -18.0238 -17.9669 -17.9643 -17.9617 -17.9591 -17.9435 -17.9433
   -17.9433 -17.9432 -17.9431 -17.9430 -11.3071 -11.0505 -11.0472 -11.0460
   -10.9461 -10.8795  -4.8385  -4.8366  -4.8229  -4.8104  -4.8097  -4.8092
    -4.2753  -2.8643  -0.9171  -0.9070   0.0816   0.0822   0.3999   0.6167
     0.6207   0.9171   1.1602   1.1665   1.1685   1.2959   1.2986   1.3924
     1.4471   1.4887   1.7101   3.2330   4.8173   4.8215   6.3916   6.8542
     7.2027   7.8286   7.9107   8.2356   8.2731

          k =-0.5303 0.1768 0.5303 ( 21709 PWs)   bands (ev):

   -18.0250 -18.0244 -17.9658 -17.9639 -17.9621 -17.9602 -17.9434 -17.9434
   -17.9432 -17.9432 -17.9431 -17.9430 -11.2288 -11.1468 -11.0254 -11.0104
   -10.9756 -10.9042  -4.8268  -4.8210  -4.8144  -4.8108  -4.8023  -4.8002
    -3.8940  -3.4140  -0.6838  -0.5375  -0.5200   0.3793   0.4120   0.4558
     0.7683   0.8870   0.9022   1.0671   1.2138   1.2313   1.2931   1.3100
     1.3537   1.6127   1.8851   2.4493   5.5468   5.7276   5.9087   7.4444
     7.5526   7.7171   7.9114   8.2265   8.4274

          k =-0.3536 0.0000 0.3536 ( 21693 PWs)   bands (ev):

   -18.0251 -18.0243 -17.9656 -17.9630 -17.9630 -17.9604 -17.9435 -17.9433
   -17.9432 -17.9431 -17.9431 -17.9431 -11.2570 -11.1355 -11.0465 -10.9670
   -10.9637 -10.9165  -4.8276  -4.8268  -4.8193  -4.8102  -4.8046  -4.8043
    -4.0015  -3.3353  -0.8518  -0.2604  -0.1312   0.1729   0.2732   0.4427
     0.6578   0.8588   0.8946   1.1154   1.2012   1.2361   1.3627   1.4357
     1.4637   1.5332   1.6226   2.5304   5.0565   6.4277   6.6829   6.8323
     6.9431   7.4760   8.0871   8.1208   8.1983

          k = 0.0000 0.7071 0.0000 ( 21732 PWs)   bands (ev):

   -18.0250 -18.0243 -17.9669 -17.9643 -17.9617 -17.9591 -17.9434 -17.9434
   -17.9432 -17.9432 -17.9432 -17.9430 -11.2193 -11.0525 -11.0509 -11.0485
   -11.0466 -10.8785  -4.8265  -4.8247  -4.8055  -4.8037  -4.8031  -4.7947
    -3.9354  -3.2143  -0.8701  -0.8597  -0.7142   0.3040   0.5714   0.9116
     0.9177   0.9365   0.9930   1.0024   1.0701   1.0787   1.1236   1.2505
     1.2531   1.7044   2.1068   3.0626   5.0620   5.0691   5.5135   7.7705
     7.8879   8.2918   8.3108   8.3533   8.4863

          k = 0.3536 0.7071 0.0000 ( 21692 PWs)   bands (ev):

   -18.0247 -18.0246 -17.9652 -17.9652 -17.9608 -17.9608 -17.9434 -17.9434
   -17.9432 -17.9432 -17.9431 -17.9431 -11.1711 -11.1710 -11.0477 -11.0474
   -10.9296 -10.9295  -4.8163  -4.8162  -4.8140  -4.8140  -4.7990  -4.7989
    -3.6402  -3.6396  -0.7918  -0.7911  -0.0145  -0.0143   0.4291   0.4292
     0.9174   0.9177   1.0386   1.0389   1.1261   1.1265   1.1932   1.1934
     1.4934   1.4937   2.3582   2.3592   5.2888   5.2889   6.7871   6.7871
     8.0332   8.0347   8.2107   8.2116   8.4847

          k =-0.1768-0.1768 0.1768 ( 21719 PWs)   bands (ev):

   -18.0256 -18.0238 -17.9658 -17.9657 -17.9603 -17.9602 -17.9435 -17.9433
   -17.9433 -17.9432 -17.9430 -17.9430 -11.3193 -11.0971 -11.0235 -11.0205
   -10.9063 -10.9045  -4.8409  -4.8397  -4.8283  -4.8158  -4.8154  -4.8043
    -4.3222  -2.8709  -0.7575  -0.7520  -0.2758   0.4574   0.4828   0.4858
     0.6340   0.6364   1.1068   1.1117   1.2796   1.3015   1.3655   1.3684
     1.5868   1.5918   1.6402   2.8622   5.2267   5.2310   5.6435   6.7372
     7.6942   7.7094   8.0335   8.0467   8.0702

          k = 0.1768 0.1768 0.1768 ( 21719 PWs)   bands (ev):

   -18.0256 -18.0238 -17.9658 -17.9658 -17.9603 -17.9602 -17.9435 -17.9433
   -17.9433 -17.9433 -17.9430 -17.9430 -11.3192 -11.0966 -11.0239 -11.0207
   -10.9064 -10.9046  -4.8408  -4.8397  -4.8283  -4.8158  -4.8156  -4.8043
    -4.3222  -2.8702  -0.7587  -0.7526  -0.2742   0.4586   0.4835   0.4867
     0.6339   0.6364   1.1103   1.1129   1.2795   1.2931   1.3653   1.3676
     1.5845   1.5871   1.6451   2.8656   5.2273   5.2313   5.6438   6.7371
     7.7002   7.7104   8.0347   8.0478   8.0725

          k = 0.1768-0.1768 0.1768 ( 21719 PWs)   bands (ev):

   -18.0256 -18.0238 -17.9658 -17.9658 -17.9603 -17.9602 -17.9435 -17.9433
   -17.9433 -17.9432 -17.9430 -17.9430 -11.3193 -11.0970 -11.0237 -11.0205
   -10.9064 -10.9045  -4.8409  -4.8397  -4.8283  -4.8158  -4.8155  -4.8043
    -4.3222  -2.8707  -0.7581  -0.7519  -0.2753   0.4577   0.4830   0.4861
     0.6338   0.6365   1.1079   1.1120   1.2796   1.2991   1.3651   1.3685
     1.5862   1.5902   1.6417   2.8632   5.2270   5.2310   5.6435   6.7372
     7.6965   7.7093   8.0339   8.0466   8.0717

          k = 0.3536 0.3536-0.3536 ( 21668 PWs)   bands (ev):

   -18.0247 -18.0247 -17.9630 -17.9630 -17.9630 -17.9630 -17.9434 -17.9434
   -17.9432 -17.9432 -17.9431 -17.9431 -11.2134 -11.2134 -10.9663 -10.9660
   -10.9637 -10.9633  -4.8253  -4.8248  -4.8218  -4.8213  -4.7997  -4.7997
    -3.7225  -3.7225  -0.2079  -0.2077  -0.1951  -0.1951   0.3476   0.3479
     0.8222   0.8231   0.8289   0.8302   1.4194   1.4298   1.4381   1.4513
     1.4579   1.4600   1.7038   1.7046   6.5750   6.5780   6.6219   6.6266
     6.8558   6.8571   7.7723   7.7732   8.3845

          k =-0.3536-0.3536-0.3536 ( 21668 PWs)   bands (ev):

   -18.0247 -18.0247 -17.9630 -17.9630 -17.9630 -17.9630 -17.9434 -17.9434
   -17.9432 -17.9432 -17.9431 -17.9431 -11.2131 -11.2131 -10.9664 -10.9663
   -10.9637 -10.9637  -4.8245  -4.8244  -4.8222  -4.8221  -4.7998  -4.7998
    -3.7220  -3.7220  -0.2056  -0.2056  -0.1975  -0.1975   0.3502   0.3503
     0.8242   0.8243   0.8295   0.8297   1.4186   1.4199   1.4388   1.4412
     1.4477   1.4487   1.7199   1.7200   6.5867   6.5873   6.6189   6.6196
     6.8540   6.8542   7.7793   7.7794   8.3821

          k =-0.3536 0.3536-0.3536 ( 21668 PWs)   bands (ev):

   -18.0247 -18.0247 -17.9630 -17.9630 -17.9630 -17.9630 -17.9434 -17.9434
   -17.9432 -17.9432 -17.9431 -17.9431 -11.2133 -11.2133 -10.9664 -10.9661
   -10.9637 -10.9634  -4.8251  -4.8247  -4.8219  -4.8215  -4.7998  -4.7997
    -3.7224  -3.7223  -0.2074  -0.2072  -0.1957  -0.1957   0.3484   0.3486
     0.8227   0.8234   0.8291   0.8302   1.4193   1.4289   1.4359   1.4491
     1.4539   1.4569   1.7087   1.7093   6.5778   6.5805   6.6213   6.6252
     6.8553   6.8563   7.7743   7.7750   8.3841

          k =-0.3536 0.0000 0.0000 ( 21755 PWs)   bands (ev):

   -18.0255 -18.0239 -17.9669 -17.9643 -17.9617 -17.9591 -17.9435 -17.9432
   -17.9432 -17.9432 -17.9431 -17.9431 -11.3066 -11.0521 -11.0458 -11.0455
   -10.9481 -10.8783  -4.8385  -4.8384  -4.8214  -4.8097  -4.8097  -4.8095
    -4.2723  -2.8721  -0.9077  -0.9068   0.0790   0.0847   0.4025   0.6158
     0.6162   0.9180   1.1556   1.1573   1.1760   1.2973   1.2977   1.4141
     1.4503   1.4580   1.7186   3.2258   4.8220   4.8229   6.4060   6.8551
     7.2132   7.8381   7.8739   8.2647   8.2745

          k = 0.0000 0.0000-0.3536 ( 21755 PWs)   bands (ev):

   -18.0255 -18.0238 -17.9669 -17.9643 -17.9617 -17.9591 -17.9435 -17.9433
   -17.9433 -17.9432 -17.9431 -17.9430 -11.3071 -11.0504 -11.0475 -11.0457
   -10.9462 -10.8794  -4.8386  -4.8366  -4.8228  -4.8103  -4.8097  -4.8093
    -4.2751  -2.8648  -0.9170  -0.9065   0.0814   0.0824   0.4000   0.6165
     0.6206   0.9171   1.1588   1.1677   1.1682   1.2963   1.2983   1.3940
     1.4462   1.4876   1.7107   3.2325   4.8181   4.8211   6.3926   6.8543
     7.2033   7.8290   7.9083   8.2378   8.2716

          k = 0.5303 0.1768-0.5303 ( 21709 PWs)   bands (ev):

   -18.0250 -18.0244 -17.9658 -17.9639 -17.9621 -17.9602 -17.9434 -17.9434
   -17.9432 -17.9431 -17.9431 -17.9430 -11.2288 -11.1468 -11.0255 -11.0105
   -10.9756 -10.9042  -4.8267  -4.8210  -4.8144  -4.8108  -4.8023  -4.8003
    -3.8939  -3.4139  -0.6838  -0.5376  -0.5201   0.3799   0.4119   0.4561
     0.7688   0.8876   0.9028   1.0673   1.2118   1.2297   1.2931   1.3103
     1.3536   1.6113   1.8866   2.4497   5.5469   5.7281   5.9090   7.4448
     7.5524   7.7159   7.9125   8.2306   8.3204

          k =-0.5303-0.1768-0.5303 ( 21709 PWs)   bands (ev):

   -18.0250 -18.0244 -17.9658 -17.9639 -17.9621 -17.9602 -17.9434 -17.9434
   -17.9432 -17.9432 -17.9432 -17.9430 -11.2286 -11.1463 -11.0260 -11.0105
   -10.9755 -10.9043  -4.8267  -4.8209  -4.8143  -4.8111  -4.8024  -4.8003
    -3.8937  -3.4136  -0.6863  -0.5325  -0.5231   0.3807   0.4140   0.4579
     0.7663   0.8890   0.9026   1.0695   1.2116   1.2236   1.2955   1.3078
     1.3508   1.6094   1.8887   2.4527   5.5446   5.7330   5.9072   7.4451
     7.5507   7.7233   7.9147   8.2352   8.3195

          k = 0.1768-0.5303-0.5303 ( 21709 PWs)   bands (ev):

   -18.0249 -18.0244 -17.9657 -17.9639 -17.9621 -17.9603 -17.9434 -17.9433
   -17.9432 -17.9432 -17.9431 -17.9431 -11.2275 -11.1475 -11.0234 -11.0135
   -10.9767 -10.9028  -4.8273  -4.8216  -4.8132  -4.8115  -4.8014  -4.8006
    -3.8880  -3.4205  -0.6815  -0.5377  -0.5250   0.3823   0.4130   0.4594
     0.7643   0.8827   0.8979   1.0706   1.2154   1.2272   1.2983   1.3174
     1.3496   1.5983   1.9035   2.4464   5.5440   5.7310   5.9101   7.4635
     7.5460   7.7110   7.8997   8.2188   8.4140

          k =-0.1768 0.5303-0.5303 ( 21709 PWs)   bands (ev):

   -18.0249 -18.0244 -17.9657 -17.9639 -17.9621 -17.9603 -17.9434 -17.9433
   -17.9432 -17.9432 -17.9431 -17.9431 -11.2273 -11.1474 -11.0233 -11.0136
   -10.9769 -10.9028  -4.8272  -4.8215  -4.8133  -4.8115  -4.8015  -4.8006
    -3.8879  -3.4203  -0.6809  -0.5388  -0.5247   0.3832   0.4124   0.4596
     0.7659   0.8839   0.8990   1.0706   1.2103   1.2257   1.2975   1.3183
     1.3502   1.5958   1.9064   2.4469   5.5448   5.7309   5.9111   7.4647
     7.5453   7.7075   7.9017   8.2282   8.4145

          k = 0.1768 0.5303 0.5303 ( 21709 PWs)   bands (ev):

   -18.0249 -18.0244 -17.9657 -17.9639 -17.9621 -17.9603 -17.9434 -17.9433
   -17.9432 -17.9432 -17.9431 -17.9431 -11.2272 -11.1472 -11.0234 -11.0137
   -10.9770 -10.9028  -4.8271  -4.8215  -4.8133  -4.8116  -4.8015  -4.8007
    -3.8878  -3.4200  -0.6814  -0.5380  -0.5253   0.3841   0.4127   0.4604
     0.7660   0.8850   0.8996   1.0713   1.2069   1.2233   1.2979   1.3178
     1.3495   1.5938   1.9086   2.4482   5.5445   5.7325   5.9111   7.4655
     7.5443   7.7079   7.9035   8.2350   8.4145

          k =-0.1768-0.5303 0.5303 ( 21709 PWs)   bands (ev):

   -18.0249 -18.0244 -17.9657 -17.9639 -17.9621 -17.9603 -17.9434 -17.9433
   -17.9432 -17.9432 -17.9431 -17.9431 -11.2274 -11.1475 -11.0233 -11.0136
   -10.9768 -10.9028  -4.8273  -4.8215  -4.8133  -4.8115  -4.8015  -4.8005
    -3.8880  -3.4204  -0.6809  -0.5387  -0.5247   0.3828   0.4125   0.4594
     0.7656   0.8834   0.8987   1.0704   1.2121   1.2266   1.2976   1.3182
     1.3502   1.5967   1.9053   2.4466   5.5447   5.7305   5.9109   7.4642
     7.5456   7.7082   7.9009   8.2245   8.4147

          k =-0.5303 0.1768-0.5303 ( 21709 PWs)   bands (ev):

   -18.0250 -18.0244 -17.9658 -17.9639 -17.9621 -17.9602 -17.9434 -17.9434
   -17.9432 -17.9432 -17.9432 -17.9430 -11.2288 -11.1465 -11.0260 -11.0103
   -10.9754 -10.9043  -4.8268  -4.8210  -4.8142  -4.8111  -4.8023  -4.8002
    -3.8938  -3.4138  -0.6864  -0.5323  -0.5229   0.3797   0.4142   0.4574
     0.7654   0.8878   0.9017   1.0691   1.2158   1.2262   1.2956   1.3073
     1.3509   1.6120   1.8857   2.4518   5.5444   5.7322   5.9067   7.4442
     7.5515   7.7251   7.9126   8.2264   8.3182

          k = 0.5303 0.5303 0.1768 ( 21709 PWs)   bands (ev):

   -18.0249 -18.0244 -17.9658 -17.9639 -17.9621 -17.9602 -17.9434 -17.9434
   -17.9432 -17.9431 -17.9431 -17.9430 -11.2285 -11.1464 -11.0258 -11.0107
   -10.9756 -10.9042  -4.8267  -4.8210  -4.8142  -4.8111  -4.8023  -4.8003
    -3.8933  -3.4140  -0.6857  -0.5337  -0.5228   0.3810   0.4135   0.4579
     0.7668   0.8888   0.9026   1.0694   1.2104   1.2239   1.2952   1.3090
     1.3511   1.6081   1.8904   2.4521   5.5450   5.7324   5.9078   7.4466
     7.5504   7.7208   7.9141   8.2365   8.3202

          k = 0.5303-0.5303-0.1768 ( 21709 PWs)   bands (ev):

   -18.0250 -18.0244 -17.9658 -17.9639 -17.9621 -17.9602 -17.9434 -17.9434
   -17.9432 -17.9431 -17.9431 -17.9430 -11.2288 -11.1469 -11.0254 -11.0106
   -10.9756 -10.9041  -4.8268  -4.8210  -4.8143  -4.8109  -4.8023  -4.8002
    -3.8936  -3.4144  -0.6841  -0.5368  -0.5207   0.3794   0.4124   0.4562
     0.7676   0.8867   0.9017   1.0676   1.2146   1.2308   1.2938   1.3100
     1.3531   1.6119   1.8861   2.4493   5.5463   5.7284   5.9085   7.4455
     7.5520   7.7180   7.9105   8.2247   8.3198

          k =-0.5303 0.5303-0.1768 ( 21709 PWs)   bands (ev):

   -18.0250 -18.0244 -17.9658 -17.9639 -17.9621 -17.9602 -17.9434 -17.9434
   -17.9432 -17.9431 -17.9431 -17.9430 -11.2286 -11.1467 -11.0254 -11.0107
   -10.9757 -10.9041  -4.8267  -4.8210  -4.8143  -4.8109  -4.8023  -4.8003
    -3.8935  -3.4142  -0.6840  -0.5369  -0.5209   0.3804   0.4122   0.4567
     0.7684   0.8878   0.9026   1.0680   1.2111   1.2280   1.2937   1.3106
     1.3529   1.6096   1.8888   2.4502   5.5465   5.7291   5.9090   7.4463
     7.5516   7.7161   7.9125   8.2328   8.4265

          k =-0.5303-0.5303 0.1768 ( 21709 PWs)   bands (ev):

   -18.0249 -18.0244 -17.9658 -17.9639 -17.9621 -17.9602 -17.9434 -17.9434
   -17.9432 -17.9431 -17.9431 -17.9430 -11.2287 -11.1466 -11.0258 -11.0105
   -10.9754 -10.9041  -4.8269  -4.8210  -4.8141  -4.8111  -4.8022  -4.8002
    -3.8935  -3.4143  -0.6857  -0.5335  -0.5225   0.3796   0.4138   0.4572
     0.7656   0.8871   0.9013   1.0688   1.2163   1.2277   1.2954   1.3082
     1.3512   1.6117   1.8862   2.4508   5.5447   5.7313   5.9071   7.4453
     7.5514   7.7233   7.9111   8.2241   8.3184

          k =-0.3536 0.0000-0.3536 ( 21693 PWs)   bands (ev):

   -18.0251 -18.0242 -17.9656 -17.9630 -17.9630 -17.9604 -17.9434 -17.9433
   -17.9432 -17.9431 -17.9431 -17.9431 -11.2567 -11.1352 -11.0465 -10.9673
   -10.9641 -10.9165  -4.8273  -4.8266  -4.8198  -4.8100  -4.8048  -4.8044
    -4.0013  -3.3347  -0.8516  -0.2611  -0.1317   0.1727   0.2737   0.4453
     0.6589   0.8588   0.8962   1.1168   1.2006   1.2287   1.3717   1.4328
     1.4639   1.5041   1.6437   2.5316   5.0579   6.4327   6.6805   6.8342
     6.9388   7.4829   8.1157   8.1183   8.1727

          k = 0.0000-0.3536-0.3536 ( 21693 PWs)   bands (ev):

   -18.0251 -18.0242 -17.9656 -17.9630 -17.9630 -17.9604 -17.9434 -17.9434
   -17.9432 -17.9432 -17.9431 -17.9431 -11.2572 -11.1327 -11.0512 -10.9653
   -10.9621 -10.9178  -4.8272  -4.8258  -4.8200  -4.8110  -4.8051  -4.8039
    -4.0046  -3.3286  -0.8624  -0.2600  -0.1308   0.1743   0.2746   0.4439
     0.6551   0.8648   0.8972   1.1118   1.1978   1.2352   1.3741   1.4256
     1.4599   1.5376   1.6178   2.5451   5.0556   6.4187   6.6718   6.8291
     6.9352   7.4813   8.1342   8.1371   8.1668

          k = 0.0000 0.3536-0.3536 ( 21693 PWs)   bands (ev):

   -18.0251 -18.0242 -17.9656 -17.9630 -17.9630 -17.9604 -17.9434 -17.9434
   -17.9432 -17.9432 -17.9431 -17.9431 -11.2573 -11.1327 -11.0512 -10.9652
   -10.9620 -10.9178  -4.8273  -4.8258  -4.8199  -4.8110  -4.8051  -4.8039
    -4.0046  -3.3287  -0.8624  -0.2598  -0.1307   0.1743   0.2745   0.4433
     0.6548   0.8648   0.8969   1.1115   1.1979   1.2367   1.3715   1.4272
     1.4599   1.5462   1.6105   2.5449   5.0553   6.4176   6.6723   6.8287
     6.9362   7.4798   8.1228   8.1377   8.1769

          k = 0.3536 0.3536 0.0000 ( 21693 PWs)   bands (ev):

   -18.0251 -18.0242 -17.9656 -17.9630 -17.9630 -17.9604 -17.9434 -17.9433
   -17.9432 -17.9432 -17.9431 -17.9431 -11.2568 -11.1351 -11.0468 -10.9672
   -10.9639 -10.9166  -4.8273  -4.8267  -4.8198  -4.8101  -4.8048  -4.8044
    -4.0015  -3.3344  -0.8523  -0.2609  -0.1315   0.1728   0.2736   0.4448
     0.6585   0.8592   0.8960   1.1162   1.2005   1.2302   1.3704   1.4328
     1.4636   1.5101   1.6396   2.5323   5.0575   6.4310   6.6803   6.8335
     6.9393   7.4817   8.1110   8.1199   8.1775

          k = 0.3536-0.3536 0.0000 ( 21693 PWs)   bands (ev):

   -18.0251 -18.0243 -17.9656 -17.9630 -17.9630 -17.9604 -17.9435 -17.9433
   -17.9432 -17.9432 -17.9431 -17.9431 -11.2570 -11.1353 -11.0468 -10.9669
   -10.9637 -10.9166  -4.8274  -4.8268  -4.8194  -4.8102  -4.8047  -4.8043
    -4.0017  -3.3348  -0.8524  -0.2604  -0.1312   0.1730   0.2733   0.4431
     0.6578   0.8592   0.8950   1.1153   1.2009   1.2350   1.3644   1.4348
     1.4635   1.5289   1.6258   2.5315   5.0566   6.4277   6.6819   6.8323
     6.9421   7.4772   8.0923   8.1216   8.1937

          k = 0.7071 0.0000 0.0000 ( 21732 PWs)   bands (ev):

   -18.0250 -18.0243 -17.9669 -17.9643 -17.9617 -17.9591 -17.9434 -17.9432
   -17.9432 -17.9432 -17.9431 -17.9431 -11.2165 -11.0558 -11.0516 -11.0478
   -11.0475 -10.8772  -4.8262  -4.8260  -4.8041  -4.8041  -4.8040  -4.7938
    -3.9267  -3.2247  -0.8603  -0.8593  -0.7270   0.3066   0.5747   0.9146
     0.9274   0.9295   0.9892   0.9897   1.0728   1.0735   1.1180   1.2587
     1.2592   1.6934   2.1302   3.0559   5.0698   5.0713   5.5094   7.7520
     7.9159   8.2906   8.2927   8.3643   8.4552

          k = 0.0000 0.0000 0.7071 ( 21732 PWs)   bands (ev):

   -18.0250 -18.0243 -17.9669 -17.9643 -17.9617 -17.9591 -17.9434 -17.9434
   -17.9432 -17.9432 -17.9431 -17.9430 -11.2191 -11.0525 -11.0513 -11.0483
   -11.0468 -10.8784  -4.8266  -4.8247  -4.8054  -4.8037  -4.8032  -4.7946
    -3.9348  -3.2150  -0.8699  -0.8592  -0.7150   0.3042   0.5716   0.9118
     0.9178   0.9366   0.9922   1.0022   1.0698   1.0788   1.1232   1.2514
     1.2532   1.7036   2.1083   3.0621   5.0634   5.0683   5.5133   7.7693
     7.8897   8.2911   8.3102   8.3541   8.4843

          k = 0.7071 0.3536 0.0000 ( 21692 PWs)   bands (ev):

   -18.0247 -18.0246 -17.9653 -17.9652 -17.9608 -17.9607 -17.9434 -17.9433
   -17.9432 -17.9432 -17.9431 -17.9431 -11.1710 -11.1684 -11.0520 -11.0475
   -10.9294 -10.9279  -4.8159  -4.8155  -4.8153  -4.8140  -4.7994  -4.7985
    -3.6429  -3.6344  -0.8026  -0.7923  -0.0155  -0.0130   0.4315   0.4340
     0.9163   0.9205   1.0273   1.0320   1.1293   1.1346   1.1934   1.1971
     1.4900   1.4945   2.3596   2.3739   5.2877   5.2889   6.7730   6.7732
     8.0372   8.0582   8.1953   8.2106   8.4900

          k = 0.0000-0.7071 0.3536 ( 21692 PWs)   bands (ev):

   -18.0247 -18.0246 -17.9653 -17.9652 -17.9608 -17.9607 -17.9434 -17.9433
   -17.9432 -17.9432 -17.9432 -17.9431 -11.1711 -11.1684 -11.0520 -11.0472
   -10.9295 -10.9279  -4.8159  -4.8154  -4.8153  -4.8139  -4.7994  -4.7985
    -3.6433  -3.6341  -0.8025  -0.7916  -0.0155  -0.0130   0.4312   0.4339
     0.9161   0.9206   1.0277   1.0327   1.1287   1.1344   1.1932   1.1971
     1.4900   1.4947   2.3586   2.3738   5.2877   5.2890   6.7739   6.7741
     8.0356   8.0580   8.1954   8.2116   8.4900

     the Fermi energy is     4.2793 ev

!    total energy              =    -731.38660110 Ry
     estimated scf accuracy    <          5.8E-10 Ry
     smearing contrib. (-TS)   =       0.00000000 Ry
     internal energy E=F+TS    =    -731.38660110 Ry

     The total energy is F=E-TS. E is the sum of the following terms:
     one-electron contribution =    -253.38855728 Ry
     hartree contribution      =     163.90671982 Ry
     xc contribution           =    -309.02797191 Ry
     ewald contribution        =    -332.87679173 Ry

     convergence has been achieved in  10 iterations

     Forces acting on atoms (cartesian axes, Ry/au):

     atom    1 type  1   force =     0.00000465    0.00001400   -0.00002305
     atom    2 type  1   force =    -0.00000465   -0.00001400    0.00002305
     atom    3 type  2   force =     0.00000000    0.00000000    0.00000000
     atom    4 type  2   force =     0.00000000    0.00000000    0.00000000
     atom    5 type  3   force =    -0.00000034    0.00014147   -0.00009132
     atom    6 type  3   force =     0.00000034   -0.00014147    0.00009132
     atom    7 type  3   force =     0.00011491    0.00000026   -0.00038811
     atom    8 type  3   force =    -0.00011491   -0.00000026    0.00038811
     atom    9 type  3   force =    -0.00007579    0.00039300    0.00000038
     atom   10 type  3   force =     0.00007579   -0.00039300   -0.00000038

     Total force =     0.000840     Total SCF correction =     0.000007
     Message from routine punch:
     Nothing written, as per user request (disk_io='none')

     init_run     :     16.92s CPU     18.10s WALL (       1 calls)
     electrons    :    488.19s CPU    511.79s WALL (       1 calls)
     forces       :     12.93s CPU     13.57s WALL (       1 calls)

     Called by init_run:
     wfcinit      :     11.73s CPU     12.11s WALL (       1 calls)
     potinit      :      1.48s CPU      1.59s WALL (       1 calls)
     hinit0       :      1.18s CPU      1.23s WALL (       1 calls)

     Called by electrons:
     c_bands      :    367.16s CPU    375.35s WALL (      11 calls)
     sum_band     :     81.10s CPU     89.59s WALL (      11 calls)
     v_of_rho     :     11.53s CPU     12.47s WALL (      11 calls)
     newd         :     28.15s CPU     34.74s WALL (      11 calls)
     mix_rho      :      1.46s CPU      1.50s WALL (      11 calls)

     Called by c_bands:
     init_us_2    :     10.23s CPU     10.29s WALL (     432 calls)
     cegterg      :    318.82s CPU    326.95s WALL (     198 calls)

     Called by *egterg:
     cdiaghg      :      3.52s CPU      3.53s WALL (     987 calls)
     h_psi        :    180.94s CPU    188.42s WALL (    1023 calls)
     s_psi        :     13.17s CPU     13.20s WALL (    1023 calls)
     g_psi        :      0.74s CPU      0.75s WALL (     807 calls)

     Called by h_psi:
     h_psi:calbec :     36.65s CPU     36.77s WALL (    1023 calls)
     vloc_psi     :    128.80s CPU    135.68s WALL (    1023 calls)
                                        0.00s GPU  (    1023 calls)
     add_vuspsi   :     13.61s CPU     13.63s WALL (    1023 calls)

     General routines
     calbec       :     52.34s CPU     52.53s WALL (    1293 calls)
     fft          :     11.55s CPU     12.07s WALL (     153 calls)
     ffts         :      0.74s CPU      0.76s WALL (      22 calls)
     fftw         :    146.12s CPU    153.93s WALL (   67414 calls)
     interpolate  :      1.20s CPU      1.22s WALL (      11 calls)

     Parallel routines

     PWSCF        :   8m38.60s CPU   9m 4.08s WALL


   This run was terminated on:   2:25:30   5Oct2026            

=------------------------------------------------------------------------------=
   JOB DONE.
=------------------------------------------------------------------------------=
