
     Program PWSCF v.7.5 starts on  3Oct2026 at 21:31: 1 

     This program is part of the open-source Quantum ESPRESSO suite
     for quantum simulation of materials; please cite
         "P. Giannozzi et al., J. Phys.:Condens. Matter 21 395502 (2009);
         "P. Giannozzi et al., J. Phys.:Condens. Matter 29 465901 (2017);
         "P. Giannozzi et al., J. Chem. Phys. 152 154105 (2020);
          URL http://www.quantum-espresso.org", 
     in publications or presentations arising from this work. More details at
     http://www.quantum-espresso.org/quote

     Parallel version (MPI & OpenMP), running on       8 processor cores
     Number of MPI processes:                 8
     Threads/MPI process:                     1

     MPI processes distributed on     1 nodes
     7643 MiB available memory on the printing compute node when the environment starts

     Reading input from pw.in

     Current dimensions of program PWSCF are:
     Max number of different atomic species (ntypx) = 10
     Max number of k-points (npk) =  40000
     Max angular momentum in pseudopotentials (lmaxx) =  4

     K-points division:     npool     =       8
     Subspace diagonalization in iterative solution of the eigenvalue problem:
     a serial algorithm will be used


     G-vector sticks info
     --------------------
     sticks:   dense  smooth     PW     G-vecs:    dense   smooth      PW
     Sum        4725    2377    665               245169    86791   12557

     Using Slab Decomposition



     bravais-lattice index     =            0
     lattice parameter (alat)  =      11.1383  a.u.
     unit-cell volume          =    1381.8229 (a.u.)^3
     number of atoms/cell      =            5
     number of atomic types    =            3
     number of electrons       =        44.00
     number of Kohn-Sham states=           26
     kinetic-energy cutoff     =      60.0000  Ry
     charge density cutoff     =     480.0000  Ry
     scf convergence threshold =      5.0E-10
     mixing beta               =       0.4000
     number of iterations used =            8  plain     mixing
     Exchange-correlation=  SLA  PW   PBX  PBC
                           (   1   4   3   4   0   0   0)

     celldm(1)=  11.138263  celldm(2)=   0.000000  celldm(3)=   0.000000
     celldm(4)=   0.000000  celldm(5)=   0.000000  celldm(6)=   0.000000

     crystal axes: (cart. coord. in units of alat)
               a(1) = (   1.000000   0.000000   0.000000 )  
               a(2) = (   0.000000   1.000000  -0.000000 )  
               a(3) = (   0.000000  -0.000000   1.000000 )  

     reciprocal axes: (cart. coord. in units 2 pi/alat)
               b(1) = (  1.000000 -0.000000 -0.000000 )  
               b(2) = ( -0.000000  1.000000  0.000000 )  
               b(3) = ( -0.000000  0.000000  1.000000 )  


     PseudoPot. # 1 for Cs read from file:
     /root/sssp/Cs_pbe_v1.uspp.F.UPF
     MD5 check sum: 3476d69cb178dfad3ffaa59df4e07ca4
     Pseudo is Ultrasoft + core correction, Zval =  9.0
     Generated by new atomic code, or converted to UPF format
     Using radial grid of  905 points,  6 beta functions with: 
                l(1) =   0
                l(2) =   0
                l(3) =   1
                l(4) =   1
                l(5) =   2
                l(6) =   2
     Q(r) pseudized with  6 coefficients,  rinner =    1.500   1.500   1.500
                                                       1.500   1.500

     PseudoPot. # 2 for Sn read from file:
     /root/sssp/Sn_pbe_v1.uspp.F.UPF
     MD5 check sum: 4cf58ce39ec5d5d420df3dd08604eb00
     Pseudo is Ultrasoft + core correction, Zval = 14.0
     Generated by new atomic code, or converted to UPF format
     Using radial grid of  891 points,  6 beta functions with: 
                l(1) =   0
                l(2) =   0
                l(3) =   1
                l(4) =   1
                l(5) =   2
                l(6) =   2
     Q(r) pseudized with  6 coefficients,  rinner =    1.200   1.200   1.200
                                                       1.200   1.200

     PseudoPot. # 3 for Br read from file:
     /root/sssp/br_pbe_v1.4.uspp.F.UPF
     MD5 check sum: d3ffb7b29f6225aa16fe06858fb2a80b
     Pseudo is Ultrasoft + core correction, Zval =  7.0
     Generated by new atomic code, or converted to UPF format
     Using radial grid of  879 points,  6 beta functions with: 
                l(1) =   0
                l(2) =   0
                l(3) =   1
                l(4) =   1
                l(5) =   2
                l(6) =   2
     Q(r) pseudized with  8 coefficients,  rinner =    1.100   1.100   1.100
                                                       1.100   1.100

     atomic species   valence    mass     pseudopotential
     Cs                9.00   132.90550     Cs( 1.00)
     Sn               14.00   118.71000     Sn( 1.00)
     Br                7.00    79.90400     Br( 1.00)

     No symmetry found



   Cartesian axes

     site n.     atom                  positions (alat units)
         1        Cs     tau(   1) = (   0.0063109   0.0235640   0.9981450  )
         2        Sn     tau(   2) = (   0.4977295   0.4915222   0.5006674  )
         3        Br     tau(   3) = (   0.9988913   0.4887703   0.5008840  )
         4        Br     tau(   4) = (   0.4969925  -0.0041398   0.5008840  )
         5        Br     tau(   5) = (   0.4969925   0.4887703   1.0003258  )

     number of k points=    63  Marzari-Vanderbilt smearing, width (Ry)=  0.0050
                       cart. coord. in units 2pi/alat
        k(    1) = (   0.0000000   0.0000000   0.0000000), wk =   0.0160000
        k(    2) = (  -0.0000000   0.0000000   0.2000000), wk =   0.0320000
        k(    3) = (  -0.0000000   0.0000000   0.4000000), wk =   0.0320000
        k(    4) = (  -0.0000000   0.2000000   0.2000000), wk =   0.0320000
        k(    5) = (  -0.0000000   0.2000000   0.4000000), wk =   0.0320000
        k(    6) = (  -0.0000000   0.4000000   0.4000000), wk =   0.0320000
        k(    7) = (   0.2000000   0.2000000   0.2000000), wk =   0.0320000
        k(    8) = (   0.2000000   0.2000000   0.4000000), wk =   0.0320000
        k(    9) = (   0.2000000   0.4000000   0.4000000), wk =   0.0320000
        k(   10) = (   0.4000000   0.4000000   0.4000000), wk =   0.0320000
        k(   11) = (   0.2000000  -0.0000000  -0.0000000), wk =   0.0320000
        k(   12) = (  -0.0000000   0.2000000   0.0000000), wk =   0.0320000
        k(   13) = (   0.4000000  -0.0000000  -0.0000000), wk =   0.0320000
        k(   14) = (  -0.0000000   0.4000000   0.0000000), wk =   0.0320000
        k(   15) = (   0.0000000  -0.2000000   0.2000000), wk =   0.0320000
        k(   16) = (   0.2000000  -0.0000000  -0.2000000), wk =   0.0320000
        k(   17) = (  -0.2000000  -0.0000000  -0.2000000), wk =   0.0320000
        k(   18) = (   0.2000000  -0.2000000  -0.0000000), wk =   0.0320000
        k(   19) = (  -0.2000000  -0.2000000  -0.0000000), wk =   0.0320000
        k(   20) = (  -0.0000000  -0.2000000   0.4000000), wk =   0.0320000
        k(   21) = (   0.2000000  -0.0000000  -0.4000000), wk =   0.0320000
        k(   22) = (  -0.2000000  -0.0000000  -0.4000000), wk =   0.0320000
        k(   23) = (   0.4000000  -0.2000000  -0.0000000), wk =   0.0320000
        k(   24) = (  -0.4000000  -0.2000000  -0.0000000), wk =   0.0320000
        k(   25) = (  -0.0000000   0.4000000   0.2000000), wk =   0.0320000
        k(   26) = (  -0.0000000   0.4000000  -0.2000000), wk =   0.0320000
        k(   27) = (   0.2000000   0.4000000   0.0000000), wk =   0.0320000
        k(   28) = (  -0.2000000   0.4000000   0.0000000), wk =   0.0320000
        k(   29) = (   0.4000000  -0.0000000   0.2000000), wk =   0.0320000
        k(   30) = (   0.4000000  -0.0000000  -0.2000000), wk =   0.0320000
        k(   31) = (   0.0000000  -0.4000000   0.4000000), wk =   0.0320000
        k(   32) = (   0.4000000  -0.0000000  -0.4000000), wk =   0.0320000
        k(   33) = (  -0.4000000  -0.0000000  -0.4000000), wk =   0.0320000
        k(   34) = (   0.4000000  -0.4000000  -0.0000000), wk =   0.0320000
        k(   35) = (  -0.4000000  -0.4000000  -0.0000000), wk =   0.0320000
        k(   36) = (  -0.2000000  -0.2000000   0.2000000), wk =   0.0320000
        k(   37) = (  -0.2000000   0.2000000  -0.2000000), wk =   0.0320000
        k(   38) = (   0.2000000  -0.2000000  -0.2000000), wk =   0.0320000
        k(   39) = (  -0.2000000  -0.2000000   0.4000000), wk =   0.0320000
        k(   40) = (  -0.2000000   0.2000000  -0.4000000), wk =   0.0320000
        k(   41) = (   0.2000000  -0.2000000  -0.4000000), wk =   0.0320000
        k(   42) = (   0.4000000  -0.2000000   0.2000000), wk =   0.0320000
        k(   43) = (  -0.4000000  -0.2000000  -0.2000000), wk =   0.0320000
        k(   44) = (   0.4000000   0.2000000  -0.2000000), wk =   0.0320000
        k(   45) = (  -0.4000000   0.2000000   0.2000000), wk =   0.0320000
        k(   46) = (  -0.2000000   0.4000000   0.2000000), wk =   0.0320000
        k(   47) = (  -0.2000000  -0.4000000  -0.2000000), wk =   0.0320000
        k(   48) = (   0.2000000   0.4000000  -0.2000000), wk =   0.0320000
        k(   49) = (   0.2000000  -0.4000000   0.2000000), wk =   0.0320000
        k(   50) = (  -0.2000000  -0.4000000   0.4000000), wk =   0.0320000
        k(   51) = (  -0.2000000   0.4000000  -0.4000000), wk =   0.0320000
        k(   52) = (   0.2000000  -0.4000000  -0.4000000), wk =   0.0320000
        k(   53) = (   0.4000000   0.2000000  -0.4000000), wk =   0.0320000
        k(   54) = (  -0.4000000  -0.2000000  -0.4000000), wk =   0.0320000
        k(   55) = (   0.4000000  -0.2000000   0.4000000), wk =   0.0320000
        k(   56) = (  -0.4000000   0.2000000   0.4000000), wk =   0.0320000
        k(   57) = (   0.4000000  -0.4000000   0.2000000), wk =   0.0320000
        k(   58) = (  -0.4000000  -0.4000000  -0.2000000), wk =   0.0320000
        k(   59) = (   0.4000000   0.4000000  -0.2000000), wk =   0.0320000
        k(   60) = (  -0.4000000   0.4000000   0.2000000), wk =   0.0320000
        k(   61) = (  -0.4000000  -0.4000000   0.4000000), wk =   0.0320000
        k(   62) = (  -0.4000000   0.4000000  -0.4000000), wk =   0.0320000
        k(   63) = (   0.4000000  -0.4000000  -0.4000000), wk =   0.0320000

     Dense  grid:   245169 G-vectors     FFT dimensions: (  80,  80,  80)

     Smooth grid:    86791 G-vectors     FFT dimensions: (  60,  60,  60)

     Estimated max dynamical RAM per process >     301.88 MB

     Estimated total dynamical RAM >       1.95 GB

     Initial potential from superposition of free atoms

     starting charge      42.9605, renormalised to      44.0000
     Starting wfcs are   34 randomized atomic wfcs

     total cpu time spent up to now is        5.2 secs

     per-process dynamical memory:   166.8 Mb

     Self-consistent Calculation

     iteration #  1     ecut=    60.00 Ry     beta= 0.40
     Davidson diagonalization with overlap
     ethr =  1.00E-02,  avg # of iterations =  2.5

     Threshold (ethr) on eigenvalues was too large:
     Diagonalizing with lowered threshold

     Davidson diagonalization with overlap
     ethr =  4.83E-04,  avg # of iterations =  2.4

     total cpu time spent up to now is       13.6 secs

     total energy              =    -367.28065261 Ry
     estimated scf accuracy    <       0.20375175 Ry

     iteration #  2     ecut=    60.00 Ry     beta= 0.40
     Davidson diagonalization with overlap
     ethr =  4.63E-04,  avg # of iterations =  2.0

     total cpu time spent up to now is       18.1 secs

     total energy              =    -367.30390913 Ry
     estimated scf accuracy    <       0.01873744 Ry

     iteration #  3     ecut=    60.00 Ry     beta= 0.40
     Davidson diagonalization with overlap
     ethr =  4.26E-05,  avg # of iterations =  6.0

     total cpu time spent up to now is       23.0 secs

     total energy              =    -367.30569932 Ry
     estimated scf accuracy    <       0.00284616 Ry

     iteration #  4     ecut=    60.00 Ry     beta= 0.40
     Davidson diagonalization with overlap
     ethr =  6.47E-06,  avg # of iterations =  4.9

     total cpu time spent up to now is       27.9 secs

     total energy              =    -367.30599615 Ry
     estimated scf accuracy    <       0.00024014 Ry

     iteration #  5     ecut=    60.00 Ry     beta= 0.40
     Davidson diagonalization with overlap
     ethr =  5.46E-07,  avg # of iterations =  3.0

     total cpu time spent up to now is       33.1 secs

     total energy              =    -367.30603370 Ry
     estimated scf accuracy    <       0.00000631 Ry

     iteration #  6     ecut=    60.00 Ry     beta= 0.40
     Davidson diagonalization with overlap
     ethr =  1.43E-08,  avg # of iterations =  4.8

     total cpu time spent up to now is       38.9 secs

     total energy              =    -367.30604051 Ry
     estimated scf accuracy    <       0.00000066 Ry

     iteration #  7     ecut=    60.00 Ry     beta= 0.40
     Davidson diagonalization with overlap
     ethr =  1.50E-09,  avg # of iterations =  2.9

     total cpu time spent up to now is       45.1 secs

     total energy              =    -367.30604178 Ry
     estimated scf accuracy    <       0.00000013 Ry

     iteration #  8     ecut=    60.00 Ry     beta= 0.40
     Davidson diagonalization with overlap
     ethr =  2.90E-10,  avg # of iterations =  2.1

     total cpu time spent up to now is       50.0 secs

     total energy              =    -367.30604215 Ry
     estimated scf accuracy    <       0.00000004 Ry

     iteration #  9     ecut=    60.00 Ry     beta= 0.40
     Davidson diagonalization with overlap
     ethr =  8.03E-11,  avg # of iterations =  2.0

     total cpu time spent up to now is       54.7 secs

     End of self-consistent calculation

          k = 0.0000 0.0000 0.0000 ( 10827 PWs)   bands (ev):

   -17.9763 -17.9708 -17.9701 -17.9496 -17.9490 -17.9489 -11.2493 -10.7737
   -10.7677  -4.7704  -4.7700  -4.7688  -2.0378  -0.8320  -0.8316  -0.8256
     1.3284   1.3315   1.3330   1.4496   1.4518   1.4519   6.5351   7.6407
     7.6470   8.2848

          k =-0.0000 0.0000 0.2000 ( 10839 PWs)   bands (ev):

   -17.9760 -17.9703 -17.9689 -17.9497 -17.9490 -17.9490 -11.2142 -10.8166
   -10.7683  -4.7671  -4.7659  -4.7649  -2.5505  -0.8015  -0.7956  -0.0384
     1.2672   1.2784   1.3008   1.4054   1.4113   1.4811   6.9059   7.7719
     7.9161   7.9378

          k =-0.0000 0.0000 0.4000 ( 10852 PWs)   bands (ev):

   -17.9755 -17.9703 -17.9661 -17.9498 -17.9491 -17.9489 -11.1303 -10.9153
   -10.7674  -4.7609  -4.7597  -4.7593  -2.9931  -0.7494  -0.7417   0.6444
     1.1583   1.1782   1.2478   1.3563   1.3609   2.0114   6.0440   7.7439
     8.3577   8.4868

          k =-0.0000 0.2000 0.2000 ( 10863 PWs)   bands (ev):

   -17.9757 -17.9698 -17.9676 -17.9497 -17.9491 -17.9490 -11.1813 -10.8294
   -10.7947  -4.7728  -4.7624  -4.7593  -2.9245  -0.7667  -0.3721   0.1937
     1.0825   1.2449   1.3431   1.3473   1.4964   1.5390   7.1786   7.5500
     7.7575   8.1379

          k =-0.0000 0.2000 0.4000 ( 10827 PWs)   bands (ev):

   -17.9753 -17.9693 -17.9654 -17.9498 -17.9491 -17.9490 -11.0999 -10.9159
   -10.8000  -4.7706  -4.7621  -4.7563  -3.3120  -0.7059  -0.1567   0.5767
     1.0133   1.1538   1.2788   1.3177   1.5173   2.1590   5.8987   7.4369
     8.0256   8.3016

          k =-0.0000 0.4000 0.4000 ( 10824 PWs)   bands (ev):

   -17.9750 -17.9684 -17.9635 -17.9498 -17.9491 -17.9490 -11.0240 -10.9225
   -10.8738  -4.7793  -4.7731  -4.7513  -3.6703  -0.6284   0.4606   0.6426
     1.0041   1.1136   1.1417   1.2219   1.7327   2.7488   5.6187   5.7690
     8.1317   8.5098

          k = 0.2000 0.2000 0.2000 ( 10828 PWs)   bands (ev):

   -17.9755 -17.9682 -17.9675 -17.9497 -17.9491 -17.9490 -11.1503 -10.8327
   -10.8265  -4.7734  -4.7723  -4.7530  -3.2383  -0.3377  -0.3342   0.3288
     1.0386   1.0406   1.4754   1.4816   1.4967   1.5372   7.2862   7.3689
     7.3719   7.8825

          k = 0.2000 0.2000 0.4000 ( 10841 PWs)   bands (ev):

   -17.9750 -17.9677 -17.9652 -17.9498 -17.9491 -17.9490 -11.0736 -10.9162
   -10.8263  -4.7748  -4.7735  -4.7577  -3.5917  -0.2677  -0.0056   0.5607
     0.8529   1.0409   1.4037   1.4750   1.5576   2.2568   5.7503   7.1815
     7.3402   8.1432

          k = 0.2000 0.4000 0.4000 ( 10848 PWs)   bands (ev):

   -17.9746 -17.9667 -17.9635 -17.9498 -17.9492 -17.9490 -11.0088 -10.9213
   -10.8865  -4.7867  -4.7823  -4.7646  -3.9246  -0.0884   0.5093   0.6423
     0.7851   0.9154   1.4496   1.4894   1.7357   2.8239   5.4594   5.6197
     7.0724   8.4055

          k = 0.4000 0.4000 0.4000 ( 10879 PWs)   bands (ev):

   -17.9741 -17.9640 -17.9633 -17.9499 -17.9493 -17.9492 -10.9703 -10.9235
   -10.9167  -4.7984  -4.7953  -4.7878  -4.2421   0.5787   0.6320   0.6344
     0.7954   0.7995   1.7054   1.7142   1.7536   3.2745   5.2041   5.2066
     5.5813   8.1717

          k = 0.2000-0.0000-0.0000 ( 10839 PWs)   bands (ev):

   -17.9760 -17.9704 -17.9688 -17.9497 -17.9490 -17.9490 -11.2143 -10.8163
   -10.7686  -4.7670  -4.7660  -4.7649  -2.5504  -0.8019  -0.7956  -0.0382
     1.2676   1.2792   1.3002   1.4053   1.4110   1.4810   6.9059   7.7725
     7.9160   7.9395

          k =-0.0000 0.2000 0.0000 ( 10839 PWs)   bands (ev):

   -17.9760 -17.9708 -17.9684 -17.9496 -17.9491 -17.9490 -11.2148 -10.8111
   -10.7731  -4.7666  -4.7660  -4.7653  -2.5490  -0.8019  -0.8014  -0.0357
     1.2806   1.2844   1.2903   1.4056   1.4060   1.4777   6.9065   7.7819
     7.9363   7.9416

          k = 0.4000-0.0000-0.0000 ( 10852 PWs)   bands (ev):

   -17.9755 -17.9703 -17.9661 -17.9498 -17.9491 -17.9490 -11.1305 -10.9147
   -10.7677  -4.7609  -4.7595  -4.7594  -2.9930  -0.7499  -0.7417   0.6444
     1.1598   1.1786   1.2468   1.3556   1.3604   2.0118   6.0442   7.7449
     8.3609   8.4860

          k =-0.0000 0.4000 0.0000 ( 10852 PWs)   bands (ev):

   -17.9755 -17.9708 -17.9656 -17.9496 -17.9491 -17.9491 -11.1336 -10.9068
   -10.7721  -4.7610  -4.7596  -4.7595  -2.9912  -0.7498  -0.7492   0.6436
     1.1858   1.1890   1.2227   1.3501   1.3504   2.0173   6.0481   7.7602
     8.4150   8.4917

          k = 0.0000-0.2000 0.2000 ( 10863 PWs)   bands (ev):

   -17.9757 -17.9698 -17.9677 -17.9497 -17.9491 -17.9490 -11.1813 -10.8294
   -10.7947  -4.7724  -4.7625  -4.7596  -2.9245  -0.7667  -0.3721   0.1936
     1.0821   1.2448   1.3435   1.3473   1.4990   1.5363   7.1782   7.5523
     7.7556   8.1491

          k = 0.2000-0.0000-0.2000 ( 10863 PWs)   bands (ev):

   -17.9757 -17.9692 -17.9682 -17.9497 -17.9490 -17.9490 -11.1809 -10.8336
   -10.7911  -4.7721  -4.7636  -4.7587  -2.9256  -0.7603  -0.3741   0.1923
     1.0814   1.2441   1.3416   1.3512   1.5008   1.5334   7.1781   7.5547
     7.7457   8.1228

          k =-0.2000-0.0000-0.2000 ( 10863 PWs)   bands (ev):

   -17.9757 -17.9692 -17.9682 -17.9497 -17.9490 -17.9490 -11.1809 -10.8336
   -10.7911  -4.7723  -4.7635  -4.7586  -2.9257  -0.7603  -0.3741   0.1923
     1.0815   1.2441   1.3416   1.3511   1.5001   1.5343   7.1782   7.5541
     7.7463   8.1225

          k = 0.2000-0.2000-0.0000 ( 10863 PWs)   bands (ev):

   -17.9757 -17.9698 -17.9676 -17.9497 -17.9491 -17.9490 -11.1814 -10.8290
   -10.7950  -4.7733  -4.7623  -4.7589  -2.9245  -0.7672  -0.3718   0.1939
     1.0831   1.2451   1.3421   1.3475   1.4934   1.5422   7.1791   7.5471
     7.7605   8.1399

          k =-0.2000-0.2000-0.0000 ( 10863 PWs)   bands (ev):

   -17.9757 -17.9698 -17.9676 -17.9497 -17.9491 -17.9490 -11.1814 -10.8290
   -10.7950  -4.7720  -4.7623  -4.7601  -2.9244  -0.7671  -0.3720   0.1936
     1.0816   1.2448   1.3434   1.3477   1.5024   1.5329   7.1777   7.5549
     7.7539   8.1518

          k =-0.0000-0.2000 0.4000 ( 10827 PWs)   bands (ev):

   -17.9753 -17.9693 -17.9654 -17.9498 -17.9491 -17.9490 -11.0999 -10.9159
   -10.8000  -4.7702  -4.7625  -4.7563  -3.3120  -0.7059  -0.1567   0.5765
     1.0130   1.1538   1.2788   1.3179   1.5175   2.1587   5.8988   7.4368
     8.0253   8.3010

          k = 0.2000-0.0000-0.4000 ( 10827 PWs)   bands (ev):

   -17.9753 -17.9690 -17.9657 -17.9497 -17.9491 -17.9490 -11.0996 -10.9163
   -10.8000  -4.7696  -4.7625  -4.7569  -3.3130  -0.6982  -0.1620   0.5742
     1.0181   1.1611   1.2732   1.3232   1.5075   2.1588   5.8989   7.4315
     8.0281   8.3062

          k =-0.2000-0.0000-0.4000 ( 10827 PWs)   bands (ev):

   -17.9753 -17.9690 -17.9657 -17.9497 -17.9491 -17.9490 -11.0996 -10.9163
   -10.8000  -4.7697  -4.7624  -4.7569  -3.3130  -0.6982  -0.1620   0.5742
     1.0182   1.1612   1.2732   1.3231   1.5074   2.1588   5.8989   7.4315
     8.0280   8.3061

          k = 0.4000-0.2000-0.0000 ( 10827 PWs)   bands (ev):

   -17.9753 -17.9693 -17.9654 -17.9498 -17.9491 -17.9490 -11.1001 -10.9153
   -10.8003  -4.7710  -4.7617  -4.7563  -3.3119  -0.7065  -0.1567   0.5770
     1.0136   1.1541   1.2785   1.3168   1.5176   2.1595   5.8989   7.4370
     8.0266   8.3015

          k =-0.4000-0.2000-0.0000 ( 10827 PWs)   bands (ev):

   -17.9753 -17.9693 -17.9654 -17.9498 -17.9490 -17.9490 -11.1001 -10.9153
   -10.8003  -4.7698  -4.7628  -4.7563  -3.3118  -0.7064  -0.1567   0.5765
     1.0127   1.1539   1.2786   1.3175   1.5183   2.1588   5.8993   7.4367
     8.0254   8.3002

          k =-0.0000 0.4000 0.2000 ( 10827 PWs)   bands (ev):

   -17.9753 -17.9697 -17.9650 -17.9497 -17.9491 -17.9491 -11.1028 -10.9079
   -10.8047  -4.7710  -4.7617  -4.7564  -3.3112  -0.7058  -0.1627   0.5763
     1.0185   1.1643   1.2686   1.3131   1.5150   2.1636   5.9034   7.4312
     8.0369   8.2999

          k =-0.0000 0.4000-0.2000 ( 10827 PWs)   bands (ev):

   -17.9753 -17.9697 -17.9650 -17.9497 -17.9491 -17.9491 -11.1028 -10.9079
   -10.8047  -4.7707  -4.7619  -4.7564  -3.3112  -0.7058  -0.1628   0.5762
     1.0182   1.1642   1.2687   1.3133   1.5152   2.1634   5.9035   7.4312
     8.0365   8.2994

          k = 0.2000 0.4000 0.0000 ( 10827 PWs)   bands (ev):

   -17.9753 -17.9697 -17.9650 -17.9497 -17.9491 -17.9490 -11.1028 -10.9079
   -10.8047  -4.7704  -4.7623  -4.7564  -3.3111  -0.7064  -0.1624   0.5762
     1.0175   1.1636   1.2691   1.3132   1.5162   2.1631   5.9036   7.4315
     8.0359   8.2986

          k =-0.2000 0.4000 0.0000 ( 10827 PWs)   bands (ev):

   -17.9753 -17.9697 -17.9650 -17.9497 -17.9491 -17.9490 -11.1028 -10.9079
   -10.8047  -4.7715  -4.7613  -4.7564  -3.3112  -0.7064  -0.1623   0.5767
     1.0184   1.1638   1.2689   1.3125   1.5155   2.1638   5.9033   7.4317
     8.0371   8.3000

          k = 0.4000-0.0000 0.2000 ( 10827 PWs)   bands (ev):

   -17.9753 -17.9691 -17.9656 -17.9497 -17.9491 -17.9490 -11.0998 -10.9158
   -10.8003  -4.7697  -4.7624  -4.7569  -3.3130  -0.6982  -0.1624   0.5742
     1.0185   1.1619   1.2726   1.3228   1.5072   2.1591   5.8992   7.4311
     8.0289   8.3061

          k = 0.4000-0.0000-0.2000 ( 10827 PWs)   bands (ev):

   -17.9753 -17.9691 -17.9656 -17.9497 -17.9491 -17.9490 -11.0998 -10.9158
   -10.8003  -4.7696  -4.7625  -4.7569  -3.3129  -0.6982  -0.1624   0.5741
     1.0184   1.1619   1.2726   1.3229   1.5073   2.1591   5.8992   7.4311
     8.0286   8.3059

          k = 0.0000-0.4000 0.4000 ( 10824 PWs)   bands (ev):

   -17.9750 -17.9684 -17.9635 -17.9498 -17.9491 -17.9490 -11.0240 -10.9225
   -10.8738  -4.7790  -4.7734  -4.7513  -3.6703  -0.6284   0.4607   0.6424
     1.0040   1.1134   1.1418   1.2221   1.7328   2.7486   5.6196   5.7683
     8.1316   8.5109

          k = 0.4000-0.0000-0.4000 ( 10824 PWs)   bands (ev):

   -17.9750 -17.9678 -17.9640 -17.9496 -17.9491 -17.9491 -11.0216 -10.9270
   -10.8721  -4.7774  -4.7728  -4.7534  -3.6720  -0.6203   0.4590   0.6416
     1.0102   1.1171   1.1401   1.2271   1.7207   2.7459   5.6187   5.7632
     8.1337   8.5350

          k =-0.4000-0.0000-0.4000 ( 10824 PWs)   bands (ev):

   -17.9750 -17.9678 -17.9640 -17.9496 -17.9491 -17.9491 -11.0216 -10.9270
   -10.8721  -4.7775  -4.7727  -4.7534  -3.6720  -0.6203   0.4590   0.6417
     1.0102   1.1172   1.1401   1.2270   1.7206   2.7459   5.6185   5.7634
     8.1337   8.5346

          k = 0.4000-0.4000-0.0000 ( 10824 PWs)   bands (ev):

   -17.9750 -17.9684 -17.9634 -17.9498 -17.9491 -17.9489 -11.0242 -10.9221
   -10.8740  -4.7797  -4.7728  -4.7511  -3.6702  -0.6290   0.4606   0.6430
     1.0039   1.1138   1.1413   1.2213   1.7334   2.7492   5.6178   5.7703
     8.1318   8.5065

          k =-0.4000-0.4000-0.0000 ( 10824 PWs)   bands (ev):

   -17.9750 -17.9684 -17.9634 -17.9498 -17.9491 -17.9489 -11.0242 -10.9221
   -10.8739  -4.7786  -4.7739  -4.7511  -3.6702  -0.6290   0.4609   0.6421
     1.0034   1.1132   1.1419   1.2221   1.7338   2.7486   5.6206   5.7677
     8.1314   8.5102

          k =-0.2000-0.2000 0.2000 ( 10828 PWs)   bands (ev):

   -17.9755 -17.9682 -17.9675 -17.9497 -17.9491 -17.9490 -11.1503 -10.8327
   -10.8265  -4.7731  -4.7724  -4.7533  -3.2383  -0.3377  -0.3342   0.3290
     1.0382   1.0402   1.4789   1.4822   1.4961   1.5340   7.2863   7.3701
     7.3717   7.8814

          k =-0.2000 0.2000-0.2000 ( 10828 PWs)   bands (ev):

   -17.9755 -17.9682 -17.9675 -17.9497 -17.9491 -17.9490 -11.1503 -10.8327
   -10.8265  -4.7740  -4.7724  -4.7525  -3.2383  -0.3375  -0.3341   0.3284
     1.0395   1.0416   1.4705   1.4798   1.4969   1.5428   7.2860   7.3676
     7.3714   7.8845

          k = 0.2000-0.2000-0.2000 ( 10828 PWs)   bands (ev):

   -17.9755 -17.9682 -17.9675 -17.9497 -17.9491 -17.9490 -11.1503 -10.8327
   -10.8265  -4.7741  -4.7725  -4.7523  -3.2383  -0.3375  -0.3341   0.3283
     1.0397   1.0419   1.4694   1.4790   1.4969   1.5445   7.2859   7.3673
     7.3711   7.8851

          k =-0.2000-0.2000 0.4000 ( 10841 PWs)   bands (ev):

   -17.9750 -17.9677 -17.9652 -17.9498 -17.9491 -17.9490 -11.0736 -10.9162
   -10.8263  -4.7745  -4.7736  -4.7579  -3.5917  -0.2677  -0.0056   0.5608
     0.8528   1.0406   1.4039   1.4751   1.5578   2.2565   5.7504   7.1815
     7.3401   8.1435

          k =-0.2000 0.2000-0.4000 ( 10841 PWs)   bands (ev):

   -17.9750 -17.9677 -17.9652 -17.9498 -17.9491 -17.9490 -11.0735 -10.9162
   -10.8264  -4.7751  -4.7740  -4.7570  -3.5917  -0.2680  -0.0053   0.5603
     0.8543   1.0401   1.4055   1.4762   1.5551   2.2573   5.7503   7.1784
     7.3405   8.1459

          k = 0.2000-0.2000-0.4000 ( 10841 PWs)   bands (ev):

   -17.9750 -17.9677 -17.9652 -17.9498 -17.9491 -17.9490 -11.0735 -10.9162
   -10.8264  -4.7754  -4.7739  -4.7569  -3.5917  -0.2680  -0.0054   0.5603
     0.8544   1.0403   1.4054   1.4761   1.5550   2.2574   5.7502   7.1784
     7.3405   8.1456

          k = 0.4000-0.2000 0.2000 ( 10841 PWs)   bands (ev):

   -17.9750 -17.9678 -17.9652 -17.9498 -17.9491 -17.9490 -11.0737 -10.9157
   -10.8266  -4.7754  -4.7736  -4.7571  -3.5917  -0.2680  -0.0058   0.5607
     0.8538   1.0407   1.4044   1.4747   1.5568   2.2576   5.7505   7.1805
     7.3400   8.1439

          k =-0.4000-0.2000-0.2000 ( 10841 PWs)   bands (ev):

   -17.9750 -17.9677 -17.9652 -17.9498 -17.9491 -17.9490 -11.0738 -10.9157
   -10.8266  -4.7746  -4.7740  -4.7574  -3.5917  -0.2682  -0.0056   0.5607
     0.8538   1.0396   1.4056   1.4751   1.5564   2.2571   5.7508   7.1795
     7.3400   8.1455

          k = 0.4000 0.2000-0.2000 ( 10841 PWs)   bands (ev):

   -17.9750 -17.9678 -17.9652 -17.9498 -17.9491 -17.9490 -11.0738 -10.9157
   -10.8266  -4.7743  -4.7740  -4.7577  -3.5917  -0.2681  -0.0056   0.5608
     0.8533   1.0397   1.4052   1.4748   1.5573   2.2568   5.7509   7.1805
     7.3399   8.1449

          k =-0.4000 0.2000 0.2000 ( 10841 PWs)   bands (ev):

   -17.9750 -17.9678 -17.9652 -17.9498 -17.9491 -17.9490 -11.0737 -10.9157
   -10.8266  -4.7755  -4.7737  -4.7569  -3.5917  -0.2681  -0.0057   0.5606
     0.8542   1.0404   1.4050   1.4750   1.5560   2.2577   5.7505   7.1796
     7.3401   8.1447

          k =-0.2000 0.4000 0.2000 ( 10841 PWs)   bands (ev):

   -17.9750 -17.9682 -17.9647 -17.9498 -17.9492 -17.9490 -11.0764 -10.9082
   -10.8313  -4.7768  -4.7730  -4.7564  -3.5910  -0.2715  -0.0084   0.5628
     0.8563   1.0358   1.4108   1.4648   1.5600   2.2618   5.7547   7.1814
     7.3350   8.1470

          k =-0.2000-0.4000-0.2000 ( 10841 PWs)   bands (ev):

   -17.9750 -17.9682 -17.9647 -17.9498 -17.9492 -17.9490 -11.0764 -10.9082
   -10.8313  -4.7763  -4.7731  -4.7568  -3.5909  -0.2717  -0.0083   0.5629
     0.8560   1.0348   1.4116   1.4651   1.5602   2.2612   5.7551   7.1811
     7.3349   8.1480

          k = 0.2000 0.4000-0.2000 ( 10841 PWs)   bands (ev):

   -17.9750 -17.9682 -17.9647 -17.9498 -17.9492 -17.9490 -11.0764 -10.9082
   -10.8313  -4.7761  -4.7730  -4.7570  -3.5909  -0.2717  -0.0083   0.5629
     0.8557   1.0346   1.4117   1.4650   1.5605   2.2609   5.7552   7.1814
     7.3348   8.1481

          k = 0.2000-0.4000 0.2000 ( 10841 PWs)   bands (ev):

   -17.9750 -17.9682 -17.9647 -17.9498 -17.9492 -17.9490 -11.0764 -10.9082
   -10.8313  -4.7767  -4.7731  -4.7565  -3.5910  -0.2716  -0.0084   0.5628
     0.8563   1.0355   1.4112   1.4650   1.5599   2.2617   5.7548   7.1811
     7.3350   8.1475

          k =-0.2000-0.4000 0.4000 ( 10848 PWs)   bands (ev):

   -17.9746 -17.9667 -17.9635 -17.9498 -17.9492 -17.9490 -11.0089 -10.9212
   -10.8865  -4.7864  -4.7824  -4.7647  -3.9246  -0.0884   0.5095   0.6418
     0.7855   0.9152   1.4497   1.4893   1.7359   2.8236   5.4602   5.6189
     7.0724   8.4066

          k =-0.2000 0.4000-0.4000 ( 10848 PWs)   bands (ev):

   -17.9746 -17.9667 -17.9635 -17.9498 -17.9492 -17.9490 -11.0088 -10.9212
   -10.8865  -4.7867  -4.7826  -4.7643  -3.9246  -0.0885   0.5094   0.6422
     0.7855   0.9152   1.4502   1.4894   1.7352   2.8243   5.4602   5.6184
     7.0721   8.4041

          k = 0.2000-0.4000-0.4000 ( 10848 PWs)   bands (ev):

   -17.9746 -17.9667 -17.9635 -17.9498 -17.9492 -17.9490 -11.0088 -10.9212
   -10.8865  -4.7869  -4.7824  -4.7642  -3.9246  -0.0885   0.5092   0.6427
     0.7852   0.9155   1.4500   1.4895   1.7351   2.8244   5.4593   5.6192
     7.0722   8.4034

          k = 0.4000 0.2000-0.4000 ( 10848 PWs)   bands (ev):

   -17.9746 -17.9661 -17.9640 -17.9497 -17.9492 -17.9491 -11.0068 -10.9257
   -10.8844  -4.7842  -4.7822  -4.7671  -3.9253  -0.0819   0.5073   0.6416
     0.7885   0.9149   1.4556   1.4919   1.7250   2.8213   5.4594   5.6140
     7.0766   8.4036

          k =-0.4000-0.2000-0.4000 ( 10848 PWs)   bands (ev):

   -17.9746 -17.9661 -17.9640 -17.9497 -17.9492 -17.9491 -11.0068 -10.9257
   -10.8844  -4.7843  -4.7823  -4.7669  -3.9253  -0.0819   0.5072   0.6418
     0.7884   0.9149   1.4557   1.4921   1.7247   2.8215   5.4592   5.6141
     7.0765   8.4027

          k = 0.4000-0.2000 0.4000 ( 10848 PWs)   bands (ev):

   -17.9746 -17.9661 -17.9640 -17.9497 -17.9492 -17.9491 -11.0068 -10.9257
   -10.8844  -4.7844  -4.7827  -4.7665  -3.9253  -0.0820   0.5071   0.6421
     0.7885   0.9150   1.4560   1.4922   1.7242   2.8220   5.4592   5.6138
     7.0763   8.4011

          k =-0.4000 0.2000 0.4000 ( 10848 PWs)   bands (ev):

   -17.9746 -17.9661 -17.9640 -17.9497 -17.9492 -17.9491 -11.0067 -10.9256
   -10.8844  -4.7843  -4.7829  -4.7664  -3.9253  -0.0820   0.5071   0.6421
     0.7886   0.9149   1.4561   1.4923   1.7241   2.8221   5.4594   5.6134
     7.0762   8.4008

          k = 0.4000-0.4000 0.2000 ( 10848 PWs)   bands (ev):

   -17.9746 -17.9667 -17.9634 -17.9498 -17.9492 -17.9490 -11.0090 -10.9209
   -10.8867  -4.7871  -4.7822  -4.7642  -3.9245  -0.0889   0.5091   0.6431
     0.7846   0.9158   1.4493   1.4892   1.7361   2.8245   5.4584   5.6208
     7.0720   8.4036

          k =-0.4000-0.4000-0.2000 ( 10848 PWs)   bands (ev):

   -17.9746 -17.9667 -17.9634 -17.9498 -17.9492 -17.9490 -11.0090 -10.9209
   -10.8867  -4.7864  -4.7829  -4.7643  -3.9245  -0.0889   0.5099   0.6415
     0.7856   0.9149   1.4499   1.4890   1.7364   2.8240   5.4613   5.6179
     7.0719   8.4058

          k = 0.4000 0.4000-0.2000 ( 10848 PWs)   bands (ev):

   -17.9746 -17.9667 -17.9634 -17.9498 -17.9492 -17.9490 -11.0090 -10.9209
   -10.8867  -4.7863  -4.7828  -4.7645  -3.9245  -0.0889   0.5099   0.6414
     0.7856   0.9149   1.4497   1.4889   1.7366   2.8238   5.4613   5.6181
     7.0720   8.4069

          k =-0.4000 0.4000 0.2000 ( 10848 PWs)   bands (ev):

   -17.9746 -17.9667 -17.9634 -17.9498 -17.9492 -17.9490 -11.0090 -10.9209
   -10.8867  -4.7872  -4.7822  -4.7642  -3.9245  -0.0889   0.5091   0.6432
     0.7846   0.9158   1.4494   1.4892   1.7359   2.8246   5.4584   5.6207
     7.0720   8.4031

          k =-0.4000-0.4000 0.4000 ( 10879 PWs)   bands (ev):

   -17.9741 -17.9640 -17.9633 -17.9499 -17.9493 -17.9492 -10.9703 -10.9235
   -10.9167  -4.7982  -4.7952  -4.7881  -4.2421   0.5791   0.6317   0.6341
     0.7955   0.7995   1.7051   1.7138   1.7545   3.2743   5.2048   5.2066
     5.5808   8.1728

          k =-0.4000 0.4000-0.4000 ( 10879 PWs)   bands (ev):

   -17.9741 -17.9640 -17.9633 -17.9499 -17.9493 -17.9492 -10.9702 -10.9235
   -10.9168  -4.7988  -4.7953  -4.7874  -4.2421   0.5779   0.6328   0.6347
     0.7953   0.7995   1.7068   1.7141   1.7522   3.2751   5.2035   5.2057
     5.5824   8.1696

          k = 0.4000-0.4000-0.4000 ( 10879 PWs)   bands (ev):

   -17.9741 -17.9640 -17.9633 -17.9499 -17.9493 -17.9492 -10.9702 -10.9235
   -10.9168  -4.7990  -4.7952  -4.7873  -4.2421   0.5776   0.6332   0.6346
     0.7952   0.7996   1.7076   1.7138   1.7518   3.2753   5.2036   5.2053
     5.5827   8.1689

     the Fermi energy is     3.9893 ev

!    total energy              =    -367.30604233 Ry
     estimated scf accuracy    <          2.6E-10 Ry
     smearing contrib. (-TS)   =       0.00000000 Ry
     internal energy E=F+TS    =    -367.30604233 Ry

     The total energy is F=E-TS. E is the sum of the following terms:
     one-electron contribution =    -127.32274951 Ry
     hartree contribution      =      82.41405073 Ry
     xc contribution           =    -156.20265774 Ry
     ewald contribution        =    -166.19468582 Ry

     convergence has been achieved in   9 iterations

     Forces acting on atoms (cartesian axes, Ry/au):

     atom    1 type  1   force =    -0.00025378   -0.00084810    0.00007437
     atom    2 type  2   force =     0.00018741    0.00067072   -0.00005512
     atom    3 type  3   force =    -0.00011121    0.00028600   -0.00003554
     atom    4 type  3   force =     0.00005416   -0.00041201   -0.00001653
     atom    5 type  3   force =     0.00012343    0.00030339    0.00003283

     Total force =     0.001286     Total SCF correction =     0.000005
     Message from routine punch:
     Nothing written, as per user request (disk_io='none')

     init_run     :      4.48s CPU      4.75s WALL (       1 calls)
     electrons    :     46.50s CPU     49.48s WALL (       1 calls)
     forces       :      1.36s CPU      1.52s WALL (       1 calls)

     Called by init_run:
     wfcinit      :      1.64s CPU      1.66s WALL (       1 calls)
     potinit      :      0.72s CPU      0.77s WALL (       1 calls)
     hinit0       :      1.72s CPU      1.75s WALL (       1 calls)

     Called by electrons:
     c_bands      :     32.77s CPU     33.10s WALL (      10 calls)
     sum_band     :      8.51s CPU      9.80s WALL (      10 calls)
     v_of_rho     :      2.42s CPU      2.75s WALL (      10 calls)
     newd         :      2.92s CPU      4.13s WALL (      10 calls)
     mix_rho      :      0.19s CPU      0.20s WALL (      10 calls)

     Called by c_bands:
     init_us_2    :      1.56s CPU      1.58s WALL (     176 calls)
     cegterg      :     25.45s CPU     25.76s WALL (      80 calls)

     Called by *egterg:
     cdiaghg      :      0.28s CPU      0.28s WALL (     357 calls)
     h_psi        :     19.84s CPU     20.01s WALL (     373 calls)
     s_psi        :      1.79s CPU      1.80s WALL (     373 calls)
     g_psi        :      0.28s CPU      0.28s WALL (     285 calls)

     Called by h_psi:
     h_psi:calbec :      1.82s CPU      1.82s WALL (     373 calls)
     vloc_psi     :     16.17s CPU     16.27s WALL (     373 calls)
                                        0.00s GPU  (     373 calls)
     add_vuspsi   :      1.74s CPU      1.74s WALL (     373 calls)

     General routines
     calbec       :      2.69s CPU      2.70s WALL (     485 calls)
     fft          :      1.56s CPU      1.56s WALL (     140 calls)
     ffts         :      0.39s CPU      0.39s WALL (      20 calls)
     fftw         :     16.16s CPU     16.22s WALL (   13496 calls)
     interpolate  :      0.46s CPU      0.46s WALL (      10 calls)

     Parallel routines

     PWSCF        :     52.80s CPU     56.24s WALL


   This run was terminated on:  21:31:57   3Oct2026            

=------------------------------------------------------------------------------=
   JOB DONE.
=------------------------------------------------------------------------------=
