
     Program PWSCF v.7.5 starts on 27Sep2026 at 15:46:51 

     This program is part of the open-source Quantum ESPRESSO suite
     for quantum simulation of materials; please cite
         "P. Giannozzi et al., J. Phys.:Condens. Matter 21 395502 (2009);
         "P. Giannozzi et al., J. Phys.:Condens. Matter 29 465901 (2017);
         "P. Giannozzi et al., J. Chem. Phys. 152 154105 (2020);
          URL http://www.quantum-espresso.org", 
     in publications or presentations arising from this work. More details at
     http://www.quantum-espresso.org/quote

     Parallel version (MPI & OpenMP), running on       8 processor cores
     Number of MPI processes:                 8
     Threads/MPI process:                     1

     MPI processes distributed on     1 nodes
     160105 MiB available memory on the printing compute node when the environment starts

     Reading input from pw.in

     Current dimensions of program PWSCF are:
     Max number of different atomic species (ntypx) = 10
     Max number of k-points (npk) =  40000
     Max angular momentum in pseudopotentials (lmaxx) =  4
     file Ba.pbe-spn-kjpaw_psl.1.0.0.UPF: wavefunction(s)  5S 6S renormalized
     file O.pbe-n-kjpaw_psl.0.1.UPF: wavefunction(s)  2P renormalized

     K-points division:     npool     =       8
     Subspace diagonalization in iterative solution of the eigenvalue problem:
     a serial algorithm will be used


     G-vector sticks info
     --------------------
     sticks:   dense  smooth     PW     G-vecs:    dense   smooth      PW
     Sum        7409    3705   1009               479073   169245   24405

     Using Slab Decomposition



     bravais-lattice index     =            0
     lattice parameter (alat)  =      15.2465  a.u.
     unit-cell volume          =    3544.1285 (a.u.)^3
     number of atoms/cell      =           40
     number of atomic types    =            3
     number of electrons       =       320.00
     number of Kohn-Sham states=          192
     kinetic-energy cutoff     =      50.0000  Ry
     charge density cutoff     =     400.0000  Ry
     scf convergence threshold =      4.0E-09
     mixing beta               =       0.4000
     number of iterations used =            8  plain     mixing
     Exchange-correlation= SLA  PW   PBX  PBC
                           (   1   4   3   4   0   0   0)

     celldm(1)=  15.246488  celldm(2)=   0.000000  celldm(3)=   0.000000
     celldm(4)=   0.000000  celldm(5)=   0.000000  celldm(6)=   0.000000

     crystal axes: (cart. coord. in units of alat)
               a(1) = (   1.000000  -0.000000  -0.000000 )  
               a(2) = (   0.000000   1.000000  -0.000000 )  
               a(3) = (  -0.000000  -0.000000   1.000000 )  

     reciprocal axes: (cart. coord. in units 2 pi/alat)
               b(1) = (  1.000000  0.000000  0.000000 )  
               b(2) = (  0.000000  1.000000  0.000000 )  
               b(3) = (  0.000000  0.000000  1.000000 )  


     PseudoPot. # 1 for Ba read from file:
     /root/sssp/upf/Ba.pbe-spn-kjpaw_psl.1.0.0.UPF
     MD5 check sum: c432291d3e53af55f19d5e8866385beb
     Pseudo is Projector augmented-wave + core cor, Zval = 10.0
     Generated using "atomic" code by A. Dal Corso  v.5.1
     Shape of augmentation charge: PSQ
     Using radial grid of 1251 points,  7 beta functions with: 
                l(1) =   0
                l(2) =   0
                l(3) =   0
                l(4) =   1
                l(5) =   1
                l(6) =   2
                l(7) =   2
     Q(r) pseudized with 0 coefficients 


     PseudoPot. # 2 for Ti read from file:
     /root/sssp/upf/ti_pbe_v1.4.uspp.F.UPF
     MD5 check sum: 88a00a6731bd790ddea75d31a80cb452
     Pseudo is Ultrasoft + core correction, Zval = 12.0
     Generated by new atomic code, or converted to UPF format
     Using radial grid of  851 points,  6 beta functions with: 
                l(1) =   0
                l(2) =   0
                l(3) =   1
                l(4) =   1
                l(5) =   2
                l(6) =   2
     Q(r) pseudized with  6 coefficients,  rinner =    1.000   1.000   1.000
                                                       1.000   1.000

     PseudoPot. # 3 for O  read from file:
     /root/sssp/upf/O.pbe-n-kjpaw_psl.0.1.UPF
     MD5 check sum: 0234752ac141de4415c5fc33072bef88
     Pseudo is Projector augmented-wave + core cor, Zval =  6.0
     Generated using "atomic" code by A. Dal Corso  v.5.0.99 svn rev. 10869
     Shape of augmentation charge: BESSEL
     Using radial grid of 1095 points,  4 beta functions with: 
                l(1) =   0
                l(2) =   0
                l(3) =   1
                l(4) =   1
     Q(r) pseudized with 0 coefficients 


     atomic species   valence    mass     pseudopotential
     Ba               10.00   137.32700     Ba( 1.00)
     Ti               12.00    47.86700     Ti( 1.00)
     O                 6.00    15.99900     O ( 1.00)

     No symmetry found



   Cartesian axes

     site n.     atom                  positions (alat units)
         1        Ba     tau(   1) = (   0.0049764  -0.0068812   0.0002118  )
         2        Ti     tau(   2) = (   0.2530782   0.2578337   0.2475057  )
         3        O      tau(   3) = (  -0.0006005   0.2485214   0.2509373  )
         4        O      tau(   4) = (   0.2616364   0.0003704   0.2534685  )
         5        O      tau(   5) = (   0.2454592   0.2530949   0.0076104  )
         6        Ba     tau(   6) = (   0.0061984   0.0020078   0.5028776  )
         7        Ti     tau(   7) = (   0.2537315   0.2566723   0.7484102  )
         8        O      tau(   8) = (   0.0038524   0.2738464   0.7475828  )
         9        O      tau(   9) = (   0.2433230   0.0105952   0.7448269  )
        10        O      tau(  10) = (   0.2544849   0.2634238   0.5084449  )
        11        Ba     tau(  11) = (  -0.0012634   0.4955252  -0.0058807  )
        12        Ti     tau(  12) = (   0.2400617   0.7597552   0.2534382  )
        13        O      tau(  13) = (   0.0052894   0.7563287   0.2504355  )
        14        O      tau(  14) = (   0.2522943   0.5093826   0.2469407  )
        15        O      tau(  15) = (   0.2525654   0.7566451   0.0007728  )
        16        Ba     tau(  16) = (  -0.0062912   0.5025023   0.4973375  )
        17        Ti     tau(  17) = (   0.2440749   0.7499130   0.7511022  )
        18        O      tau(  18) = (  -0.0027735   0.7356422   0.7425554  )
        19        O      tau(  19) = (   0.2506302   0.5117756   0.7586621  )
        20        O      tau(  20) = (   0.2504080   0.7553631   0.5029128  )
        21        Ba     tau(  21) = (   0.4959720  -0.0042748   0.0006582  )
        22        Ti     tau(  22) = (   0.7534181   0.2481991   0.2589754  )
        23        O      tau(  23) = (   0.4902025   0.2505678   0.2391063  )
        24        O      tau(  24) = (   0.7424173   0.0009618   0.2528608  )
        25        O      tau(  25) = (   0.7472504   0.2462117  -0.0030861  )
        26        Ba     tau(  26) = (   0.4992964  -0.0073347   0.5009500  )
        27        Ti     tau(  27) = (   0.7524007   0.2506460   0.7588641  )
        28        O      tau(  28) = (   0.5051303   0.2608250   0.7509763  )
        29        O      tau(  29) = (   0.7552191   0.0138595   0.7577883  )
        30        O      tau(  30) = (   0.7474101   0.2409397   0.4962728  )
        31        Ba     tau(  31) = (   0.4981298   0.4991921  -0.0083425  )
        32        Ti     tau(  32) = (   0.7483446   0.7559105   0.2512581  )
        33        O      tau(  33) = (   0.5092832   0.7424366   0.2619800  )
        34        O      tau(  34) = (   0.7500275   0.4814903   0.2553930  )
        35        O      tau(  35) = (   0.7428662   0.7534493   0.0078905  )
        36        Ba     tau(  36) = (   0.5004985   0.4998731   0.4981563  )
        37        Ti     tau(  37) = (   0.7585833   0.7512934   0.7532949  )
        38        O      tau(  38) = (   0.5004634   0.7532021   0.7604155  )
        39        O      tau(  39) = (   0.7464264   0.5043399   0.7486500  )
        40        O      tau(  40) = (   0.7569979   0.7527377   0.5086823  )

     number of k points=    36  Marzari-Vanderbilt smearing, width (Ry)=  0.0050
                       cart. coord. in units 2pi/alat
        k(    1) = (   0.0000000   0.0000000   0.0000000), wk =   0.0312500
        k(    2) = (   0.0000000   0.0000000   0.2500000), wk =   0.0625000
        k(    3) = (   0.0000000   0.0000000  -0.5000000), wk =   0.0312500
        k(    4) = (   0.0000000   0.2500000   0.2500000), wk =   0.0625000
        k(    5) = (   0.0000000   0.2500000  -0.5000000), wk =   0.0625000
        k(    6) = (   0.0000000  -0.5000000  -0.5000000), wk =   0.0312500
        k(    7) = (   0.2500000   0.2500000   0.2500000), wk =   0.0625000
        k(    8) = (   0.2500000   0.2500000  -0.5000000), wk =   0.0625000
        k(    9) = (   0.2500000  -0.5000000  -0.5000000), wk =   0.0625000
        k(   10) = (  -0.5000000  -0.5000000  -0.5000000), wk =   0.0312500
        k(   11) = (   0.2500000   0.0000000   0.0000000), wk =   0.0625000
        k(   12) = (   0.0000000   0.2500000   0.0000000), wk =   0.0625000
        k(   13) = (  -0.5000000   0.0000000   0.0000000), wk =   0.0312500
        k(   14) = (   0.0000000  -0.5000000   0.0000000), wk =   0.0312500
        k(   15) = (   0.0000000  -0.2500000   0.2500000), wk =   0.0625000
        k(   16) = (   0.2500000   0.0000000  -0.2500000), wk =   0.0625000
        k(   17) = (  -0.2500000   0.0000000  -0.2500000), wk =   0.0625000
        k(   18) = (   0.2500000  -0.2500000   0.0000000), wk =   0.0625000
        k(   19) = (  -0.2500000  -0.2500000   0.0000000), wk =   0.0625000
        k(   20) = (   0.2500000   0.0000000   0.5000000), wk =   0.0625000
        k(   21) = (  -0.5000000  -0.2500000   0.0000000), wk =   0.0625000
        k(   22) = (   0.0000000  -0.5000000   0.2500000), wk =   0.0625000
        k(   23) = (   0.2500000  -0.5000000   0.0000000), wk =   0.0625000
        k(   24) = (  -0.5000000   0.0000000   0.2500000), wk =   0.0625000
        k(   25) = (  -0.5000000   0.0000000   0.5000000), wk =   0.0312500
        k(   26) = (  -0.5000000   0.5000000   0.0000000), wk =   0.0312500
        k(   27) = (  -0.2500000  -0.2500000   0.2500000), wk =   0.0625000
        k(   28) = (  -0.2500000   0.2500000  -0.2500000), wk =   0.0625000
        k(   29) = (   0.2500000  -0.2500000  -0.2500000), wk =   0.0625000
        k(   30) = (  -0.2500000   0.2500000   0.5000000), wk =   0.0625000
        k(   31) = (  -0.5000000  -0.2500000   0.2500000), wk =   0.0625000
        k(   32) = (   0.5000000  -0.2500000  -0.2500000), wk =   0.0625000
        k(   33) = (  -0.2500000  -0.5000000   0.2500000), wk =   0.0625000
        k(   34) = (  -0.2500000   0.5000000  -0.2500000), wk =   0.0625000
        k(   35) = (  -0.5000000   0.2500000   0.5000000), wk =   0.0625000
        k(   36) = (  -0.5000000   0.5000000   0.2500000), wk =   0.0625000

     Dense  grid:   479073 G-vectors     FFT dimensions: ( 100, 100, 100)

     Smooth grid:   169245 G-vectors     FFT dimensions: (  72,  72,  72)

     Estimated max dynamical RAM per process >       1.18 GB

     Estimated total dynamical RAM >       8.66 GB

     Check: negative core charge=   -0.000004

     Initial potential from superposition of free atoms

     starting charge     311.8636, renormalised to     320.0000

     negative rho (up, down):  1.034E-02 0.000E+00
     Starting wfcs are  216 randomized atomic wfcs
     Checking if some PAW data can be deallocated... 

     total cpu time spent up to now is       29.2 secs

     per-process dynamical memory:   759.0 Mb

     Self-consistent Calculation

     iteration #  1     ecut=    50.00 Ry     beta= 0.40
     Davidson diagonalization with overlap
     ethr =  1.00E-02,  avg # of iterations =  2.0

     negative rho (up, down):  8.421E-02 0.000E+00

     total cpu time spent up to now is      102.5 secs

     total energy              =   -5446.46145170 Ry
     estimated scf accuracy    <       7.74688184 Ry

     iteration #  2     ecut=    50.00 Ry     beta= 0.40
     Davidson diagonalization with overlap
     ethr =  2.42E-03,  avg # of iterations =  4.0

     negative rho (up, down):  1.249E-01 0.000E+00

     total cpu time spent up to now is      176.4 secs

     total energy              =   -5446.63038249 Ry
     estimated scf accuracy    <      12.45879033 Ry

     iteration #  3     ecut=    50.00 Ry     beta= 0.40
     Davidson diagonalization with overlap
     ethr =  2.42E-03,  avg # of iterations =  3.4

     negative rho (up, down):  2.186E-01 0.000E+00

     total cpu time spent up to now is      241.5 secs

     total energy              =   -5448.94046945 Ry
     estimated scf accuracy    <       0.74394723 Ry

     iteration #  4     ecut=    50.00 Ry     beta= 0.40
     Davidson diagonalization with overlap
     ethr =  2.32E-04,  avg # of iterations =  3.7

     negative rho (up, down):  2.354E-01 0.000E+00

     total cpu time spent up to now is      307.9 secs

     total energy              =   -5448.96731310 Ry
     estimated scf accuracy    <       0.23676132 Ry

     iteration #  5     ecut=    50.00 Ry     beta= 0.40
     Davidson diagonalization with overlap
     ethr =  7.40E-05,  avg # of iterations =  3.8

     negative rho (up, down):  1.771E-01 0.000E+00

     total cpu time spent up to now is      373.4 secs

     total energy              =   -5448.98716247 Ry
     estimated scf accuracy    <       0.08877759 Ry

     iteration #  6     ecut=    50.00 Ry     beta= 0.40
     Davidson diagonalization with overlap
     ethr =  2.77E-05,  avg # of iterations =  2.8

     negative rho (up, down):  8.917E-02 0.000E+00

     total cpu time spent up to now is      437.1 secs

     total energy              =   -5448.99493077 Ry
     estimated scf accuracy    <       0.03403461 Ry

     iteration #  7     ecut=    50.00 Ry     beta= 0.40
     Davidson diagonalization with overlap
     ethr =  1.06E-05,  avg # of iterations =  4.9

     negative rho (up, down):  1.128E-02 0.000E+00

     total cpu time spent up to now is      500.9 secs

     total energy              =   -5448.99719815 Ry
     estimated scf accuracy    <       0.02609721 Ry

     iteration #  8     ecut=    50.00 Ry     beta= 0.40
     Davidson diagonalization with overlap
     ethr =  8.16E-06,  avg # of iterations =  3.3

     negative rho (up, down):  9.824E-03 0.000E+00

     total cpu time spent up to now is      564.9 secs

     total energy              =   -5448.99830607 Ry
     estimated scf accuracy    <       0.00665483 Ry

     iteration #  9     ecut=    50.00 Ry     beta= 0.40
     Davidson diagonalization with overlap
     ethr =  2.08E-06,  avg # of iterations =  6.9

     negative rho (up, down):  9.808E-03 0.000E+00

     total cpu time spent up to now is      645.9 secs

     total energy              =   -5448.99940991 Ry
     estimated scf accuracy    <       0.00652534 Ry

     iteration # 10     ecut=    50.00 Ry     beta= 0.40
     Davidson diagonalization with overlap
     ethr =  2.04E-06,  avg # of iterations =  1.8

     negative rho (up, down):  9.816E-03 0.000E+00

     total cpu time spent up to now is      708.6 secs

     total energy              =   -5448.99933831 Ry
     estimated scf accuracy    <       0.00190560 Ry

     iteration # 11     ecut=    50.00 Ry     beta= 0.40
     Davidson diagonalization with overlap
     ethr =  5.95E-07,  avg # of iterations =  2.3

     negative rho (up, down):  9.816E-03 0.000E+00

     total cpu time spent up to now is      774.0 secs

     total energy              =   -5448.99946852 Ry
     estimated scf accuracy    <       0.00042203 Ry

     iteration # 12     ecut=    50.00 Ry     beta= 0.40
     Davidson diagonalization with overlap
     ethr =  1.32E-07,  avg # of iterations =  3.0

     negative rho (up, down):  9.811E-03 0.000E+00

     total cpu time spent up to now is      840.5 secs

     total energy              =   -5448.99952585 Ry
     estimated scf accuracy    <       0.00016550 Ry

     iteration # 13     ecut=    50.00 Ry     beta= 0.40
     Davidson diagonalization with overlap
     ethr =  5.17E-08,  avg # of iterations =  4.0

     negative rho (up, down):  9.809E-03 0.000E+00

     total cpu time spent up to now is      910.7 secs

     total energy              =   -5448.99954415 Ry
     estimated scf accuracy    <       0.00003210 Ry

     iteration # 14     ecut=    50.00 Ry     beta= 0.40
     Davidson diagonalization with overlap
     ethr =  1.00E-08,  avg # of iterations =  2.8

     negative rho (up, down):  9.809E-03 0.000E+00

     total cpu time spent up to now is      976.4 secs

     total energy              =   -5448.99954632 Ry
     estimated scf accuracy    <       0.00001052 Ry

     iteration # 15     ecut=    50.00 Ry     beta= 0.40
     Davidson diagonalization with overlap
     ethr =  3.29E-09,  avg # of iterations =  2.6

     negative rho (up, down):  9.809E-03 0.000E+00

     total cpu time spent up to now is     1046.2 secs

     total energy              =   -5448.99954776 Ry
     estimated scf accuracy    <       0.00000365 Ry

     iteration # 16     ecut=    50.00 Ry     beta= 0.40
     Davidson diagonalization with overlap
     ethr =  1.14E-09,  avg # of iterations =  2.6

     negative rho (up, down):  9.809E-03 0.000E+00

     total cpu time spent up to now is     1115.0 secs

     total energy              =   -5448.99954808 Ry
     estimated scf accuracy    <       0.00000241 Ry

     iteration # 17     ecut=    50.00 Ry     beta= 0.40
     Davidson diagonalization with overlap
     ethr =  7.53E-10,  avg # of iterations =  1.2

     negative rho (up, down):  9.809E-03 0.000E+00

     total cpu time spent up to now is     1176.4 secs

     total energy              =   -5448.99954830 Ry
     estimated scf accuracy    <       0.00000092 Ry

     iteration # 18     ecut=    50.00 Ry     beta= 0.40
     Davidson diagonalization with overlap
     ethr =  2.89E-10,  avg # of iterations =  2.0

     negative rho (up, down):  9.809E-03 0.000E+00

     total cpu time spent up to now is     1239.4 secs

     total energy              =   -5448.99954834 Ry
     estimated scf accuracy    <       0.00000033 Ry

     iteration # 19     ecut=    50.00 Ry     beta= 0.40
     Davidson diagonalization with overlap
     ethr =  1.04E-10,  avg # of iterations =  2.0

     negative rho (up, down):  9.809E-03 0.000E+00

     total cpu time spent up to now is     1306.2 secs

     total energy              =   -5448.99954836 Ry
     estimated scf accuracy    <       0.00000021 Ry

     iteration # 20     ecut=    50.00 Ry     beta= 0.40
     Davidson diagonalization with overlap
     ethr =  6.56E-11,  avg # of iterations =  2.0

     negative rho (up, down):  9.809E-03 0.000E+00

     total cpu time spent up to now is     1370.2 secs

     total energy              =   -5448.99954838 Ry
     estimated scf accuracy    <       0.00000014 Ry

     iteration # 21     ecut=    50.00 Ry     beta= 0.40
     Davidson diagonalization with overlap
     ethr =  4.45E-11,  avg # of iterations =  2.0

     negative rho (up, down):  9.809E-03 0.000E+00

     total cpu time spent up to now is     1431.5 secs

     total energy              =   -5448.99954838 Ry
     estimated scf accuracy    <       0.00000003 Ry

     iteration # 22     ecut=    50.00 Ry     beta= 0.40
     Davidson diagonalization with overlap
     ethr =  1.01E-11,  avg # of iterations =  3.6

     negative rho (up, down):  9.809E-03 0.000E+00

     total cpu time spent up to now is     1498.4 secs

     total energy              =   -5448.99954838 Ry
     estimated scf accuracy    <       0.00000001 Ry

     iteration # 23     ecut=    50.00 Ry     beta= 0.40
     Davidson diagonalization with overlap
     ethr =  4.47E-12,  avg # of iterations =  2.0

     negative rho (up, down):  9.809E-03 0.000E+00

     total cpu time spent up to now is     1562.3 secs

     End of self-consistent calculation

          k = 0.0000 0.0000 0.0000 ( 21247 PWs)   bands (ev):

   -46.7123 -46.7102 -46.6700 -46.6026 -46.5822 -46.4795 -46.3784 -46.2974
   -22.9786 -22.9665 -22.9526 -22.9392 -22.9321 -22.9278 -22.9253 -22.9109
   -22.8969 -22.8620 -22.8498 -22.8420 -22.8234 -22.8199 -22.8127 -22.7350
   -22.7168 -22.7085 -22.6520 -22.6309 -22.6229 -22.5869 -22.5482 -22.5402
   -14.9267 -14.8031 -14.6974 -14.6384 -14.5936 -14.5275 -14.5117 -14.4030
    -7.0686  -7.0291  -6.9764  -6.7592  -6.5554  -6.4382  -6.4199  -6.3740
    -6.1696  -6.1380  -6.1147  -6.0830  -6.0714  -6.0529  -6.0038  -5.9753
    -5.9280  -5.8914  -5.8450  -5.8336  -5.8199  -5.7654  -5.7488  -5.6850
    -0.6392  -0.6336  -0.6116  -0.1214  -0.0796  -0.0730  -0.0184  -0.0027
     0.0288   0.0528   0.0715   0.0909   0.1729   0.2050   0.2290   0.2544
     0.2647   0.2954   0.4221   0.4530   0.4573   0.4658   0.4933   0.5148
     5.6001   5.7779   5.8290   5.8989   6.0848   6.0971   6.1035   6.1160
     6.1455   6.1498   6.1774   6.2974   6.3309   6.3550   6.4600   7.1941
     7.2095   7.2679   7.3149   7.3375   7.3521   7.4155   7.4309   7.4506
     7.4802   7.4832   7.5019   7.6182   7.6358   7.6583   7.7644   7.7762
     7.8092   7.9690   8.1055   8.1092   8.1496   8.1737   8.1934   8.1999
     8.2407   8.2456   8.2725   8.3173   8.3491   8.3578   8.3864   8.4296
     8.9599   8.9895   9.0162   9.1101   9.1361   9.1567   9.1619   9.1746
     9.2229   9.3003   9.3194   9.3380   9.3654   9.3811   9.4048   9.8318
     9.8596   9.8755   9.9459   9.9810  10.0106  10.0666  10.0795  10.1087
    11.8277  11.8710  11.9069  12.0022  12.0976  12.1336  13.3461  13.3713
    13.3920  13.4614  13.4696  13.4765  13.4878  13.5297  13.5953  13.6373
    13.6693  13.6818  13.8326  13.8558  13.8644  13.8987  13.9273  13.9801
    13.9853  14.0610  14.1925  14.2225  14.2360  14.6521  14.7530  14.7954

          k = 0.0000 0.0000 0.2500 ( 21146 PWs)   bands (ev):

   -46.7123 -46.7102 -46.6700 -46.6026 -46.5822 -46.4795 -46.3783 -46.2974
   -22.9763 -22.9624 -22.9526 -22.9393 -22.9331 -22.9308 -22.9275 -22.9090
   -22.8960 -22.8620 -22.8484 -22.8411 -22.8234 -22.8225 -22.8132 -22.7374
   -22.7168 -22.7085 -22.6519 -22.6279 -22.6227 -22.5869 -22.5510 -22.5407
   -14.9196 -14.8100 -14.6895 -14.6332 -14.6003 -14.5346 -14.5071 -14.4086
    -7.0322  -6.9811  -6.9114  -6.7520  -6.6015  -6.5314  -6.3649  -6.3491
    -6.2131  -6.1544  -6.0922  -6.0750  -6.0604  -6.0462  -5.9754  -5.9657
    -5.9540  -5.9142  -5.8580  -5.8456  -5.8187  -5.7955  -5.7817  -5.7083
    -0.5583  -0.5303  -0.5163  -0.1686  -0.1335  -0.0710   0.0029   0.0127
     0.0459   0.0592   0.0763   0.0882   0.1701   0.1776   0.2222   0.2332
     0.2811   0.3089   0.3434   0.3889   0.4078   0.4234   0.4487   0.4668
     5.6859   5.7996   5.9153   5.9894   6.0829   6.1241   6.2463   6.2668
     6.2834   6.3296   6.3461   6.3572   6.4058   6.4598   6.6147   7.1583
     7.2292   7.2590   7.3216   7.3351   7.3571   7.3714   7.3857   7.4390
     7.4537   7.4783   7.4959   7.5323   7.5510   7.5669   7.5994   7.6215
     7.6428   7.7373   7.7980   7.9392   7.9666   8.1393   8.2291   8.2760
     8.3074   8.3259   8.3760   8.4206   8.4652   8.5119   8.7447   8.7915
     8.8066   8.9061   8.9653   9.0064   9.0522   9.0934   9.1082   9.1199
     9.1300   9.1702   9.2064   9.2928   9.3028   9.4001   9.4371   9.5362
     9.7460   9.7782   9.8295   9.8588   9.9412   9.9719  10.0146  10.0560
    11.9118  12.0852  12.1030  12.1531  12.2551  12.3782  13.1804  13.2517
    13.2837  13.3758  13.4206  13.4303  13.4707  13.5150  13.5333  13.6711
    13.6864  13.6923  13.7705  13.8391  13.8748  13.9489  13.9986  14.0951
    14.1217  14.1604  14.1808  14.2004  14.3891  14.6307  14.7506  15.2086

          k = 0.0000 0.0000-0.5000 ( 21178 PWs)   bands (ev):

   -46.7122 -46.7103 -46.6700 -46.6026 -46.5822 -46.4795 -46.3783 -46.2974
   -22.9749 -22.9538 -22.9491 -22.9464 -22.9384 -22.9319 -22.9275 -22.9071
   -22.8947 -22.8620 -22.8472 -22.8398 -22.8255 -22.8234 -22.8135 -22.7399
   -22.7168 -22.7086 -22.6518 -22.6253 -22.6218 -22.5870 -22.5542 -22.5410
   -14.9115 -14.8180 -14.6793 -14.6298 -14.6061 -14.5431 -14.5016 -14.4149
    -6.9912  -6.9148  -6.7782  -6.7148  -6.7138  -6.6823  -6.3285  -6.2768
    -6.2069  -6.1864  -6.1040  -6.0706  -6.0566  -6.0336  -6.0257  -5.9499
    -5.9320  -5.9021  -5.8852  -5.8744  -5.8562  -5.8123  -5.7703  -5.7512
    -0.3761  -0.3464  -0.3400  -0.3117  -0.2587  -0.2046   0.0323   0.0414
     0.0429   0.0769   0.0896   0.0997   0.1410   0.1631   0.2357   0.2484
     0.2740   0.3023   0.3093   0.3347   0.3444   0.3585   0.4025   0.4090
     5.7461   5.8057   5.9846   6.0562   6.0751   6.0984   6.3105   6.3520
     6.6616   6.6894   6.7054   6.7322   6.7998   6.8118   6.8789   6.8983
     6.9061   6.9192   6.9774   7.0011   7.1528   7.1821   7.3566   7.3687
     7.3842   7.4118   7.5089   7.5324   7.5590   7.5724   7.5905   7.6056
     7.6216   7.6397   7.7453   7.7877   7.8867   7.9267   8.3656   8.4292
     8.4375   8.5087   8.5607   8.6017   8.6435   8.6720   8.6967   8.7140
     8.7286   8.7513   8.7881   8.8019   8.8566   8.8807   8.9815   8.9900
     9.0018   9.0379   9.4421   9.4651   9.5006   9.5252   9.5428   9.5576
     9.5697   9.6004   9.6432   9.6550   9.6691   9.6857  10.0252  10.0358
    11.9249  12.0740  12.6367  12.7018  12.7249  12.7469  12.7870  12.8127
    12.8694  12.9925  13.3753  13.4664  13.4971  13.5635  13.5953  13.6027
    13.6755  13.6924  13.8079  13.8258  13.8833  13.8990  13.9333  13.9852
    14.0286  14.1358  14.4947  14.5217  14.5562  14.6322  15.0628  15.0829

          k = 0.0000 0.2500 0.2500 ( 21150 PWs)   bands (ev):

   -46.7123 -46.7102 -46.6700 -46.6026 -46.5822 -46.4795 -46.3784 -46.2974
   -22.9763 -22.9624 -22.9525 -22.9388 -22.9327 -22.9302 -22.9247 -22.9086
   -22.8960 -22.8620 -22.8502 -22.8426 -22.8234 -22.8223 -22.8109 -22.7374
   -22.7179 -22.7100 -22.6528 -22.6280 -22.6227 -22.5877 -22.5510 -22.5407
   -14.9160 -14.8064 -14.6932 -14.6276 -14.6047 -14.5296 -14.5127 -14.4141
    -7.0058  -6.9424  -6.8483  -6.7338  -6.6189  -6.4896  -6.4273  -6.3489
    -6.2165  -6.1599  -6.1204  -6.0880  -6.0592  -6.0482  -5.9866  -5.9685
    -5.9468  -5.9224  -5.8872  -5.8632  -5.8228  -5.8052  -5.7818  -5.7218
    -0.5384  -0.4547  -0.3786  -0.1755  -0.1119  -0.0929  -0.0595  -0.0396
     0.0324   0.0757   0.0912   0.1076   0.1708   0.1870   0.1987   0.2141
     0.2682   0.2866   0.3010   0.3447   0.3781   0.4066   0.4192   0.4694
     5.7533   5.8649   5.9961   6.0762   6.1415   6.2966   6.3214   6.3315
     6.4175   6.4341   6.4610   6.4709   6.5022   6.5323   6.6170   7.1162
     7.1899   7.2245   7.2579   7.3123   7.3264   7.3682   7.3920   7.4173
     7.4333   7.4572   7.4755   7.5079   7.5552   7.5632   7.5908   7.6130
     7.6424   7.6622   7.7004   7.7615   7.8121   8.0594   8.0963   8.1567
     8.1921   8.3672   8.4089   8.4653   8.5766   8.6041   8.6982   8.7941
     8.8446   8.8914   8.9622   8.9804   9.0416   9.0885   9.1009   9.1493
     9.1648   9.1862   9.2175   9.2499   9.2670   9.2988   9.3103   9.3650
     9.6356   9.6752   9.7471   9.8131   9.8627   9.8963   9.9240  10.0074
    12.0862  12.1815  12.3189  12.3347  12.3836  12.4508  13.1750  13.2571
    13.2688  13.3168  13.3576  13.3700  13.4286  13.4383  13.4878  13.5179
    13.6237  13.6873  13.7325  13.7892  13.8651  14.0110  14.0444  14.0728
    14.1041  14.2097  14.2967  14.4895  14.5293  14.7081  15.1056  15.2077

          k = 0.0000 0.2500-0.5000 ( 21174 PWs)   bands (ev):

   -46.7122 -46.7103 -46.6700 -46.6026 -46.5822 -46.4795 -46.3783 -46.2974
   -22.9749 -22.9537 -22.9491 -22.9464 -22.9379 -22.9309 -22.9247 -22.9068
   -22.8947 -22.8620 -22.8496 -22.8409 -22.8254 -22.8234 -22.8111 -22.7399
   -22.7179 -22.7101 -22.6528 -22.6253 -22.6218 -22.5878 -22.5542 -22.5410
   -14.9085 -14.8139 -14.6826 -14.6260 -14.6095 -14.5377 -14.5068 -14.4209
    -6.9733  -6.8964  -6.7325  -6.6723  -6.6558  -6.6521  -6.3256  -6.3043
    -6.2745  -6.2328  -6.1309  -6.0917  -6.0718  -6.0341  -6.0204  -5.9578
    -5.9407  -5.9163  -5.8919  -5.8813  -5.8556  -5.8201  -5.7647  -5.7480
    -0.3838  -0.3649  -0.2867  -0.2511  -0.2037  -0.1629  -0.0118   0.0166
     0.0288   0.0588   0.0863   0.1034   0.1176   0.1399   0.1939   0.2265
     0.2595   0.2687   0.3102   0.3181   0.3360   0.3538   0.4272   0.4433
     5.8169   5.8598   6.0600   6.1455   6.2169   6.2657   6.4318   6.4678
     6.7028   6.7184   6.7693   6.7871   6.8231   6.8438   6.8690   6.8861
     6.8971   6.9205   7.0035   7.0175   7.1295   7.1505   7.3257   7.3803
     7.4045   7.4307   7.4538   7.4734   7.5312   7.5868   7.5952   7.6250
     7.6583   7.6803   7.6986   7.7066   7.8872   7.9155   7.9955   8.0217
     8.2885   8.3321   8.3411   8.3966   8.5706   8.5852   8.6822   8.7211
     8.8430   8.8803   8.9305   8.9524   9.0013   9.0194   9.0362   9.0554
     9.0796   9.1184   9.3500   9.3961   9.4086   9.4247   9.4516   9.4840
     9.5196   9.5411   9.6203   9.6413   9.6516   9.6654   9.9259   9.9336
    12.1792  12.3071  12.6399  12.7033  12.7865  12.8114  12.8684  12.9012
    12.9307  12.9917  13.2723  13.3612  13.4329  13.4918  13.5201  13.5518
    13.6000  13.6334  13.6845  13.7968  13.8104  13.8908  13.9069  14.0221
    14.1559  14.2402  14.5437  14.6338  14.9337  14.9456  15.2293  15.2331

          k = 0.0000-0.5000-0.5000 ( 21152 PWs)   bands (ev):

   -46.7122 -46.7103 -46.6700 -46.6026 -46.5822 -46.4795 -46.3783 -46.2974
   -22.9749 -22.9536 -22.9491 -22.9464 -22.9373 -22.9300 -22.9217 -22.9062
   -22.8946 -22.8620 -22.8527 -22.8415 -22.8253 -22.8234 -22.8086 -22.7400
   -22.7195 -22.7112 -22.6538 -22.6253 -22.6218 -22.5885 -22.5542 -22.5410
   -14.9053 -14.8097 -14.6859 -14.6233 -14.6115 -14.5315 -14.5126 -14.4275
    -6.9553  -6.8776  -6.6910  -6.6337  -6.5507  -6.5376  -6.4703  -6.3959
    -6.2838  -6.2295  -6.1578  -6.1247  -6.0978  -6.0273  -6.0175  -5.9782
    -5.9501  -5.9246  -5.8927  -5.8855  -5.8568  -5.8274  -5.7594  -5.7476
    -0.3308  -0.3260  -0.2758  -0.2513  -0.1959  -0.1273  -0.0303  -0.0008
     0.0287   0.0597   0.0641   0.0906   0.1014   0.1496   0.1688   0.1930
     0.2112   0.2289   0.2900   0.3225   0.3692   0.3989   0.4062   0.4346
     5.8493   5.8861   6.1045   6.1831   6.5698   6.5799   6.5967   6.6266
     6.7510   6.7544   6.7965   6.8247   6.8433   6.8570   6.8737   6.9227
     6.9673   7.0148   7.0384   7.0667   7.1050   7.1489   7.2031   7.2243
     7.3651   7.3837   7.4423   7.4524   7.5044   7.5136   7.5593   7.5659
     7.6201   7.6417   7.6707   7.6969   7.8615   7.8740   7.9403   7.9568
     7.9686   8.0185   8.1060   8.1568   8.5129   8.5736   8.5926   8.6109
     8.9314   8.9777   9.0119   9.0441   9.0672   9.0696   9.0974   9.1261
     9.2198   9.2290   9.2584   9.2800   9.3763   9.4076   9.4236   9.4939
     9.5183   9.5663   9.5698   9.6366   9.6463   9.6705   9.7087   9.7583
    12.5859  12.6227  12.7108  12.7166  12.8706  12.9230  12.9358  12.9520
    13.0089  13.0189  13.1009  13.1573  13.1927  13.2418  13.4599  13.5359
    13.5686  13.6066  13.6245  13.6615  13.7697  13.8008  13.8818  13.9142
    14.3507  14.4162  14.5369  14.6529  15.4117  15.5365  15.7201  15.7411

          k = 0.2500 0.2500 0.2500 ( 21167 PWs)   bands (ev):

   -46.7123 -46.7102 -46.6700 -46.6026 -46.5822 -46.4795 -46.3784 -46.2974
   -22.9740 -22.9610 -22.9502 -22.9380 -22.9325 -22.9301 -22.9252 -22.9098
   -22.8984 -22.8651 -22.8502 -22.8426 -22.8223 -22.8222 -22.8109 -22.7374
   -22.7172 -22.7092 -22.6528 -22.6282 -22.6238 -22.5877 -22.5512 -22.5420
   -14.9136 -14.8028 -14.6896 -14.6313 -14.6005 -14.5319 -14.5192 -14.4168
    -6.9699  -6.8907  -6.8150  -6.7071  -6.5867  -6.5204  -6.4803  -6.3485
    -6.2205  -6.1543  -6.1413  -6.0821  -6.0703  -6.0450  -5.9887  -5.9669
    -5.9618  -5.9275  -5.9152  -5.8596  -5.8457  -5.8084  -5.7914  -5.7441
    -0.4794  -0.4512  -0.2795  -0.1503  -0.1136  -0.0970  -0.0611  -0.0389
    -0.0139   0.0194   0.0569   0.0616   0.1208   0.1518   0.1722   0.2223
     0.2469   0.2977   0.3143   0.3462   0.3627   0.4288   0.4498   0.4909
     5.9031   6.0145   6.0623   6.1343   6.2556   6.2949   6.3124   6.3693
     6.4777   6.5217   6.5434   6.5543   6.5870   6.6180   6.6760   7.0677
     7.1376   7.1604   7.1823   7.2361   7.3164   7.3520   7.3830   7.4186
     7.4422   7.4686   7.4855   7.5170   7.5401   7.5749   7.5937   7.6033
     7.6333   7.6544   7.6865   7.7151   7.8099   7.8877   7.9119   8.1224
     8.1454   8.1839   8.3168   8.3651   8.5852   8.6425   8.6624   8.8308
     8.8906   8.9350   8.9679   8.9975   9.0354   9.0645   9.0923   9.1368
     9.1727   9.1818   9.2246   9.2413   9.2640   9.2756   9.3178   9.3295
     9.5462   9.5690   9.7190   9.7356   9.8173   9.8515   9.8704   9.9330
    12.2844  12.3273  12.3695  12.4306  12.4926  12.5726  13.2096  13.2146
    13.2554  13.2951  13.3198  13.3395  13.3597  13.3743  13.4509  13.4981
    13.5355  13.5558  13.6753  13.7441  13.7590  13.9389  13.9633  13.9945
    14.4320  14.4968  14.5069  14.5630  14.6868  15.0518  15.1748  15.2089

          k = 0.2500 0.2500-0.5000 ( 21192 PWs)   bands (ev):

   -46.7122 -46.7103 -46.6700 -46.6026 -46.5822 -46.4795 -46.3783 -46.2974
   -22.9718 -22.9522 -22.9482 -22.9456 -22.9373 -22.9308 -22.9252 -22.9085
   -22.8966 -22.8651 -22.8495 -22.8408 -22.8254 -22.8222 -22.8111 -22.7399
   -22.7173 -22.7093 -22.6528 -22.6260 -22.6225 -22.5878 -22.5544 -22.5424
   -14.9065 -14.8100 -14.6798 -14.6253 -14.6084 -14.5402 -14.5133 -14.4237
    -6.9408  -6.8534  -6.7019  -6.6491  -6.6392  -6.6118  -6.3682  -6.3536
    -6.2928  -6.2317  -6.1281  -6.0865  -6.0674  -6.0427  -6.0267  -5.9547
    -5.9494  -5.9342  -5.9228  -5.8825  -5.8696  -5.8190  -5.7813  -5.7627
    -0.3512  -0.3370  -0.3021  -0.2662  -0.1612  -0.1456  -0.0483  -0.0265
     0.0157   0.0417   0.0613   0.0735   0.0915   0.1213   0.1440   0.1726
     0.2006   0.2265   0.3419   0.3662   0.4009   0.4433   0.4635   0.4893
     5.9783   6.0331   6.1615   6.2302   6.2441   6.2750   6.4911   6.5286
     6.6986   6.7223   6.7436   6.7861   6.8005   6.8156   6.8729   6.9078
     6.9612   7.0095   7.0363   7.0647   7.1445   7.1536   7.3255   7.3433
     7.4051   7.4338   7.4441   7.4628   7.4878   7.5473   7.5969   7.6162
     7.6520   7.6706   7.7052   7.7418   7.8190   7.8444   7.9631   7.9969
     8.0644   8.0914   8.2817   8.3053   8.3182   8.3520   8.5812   8.6359
     8.9076   8.9434   8.9989   9.0192   9.0779   9.1050   9.1366   9.1601
     9.1799   9.1919   9.2886   9.3385   9.3645   9.3922   9.4314   9.4623
     9.5180   9.5314   9.5925   9.6082   9.6294   9.6452   9.8466   9.8662
    12.3520  12.4710  12.7355  12.7884  12.8041  12.8379  12.8878  12.9159
    12.9720  13.0893  13.2414  13.3286  13.3692  13.4071  13.4465  13.4666
    13.5288  13.5470  13.6410  13.6822  13.7422  13.7806  13.7942  13.9089
    14.5014  14.5732  14.9145  14.9386  14.9831  15.0425  15.3348  15.3580

          k = 0.2500-0.5000-0.5000 ( 21180 PWs)   bands (ev):

   -46.7122 -46.7103 -46.6700 -46.6026 -46.5822 -46.4795 -46.3783 -46.2974
   -22.9718 -22.9520 -22.9482 -22.9456 -22.9367 -22.9299 -22.9224 -22.9078
   -22.8966 -22.8651 -22.8526 -22.8415 -22.8253 -22.8222 -22.8086 -22.7400
   -22.7191 -22.7102 -22.6538 -22.6260 -22.6225 -22.5885 -22.5544 -22.5424
   -14.9035 -14.8061 -14.6831 -14.6180 -14.6140 -14.5337 -14.5197 -14.4306
    -6.9218  -6.8331  -6.6476  -6.5915  -6.5549  -6.5389  -6.4786  -6.4148
    -6.3015  -6.2453  -6.1506  -6.1127  -6.0894  -6.0393  -6.0276  -5.9799
    -5.9622  -5.9358  -5.9263  -5.8873  -5.8717  -5.8403  -5.7802  -5.7644
    -0.3198  -0.3071  -0.2582  -0.2368  -0.2187  -0.1504  -0.0705  -0.0577
    -0.0128  -0.0070   0.0246   0.0464   0.0525   0.0734   0.1122   0.1237
     0.2931   0.3139   0.3283   0.3700   0.4389   0.4599   0.4975   0.5118
     6.0216   6.0707   6.2453   6.3191   6.4967   6.5139   6.5353   6.5665
     6.6479   6.6742   6.7831   6.8107   6.9019   6.9451   6.9968   7.0101
     7.0302   7.0630   7.0854   7.1304   7.1482   7.1915   7.2163   7.2363
     7.2813   7.3078   7.3439   7.3900   7.5475   7.5719   7.6043   7.6331
     7.6406   7.6635   7.6924   7.7099   7.8049   7.8320   7.8501   7.8810
     7.9067   7.9270   7.9920   8.0163   8.1871   8.2907   8.3370   8.3783
     9.0268   9.0547   9.0823   9.1206   9.1515   9.1633   9.2125   9.2293
     9.2548   9.2742   9.2912   9.3126   9.3967   9.4181   9.4374   9.4642
     9.5013   9.5292   9.5622   9.5954   9.6109   9.6367   9.6925   9.7307
    12.7047  12.7347  12.8003  12.8115  12.9501  12.9541  12.9737  12.9918
    13.0887  13.1017  13.1099  13.1701  13.1879  13.2319  13.3983  13.4156
    13.4504  13.4709  13.5140  13.6026  13.6179  13.6498  13.7259  13.7659
    14.7872  14.8460  14.9960  15.1020  15.4232  15.5445  15.7279  15.7471

          k =-0.5000-0.5000-0.5000 ( 21008 PWs)   bands (ev):

   -46.7122 -46.7103 -46.6700 -46.6026 -46.5822 -46.4795 -46.3783 -46.2974
   -22.9684 -22.9511 -22.9466 -22.9444 -22.9358 -22.9299 -22.9235 -22.9099
   -22.8980 -22.8685 -22.8526 -22.8414 -22.8253 -22.8210 -22.8086 -22.7400
   -22.7187 -22.7090 -22.6538 -22.6269 -22.6229 -22.5886 -22.5545 -22.5439
   -14.9017 -14.8024 -14.6803 -14.6203 -14.6080 -14.5359 -14.5280 -14.4337
    -6.8831  -6.7751  -6.5885  -6.5762  -6.5403  -6.5129  -6.5080  -6.4647
    -6.3194  -6.2593  -6.1426  -6.0905  -6.0727  -6.0619  -6.0471  -5.9844
    -5.9819  -5.9552  -5.9345  -5.8981  -5.8937  -5.8486  -5.7985  -5.7808
    -0.3140  -0.2855  -0.2516  -0.2276  -0.2028  -0.1577  -0.0900  -0.0789
    -0.0775  -0.0635  -0.0430  -0.0033   0.0151   0.0269   0.0508   0.0736
     0.3779   0.3972   0.4112   0.4589   0.4687   0.4918   0.5170   0.5420
     6.2416   6.3228   6.3628   6.3766   6.3878   6.4428   6.4585   6.4631
     6.6881   6.7538   6.8954   6.9350   6.9812   6.9992   7.0223   7.0415
     7.0577   7.0722   7.0906   7.1590   7.1759   7.1954   7.2178   7.2662
     7.3577   7.3665   7.4520   7.4856   7.5328   7.5570   7.5872   7.6267
     7.6559   7.6700   7.6844   7.7007   7.7168   7.7746   7.7969   7.8138
     7.8281   7.8445   7.8476   7.8689   7.8884   7.9034   7.9225   7.9517
     9.0946   9.1399   9.1817   9.2008   9.2445   9.2679   9.2921   9.3130
     9.3272   9.3342   9.3827   9.3982   9.4100   9.4382   9.4638   9.4696
     9.4737   9.5126   9.5476   9.5527   9.5642   9.5970   9.6310   9.6646
    12.9240  12.9375  12.9651  12.9773  13.0206  13.0435  13.0828  13.1074
    13.1328  13.1553  13.1607  13.1776  13.1901  13.2059  13.2419  13.2852
    13.2985  13.3492  13.3673  13.4011  13.4144  13.4499  13.5194  13.5992
    15.3725  15.5187  15.6205  15.6702  15.7134  15.7175  15.7553  15.8002

          k = 0.2500 0.0000 0.0000 ( 21146 PWs)   bands (ev):

   -46.7123 -46.7102 -46.6700 -46.6026 -46.5822 -46.4795 -46.3784 -46.2974
   -22.9771 -22.9642 -22.9504 -22.9384 -22.9320 -22.9283 -22.9251 -22.9119
   -22.8997 -22.8651 -22.8498 -22.8419 -22.8222 -22.8199 -22.8128 -22.7350
   -22.7159 -22.7080 -22.6520 -22.6309 -22.6242 -22.5869 -22.5486 -22.5414
   -14.9237 -14.7996 -14.6935 -14.6439 -14.5892 -14.5300 -14.5176 -14.4053
    -7.0268  -6.9691  -6.9255  -6.7525  -6.5827  -6.5331  -6.4480  -6.3537
    -6.1604  -6.1183  -6.0989  -6.0687  -6.0562  -6.0422  -5.9992  -5.9697
    -5.9359  -5.9101  -5.8822  -5.8480  -5.8235  -5.7882  -5.7619  -5.7261
    -0.5670  -0.5612  -0.4907  -0.1148  -0.0824  -0.0660  -0.0418  -0.0357
     0.0022   0.0820   0.1000   0.1148   0.1785   0.1935   0.2167   0.2387
     0.2454   0.2746   0.2907   0.4075   0.4272   0.4356   0.4528   0.4779
     5.7022   5.8060   5.9310   5.9760   6.1059   6.1342   6.2075   6.2500
     6.2653   6.2844   6.3144   6.3613   6.3710   6.5142   6.6070   7.1684
     7.1911   7.2488   7.2850   7.3261   7.3626   7.3864   7.4231   7.4387
     7.4615   7.4715   7.5136   7.5341   7.5637   7.5969   7.6203   7.6735
     7.6885   7.7464   7.7542   7.9765   8.0844   8.1121   8.1926   8.2175
     8.3001   8.3132   8.3487   8.3733   8.4564   8.4768   8.7647   8.8167
     8.8465   8.9119   8.9470   9.0077   9.0312   9.0658   9.0976   9.1393
     9.1604   9.1905   9.2083   9.2725   9.2836   9.4095   9.4194   9.5461
     9.7633   9.7722   9.8505   9.9181   9.9335   9.9700   9.9832  10.0750
    11.8797  11.9830  12.1025  12.1500  12.3206  12.3754  13.1876  13.2001
    13.3175  13.4147  13.4212  13.4669  13.4746  13.4858  13.5366  13.6357
    13.6783  13.6913  13.7830  13.8399  13.8734  13.8880  13.9979  14.0834
    14.1001  14.1756  14.2087  14.2279  14.4068  14.6610  14.7465  15.1909

          k = 0.0000 0.2500 0.0000 ( 21146 PWs)   bands (ev):

   -46.7123 -46.7102 -46.6700 -46.6026 -46.5822 -46.4795 -46.3784 -46.2974
   -22.9786 -22.9665 -22.9525 -22.9386 -22.9311 -22.9260 -22.9244 -22.9105
   -22.8968 -22.8620 -22.8512 -22.8439 -22.8235 -22.8195 -22.8106 -22.7350
   -22.7179 -22.7100 -22.6529 -22.6309 -22.6229 -22.5877 -22.5482 -22.5402
   -14.9227 -14.7998 -14.7016 -14.6327 -14.5976 -14.5232 -14.5170 -14.4081
    -7.0375  -6.9766  -6.9139  -6.7527  -6.5969  -6.5193  -6.3815  -6.3560
    -6.2125  -6.1313  -6.1012  -6.0725  -6.0563  -6.0431  -5.9952  -5.9686
    -5.9293  -5.9120  -5.8895  -5.8591  -5.8130  -5.7941  -5.7634  -5.7063
    -0.5644  -0.5316  -0.5158  -0.1206  -0.1083  -0.0856  -0.0336  -0.0195
     0.0474   0.0704   0.0844   0.0999   0.1521   0.1910   0.2300   0.2505
     0.2632   0.2742   0.3393   0.3870   0.4162   0.4253   0.4498   0.4767
     5.6627   5.8543   5.8920   5.9405   6.1414   6.1488   6.1730   6.2582
     6.2696   6.3373   6.3558   6.4253   6.4396   6.4827   6.5046   7.1860
     7.2489   7.2887   7.3013   7.3130   7.3498   7.3669   7.4122   7.4238
     7.4332   7.4534   7.4970   7.5351   7.5426   7.5721   7.5809   7.6493
     7.6621   7.7595   7.7766   7.9510   8.0892   8.1295   8.2237   8.2722
     8.2845   8.3089   8.3275   8.3925   8.4468   8.4871   8.7600   8.7714
     8.8312   8.9549   8.9857   9.0010   9.0423   9.0658   9.0850   9.1170
     9.1491   9.1895   9.2091   9.2869   9.2947   9.4024   9.4126   9.5167
     9.7667   9.7779   9.8615   9.9068   9.9193   9.9417   9.9625  10.1046
    11.8385  12.1039  12.1458  12.1830  12.2446  12.3346  13.2566  13.2668
    13.3483  13.3635  13.3961  13.4295  13.4673  13.5195  13.5582  13.5940
    13.6242  13.6788  13.8331  13.8511  13.8625  13.8992  14.0384  14.0834
    14.1339  14.1685  14.1810  14.2190  14.3128  14.7148  14.7815  15.1279

          k =-0.5000 0.0000 0.0000 ( 21178 PWs)   bands (ev):

   -46.7123 -46.7102 -46.6700 -46.6026 -46.5822 -46.4795 -46.3784 -46.2974
   -22.9760 -22.9610 -22.9483 -22.9372 -22.9318 -22.9289 -22.9249 -22.9135
   -22.9022 -22.8684 -22.8498 -22.8419 -22.8210 -22.8199 -22.8128 -22.7350
   -22.7151 -22.7073 -22.6520 -22.6310 -22.6254 -22.5869 -22.5491 -22.5424
   -14.9207 -14.7958 -14.6889 -14.6502 -14.5839 -14.5328 -14.5243 -14.4078
    -6.9788  -6.8687  -6.8385  -6.7566  -6.6852  -6.6502  -6.4238  -6.3501
    -6.1538  -6.0865  -6.0570  -6.0451  -6.0397  -6.0330  -6.0225  -5.9844
    -5.9553  -5.9371  -5.8895  -5.8674  -5.8388  -5.8103  -5.7730  -5.7699
    -0.4545  -0.4420  -0.2846  -0.1925  -0.1774  -0.0728  -0.0596  -0.0376
    -0.0255   0.0431   0.1397   0.1587   0.1806   0.1955   0.2055   0.2181
     0.2262   0.2292   0.2421   0.3415   0.3778   0.3816   0.4242   0.4499
     5.7876   5.8030   6.0272   6.0405   6.0681   6.1255   6.3010   6.3325
     6.4598   6.5737   6.5974   6.6054   6.8070   6.8198   6.9074   6.9363
     6.9660   6.9766   7.0563   7.0878   7.1276   7.2090   7.2638   7.3890
     7.4546   7.4659   7.5396   7.5606   7.5760   7.6018   7.6143   7.6424
     7.6633   7.6779   7.7920   7.8001   7.8325   7.9405   8.2636   8.2995
     8.4947   8.5224   8.5584   8.5849   8.6172   8.6440   8.6888   8.6980
     8.7185   8.7275   8.7468   8.8816   8.8955   8.9402   8.9504   9.0239
     9.0322   9.0483   9.2727   9.4251   9.4641   9.5137   9.5775   9.6079
     9.6175   9.6219   9.6685   9.6740   9.7110   9.7332   9.9824  10.0693
    11.9068  11.9538  12.5595  12.6353  12.7205  12.7788  12.8012  12.8734
    12.9561  12.9766  13.4599  13.4666  13.4832  13.5058  13.5862  13.6293
    13.6443  13.6996  13.8052  13.8172  13.8558  13.8867  13.9322  13.9444
    14.0235  14.1812  14.5043  14.5161  14.5574  14.6699  15.0547  15.1289

          k = 0.0000-0.5000 0.0000 ( 21178 PWs)   bands (ev):

   -46.7123 -46.7102 -46.6700 -46.6026 -46.5822 -46.4795 -46.3784 -46.2974
   -22.9786 -22.9665 -22.9524 -22.9380 -22.9302 -22.9256 -22.9219 -22.9099
   -22.8967 -22.8620 -22.8535 -22.8453 -22.8235 -22.8192 -22.8082 -22.7351
   -22.7195 -22.7112 -22.6539 -22.6309 -22.6229 -22.5885 -22.5482 -22.5402
   -14.9185 -14.7962 -14.7062 -14.6256 -14.6026 -14.5244 -14.5171 -14.4138
    -7.0034  -6.8992  -6.7932  -6.7600  -6.6734  -6.6497  -6.3649  -6.2663
    -6.2364  -6.1451  -6.0879  -6.0723  -6.0589  -6.0236  -5.9888  -5.9689
    -5.9499  -5.9381  -5.9182  -5.8901  -5.8290  -5.7960  -5.7555  -5.7483
    -0.4469  -0.3825  -0.2866  -0.2487  -0.2090  -0.1349  -0.0655  -0.0224
    -0.0117   0.1010   0.1421   0.1518   0.1556   0.1768   0.2034   0.2221
     0.2609   0.2834   0.2998   0.3222   0.3330   0.3722   0.4061   0.4438
     5.7013   5.8978   5.9355   5.9697   6.1513   6.1715   6.1791   6.4376
     6.6291   6.6870   6.7267   6.7403   6.7786   6.7883   6.8280   6.8491
     6.8958   6.9860   7.0149   7.0859   7.1519   7.2577   7.2885   7.3171
     7.3947   7.4124   7.4330   7.4866   7.5544   7.5859   7.6195   7.6322
     7.6765   7.7103   7.7233   7.7654   7.9183   7.9715   8.3750   8.3949
     8.4322   8.4872   8.5467   8.5494   8.5920   8.6441   8.6590   8.7194
     8.7254   8.7633   8.8063   8.8230   8.8941   8.9132   8.9254   8.9805
     9.0532   9.0713   9.4269   9.4364   9.4631   9.4781   9.5053   9.5382
     9.5765   9.6296   9.6381   9.6850   9.7216   9.7666   9.9428  10.1011
    11.8451  12.1050  12.5469  12.6283  12.7204  12.7414  12.7886  12.8940
    13.0134  13.1519  13.3558  13.3994  13.4848  13.5419  13.5913  13.6750
    13.6793  13.6817  13.7167  13.7408  13.8582  13.9145  13.9510  14.0170
    14.0571  14.1742  14.3988  14.4614  14.6589  14.7028  14.9393  15.2959

          k = 0.0000-0.2500 0.2500 ( 21150 PWs)   bands (ev):

   -46.7123 -46.7102 -46.6700 -46.6026 -46.5822 -46.4795 -46.3784 -46.2974
   -22.9763 -22.9624 -22.9525 -22.9387 -22.9327 -22.9302 -22.9247 -22.9086
   -22.8960 -22.8620 -22.8502 -22.8426 -22.8234 -22.8223 -22.8109 -22.7374
   -22.7179 -22.7100 -22.6528 -22.6280 -22.6227 -22.5877 -22.5510 -22.5407
   -14.9160 -14.8064 -14.6932 -14.6276 -14.6047 -14.5297 -14.5125 -14.4141
    -7.0065  -6.9411  -6.8487  -6.7332  -6.6188  -6.4871  -6.4357  -6.3451
    -6.2219  -6.1639  -6.0999  -6.0868  -6.0644  -6.0464  -5.9884  -5.9702
    -5.9556  -5.9163  -5.8835  -5.8705  -5.8210  -5.8094  -5.7781  -5.7208
    -0.5403  -0.4546  -0.3819  -0.1674  -0.1092  -0.0876  -0.0716  -0.0389
     0.0282   0.0747   0.0909   0.1106   0.1727   0.1885   0.2000   0.2169
     0.2639   0.2834   0.2987   0.3439   0.3924   0.4084   0.4319   0.4470
     5.7543   5.8632   5.9925   6.0780   6.1445   6.2922   6.3226   6.3347
     6.4074   6.4383   6.4620   6.4682   6.4997   6.5308   6.6328   7.1113
     7.1968   7.2198   7.2580   7.2989   7.3344   7.3639   7.3681   7.4229
     7.4309   7.4626   7.4978   7.5125   7.5451   7.5662   7.5907   7.6246
     7.6397   7.6766   7.7000   7.7488   7.8286   8.0424   8.0951   8.1453
     8.1688   8.3395   8.4249   8.4740   8.5881   8.6457   8.7068   8.7907
     8.8241   8.8974   8.9460   8.9920   9.0274   9.0855   9.1102   9.1341
     9.1788   9.1921   9.2179   9.2402   9.2730   9.2839   9.3312   9.3568
     9.6481   9.6781   9.7379   9.7966   9.8658   9.9094   9.9326   9.9984
    12.0858  12.1932  12.3132  12.3307  12.3809  12.4447  13.1758  13.2524
    13.2700  13.3146  13.3533  13.3780  13.4264  13.4438  13.4872  13.5263
    13.6203  13.6894  13.7315  13.7904  13.8660  14.0079  14.0449  14.0719
    14.1020  14.2115  14.2952  14.4916  14.5312  14.7069  15.1062  15.2081

          k = 0.2500 0.0000-0.2500 ( 21150 PWs)   bands (ev):

   -46.7123 -46.7102 -46.6700 -46.6026 -46.5822 -46.4795 -46.3784 -46.2974
   -22.9740 -22.9611 -22.9503 -22.9385 -22.9329 -22.9307 -22.9279 -22.9103
   -22.8984 -22.8651 -22.8484 -22.8411 -22.8225 -22.8222 -22.8132 -22.7374
   -22.7159 -22.7080 -22.6519 -22.6281 -22.6238 -22.5869 -22.5512 -22.5420
   -14.9171 -14.8062 -14.6859 -14.6375 -14.5964 -14.5372 -14.5130 -14.4111
    -6.9947  -6.9276  -6.8670  -6.7318  -6.6150  -6.5165  -6.4683  -6.3367
    -6.2066  -6.1494  -6.1047  -6.0631  -6.0540  -6.0395  -5.9929  -5.9740
    -5.9615  -5.9187  -5.8778  -5.8541  -5.8336  -5.8001  -5.7860  -5.7392
    -0.5275  -0.4848  -0.3705  -0.1398  -0.1362  -0.0924  -0.0432  -0.0128
     0.0183   0.0685   0.0745   0.1069   0.1290   0.1721   0.2048   0.2403
     0.2711   0.2893   0.3076   0.3602   0.3818   0.4014   0.4224   0.4597
     5.8018   5.9021   5.9589   6.0849   6.0979   6.2232   6.3002   6.3494
     6.4009   6.4259   6.4513   6.4624   6.5086   6.5210   6.6782   7.1159
     7.1767   7.2093   7.2560   7.2984   7.3454   7.3562   7.3814   7.3936
     7.4329   7.4610   7.4984   7.5317   7.5455   7.5894   7.6113   7.6303
     7.6546   7.7008   7.7383   7.7595   7.7833   8.0321   8.0826   8.1358
     8.1633   8.4036   8.4232   8.4729   8.5600   8.6281   8.6964   8.8064
     8.8865   8.8907   8.9290   8.9928   9.0369   9.0779   9.0977   9.1333
     9.1560   9.1722   9.2011   9.2370   9.2769   9.3038   9.3310   9.3793
     9.6647   9.6823   9.7281   9.8378   9.8783   9.9066   9.9206   9.9810
    12.1294  12.1824  12.2354  12.2853  12.3208  12.5598  13.1858  13.2129
    13.2463  13.2710  13.2910  13.3312  13.4586  13.5116  13.5290  13.5481
    13.6583  13.6810  13.6877  13.8607  13.8670  13.9761  14.0354  14.0853
    14.1363  14.1715  14.2171  14.4561  14.6219  14.6942  15.1475  15.2095

          k =-0.2500 0.0000-0.2500 ( 21150 PWs)   bands (ev):

   -46.7123 -46.7102 -46.6700 -46.6026 -46.5822 -46.4795 -46.3784 -46.2974
   -22.9740 -22.9610 -22.9503 -22.9385 -22.9330 -22.9307 -22.9279 -22.9103
   -22.8984 -22.8651 -22.8484 -22.8411 -22.8225 -22.8222 -22.8132 -22.7374
   -22.7159 -22.7080 -22.6519 -22.6281 -22.6238 -22.5869 -22.5512 -22.5420
   -14.9170 -14.8062 -14.6859 -14.6375 -14.5963 -14.5372 -14.5131 -14.4111
    -6.9939  -6.9278  -6.8687  -6.7310  -6.6103  -6.5224  -6.4703  -6.3295
    -6.2099  -6.1564  -6.0997  -6.0648  -6.0559  -6.0368  -5.9890  -5.9670
    -5.9600  -5.9193  -5.8896  -5.8576  -5.8265  -5.8018  -5.7883  -5.7360
    -0.5309  -0.4854  -0.3673  -0.1416  -0.1299  -0.0863  -0.0448  -0.0088
     0.0037   0.0642   0.0771   0.1032   0.1356   0.1711   0.2170   0.2433
     0.2623   0.2929   0.3025   0.3583   0.3767   0.3930   0.4314   0.4632
     5.8051   5.8981   5.9616   6.0836   6.0978   6.2239   6.3004   6.3615
     6.3959   6.4251   6.4491   6.4660   6.5083   6.5200   6.6684   7.1140
     7.1646   7.2300   7.2655   7.2886   7.3321   7.3569   7.3795   7.4106
     7.4407   7.4519   7.5012   7.5348   7.5549   7.5800   7.5916   7.6117
     7.6502   7.6917   7.7401   7.7575   7.7912   8.0486   8.1018   8.1558
     8.1653   8.4006   8.4090   8.4527   8.5556   8.6550   8.7448   8.8242
     8.8409   8.8699   8.9326   8.9581   9.0236   9.0999   9.1170   9.1357
     9.1566   9.1794   9.1988   9.2268   9.2789   9.3063   9.3333   9.3755
     9.6351   9.6727   9.7480   9.8394   9.8780   9.9156   9.9240   9.9755
    12.1229  12.1846  12.2362  12.2912  12.3197  12.5732  13.1830  13.2094
    13.2477  13.2792  13.2865  13.3277  13.4500  13.5118  13.5276  13.5486
    13.6605  13.6756  13.6929  13.8569  13.8717  13.9759  14.0361  14.0885
    14.1343  14.1662  14.2192  14.4560  14.6228  14.6891  15.1623  15.1953

          k = 0.2500-0.2500 0.0000 ( 21150 PWs)   bands (ev):

   -46.7123 -46.7102 -46.6700 -46.6026 -46.5822 -46.4795 -46.3784 -46.2974
   -22.9771 -22.9642 -22.9502 -22.9379 -22.9311 -22.9262 -22.9245 -22.9114
   -22.8996 -22.8651 -22.8512 -22.8439 -22.8222 -22.8195 -22.8106 -22.7350
   -22.7172 -22.7092 -22.6529 -22.6310 -22.6242 -22.5877 -22.5486 -22.5414
   -14.9199 -14.7964 -14.6975 -14.6376 -14.5929 -14.5270 -14.5223 -14.4107
    -7.0020  -6.9190  -6.8711  -6.7351  -6.5834  -6.5588  -6.4247  -6.3737
    -6.2173  -6.1259  -6.0930  -6.0673  -6.0509  -6.0391  -6.0015  -5.9735
    -5.9443  -5.9233  -5.9029  -5.8750  -5.8253  -5.8008  -5.7669  -5.7376
    -0.5286  -0.4958  -0.3650  -0.1198  -0.0959  -0.0712  -0.0456  -0.0283
    -0.0011   0.0323   0.0463   0.0717   0.1595   0.2016   0.2190   0.2486
     0.2554   0.2904   0.3000   0.3603   0.3852   0.4045   0.4226   0.4538
     5.7774   5.8963   5.9930   6.0364   6.1589   6.2497   6.2795   6.3226
     6.4088   6.4292   6.4518   6.4656   6.4918   6.5536   6.6246   7.1471
     7.1960   7.2419   7.2582   7.2747   7.3153   7.3363   7.3756   7.3953
     7.4363   7.4715   7.4986   7.5191   7.5529   7.5932   7.6253   7.6384
     7.6539   7.6692   7.7182   7.7440   7.8353   8.0418   8.1236   8.1379
     8.1849   8.3637   8.4156   8.4435   8.5528   8.6609   8.7121   8.7962
     8.8394   8.8846   8.9606   8.9745   9.0298   9.0804   9.1012   9.1213
     9.1566   9.1917   9.1978   9.2490   9.2653   9.2943   9.3461   9.3831
     9.6580   9.6744   9.7707   9.8135   9.8549   9.8747   9.9451  10.0000
    12.0773  12.1780  12.2261  12.3339  12.3793  12.5091  13.1747  13.1901
    13.2751  13.3212  13.3775  13.4079  13.4309  13.4517  13.5173  13.5447
    13.5554  13.6890  13.7248  13.7988  13.8744  13.9623  14.0485  14.0830
    14.1171  14.1624  14.2968  14.4905  14.5621  14.7611  15.0796  15.2089

          k =-0.2500-0.2500 0.0000 ( 21150 PWs)   bands (ev):

   -46.7123 -46.7102 -46.6700 -46.6026 -46.5822 -46.4795 -46.3784 -46.2974
   -22.9771 -22.9642 -22.9502 -22.9379 -22.9311 -22.9262 -22.9245 -22.9114
   -22.8996 -22.8651 -22.8512 -22.8439 -22.8222 -22.8195 -22.8106 -22.7350
   -22.7172 -22.7092 -22.6529 -22.6310 -22.6242 -22.5877 -22.5486 -22.5414
   -14.9199 -14.7964 -14.6975 -14.6375 -14.5930 -14.5270 -14.5222 -14.4107
    -6.9991  -6.9203  -6.8736  -6.7364  -6.5745  -6.5642  -6.4361  -6.3676
    -6.1994  -6.1255  -6.0909  -6.0762  -6.0593  -6.0428  -6.0051  -5.9715
    -5.9476  -5.9250  -5.9030  -5.8501  -5.8326  -5.8100  -5.7676  -5.7342
    -0.5228  -0.4961  -0.3760  -0.1100  -0.0993  -0.0705  -0.0389  -0.0241
     0.0008   0.0226   0.0355   0.0685   0.1698   0.2045   0.2254   0.2513
     0.2569   0.2758   0.3102   0.3506   0.3759   0.4038   0.4313   0.4542
     5.7772   5.8987   5.9921   6.0311   6.1581   6.2587   6.2775   6.3203
     6.4003   6.4275   6.4562   6.4637   6.5107   6.5573   6.6203   7.1371
     7.1755   7.2393   7.2769   7.2955   7.3172   7.3437   7.3708   7.3900
     7.4306   7.4478   7.5002   7.5272   7.5550   7.5843   7.6264   7.6444
     7.6512   7.6758   7.7187   7.7450   7.8428   8.0534   8.0853   8.1122
     8.1986   8.3777   8.4083   8.4283   8.5537   8.6818   8.7532   8.7897
     8.8624   8.8894   8.9484   8.9821   9.0163   9.0853   9.0978   9.1319
     9.1507   9.1818   9.1932   9.2286   9.2507   9.3157   9.3380   9.3878
     9.6234   9.6712   9.7839   9.8234   9.8644   9.8804   9.9396  10.0045
    12.0974  12.1555  12.2264  12.3282  12.3788  12.4993  13.1905  13.2125
    13.2643  13.3392  13.3577  13.4081  13.4321  13.4482  13.5149  13.5348
    13.5534  13.6892  13.7262  13.7981  13.8753  13.9663  14.0478  14.0826
    14.1176  14.1605  14.2946  14.5019  14.5675  14.7602  15.0678  15.2164

          k = 0.2500 0.0000 0.5000 ( 21174 PWs)   bands (ev):

   -46.7122 -46.7103 -46.6700 -46.6026 -46.5822 -46.4795 -46.3783 -46.2974
   -22.9718 -22.9523 -22.9482 -22.9456 -22.9378 -22.9318 -22.9279 -22.9090
   -22.8966 -22.8651 -22.8472 -22.8398 -22.8256 -22.8221 -22.8135 -22.7399
   -22.7159 -22.7080 -22.6518 -22.6260 -22.6225 -22.5870 -22.5544 -22.5424
   -14.9095 -14.8138 -14.6766 -14.6310 -14.6040 -14.5460 -14.5075 -14.4174
    -6.9600  -6.8733  -6.7564  -6.7042  -6.6690  -6.6341  -6.3666  -6.3246
    -6.2473  -6.2181  -6.1068  -6.0700  -6.0488  -6.0313  -6.0250  -5.9583
    -5.9426  -5.9265  -5.9072  -5.8680  -5.8533  -5.8083  -5.7843  -5.7604
    -0.3640  -0.3541  -0.3238  -0.2667  -0.1870  -0.1643   0.0079   0.0165
     0.0395   0.0618   0.0731   0.0902   0.1153   0.1357   0.1832   0.2096
     0.2640   0.2830   0.3183   0.3242   0.3362   0.3801   0.4103   0.4348
     5.8617   5.9412   6.0193   6.0795   6.1549   6.2163   6.4469   6.4918
     6.7175   6.7421   6.7571   6.7714   6.7927   6.8358   6.8803   6.8991
     6.9270   6.9559   6.9735   6.9982   7.1144   7.1324   7.3357   7.3561
     7.4137   7.4321   7.4582   7.4993   7.5315   7.5671   7.6194   7.6290
     7.6399   7.6717   7.7047   7.7308   7.8693   7.8997   7.9864   8.0756
     8.2945   8.3070   8.3888   8.4187   8.6094   8.6315   8.7116   8.7616
     8.7949   8.8165   8.8808   8.9107   8.9751   9.0202   9.0485   9.0712
     9.1115   9.1154   9.3328   9.3677   9.3997   9.4311   9.4954   9.5087
     9.5458   9.5604   9.6065   9.6251   9.6485   9.6652   9.9150   9.9405
    12.1587  12.2949  12.7221  12.7334  12.7493  12.7788  12.7915  12.8048
    12.9755  13.0917  13.2093  13.3206  13.3776  13.4388  13.5454  13.6193
    13.6671  13.6815  13.7040  13.7555  13.8103  13.8985  13.9236  14.0166
    14.1634  14.2258  14.4923  14.5232  14.9582  15.0130  15.2636  15.3102

          k =-0.5000-0.2500 0.0000 ( 21174 PWs)   bands (ev):

   -46.7123 -46.7102 -46.6700 -46.6026 -46.5822 -46.4795 -46.3784 -46.2974
   -22.9760 -22.9610 -22.9480 -22.9368 -22.9309 -22.9266 -22.9246 -22.9128
   -22.9022 -22.8684 -22.8512 -22.8439 -22.8210 -22.8195 -22.8107 -22.7350
   -22.7167 -22.7083 -22.6529 -22.6311 -22.6254 -22.5877 -22.5491 -22.5424
   -14.9172 -14.7929 -14.6931 -14.6430 -14.5870 -14.5338 -14.5257 -14.4133
    -6.9593  -6.8312  -6.8035  -6.7271  -6.6524  -6.6027  -6.4366  -6.3728
    -6.2200  -6.1151  -6.0900  -6.0820  -6.0504  -6.0381  -6.0136  -5.9694
    -5.9511  -5.9395  -5.9155  -5.8701  -5.8497  -5.8202  -5.7731  -5.7594
    -0.4180  -0.3933  -0.3238  -0.1306  -0.1127  -0.0887  -0.0393  -0.0310
    -0.0226   0.0197   0.0441   0.0828   0.1086   0.1208   0.2114   0.2287
     0.2765   0.2819   0.2972   0.3243   0.3711   0.3771   0.4048   0.4334
     5.8633   5.8991   6.0325   6.1721   6.2075   6.2491   6.4312   6.4457
     6.4841   6.5995   6.6438   6.7216   6.8329   6.8753   6.8916   6.9053
     6.9651   6.9915   7.0312   7.0995   7.1452   7.2397   7.2861   7.3401
     7.4019   7.4339   7.4927   7.5063   7.5480   7.5778   7.6185   7.6504
     7.6732   7.7205   7.7394   7.7523   7.8324   7.8932   7.9469   8.0944
     8.2072   8.2491   8.4493   8.4578   8.5570   8.6149   8.6931   8.7135
     8.7855   8.9218   8.9459   8.9739   8.9868   9.0055   9.0124   9.0608
     9.0814   9.1004   9.2501   9.3461   9.3786   9.4066   9.4874   9.5117
     9.5780   9.6030   9.6126   9.6435   9.6682   9.7033   9.8704   9.9628
    12.1726  12.1979  12.5616  12.7170  12.8020  12.8079  12.8696  12.8866
    12.9732  13.0420  13.2709  13.4122  13.4324  13.5041  13.5266  13.5393
    13.5508  13.6483  13.6623  13.7626  13.8033  13.8949  13.9259  14.0873
    14.1301  14.1687  14.5159  14.6911  14.9287  14.9690  15.2159  15.3067

          k = 0.0000-0.5000 0.2500 ( 21174 PWs)   bands (ev):

   -46.7123 -46.7102 -46.6700 -46.6026 -46.5822 -46.4795 -46.3784 -46.2974
   -22.9763 -22.9624 -22.9524 -22.9382 -22.9324 -22.9295 -22.9218 -22.9080
   -22.8959 -22.8620 -22.8530 -22.8435 -22.8235 -22.8221 -22.8084 -22.7375
   -22.7195 -22.7112 -22.6538 -22.6280 -22.6227 -22.5885 -22.5510 -22.5407
   -14.9123 -14.8025 -14.6973 -14.6199 -14.6108 -14.5239 -14.5189 -14.4202
    -6.9801  -6.8884  -6.7389  -6.7089  -6.6502  -6.5990  -6.3611  -6.3156
    -6.2778  -6.1972  -6.1172  -6.0914  -6.0730  -6.0420  -6.0019  -5.9724
    -5.9494  -5.9356  -5.8978  -5.8894  -5.8365  -5.8151  -5.7580  -5.7479
    -0.4247  -0.3390  -0.3192  -0.1824  -0.1695  -0.1172  -0.0566  -0.0382
    -0.0160   0.0637   0.0963   0.1181   0.1320   0.1624   0.1904   0.2269
     0.2524   0.2579   0.2773   0.2991   0.3650   0.3725   0.4215   0.4497
     5.7903   5.8960   6.0428   6.1690   6.1762   6.3083   6.3368   6.5669
     6.6755   6.7335   6.7531   6.7776   6.7948   6.8065   6.8494   6.9026
     6.9549   6.9648   7.0006   7.0321   7.1054   7.2121   7.2858   7.3476
     7.3819   7.4163   7.4699   7.4971   7.5233   7.5494   7.6107   7.6366
     7.6590   7.6940   7.7083   7.7849   7.8306   7.9419   7.9782   8.0342
     8.2693   8.3015   8.3792   8.3992   8.5319   8.6049   8.6605   8.7313
     8.7795   8.8537   8.9524   8.9718   8.9955   9.0390   9.0526   9.0664
     9.0929   9.1267   9.3243   9.3429   9.3880   9.4377   9.4637   9.4924
     9.5210   9.5584   9.5705   9.6456   9.6990   9.7189   9.8453   9.9907
    12.1002  12.3544  12.6295  12.6534  12.7370  12.8281  12.8908  12.8968
    13.0061  13.1893  13.2271  13.3322  13.4348  13.4422  13.5100  13.5276
    13.5583  13.6740  13.6863  13.7523  13.8073  13.8730  13.9318  14.0539
    14.1274  14.3264  14.4525  14.6758  14.7991  15.0553  15.1484  15.5314

          k = 0.2500-0.5000 0.0000 ( 21174 PWs)   bands (ev):

   -46.7123 -46.7102 -46.6700 -46.6026 -46.5822 -46.4795 -46.3784 -46.2974
   -22.9771 -22.9642 -22.9500 -22.9374 -22.9302 -22.9255 -22.9225 -22.9105
   -22.8995 -22.8651 -22.8535 -22.8453 -22.8223 -22.8193 -22.8083 -22.7351
   -22.7190 -22.7101 -22.6539 -22.6310 -22.6242 -22.5885 -22.5486 -22.5414
   -14.9160 -14.7931 -14.7019 -14.6299 -14.5972 -14.5321 -14.5190 -14.4165
    -6.9734  -6.8504  -6.7739  -6.7340  -6.6477  -6.6008  -6.3865  -6.3303
    -6.2878  -6.1459  -6.0980  -6.0741  -6.0612  -6.0365  -6.0066  -5.9614
    -5.9539  -5.9405  -5.9323  -5.8801  -5.8429  -5.8072  -5.7670  -5.7516
    -0.3922  -0.3801  -0.3316  -0.1675  -0.1443  -0.1064  -0.0631  -0.0283
    -0.0123   0.0450   0.0758   0.0979   0.1149   0.1252   0.1867   0.2410
     0.2877   0.3007   0.3099   0.3210   0.3373   0.3739   0.4008   0.4299
     5.8190   5.9624   6.0015   6.0954   6.1759   6.2748   6.3292   6.5614
     6.7099   6.7207   6.7364   6.7603   6.7944   6.8382   6.8502   6.8816
     6.9285   6.9723   6.9932   7.0839   7.1093   7.2141   7.2805   7.3419
     7.3896   7.4192   7.4480   7.4870   7.5218   7.5621   7.5933   7.6307
     7.6711   7.7077   7.7463   7.7547   7.8146   7.9520   7.9971   8.0427
     8.2635   8.2765   8.4050   8.4916   8.5599   8.6171   8.6669   8.7073
     8.8420   8.8611   8.9044   8.9308   8.9513   9.0057   9.0366   9.0762
     9.1106   9.1390   9.3410   9.3579   9.4082   9.4445   9.4599   9.4866
     9.5001   9.5372   9.5746   9.6175   9.7128   9.7429   9.8473   9.9860
    12.1032  12.3501  12.5552  12.6993  12.7231  12.7865  12.8406  12.9267
    13.1127  13.1376  13.2135  13.3440  13.4267  13.4343  13.5260  13.5477
    13.5842  13.6827  13.6955  13.7075  13.8030  13.8207  14.0076  14.0617
    14.0921  14.3189  14.4008  14.6925  14.8711  15.1101  15.1123  15.4589

          k =-0.5000 0.0000 0.2500 ( 21174 PWs)   bands (ev):

   -46.7123 -46.7102 -46.6700 -46.6026 -46.5822 -46.4795 -46.3784 -46.2974
   -22.9719 -22.9589 -22.9482 -22.9373 -22.9326 -22.9305 -22.9286 -22.9125
   -22.9004 -22.8684 -22.8483 -22.8411 -22.8225 -22.8209 -22.8132 -22.7374
   -22.7151 -22.7073 -22.6519 -22.6285 -22.6248 -22.5870 -22.5515 -22.5433
   -14.9144 -14.8022 -14.6821 -14.6426 -14.5913 -14.5399 -14.5198 -14.4136
    -6.9526  -6.8461  -6.7987  -6.7081  -6.6730  -6.5925  -6.4626  -6.3415
    -6.1991  -6.1652  -6.1258  -6.0544  -6.0386  -6.0164  -6.0103  -5.9806
    -5.9576  -5.9424  -5.8987  -5.8667  -5.8441  -5.8107  -5.7965  -5.7613
    -0.4260  -0.3799  -0.3225  -0.1416  -0.1191  -0.0919  -0.0726  -0.0336
    -0.0075   0.0389   0.0612   0.1024   0.1248   0.1276   0.1957   0.2146
     0.2615   0.2687   0.2872   0.3183   0.3670   0.3908   0.4161   0.4429
     5.8838   5.9300   6.0462   6.0643   6.2177   6.2535   6.4321   6.4505
     6.5112   6.6044   6.6364   6.7527   6.8174   6.8722   6.8833   6.9250
     6.9631   6.9903   7.0165   7.0826   7.1453   7.2545   7.2768   7.3493
     7.3793   7.4480   7.4652   7.5099   7.5517   7.6002   7.6285   7.6552
     7.6886   7.7053   7.7422   7.7602   7.8461   7.8870   7.9114   8.0963
     8.1579   8.3205   8.3888   8.4595   8.6086   8.6272   8.6564   8.6829
     8.8366   8.9013   8.9340   8.9567   8.9843   9.0143   9.0423   9.0557
     9.0847   9.0946   9.2326   9.3379   9.3858   9.4768   9.5071   9.5147
     9.5430   9.5684   9.6168   9.6447   9.6780   9.7080   9.8721   9.9526
    12.1773  12.2113  12.6371  12.6602  12.7237  12.7764  12.8631  12.9524
    12.9814  13.0849  13.2780  13.2828  13.3332  13.4702  13.5257  13.6019
    13.6572  13.6898  13.7206  13.7696  13.7927  13.8865  13.8930  14.0658
    14.1700  14.1743  14.4968  14.5428  14.9295  15.0527  15.2825  15.3199

          k =-0.5000 0.0000 0.5000 ( 21152 PWs)   bands (ev):

   -46.7122 -46.7103 -46.6700 -46.6026 -46.5822 -46.4795 -46.3783 -46.2974
   -22.9684 -22.9514 -22.9468 -22.9444 -22.9368 -22.9316 -22.9286 -22.9117
   -22.8981 -22.8685 -22.8472 -22.8398 -22.8256 -22.8209 -22.8135 -22.7399
   -22.7152 -22.7073 -22.6518 -22.6269 -22.6229 -22.5870 -22.5545 -22.5439
   -14.9074 -14.8094 -14.6739 -14.6337 -14.5999 -14.5490 -14.5141 -14.4200
    -6.9254  -6.8218  -6.7365  -6.6985  -6.5932  -6.5565  -6.4378  -6.4089
    -6.2908  -6.2469  -6.1097  -6.0720  -6.0351  -6.0265  -6.0166  -5.9702
    -5.9533  -5.9478  -5.9304  -5.8664  -5.8534  -5.8072  -5.8007  -5.7654
    -0.3408  -0.3018  -0.2586  -0.2451  -0.2180  -0.1593  -0.0254  -0.0117
     0.0136   0.0513   0.0744   0.1027   0.1092   0.1350   0.1817   0.1993
     0.2229   0.2487   0.3025   0.3144   0.3498   0.3744   0.4136   0.4466
     5.9298   6.0308   6.0351   6.0731   6.3913   6.5071   6.6159   6.6403
     6.7457   6.7603   6.7713   6.7952   6.8200   6.8614   6.9042   6.9383
     6.9714   6.9819   7.0749   7.1008   7.1081   7.1579   7.1961   7.2318
     7.2974   7.3629   7.4614   7.4984   7.5187   7.5572   7.5623   7.5963
     7.6202   7.6398   7.6705   7.7297   7.8424   7.8951   7.9563   7.9701
     8.0024   8.0258   8.1092   8.1522   8.5798   8.6042   8.6299   8.6581
     8.8724   8.8908   8.9571   8.9875   9.0425   9.0696   9.1328   9.1671
     9.1965   9.2347   9.2593   9.2805   9.3945   9.4518   9.4689   9.5270
     9.5469   9.5716   9.5971   9.6046   9.6197   9.6628   9.6825   9.7280
    12.6173  12.6578  12.6955  12.7462  12.7970  12.8089  12.8535  12.9187
    12.9668  13.0023  13.0850  13.1489  13.2495  13.3727  13.3954  13.4360
    13.6211  13.6417  13.7220  13.7495  13.7601  13.7984  13.8695  13.9072
    14.3933  14.4199  14.4453  14.4927  15.6439  15.6571  15.7228  15.7656

          k =-0.5000 0.5000 0.0000 ( 21152 PWs)   bands (ev):

   -46.7123 -46.7102 -46.6700 -46.6026 -46.5822 -46.4795 -46.3784 -46.2974
   -22.9760 -22.9610 -22.9478 -22.9363 -22.9301 -22.9253 -22.9235 -22.9116
   -22.9021 -22.8684 -22.8535 -22.8453 -22.8210 -22.8193 -22.8083 -22.7351
   -22.7187 -22.7090 -22.6539 -22.6311 -22.6254 -22.5885 -22.5491 -22.5424
   -14.9135 -14.7899 -14.6974 -14.6345 -14.5902 -14.5416 -14.5209 -14.4193
    -6.9399  -6.7857  -6.7561  -6.7052  -6.6307  -6.4578  -6.4523  -6.4148
    -6.3861  -6.1445  -6.1082  -6.0755  -6.0620  -6.0507  -6.0135  -5.9676
    -5.9540  -5.9405  -5.9296  -5.8844  -5.8620  -5.8228  -5.7727  -5.7536
    -0.3351  -0.3145  -0.3015  -0.2175  -0.1790  -0.1005  -0.0533  -0.0288
    -0.0167   0.0143   0.0541   0.0697   0.1172   0.1930   0.2058   0.2136
     0.2374   0.2531   0.2838   0.3377   0.3527   0.3682   0.4010   0.4234
     5.8993   5.9569   6.0390   6.2008   6.3831   6.5587   6.5747   6.6303
     6.6507   6.6957   6.8100   6.8502   6.8600   6.8709   6.8899   6.8949
     6.9725   7.0431   7.0545   7.0926   7.1048   7.1648   7.2072   7.2515
     7.3137   7.3883   7.4575   7.4876   7.5100   7.5339   7.5957   7.6059
     7.6285   7.6753   7.6927   7.6955   7.7398   7.8137   7.8760   7.9867
     8.0850   8.1173   8.1482   8.1913   8.4826   8.5759   8.6205   8.6415
     8.8720   8.9596   8.9933   9.0314   9.0340   9.1111   9.1349   9.1476
     9.1892   9.2281   9.2629   9.3062   9.3339   9.3924   9.4337   9.4515
     9.5092   9.5893   9.6170   9.6217   9.6434   9.6650   9.7158   9.7590
    12.5220  12.5576  12.6929  12.7793  12.8282  12.8620  12.8711  12.9889
    13.0464  13.0583  13.0953  13.1705  13.2814  13.3141  13.3750  13.5205
    13.5552  13.5646  13.6616  13.6870  13.7127  13.7846  13.9148  13.9960
    14.2759  14.3915  14.4906  14.7281  15.4790  15.5891  15.6507  15.7546

          k =-0.2500-0.2500 0.2500 ( 21167 PWs)   bands (ev):

   -46.7123 -46.7102 -46.6700 -46.6026 -46.5822 -46.4795 -46.3784 -46.2974
   -22.9739 -22.9611 -22.9502 -22.9380 -22.9325 -22.9301 -22.9252 -22.9098
   -22.8984 -22.8651 -22.8502 -22.8426 -22.8223 -22.8222 -22.8110 -22.7374
   -22.7172 -22.7092 -22.6528 -22.6282 -22.6238 -22.5877 -22.5512 -22.5420
   -14.9136 -14.8028 -14.6896 -14.6313 -14.6005 -14.5321 -14.5190 -14.4168
    -6.9707  -6.8897  -6.8143  -6.7070  -6.5896  -6.5114  -6.4880  -6.3489
    -6.2285  -6.1678  -6.1042  -6.0830  -6.0605  -6.0522  -6.0144  -5.9646
    -5.9631  -5.9264  -5.9041  -5.8646  -5.8388  -5.8214  -5.7845  -5.7437
    -0.4820  -0.4526  -0.2749  -0.1507  -0.1145  -0.0971  -0.0611  -0.0365
    -0.0180   0.0279   0.0447   0.0696   0.1161   0.1531   0.1685   0.2223
     0.2441   0.2924   0.3212   0.3500   0.3726   0.4453   0.4529   0.4644
     5.9012   6.0149   6.0585   6.1341   6.2610   6.2980   6.3108   6.3676
     6.4832   6.5169   6.5340   6.5422   6.5768   6.6356   6.6888   7.0600
     7.1457   7.1720   7.1823   7.2347   7.3214   7.3508   7.3758   7.4154
     7.4398   7.4642   7.4942   7.5203   7.5327   7.5647   7.5811   7.5994
     7.6386   7.6648   7.7067   7.7399   7.8081   7.8826   7.9175   8.0829
     8.1320   8.1675   8.3349   8.3949   8.5815   8.6186   8.6641   8.7952
     8.8839   8.9323   8.9708   9.0103   9.0599   9.0854   9.0997   9.1322
     9.1732   9.1830   9.2178   9.2305   9.2674   9.2756   9.3081   9.3225
     9.5686   9.6028   9.6993   9.7261   9.8273   9.8506   9.8696   9.9284
    12.2779  12.3347  12.3642  12.4277  12.4917  12.5590  13.1992  13.2260
    13.2518  13.2986  13.3143  13.3344  13.3667  13.3831  13.4609  13.5187
    13.5316  13.5424  13.6732  13.7458  13.7592  13.9398  13.9600  13.9931
    14.4467  14.4866  14.5078  14.5607  14.6921  15.0509  15.1658  15.2151

          k =-0.2500 0.2500-0.2500 ( 21167 PWs)   bands (ev):

   -46.7123 -46.7102 -46.6700 -46.6026 -46.5822 -46.4795 -46.3784 -46.2974
   -22.9740 -22.9610 -22.9502 -22.9380 -22.9325 -22.9302 -22.9252 -22.9098
   -22.8984 -22.8651 -22.8502 -22.8426 -22.8223 -22.8222 -22.8109 -22.7374
   -22.7172 -22.7092 -22.6528 -22.6282 -22.6238 -22.5877 -22.5512 -22.5420
   -14.9136 -14.8028 -14.6896 -14.6314 -14.6003 -14.5321 -14.5191 -14.4168
    -6.9719  -6.8894  -6.8132  -6.7056  -6.5904  -6.5207  -6.4749  -6.3495
    -6.2400  -6.1721  -6.0948  -6.0810  -6.0655  -6.0438  -6.0108  -5.9677
    -5.9544  -5.9353  -5.9051  -5.8748  -5.8311  -5.8201  -5.7850  -5.7442
    -0.4824  -0.4569  -0.2672  -0.1532  -0.1166  -0.0910  -0.0653  -0.0387
    -0.0141   0.0209   0.0428   0.0725   0.1250   0.1526   0.1771   0.2016
     0.2546   0.2936   0.3191   0.3418   0.3780   0.4383   0.4475   0.4777
     5.9049   6.0143   6.0618   6.1301   6.2598   6.2922   6.3120   6.3710
     6.4936   6.5093   6.5367   6.5536   6.5783   6.6112   6.6848   7.0626
     7.1463   7.1669   7.2062   7.2094   7.3035   7.3418   7.3887   7.4240
     7.4475   7.4698   7.4919   7.5102   7.5493   7.5781   7.5907   7.6189
     7.6342   7.6550   7.6823   7.7123   7.8185   7.8702   7.9235   8.0801
     8.1534   8.2094   8.3451   8.3585   8.5752   8.6088   8.6713   8.8504
     8.8750   8.9149   8.9510   8.9961   9.0487   9.0679   9.1177   9.1426
     9.1661   9.1882   9.2126   9.2332   9.2450   9.2795   9.3121   9.3508
     9.5772   9.5894   9.6983   9.7295   9.8231   9.8446   9.8723   9.9231
    12.2754  12.3401  12.3759  12.4276  12.4987  12.5697  13.1846  13.2094
    13.2409  13.2954  13.3124  13.3295  13.3757  13.3959  13.4545  13.5210
    13.5386  13.5494  13.6753  13.7460  13.7562  13.9378  13.9602  13.9917
    14.4294  14.4962  14.5104  14.5532  14.6876  15.0600  15.1746  15.2061

          k = 0.2500-0.2500-0.2500 ( 21167 PWs)   bands (ev):

   -46.7123 -46.7102 -46.6700 -46.6026 -46.5822 -46.4795 -46.3784 -46.2974
   -22.9740 -22.9611 -22.9502 -22.9380 -22.9325 -22.9301 -22.9252 -22.9098
   -22.8984 -22.8651 -22.8502 -22.8426 -22.8223 -22.8222 -22.8109 -22.7374
   -22.7172 -22.7092 -22.6528 -22.6282 -22.6238 -22.5877 -22.5512 -22.5420
   -14.9136 -14.8028 -14.6896 -14.6314 -14.6003 -14.5320 -14.5193 -14.4168
    -6.9720  -6.8902  -6.8115  -6.7072  -6.5930  -6.5197  -6.4694  -6.3549
    -6.2295  -6.1609  -6.1304  -6.0817  -6.0537  -6.0449  -6.0001  -5.9735
    -5.9575  -5.9368  -5.8991  -5.8716  -5.8401  -5.8151  -5.7799  -5.7485
    -0.4778  -0.4543  -0.2722  -0.1582  -0.1194  -0.1004  -0.0557  -0.0288
    -0.0184   0.0309   0.0434   0.0719   0.1173   0.1436   0.1646   0.2231
     0.2466   0.2983   0.3247   0.3418   0.3803   0.4169   0.4471   0.4923
     5.9001   6.0171   6.0636   6.1316   6.2542   6.2943   6.3136   6.3661
     6.4905   6.5215   6.5397   6.5569   6.5817   6.5936   6.6897   7.0502
     7.1456   7.1723   7.2001   7.2191   7.3232   7.3420   7.3782   7.4358
     7.4439   7.4712   7.4944   7.5077   7.5414   7.5748   7.5901   7.6109
     7.6474   7.6704   7.6786   7.7162   7.8082   7.8782   7.9118   8.0992
     8.1284   8.2036   8.3367   8.3736   8.5902   8.6060   8.6356   8.8330
     8.8895   8.9030   8.9474   8.9884   9.0453   9.0998   9.1365   9.1521
     9.1711   9.1987   9.2118   9.2298   9.2388   9.2745   9.3151   9.3331
     9.5791   9.5965   9.7013   9.7268   9.8111   9.8459   9.8695   9.9308
    12.2757  12.3452  12.3673  12.4312  12.4986  12.5612  13.1871  13.2094
    13.2444  13.3060  13.3131  13.3324  13.3601  13.4034  13.4518  13.5175
    13.5323  13.5554  13.6753  13.7469  13.7525  13.9347  13.9646  13.9948
    14.4444  14.4869  14.5005  14.5547  14.6928  15.0635  15.1555  15.2190

          k =-0.2500 0.2500 0.5000 ( 21192 PWs)   bands (ev):

   -46.7122 -46.7103 -46.6700 -46.6026 -46.5822 -46.4795 -46.3783 -46.2974
   -22.9718 -22.9522 -22.9482 -22.9456 -22.9373 -22.9308 -22.9252 -22.9085
   -22.8966 -22.8651 -22.8495 -22.8408 -22.8254 -22.8222 -22.8111 -22.7399
   -22.7173 -22.7092 -22.6528 -22.6260 -22.6225 -22.5878 -22.5544 -22.5424
   -14.9065 -14.8100 -14.6798 -14.6256 -14.6081 -14.5402 -14.5133 -14.4237
    -6.9410  -6.8533  -6.7068  -6.6500  -6.6318  -6.6104  -6.3861  -6.3406
    -6.2795  -6.2463  -6.1255  -6.0834  -6.0679  -6.0373  -6.0256  -5.9744
    -5.9528  -5.9357  -5.9116  -5.8756  -5.8599  -5.8339  -5.7802  -5.7604
    -0.3469  -0.3360  -0.3064  -0.2728  -0.1599  -0.1425  -0.0499  -0.0209
     0.0118   0.0425   0.0640   0.0788   0.0951   0.1064   0.1337   0.1711
     0.2083   0.2429   0.3333   0.3807   0.3983   0.4132   0.4744   0.4965
     5.9783   6.0378   6.1578   6.2275   6.2447   6.2709   6.4950   6.5311
     6.6983   6.7176   6.7539   6.7785   6.7974   6.8140   6.8830   6.8951
     6.9608   6.9969   7.0229   7.0474   7.1557   7.1821   7.3324   7.3509
     7.4072   7.4365   7.4598   7.4706   7.4950   7.5479   7.5880   7.6105
     7.6454   7.6595   7.7051   7.7340   7.8141   7.8310   7.9987   8.0119
     8.0505   8.0905   8.2681   8.2937   8.3236   8.3614   8.5961   8.6331
     8.8683   8.9340   8.9988   9.0293   9.0730   9.1041   9.1344   9.1542
     9.1781   9.2273   9.3077   9.3401   9.3631   9.4063   9.4298   9.4567
     9.4984   9.5223   9.5859   9.6117   9.6378   9.6499   9.8458   9.8592
    12.3600  12.4828  12.7317  12.7918  12.8060  12.8319  12.8863  12.9166
    12.9722  13.0865  13.2127  13.3141  13.3699  13.4301  13.4514  13.4710
    13.5382  13.5477  13.6402  13.6814  13.7402  13.7840  13.7906  13.9055
    14.4953  14.5630  14.9183  14.9450  14.9845  15.0428  15.3356  15.3591

          k =-0.5000-0.2500 0.2500 ( 21192 PWs)   bands (ev):

   -46.7123 -46.7102 -46.6700 -46.6026 -46.5822 -46.4795 -46.3784 -46.2974
   -22.9719 -22.9589 -22.9480 -22.9369 -22.9321 -22.9300 -22.9261 -22.9118
   -22.9004 -22.8684 -22.8502 -22.8426 -22.8223 -22.8210 -22.8110 -22.7374
   -22.7167 -22.7083 -22.6528 -22.6285 -22.6248 -22.5877 -22.5515 -22.5433
   -14.9112 -14.7991 -14.6858 -14.6358 -14.5946 -14.5348 -14.5264 -14.4195
    -6.9325  -6.8153  -6.7585  -6.6754  -6.6171  -6.5825  -6.4637  -6.3573
    -6.2729  -6.1730  -6.1043  -6.0655  -6.0606  -6.0447  -6.0289  -5.9750
    -5.9572  -5.9466  -5.9234  -5.8735  -5.8548  -5.8281  -5.8001  -5.7579
    -0.4016  -0.3507  -0.3056  -0.1433  -0.1274  -0.1105  -0.0785  -0.0578
    -0.0333   0.0090   0.0410   0.0656   0.1060   0.1163   0.1583   0.1729
     0.1941   0.2572   0.3441   0.3537   0.4191   0.4472   0.4661   0.4732
     6.0319   6.0409   6.1982   6.2146   6.2329   6.2941   6.4539   6.5080
     6.5423   6.5963   6.7185   6.7447   6.8340   6.8517   6.8620   6.9068
     6.9639   7.0009   7.0588   7.1317   7.1917   7.2819   7.3008   7.3271
     7.3923   7.4394   7.4704   7.4789   7.5083   7.5420   7.5795   7.6439
     7.6731   7.7101   7.7356   7.7640   7.7962   7.8388   7.8749   7.9661
     8.0998   8.1202   8.2147   8.2879   8.3519   8.3852   8.6063   8.6433
     8.8812   8.9728   8.9930   9.0278   9.0547   9.0722   9.1307   9.1565
     9.1834   9.2076   9.2539   9.3043   9.3263   9.4149   9.4492   9.4753
     9.5109   9.5454   9.5990   9.6449   9.6516   9.6794   9.7918   9.8757
    12.3762  12.3913  12.6655  12.7344  12.8138  12.8713  12.8836  12.9740
    13.0354  13.0814  13.3019  13.3132  13.3408  13.3756  13.4372  13.4936
    13.5219  13.5673  13.6318  13.6568  13.7413  13.7649  13.7774  13.9670
    14.4817  14.5243  14.9178  14.9408  14.9672  15.1030  15.3408  15.4006

          k = 0.5000-0.2500-0.2500 ( 21192 PWs)   bands (ev):

   -46.7123 -46.7102 -46.6700 -46.6026 -46.5822 -46.4795 -46.3784 -46.2974
   -22.9719 -22.9589 -22.9480 -22.9369 -22.9322 -22.9300 -22.9261 -22.9118
   -22.9004 -22.8684 -22.8502 -22.8426 -22.8223 -22.8210 -22.8110 -22.7374
   -22.7167 -22.7083 -22.6528 -22.6285 -22.6248 -22.5877 -22.5515 -22.5433
   -14.9112 -14.7991 -14.6858 -14.6358 -14.5947 -14.5345 -14.5267 -14.4195
    -6.9325  -6.8153  -6.7579  -6.6767  -6.6188  -6.5811  -6.4639  -6.3594
    -6.2592  -6.1624  -6.1406  -6.0734  -6.0546  -6.0376  -6.0113  -5.9762
    -5.9664  -5.9502  -5.9139  -5.8767  -5.8618  -5.8234  -5.7918  -5.7639
    -0.3908  -0.3548  -0.3036  -0.1448  -0.1304  -0.1214  -0.0941  -0.0476
    -0.0251  -0.0016   0.0484   0.0642   0.1075   0.1335   0.1563   0.1695
     0.2127   0.2371   0.3446   0.3509   0.4133   0.4351   0.4540   0.5021
     6.0348   6.0375   6.1944   6.2147   6.2342   6.2968   6.4553   6.5026
     6.5452   6.5937   6.7257   6.7388   6.8252   6.8570   6.8892   6.8980
     6.9703   7.0233   7.0489   7.1072   7.1738   7.2697   7.3232   7.3526
     7.3737   7.4463   7.4565   7.4846   7.4967   7.5299   7.5830   7.6578
     7.6757   7.6876   7.7453   7.7712   7.7914   7.8446   7.8859   7.9588
     8.0933   8.1321   8.2134   8.2894   8.3566   8.3873   8.5978   8.6272
     8.8862   8.9725   8.9971   9.0247   9.0611   9.0904   9.1277   9.1682
     9.1792   9.2129   9.2460   9.3034   9.3455   9.4130   9.4322   9.4476
     9.5047   9.5481   9.6025   9.6285   9.6505   9.6962   9.7976   9.8754
    12.3801  12.3958  12.6680  12.7333  12.8142  12.8700  12.8823  12.9721
    13.0368  13.0788  13.3108  13.3234  13.3379  13.3614  13.4368  13.4951
    13.5139  13.5670  13.6350  13.6545  13.7321  13.7732  13.7796  13.9685
    14.4805  14.5215  14.9186  14.9410  14.9695  15.1005  15.3430  15.3998

          k =-0.2500-0.5000 0.2500 ( 21192 PWs)   bands (ev):

   -46.7123 -46.7102 -46.6700 -46.6026 -46.5822 -46.4795 -46.3784 -46.2974
   -22.9739 -22.9611 -22.9500 -22.9375 -22.9322 -22.9294 -22.9225 -22.9090
   -22.8983 -22.8651 -22.8530 -22.8435 -22.8223 -22.8221 -22.8084 -22.7375
   -22.7190 -22.7102 -22.6538 -22.6282 -22.6238 -22.5885 -22.5512 -22.5420
   -14.9101 -14.7992 -14.6935 -14.6237 -14.6053 -14.5268 -14.5254 -14.4231
    -6.9485  -6.8416  -6.7134  -6.6885  -6.6046  -6.5816  -6.3963  -6.3462
    -6.3200  -6.1929  -6.1177  -6.0904  -6.0682  -6.0469  -6.0179  -5.9683
    -5.9607  -5.9484  -5.9268  -5.8809  -5.8439  -5.8346  -5.7758  -5.7558
    -0.3836  -0.3388  -0.3100  -0.1819  -0.1584  -0.1188  -0.0779  -0.0409
    -0.0175   0.0233   0.0552   0.0694   0.1114   0.1240   0.1461   0.1572
     0.2070   0.2476   0.3479   0.3722   0.3902   0.4408   0.4595   0.4909
     5.9463   6.0800   6.1502   6.1609   6.3152   6.3183   6.3724   6.6164
     6.6735   6.7002   6.7366   6.7693   6.8001   6.8396   6.8701   6.9167
     6.9478   7.0175   7.0380   7.0720   7.1446   7.2485   7.2984   7.3629
     7.3847   7.4060   7.4283   7.4715   7.5009   7.5397   7.5706   7.6166
     7.6410   7.6894   7.7086   7.7517   7.8137   7.8732   7.9731   8.0087
     8.0494   8.0918   8.2339   8.2580   8.3332   8.4181   8.5323   8.6539
     8.8707   8.9774   8.9926   9.0097   9.0536   9.1009   9.1429   9.1824
     9.1916   9.2244   9.2965   9.3231   9.3426   9.4192   9.4402   9.4593
     9.4717   9.4989   9.5618   9.6043   9.6813   9.7009   9.7864   9.9050
    12.2945  12.5364  12.6601  12.7227  12.8205  12.8395  12.8890  12.9411
    13.1045  13.2059  13.2369  13.2764  13.3478  13.3981  13.4576  13.5111
    13.5236  13.5412  13.5565  13.5974  13.6945  13.7834  13.8633  13.9400
    14.4605  14.6811  14.8032  14.8725  15.0677  15.1207  15.2244  15.5950

          k =-0.2500 0.5000-0.2500 ( 21192 PWs)   bands (ev):

   -46.7123 -46.7102 -46.6700 -46.6026 -46.5822 -46.4795 -46.3784 -46.2974
   -22.9740 -22.9610 -22.9500 -22.9375 -22.9322 -22.9295 -22.9225 -22.9090
   -22.8983 -22.8651 -22.8530 -22.8435 -22.8223 -22.8221 -22.8084 -22.7375
   -22.7190 -22.7102 -22.6538 -22.6282 -22.6238 -22.5885 -22.5512 -22.5420
   -14.9101 -14.7992 -14.6935 -14.6237 -14.6053 -14.5268 -14.5254 -14.4231
    -6.9484  -6.8415  -6.7135  -6.6888  -6.6037  -6.5827  -6.3874  -6.3584
    -6.3183  -6.1883  -6.1170  -6.0902  -6.0770  -6.0481  -6.0135  -5.9700
    -5.9578  -5.9420  -5.9327  -5.8810  -5.8513  -5.8217  -5.7782  -5.7585
    -0.3843  -0.3402  -0.3046  -0.1853  -0.1578  -0.1173  -0.0896  -0.0380
    -0.0240   0.0308   0.0584   0.0648   0.1180   0.1387   0.1436   0.1604
     0.2035   0.2390   0.3444   0.3750   0.3796   0.4465   0.4596   0.4934
     5.9497   6.0802   6.1486   6.1603   6.3072   6.3235   6.3708   6.6247
     6.6812   6.7015   6.7364   6.7618   6.8243   6.8423   6.8627   6.8970
     6.9362   7.0147   7.0457   7.0725   7.1375   7.2508   7.2947   7.3469
     7.3920   7.4024   7.4267   7.4748   7.4957   7.5396   7.5864   7.6192
     7.6547   7.6721   7.7120   7.7532   7.8380   7.8583   7.9674   8.0045
     8.0424   8.0862   8.2159   8.2680   8.3475   8.4191   8.5689   8.6411
     8.8980   8.9711   8.9858   9.0076   9.0569   9.1144   9.1396   9.1544
     9.1878   9.2223   9.2941   9.3213   9.3626   9.4060   9.4275   9.4506
     9.4655   9.5250   9.5520   9.6029   9.6807   9.6994   9.7900   9.9031
    12.3002  12.5480  12.6630  12.7191  12.8237  12.8361  12.8886  12.9407
    13.0990  13.2070  13.2341  13.2810  13.3415  13.3982  13.4453  13.5214
    13.5301  13.5386  13.5506  13.5976  13.6964  13.7853  13.8628  13.9380
    14.4557  14.6752  14.8048  14.8798  15.0750  15.1201  15.2173  15.5932

          k =-0.5000 0.2500 0.5000 ( 21180 PWs)   bands (ev):

   -46.7122 -46.7103 -46.6700 -46.6026 -46.5822 -46.4795 -46.3784 -46.2974
   -22.9684 -22.9512 -22.9467 -22.9444 -22.9363 -22.9308 -22.9260 -22.9110
   -22.8981 -22.8685 -22.8495 -22.8408 -22.8254 -22.8210 -22.8111 -22.7399
   -22.7167 -22.7083 -22.6528 -22.6269 -22.6229 -22.5878 -22.5545 -22.5439
   -14.9046 -14.8059 -14.6770 -14.6275 -14.6038 -14.5429 -14.5206 -14.4265
    -6.9042  -6.7987  -6.6836  -6.6495  -6.5673  -6.5381  -6.4543  -6.4255
    -6.3007  -6.2501  -6.1241  -6.0813  -6.0513  -6.0452  -6.0306  -5.9771
    -5.9706  -5.9510  -5.9326  -5.8837  -5.8743  -5.8320  -5.7968  -5.7724
    -0.3278  -0.2911  -0.2748  -0.2180  -0.1934  -0.1797  -0.0684  -0.0510
    -0.0284  -0.0153   0.0082   0.0268   0.0436   0.0698   0.1403   0.1661
     0.2783   0.3107   0.3617   0.3708   0.3980   0.4563   0.5004   0.5242
     6.1068   6.1874   6.1989   6.2204   6.3903   6.4790   6.5343   6.5676
     6.6978   6.7240   6.7317   6.7595   6.7977   6.8685   7.0122   7.0403
     7.0596   7.0813   7.1149   7.1310   7.1503   7.1789   7.2146   7.2703
     7.3091   7.3579   7.3736   7.3923   7.4908   7.5339   7.5939   7.6065
     7.6527   7.6910   7.7315   7.7371   7.7908   7.8521   7.8734   7.9022
     7.9260   7.9500   7.9855   8.0310   8.2385   8.2732   8.3038   8.3688
     8.9989   9.0298   9.0859   9.1265   9.1380   9.1544   9.2069   9.2271
     9.2466   9.2572   9.3018   9.3330   9.3993   9.4308   9.4605   9.5089
     9.5218   9.5404   9.5746   9.5887   9.6046   9.6175   9.6634   9.7082
    12.7341  12.7810  12.8094  12.8430  12.8710  12.8889  12.9303  12.9419
    13.0207  13.0393  13.1108  13.1690  13.2302  13.3597  13.3796  13.4229
    13.4614  13.4924  13.5605  13.6011  13.6104  13.6536  13.7219  13.7708
    14.8355  14.8410  14.8849  14.9462  15.6513  15.6702  15.7439  15.8190

          k =-0.5000 0.5000 0.2500 ( 21180 PWs)   bands (ev):

   -46.7123 -46.7102 -46.6700 -46.6026 -46.5822 -46.4795 -46.3784 -46.2974
   -22.9719 -22.9589 -22.9478 -22.9364 -22.9318 -22.9294 -22.9236 -22.9107
   -22.9004 -22.8684 -22.8530 -22.8435 -22.8222 -22.8210 -22.8085 -22.7375
   -22.7187 -22.7090 -22.6538 -22.6285 -22.6248 -22.5885 -22.5515 -22.5433
   -14.9079 -14.7958 -14.6897 -14.6279 -14.5982 -14.5353 -14.5278 -14.4260
    -6.9126  -6.7801  -6.6976  -6.6564  -6.5878  -6.4704  -6.4662  -6.4214
    -6.3730  -6.1833  -6.1174  -6.0852  -6.0698  -6.0563  -6.0341  -5.9765
    -5.9669  -5.9543  -5.9317  -5.8894  -5.8704  -5.8358  -5.7929  -5.7650
    -0.3291  -0.3118  -0.2818  -0.1849  -0.1493  -0.1389  -0.1156  -0.0897
    -0.0622  -0.0310   0.0041   0.0273   0.0509   0.1093   0.1418   0.1746
     0.2778   0.3102   0.3490   0.3906   0.4043   0.4464   0.4885   0.5260
     6.0847   6.1225   6.2128   6.3313   6.3591   6.5200   6.5470   6.5617
     6.5717   6.6895   6.7793   6.7835   6.8552   6.8725   6.9875   7.0160
     7.0429   7.0661   7.1126   7.1321   7.1643   7.2126   7.2359   7.2565
     7.3055   7.3652   7.3952   7.4062   7.5130   7.5400   7.5695   7.6316
     7.6652   7.6867   7.7035   7.7307   7.7493   7.7906   7.8247   7.9085
     7.9556   7.9768   8.0384   8.0702   8.2088   8.2570   8.3160   8.3502
     8.9825   9.0592   9.0948   9.1385   9.1546   9.1700   9.2077   9.2240
     9.2648   9.2858   9.3105   9.3271   9.3621   9.3783   9.4136   9.4398
     9.5073   9.5428   9.5873   9.5976   9.6205   9.6460   9.6890   9.7252
    12.6465  12.6815  12.8062  12.8750  12.8986  12.9141  12.9652  13.0277
    13.0769  13.0851  13.1131  13.2378  13.2931  13.3015  13.3556  13.3799
    13.3989  13.5021  13.5317  13.5374  13.5510  13.6299  13.7515  13.8490
    14.7211  14.8488  14.9399  15.1734  15.4889  15.5946  15.6617  15.7674

     the Fermi energy is    10.5094 ev

!    total energy              =   -5448.99954839 Ry
     estimated scf accuracy    <          3.9E-09 Ry
     smearing contrib. (-TS)   =       0.00000000 Ry
     internal energy E=F+TS    =   -5448.99954839 Ry

     The total energy is F=E-TS. E is the sum of the following terms:
     one-electron contribution =    -577.25531824 Ry
     hartree contribution      =     485.51935836 Ry
     xc contribution           =    -486.47216868 Ry
     ewald contribution        =   -1642.73357129 Ry
     one-center paw contrib.   =   -3228.05784853 Ry

     convergence has been achieved in  23 iterations

     negative rho (up, down):  9.809E-03 0.000E+00

     Forces acting on atoms (cartesian axes, Ry/au):

     atom    1 type  1   force =    -0.00929583    0.03317378    0.00454621
     atom    2 type  2   force =     0.02201606    0.01461333   -0.01578123
     atom    3 type  3   force =     0.00252897   -0.01223342    0.00317983
     atom    4 type  3   force =    -0.02252384   -0.01043004    0.00473477
     atom    5 type  3   force =    -0.00196603   -0.00152575   -0.01727267
     atom    6 type  1   force =    -0.01263148    0.01819161   -0.00054180
     atom    7 type  2   force =    -0.00895859   -0.01735434   -0.02040552
     atom    8 type  3   force =    -0.00349282   -0.02605048    0.00319333
     atom    9 type  3   force =    -0.00065638   -0.00349174    0.01475442
     atom   10 type  3   force =    -0.00483966   -0.00707600   -0.00526503
     atom   11 type  1   force =    -0.00044964    0.00029888    0.02486334
     atom   12 type  2   force =     0.02874983   -0.03208565   -0.00697309
     atom   13 type  3   force =    -0.01214477    0.00015315    0.00224836
     atom   14 type  3   force =    -0.01244715   -0.01614659    0.00855854
     atom   15 type  3   force =    -0.01677380    0.00745201   -0.00181975
     atom   16 type  1   force =     0.01040643   -0.01254936   -0.00076011
     atom   17 type  2   force =     0.05359437   -0.01928850    0.00188009
     atom   18 type  3   force =     0.00793183    0.03804103    0.02961809
     atom   19 type  3   force =     0.00392160   -0.00440747   -0.00786690
     atom   20 type  3   force =    -0.00661909   -0.00319927    0.00176704
     atom   21 type  1   force =     0.00898270    0.01400691   -0.00043702
     atom   22 type  2   force =     0.00021364    0.01578210   -0.00104957
     atom   23 type  3   force =     0.00205053    0.00065436    0.02298151
     atom   24 type  3   force =     0.01501969   -0.04300217   -0.00390165
     atom   25 type  3   force =     0.01355140    0.00922272   -0.01031507
     atom   26 type  1   force =     0.00649497    0.01734505    0.00921286
     atom   27 type  2   force =    -0.00799351   -0.00321771    0.01139186
     atom   28 type  3   force =    -0.02743843   -0.01187097    0.00220941
     atom   29 type  3   force =     0.01190693   -0.04410153   -0.01003717
     atom   30 type  3   force =     0.00130574    0.00711353   -0.00119815
     atom   31 type  1   force =     0.00754259    0.00955993    0.02634994
     atom   32 type  2   force =    -0.05506778    0.01272913   -0.00546118
     atom   33 type  3   force =     0.01988815    0.01240870   -0.00988525
     atom   34 type  3   force =     0.00658745    0.04671287   -0.00577613
     atom   35 type  3   force =     0.03146293   -0.00622422   -0.00165948
     atom   36 type  1   force =     0.00321133    0.00493505    0.00260905
     atom   37 type  2   force =    -0.05513913   -0.02874636   -0.02405907
     atom   38 type  3   force =    -0.00299983    0.01230059   -0.02168897
     atom   39 type  3   force =     0.00691384    0.02160436    0.00736556
     atom   40 type  3   force =    -0.00284325    0.00670249   -0.00930940

     Total force =     0.190455     Total SCF correction =     0.000149
     Message from routine punch:
     Nothing written, as per user request (disk_io='none')

     init_run     :     26.98s CPU     28.87s WALL (       1 calls)
     electrons    :   1469.17s CPU   1533.13s WALL (       1 calls)
     forces       :     16.39s CPU     17.17s WALL (       1 calls)

     Called by init_run:
     wfcinit      :     21.93s CPU     23.19s WALL (       1 calls)
     potinit      :      1.64s CPU      1.80s WALL (       1 calls)
     hinit0       :      1.82s CPU      1.93s WALL (       1 calls)

     Called by electrons:
     c_bands      :   1227.02s CPU   1270.88s WALL (      23 calls)
     sum_band     :    195.33s CPU    205.05s WALL (      23 calls)
     v_of_rho     :     18.27s CPU     20.37s WALL (      24 calls)
     newd         :     13.18s CPU     21.88s WALL (      24 calls)
     PAW_pot      :     11.49s CPU     11.52s WALL (      24 calls)
     mix_rho      :      2.41s CPU      2.42s WALL (      23 calls)

     Called by c_bands:
     init_us_2    :     35.15s CPU     35.35s WALL (     240 calls)
     cegterg      :   1054.29s CPU   1097.95s WALL (     115 calls)

     Called by *egterg:
     cdiaghg      :     23.94s CPU     23.96s WALL (     458 calls)
     h_psi        :    592.60s CPU    605.63s WALL (     463 calls)
     s_psi        :    114.05s CPU    114.07s WALL (     463 calls)
     g_psi        :      3.96s CPU      3.96s WALL (     343 calls)

     Called by h_psi:
     h_psi:calbec :    117.40s CPU    117.42s WALL (     463 calls)
     vloc_psi     :    357.04s CPU    357.80s WALL (     463 calls)
                                        0.00s GPU  (     463 calls)
     add_vuspsi   :    114.44s CPU    114.45s WALL (     463 calls)

     General routines
     calbec       :    177.11s CPU    177.16s WALL (     598 calls)
     fft          :      7.60s CPU      7.62s WALL (     321 calls)
     ffts         :      0.75s CPU      0.75s WALL (      47 calls)
     fftw         :    333.91s CPU    334.46s WALL (  118720 calls)
     interpolate  :      1.61s CPU      1.61s WALL (      24 calls)

     Parallel routines

     PWSCF        :  25m12.89s CPU  26m19.71s WALL


   This run was terminated on:  16:13:11  27Sep2026            

=------------------------------------------------------------------------------=
   JOB DONE.
=------------------------------------------------------------------------------=
