
     Program PWSCF v.7.5 starts on  4Oct2026 at 21:48:42 

     This program is part of the open-source Quantum ESPRESSO suite
     for quantum simulation of materials; please cite
         "P. Giannozzi et al., J. Phys.:Condens. Matter 21 395502 (2009);
         "P. Giannozzi et al., J. Phys.:Condens. Matter 29 465901 (2017);
         "P. Giannozzi et al., J. Chem. Phys. 152 154105 (2020);
          URL http://www.quantum-espresso.org", 
     in publications or presentations arising from this work. More details at
     http://www.quantum-espresso.org/quote

     Parallel version (MPI & OpenMP), running on       8 processor cores
     Number of MPI processes:                 8
     Threads/MPI process:                     1

     MPI processes distributed on     1 nodes
     77866 MiB available memory on the printing compute node when the environment starts

     Reading input from pw.in

     Current dimensions of program PWSCF are:
     Max number of different atomic species (ntypx) = 10
     Max number of k-points (npk) =  40000
     Max angular momentum in pseudopotentials (lmaxx) =  4
     Message from routine setup:
     using ibrav=0 with symmetry is DISCOURAGED, use correct ibrav instead

     K-points division:     npool     =       8
     Subspace diagonalization in iterative solution of the eigenvalue problem:
     a serial algorithm will be used


     G-vector sticks info
     --------------------
     sticks:   dense  smooth     PW     G-vecs:    dense   smooth      PW
     Sum        9555    4781   1301               496805   175711   25001

     Using Slab Decomposition



     bravais-lattice index     =            0
     lattice parameter (alat)  =      11.1882  a.u.
     unit-cell volume          =    2800.9888 (a.u.)^3
     number of atoms/cell      =           10
     number of atomic types    =            3
     number of electrons       =        88.00
     number of Kohn-Sham states=           53
     kinetic-energy cutoff     =      60.0000  Ry
     charge density cutoff     =     480.0000  Ry
     scf convergence threshold =      1.0E-09
     mixing beta               =       0.4000
     number of iterations used =            8  plain     mixing
     Exchange-correlation=  SLA  PW   PBX  PBC
                           (   1   4   3   4   0   0   0)

     celldm(1)=  11.188210  celldm(2)=   0.000000  celldm(3)=   0.000000
     celldm(4)=   0.000000  celldm(5)=   0.000000  celldm(6)=   0.000000

     crystal axes: (cart. coord. in units of alat)
               a(1) = (   1.000000  -0.000000  -0.000000 )  
               a(2) = (  -0.000000   2.000001   0.000000 )  
               a(3) = (  -0.000000   0.000000   0.999999 )  

     reciprocal axes: (cart. coord. in units 2 pi/alat)
               b(1) = (  1.000000  0.000000  0.000000 )  
               b(2) = (  0.000000  0.500000 -0.000000 )  
               b(3) = (  0.000000 -0.000000  1.000001 )  


     PseudoPot. # 1 for Cs read from file:
     /root/sssp/Cs_pbe_v1.uspp.F.UPF
     MD5 check sum: 3476d69cb178dfad3ffaa59df4e07ca4
     Pseudo is Ultrasoft + core correction, Zval =  9.0
     Generated by new atomic code, or converted to UPF format
     Using radial grid of  905 points,  6 beta functions with: 
                l(1) =   0
                l(2) =   0
                l(3) =   1
                l(4) =   1
                l(5) =   2
                l(6) =   2
     Q(r) pseudized with  6 coefficients,  rinner =    1.500   1.500   1.500
                                                       1.500   1.500

     PseudoPot. # 2 for Sn read from file:
     /root/sssp/Sn_pbe_v1.uspp.F.UPF
     MD5 check sum: 4cf58ce39ec5d5d420df3dd08604eb00
     Pseudo is Ultrasoft + core correction, Zval = 14.0
     Generated by new atomic code, or converted to UPF format
     Using radial grid of  891 points,  6 beta functions with: 
                l(1) =   0
                l(2) =   0
                l(3) =   1
                l(4) =   1
                l(5) =   2
                l(6) =   2
     Q(r) pseudized with  6 coefficients,  rinner =    1.200   1.200   1.200
                                                       1.200   1.200

     PseudoPot. # 3 for Br read from file:
     /root/sssp/br_pbe_v1.4.uspp.F.UPF
     MD5 check sum: d3ffb7b29f6225aa16fe06858fb2a80b
     Pseudo is Ultrasoft + core correction, Zval =  7.0
     Generated by new atomic code, or converted to UPF format
     Using radial grid of  879 points,  6 beta functions with: 
                l(1) =   0
                l(2) =   0
                l(3) =   1
                l(4) =   1
                l(5) =   2
                l(6) =   2
     Q(r) pseudized with  8 coefficients,  rinner =    1.100   1.100   1.100
                                                       1.100   1.100

     atomic species   valence    mass     pseudopotential
     Cs                9.00   132.90550     Cs( 1.00)
     Sn               14.00   118.71000     Sn( 1.00)
     Br                7.00    79.90400     Br( 1.00)

      8 Sym. Ops., with inversion, found



   Cartesian axes

     site n.     atom                  positions (alat units)
         1        Cs     tau(   1) = (   0.0000000   1.0000005   0.0000000  )
         2        Cs     tau(   2) = (  -0.0000000   2.0000010   0.0000000  )
         3        Sn     tau(   3) = (   0.4999999   0.5000367   0.4999992  )
         4        Sn     tau(   4) = (   0.4999999   1.4999637   0.4999992  )
         5        Br     tau(   5) = (  -0.0000000   0.4541473   0.4999993  )
         6        Br     tau(   6) = (  -0.0000000   1.5458539   0.4999993  )
         7        Br     tau(   7) = (   0.5000000   0.0000003   0.4999992  )
         8        Br     tau(   8) = (   0.5000000   1.0000009   0.4999992  )
         9        Br     tau(   9) = (   0.5000000   0.5459795   0.9999985  )
        10        Br     tau(  10) = (   0.4999999   1.4540216   0.9999985  )

     number of k points=    18  Marzari-Vanderbilt smearing, width (Ry)=  0.0050
                       cart. coord. in units 2pi/alat
        k(    1) = (   0.0000000   0.0000000   0.0000000), wk =   0.0266667
        k(    2) = (   0.0000000  -0.0000000   0.2000003), wk =   0.0533333
        k(    3) = (   0.0000000  -0.0000000   0.4000006), wk =   0.0533333
        k(    4) = (   0.0000000   0.1666666  -0.0000000), wk =   0.0533333
        k(    5) = (   0.0000000   0.1666666   0.2000003), wk =   0.1066667
        k(    6) = (   0.0000000   0.1666666   0.4000006), wk =   0.1066667
        k(    7) = (   0.2000000   0.0000000   0.0000000), wk =   0.0533333
        k(    8) = (   0.2000000   0.0000000   0.2000003), wk =   0.1066667
        k(    9) = (   0.2000000   0.0000000   0.4000006), wk =   0.1066667
        k(   10) = (   0.2000000   0.1666666   0.0000000), wk =   0.1066667
        k(   11) = (   0.2000000   0.1666666   0.2000003), wk =   0.2133333
        k(   12) = (   0.2000000   0.1666666   0.4000006), wk =   0.2133333
        k(   13) = (   0.4000000   0.0000000   0.0000000), wk =   0.0533333
        k(   14) = (   0.4000000   0.0000000   0.2000003), wk =   0.1066667
        k(   15) = (   0.4000000   0.0000000   0.4000006), wk =   0.1066667
        k(   16) = (   0.4000000   0.1666666   0.0000000), wk =   0.1066667
        k(   17) = (   0.4000000   0.1666666   0.2000003), wk =   0.2133333
        k(   18) = (   0.4000000   0.1666666   0.4000006), wk =   0.2133333

     Dense  grid:   496805 G-vectors     FFT dimensions: (  80, 160,  80)

     Smooth grid:   175711 G-vectors     FFT dimensions: (  60, 120,  60)

     Estimated max dynamical RAM per process >     636.74 MB

     Estimated total dynamical RAM >       4.15 GB

     Initial potential from superposition of free atoms

     starting charge      85.9210, renormalised to      88.0000
     Starting wfcs are   68 randomized atomic wfcs

     total cpu time spent up to now is       74.2 secs

     per-process dynamical memory:   345.9 Mb

     Self-consistent Calculation

     iteration #  1     ecut=    60.00 Ry     beta= 0.40
     Davidson diagonalization with overlap
     ethr =  1.00E-02,  avg # of iterations =  3.1

     Threshold (ethr) on eigenvalues was too large:
     Diagonalizing with lowered threshold

     Davidson diagonalization with overlap
     ethr =  4.92E-04,  avg # of iterations =  2.4

     total cpu time spent up to now is      237.7 secs

     total energy              =    -734.55399120 Ry
     estimated scf accuracy    <       0.41606613 Ry

     iteration #  2     ecut=    60.00 Ry     beta= 0.40
     Davidson diagonalization with overlap
     ethr =  4.73E-04,  avg # of iterations =  2.6

     total cpu time spent up to now is      320.3 secs

     total energy              =    -734.60209344 Ry
     estimated scf accuracy    <       0.03802623 Ry

     iteration #  3     ecut=    60.00 Ry     beta= 0.40
     Davidson diagonalization with overlap
     ethr =  4.32E-05,  avg # of iterations =  8.5

     total cpu time spent up to now is      414.4 secs

     total energy              =    -734.60556358 Ry
     estimated scf accuracy    <       0.00587842 Ry

     iteration #  4     ecut=    60.00 Ry     beta= 0.40
     Davidson diagonalization with overlap
     ethr =  6.68E-06,  avg # of iterations = 10.9

     total cpu time spent up to now is      521.4 secs

     total energy              =    -734.60616281 Ry
     estimated scf accuracy    <       0.00051444 Ry

     iteration #  5     ecut=    60.00 Ry     beta= 0.40
     Davidson diagonalization with overlap
     ethr =  5.85E-07,  avg # of iterations =  5.0

     total cpu time spent up to now is      596.2 secs

     total energy              =    -734.60624030 Ry
     estimated scf accuracy    <       0.00001253 Ry

     iteration #  6     ecut=    60.00 Ry     beta= 0.40
     Davidson diagonalization with overlap
     ethr =  1.42E-08,  avg # of iterations =  6.0

     total cpu time spent up to now is      713.9 secs

     total energy              =    -734.60625428 Ry
     estimated scf accuracy    <       0.00000134 Ry

     iteration #  7     ecut=    60.00 Ry     beta= 0.40
     Davidson diagonalization with overlap
     ethr =  1.52E-09,  avg # of iterations =  2.7

     total cpu time spent up to now is      818.0 secs

     total energy              =    -734.60625680 Ry
     estimated scf accuracy    <       0.00000027 Ry

     iteration #  8     ecut=    60.00 Ry     beta= 0.40
     Davidson diagonalization with overlap
     ethr =  3.10E-10,  avg # of iterations =  2.1

     total cpu time spent up to now is      873.5 secs

     total energy              =    -734.60625760 Ry
     estimated scf accuracy    <       0.00000005 Ry

     iteration #  9     ecut=    60.00 Ry     beta= 0.40
     Davidson diagonalization with overlap
     ethr =  5.73E-11,  avg # of iterations =  2.3

     total cpu time spent up to now is     1017.6 secs

     total energy              =    -734.60625784 Ry
     estimated scf accuracy    <       0.00000001 Ry

     iteration # 10     ecut=    60.00 Ry     beta= 0.40
     Davidson diagonalization with overlap
     ethr =  1.21E-11,  avg # of iterations =  4.0

     total cpu time spent up to now is     1122.4 secs

     End of self-consistent calculation

          k = 0.0000 0.0000 0.0000 ( 21959 PWs)   bands (ev):

   -18.1396 -18.1381 -18.1380 -18.1351 -18.1224 -18.1224 -18.1223 -18.1223
   -18.1215 -18.1215 -18.0873 -18.0862 -11.3028 -11.1590 -11.0195 -10.8553
   -10.8361 -10.8319  -4.8911  -4.8907  -4.8783  -4.8710  -4.8577  -4.8573
    -3.1811  -2.2309  -0.8635  -0.8476  -0.8476  -0.7411  -0.7410   0.6558
     1.0537   1.0539   1.1260   1.1613   1.2320   1.2321   1.2645   1.2646
     1.3814   1.4159   1.4160   2.2100   5.4241   6.4135   7.4268   7.5558
     7.8929   7.8934   8.0207   8.4899   8.4905

          k = 0.0000-0.0000 0.2000 ( 21957 PWs)   bands (ev):

   -18.1394 -18.1371 -18.1368 -18.1346 -18.1226 -18.1224 -18.1223 -18.1223
   -18.1215 -18.1215 -18.0869 -18.0859 -11.2698 -11.1303 -11.0195 -10.8841
   -10.8760 -10.8324  -4.8928  -4.8876  -4.8798  -4.8739  -4.8583  -4.8541
    -3.4706  -2.6801  -0.8530  -0.8207  -0.6982  -0.1546  -0.1284   0.5268
     0.9644   1.0349   1.0764   1.1578   1.2097   1.2143   1.2597   1.2809
     1.3329   1.3767   1.5911   2.3170   5.2930   6.7665   7.0869   7.5150
     7.7142   7.7667   7.8149   8.1342   8.3512

          k = 0.0000-0.0000 0.4000 ( 21988 PWs)   bands (ev):

   -18.1393 -18.1364 -18.1345 -18.1330 -18.1228 -18.1224 -18.1224 -18.1222
   -18.1216 -18.1216 -18.0864 -18.0853 -11.1944 -11.0546 -11.0159 -10.9680
   -10.9601 -10.8316  -4.8991  -4.8915  -4.8819  -4.8693  -4.8565  -4.8490
    -3.8089  -3.0948  -0.8042  -0.7745  -0.6216   0.3247   0.5846   0.7007
     0.9843   0.9898   1.0129   1.0314   1.1135   1.1533   1.2267   1.2719
     1.3247   1.6100   1.9147   2.7983   5.1182   5.4853   5.9184   7.6061
     7.6245   8.0259   8.2272   8.2925   8.2976

          k = 0.0000 0.1667-0.0000 ( 21971 PWs)   bands (ev):

   -18.1385 -18.1381 -18.1381 -18.1362 -18.1224 -18.1224 -18.1223 -18.1223
   -18.1215 -18.1215 -18.0871 -18.0864 -11.2786 -11.2140 -10.9589 -10.8837
   -10.8355 -10.8339  -4.8905  -4.8900  -4.8764  -4.8727  -4.8584  -4.8579
    -3.0255  -2.5984  -0.8295  -0.8294  -0.7622  -0.7620  -0.2880   0.4773
     1.0996   1.0998   1.1106   1.1129   1.1859   1.1861   1.2876   1.2876
     1.3939   1.3940   1.4332   1.7593   6.2655   6.6600   7.2935   7.6629
     7.8670   7.8890   7.9215   7.9221   8.1568

          k = 0.0000 0.1667 0.2000 ( 21977 PWs)   bands (ev):

   -18.1384 -18.1372 -18.1367 -18.1356 -18.1225 -18.1224 -18.1224 -18.1223
   -18.1215 -18.1215 -18.0867 -18.0861 -11.2470 -11.1848 -10.9633 -10.8998
   -10.8751 -10.8421  -4.8944  -4.8871  -4.8780  -4.8759  -4.8564  -4.8547
    -3.3284  -2.9551  -0.7995  -0.7232  -0.5257  -0.1954   0.0192   0.4658
     0.8391   1.0695   1.0770   1.1438   1.1855   1.2171   1.2708   1.2884
     1.3478   1.4155   1.5874   1.8485   6.1340   6.9188   7.1126   7.4022
     7.5597   7.7789   7.8131   8.0015   8.1139

          k = 0.0000 0.1667 0.4000 ( 21976 PWs)   bands (ev):

   -18.1384 -18.1369 -18.1344 -18.1336 -18.1227 -18.1225 -18.1224 -18.1223
   -18.1216 -18.1216 -18.0861 -18.0855 -11.1766 -11.1082 -10.9922 -10.9715
   -10.9286 -10.8474  -4.8988  -4.8876  -4.8815  -4.8732  -4.8570  -4.8494
    -3.6750  -3.3273  -0.7479  -0.6543  -0.3933   0.3747   0.4341   0.5173
     0.8300   1.0330   1.0620   1.0701   1.1026   1.1622   1.2632   1.2813
     1.3624   1.6100   1.8969   2.4132   5.5496   5.7183   6.1253   7.5289
     7.6265   7.8215   8.0046   8.1261   8.4198

          k = 0.2000 0.0000 0.0000 ( 21957 PWs)   bands (ev):

   -18.1394 -18.1371 -18.1368 -18.1346 -18.1226 -18.1224 -18.1223 -18.1223
   -18.1215 -18.1215 -18.0869 -18.0858 -11.2698 -11.1303 -11.0195 -10.8841
   -10.8758 -10.8325  -4.8932  -4.8871  -4.8794  -4.8744  -4.8578  -4.8546
    -3.4706  -2.6801  -0.8532  -0.8208  -0.6981  -0.1546  -0.1284   0.5270
     0.9645   1.0351   1.0764   1.1579   1.2094   1.2144   1.2598   1.2809
     1.3329   1.3766   1.5910   2.3171   5.2930   6.7665   7.0871   7.5152
     7.7143   7.7662   7.8149   8.1338   8.3512

          k = 0.2000 0.0000 0.2000 ( 21957 PWs)   bands (ev):

   -18.1389 -18.1359 -18.1359 -18.1344 -18.1226 -18.1225 -18.1223 -18.1223
   -18.1216 -18.1216 -18.0866 -18.0855 -11.2378 -11.1063 -11.0192 -10.9067
   -10.8898 -10.8562  -4.8946  -4.8939  -4.8854  -4.8733  -4.8577  -4.8566
    -3.7256  -3.0210  -0.8560  -0.4249  -0.2322  -0.0093   0.0958   0.5072
     0.7414   0.9394   1.0198   1.1669   1.1829   1.2593   1.2702   1.3636
     1.3674   1.4796   1.6728   2.4080   5.1539   6.8350   6.9996   7.0112
     7.2944   7.5149   7.9055   8.0103   8.2781

          k = 0.2000 0.0000 0.4000 ( 21981 PWs)   bands (ev):

   -18.1386 -18.1350 -18.1339 -18.1329 -18.1227 -18.1225 -18.1224 -18.1223
   -18.1217 -18.1217 -18.0860 -18.0851 -11.1631 -11.0436 -11.0153 -10.9684
   -10.9670 -10.8644  -4.9054  -4.8978  -4.8939  -4.8687  -4.8618  -4.8581
    -4.0396  -3.3855  -0.8039  -0.2320  -0.0634   0.3848   0.5318   0.6538
     0.7019   0.8899   0.9508   1.0785   1.1736   1.1867   1.3860   1.3874
     1.4736   1.6492   2.0527   2.8820   4.9666   5.3365   5.7844   6.7299
     7.1451   7.8910   8.1752   8.2963   8.4102

          k = 0.2000 0.1667 0.0000 ( 21977 PWs)   bands (ev):

   -18.1384 -18.1372 -18.1367 -18.1356 -18.1225 -18.1224 -18.1224 -18.1223
   -18.1215 -18.1215 -18.0868 -18.0860 -11.2471 -11.1847 -10.9634 -10.8997
   -10.8749 -10.8423  -4.8948  -4.8866  -4.8777  -4.8762  -4.8560  -4.8551
    -3.3283  -2.9552  -0.7996  -0.7231  -0.5260  -0.1953   0.0193   0.4659
     0.8394   1.0693   1.0772   1.1441   1.1852   1.2170   1.2709   1.2885
     1.3476   1.4155   1.5873   1.8486   6.1339   6.9188   7.1130   7.4023
     7.5601   7.7785   7.8127   8.0015   8.1368

          k = 0.2000 0.1667 0.2000 ( 21966 PWs)   bands (ev):

   -18.1378 -18.1359 -18.1359 -18.1355 -18.1225 -18.1224 -18.1224 -18.1224
   -18.1216 -18.1216 -18.0864 -18.0857 -11.2165 -11.1592 -10.9659 -10.9168
   -10.8865 -10.8709  -4.8955  -4.8951  -4.8828  -4.8777  -4.8554  -4.8550
    -3.5913  -3.2538  -0.5619  -0.4142  -0.2304  -0.0863   0.1971   0.4604
     0.7868   0.8594   1.0103   1.0499   1.2232   1.2434   1.3656   1.3861
     1.3971   1.5139   1.6539   1.8940   5.9916   6.8109   6.9920   7.0840
     7.2648   7.3852   7.7920   7.8108   8.1520

          k = 0.2000 0.1667 0.4000 ( 21971 PWs)   bands (ev):

   -18.1375 -18.1356 -18.1338 -18.1334 -18.1227 -18.1225 -18.1224 -18.1224
   -18.1217 -18.1217 -18.0859 -18.0853 -11.1474 -11.0913 -10.9914 -10.9733
   -10.9411 -10.8773  -4.9045  -4.8962  -4.8908  -4.8761  -4.8619  -4.8565
    -3.9107  -3.5923  -0.4784  -0.1842  -0.0935   0.4148   0.4714   0.5160
     0.6848   0.8426   0.8603   0.9968   1.2486   1.3224   1.3797   1.4056
     1.4960   1.6261   2.0408   2.4663   5.4040   5.5733   5.9789   6.7551
     7.0663   7.4526   7.9919   8.1614   8.5221

          k = 0.4000 0.0000 0.0000 ( 21988 PWs)   bands (ev):

   -18.1393 -18.1364 -18.1345 -18.1329 -18.1228 -18.1224 -18.1224 -18.1223
   -18.1216 -18.1216 -18.0864 -18.0852 -11.1945 -11.0546 -11.0158 -10.9678
   -10.9601 -10.8317  -4.8995  -4.8912  -4.8814  -4.8696  -4.8560  -4.8494
    -3.8089  -3.0949  -0.8044  -0.7746  -0.6215   0.3246   0.5848   0.7008
     0.9844   0.9898   1.0132   1.0315   1.1135   1.1532   1.2266   1.2719
     1.3246   1.6102   1.9146   2.7985   5.1180   5.4853   5.9182   7.6060
     7.6242   8.0253   8.2272   8.2918   8.2975

          k = 0.4000 0.0000 0.2000 ( 21981 PWs)   bands (ev):

   -18.1386 -18.1350 -18.1339 -18.1329 -18.1227 -18.1225 -18.1224 -18.1223
   -18.1217 -18.1217 -18.0861 -18.0850 -11.1633 -11.0436 -11.0152 -10.9682
   -10.9670 -10.8646  -4.9058  -4.8977  -4.8935  -4.8689  -4.8614  -4.8586
    -4.0396  -3.3856  -0.8039  -0.2321  -0.0635   0.3847   0.5321   0.6538
     0.7019   0.8900   0.9507   1.0785   1.1739   1.1867   1.3860   1.3873
     1.4736   1.6493   2.0527   2.8822   4.9665   5.3365   5.7842   6.7296
     7.1447   7.8910   8.1748   8.2961   8.4101

          k = 0.4000 0.0000 0.4000 ( 21986 PWs)   bands (ev):

   -18.1378 -18.1332 -18.1323 -18.1323 -18.1226 -18.1226 -18.1224 -18.1224
   -18.1219 -18.1217 -18.0855 -18.0847 -11.0851 -11.0166 -11.0130 -10.9872
   -10.9771 -10.9385  -4.9160  -4.9138  -4.9099  -4.8718  -4.8703  -4.8658
    -4.3358  -3.7213  -0.7389   0.4121   0.4868   0.5396   0.5448   0.5897
     0.7607   0.8973   0.9315   1.0302   1.0543   1.1069   1.5800   1.5989
     1.6671   1.6985   2.5935   3.3085   4.7460   5.0203   5.2547   5.5604
     5.6127   8.0456   8.1035   8.4098   8.5236

          k = 0.4000 0.1667 0.0000 ( 21976 PWs)   bands (ev):

   -18.1384 -18.1369 -18.1343 -18.1336 -18.1227 -18.1225 -18.1224 -18.1223
   -18.1216 -18.1216 -18.0863 -18.0854 -11.1769 -11.1079 -10.9924 -10.9714
   -10.9282 -10.8476  -4.8992  -4.8872  -4.8810  -4.8736  -4.8566  -4.8499
    -3.6749  -3.3275  -0.7480  -0.6542  -0.3937   0.3746   0.4343   0.5177
     0.8301   1.0330   1.0619   1.0704   1.1026   1.1622   1.2632   1.2811
     1.3623   1.6101   1.8969   2.4133   5.5496   5.7182   6.1251   7.5284
     7.6261   7.8213   8.0040   8.1262   8.4198

          k = 0.4000 0.1667 0.2000 ( 21971 PWs)   bands (ev):

   -18.1375 -18.1356 -18.1338 -18.1334 -18.1227 -18.1225 -18.1224 -18.1224
   -18.1217 -18.1217 -18.0859 -18.0852 -11.1477 -11.0911 -10.9915 -10.9732
   -10.9407 -10.8776  -4.9050  -4.8959  -4.8905  -4.8763  -4.8615  -4.8569
    -3.9106  -3.5924  -0.4783  -0.1843  -0.0937   0.4146   0.4715   0.5165
     0.6849   0.8426   0.8601   0.9970   1.2486   1.3225   1.3797   1.4055
     1.4959   1.6262   2.0410   2.4664   5.4041   5.5733   5.9786   6.7548
     7.0659   7.4525   7.9919   8.1614   8.5221

          k = 0.4000 0.1667 0.4000 ( 22003 PWs)   bands (ev):

   -18.1366 -18.1344 -18.1323 -18.1323 -18.1226 -18.1226 -18.1225 -18.1225
   -18.1219 -18.1218 -18.0854 -18.0848 -11.0750 -11.0481 -10.9943 -10.9888
   -10.9653 -10.9461  -4.9143  -4.9136  -4.8988  -4.8796  -4.8724  -4.8693
    -4.2102  -3.9102  -0.3544   0.3414   0.4457   0.5046   0.5665   0.5813
     0.6881   0.7320   0.8052   0.8855   1.2955   1.3207   1.5544   1.5683
     1.6267   1.6349   2.6372   2.8854   5.1277   5.2212   5.3535   5.5022
     5.9120   7.2448   8.1639   8.3514   8.6129

     the Fermi energy is     4.0220 ev

!    total energy              =    -734.60625798 Ry
     estimated scf accuracy    <          2.6E-10 Ry
     smearing contrib. (-TS)   =       0.00000000 Ry
     internal energy E=F+TS    =    -734.60625798 Ry

     The total energy is F=E-TS. E is the sum of the following terms:
     one-electron contribution =    -255.67909447 Ry
     hartree contribution      =     164.98343196 Ry
     xc contribution           =    -312.36637212 Ry
     ewald contribution        =    -331.54422336 Ry

     convergence has been achieved in  10 iterations

     Forces acting on atoms (cartesian axes, Ry/au):

     atom    1 type  1   force =     0.00000000    0.00000000    0.00000000
     atom    2 type  1   force =     0.00000000    0.00000000    0.00000000
     atom    3 type  2   force =    -0.00000000   -0.00002031    0.00000000
     atom    4 type  2   force =     0.00000000    0.00002031   -0.00000000
     atom    5 type  3   force =     0.00000000    0.00478246   -0.00000000
     atom    6 type  3   force =    -0.00000000   -0.00478246    0.00000000
     atom    7 type  3   force =     0.00000000    0.00000000    0.00000000
     atom    8 type  3   force =     0.00000000    0.00000000    0.00000000
     atom    9 type  3   force =    -0.00000000   -0.00479407    0.00000000
     atom   10 type  3   force =     0.00000000    0.00479407   -0.00000000

     Total force =     0.009577     Total SCF correction =     0.000016
     Message from routine punch:
     Nothing written, as per user request (disk_io='none')

     init_run     :     39.49s CPU     42.24s WALL (       1 calls)
     electrons    :   1009.42s CPU   1048.26s WALL (       1 calls)
     forces       :     26.83s CPU     28.01s WALL (       1 calls)

     Called by init_run:
     wfcinit      :      4.76s CPU      5.09s WALL (       1 calls)
     potinit      :     16.77s CPU     17.45s WALL (       1 calls)
     hinit0       :      2.72s CPU      2.89s WALL (       1 calls)

     Called by electrons:
     c_bands      :    685.08s CPU    693.70s WALL (      11 calls)
     sum_band     :    188.75s CPU    205.08s WALL (      11 calls)
     v_of_rho     :     21.60s CPU     24.89s WALL (      11 calls)
     newd         :    117.23s CPU    129.39s WALL (      11 calls)
     mix_rho      :      4.23s CPU      4.48s WALL (      11 calls)

     Called by c_bands:
     init_us_2    :     12.40s CPU     12.56s WALL (      72 calls)
     cegterg      :    255.33s CPU    262.99s WALL (      33 calls)

     Called by *egterg:
     cdiaghg      :      0.93s CPU      0.93s WALL (     171 calls)
     h_psi        :    186.16s CPU    189.70s WALL (     177 calls)
     s_psi        :     20.36s CPU     20.37s WALL (     177 calls)
     g_psi        :      1.00s CPU      1.00s WALL (     141 calls)

     Called by h_psi:
     h_psi:calbec :     20.84s CPU     20.87s WALL (     177 calls)
     vloc_psi     :    143.76s CPU    143.99s WALL (     177 calls)
                                        0.00s GPU  (     177 calls)
     add_vuspsi   :     19.92s CPU     19.93s WALL (     177 calls)

     General routines
     calbec       :     27.04s CPU     27.07s WALL (     222 calls)
     fft          :     10.32s CPU     10.40s WALL (     153 calls)
     ffts         :      1.23s CPU      1.25s WALL (      22 calls)
     fftw         :    114.84s CPU    114.99s WALL (   11249 calls)
     interpolate  :      1.98s CPU      2.02s WALL (      11 calls)

     Parallel routines

     PWSCF        :  18m33.61s CPU  19m16.62s WALL


   This run was terminated on:  22: 7:59   4Oct2026            

=------------------------------------------------------------------------------=
   JOB DONE.
=------------------------------------------------------------------------------=
