
     Program PWSCF v.7.5 starts on  3Oct2026 at 21:22:21 

     This program is part of the open-source Quantum ESPRESSO suite
     for quantum simulation of materials; please cite
         "P. Giannozzi et al., J. Phys.:Condens. Matter 21 395502 (2009);
         "P. Giannozzi et al., J. Phys.:Condens. Matter 29 465901 (2017);
         "P. Giannozzi et al., J. Chem. Phys. 152 154105 (2020);
          URL http://www.quantum-espresso.org", 
     in publications or presentations arising from this work. More details at
     http://www.quantum-espresso.org/quote

     Parallel version (MPI & OpenMP), running on       8 processor cores
     Number of MPI processes:                 8
     Threads/MPI process:                     1

     MPI processes distributed on     1 nodes
     8961 MiB available memory on the printing compute node when the environment starts

     Reading input from pw.in

     Current dimensions of program PWSCF are:
     Max number of different atomic species (ntypx) = 10
     Max number of k-points (npk) =  40000
     Max angular momentum in pseudopotentials (lmaxx) =  4
     Message from routine setup:
     using ibrav=0 with symmetry is DISCOURAGED, use correct ibrav instead

     K-points division:     npool     =       8
     Subspace diagonalization in iterative solution of the eigenvalue problem:
     a serial algorithm will be used


     G-vector sticks info
     --------------------
     sticks:   dense  smooth     PW     G-vecs:    dense   smooth      PW
     Sum        4777    2385    665               248439    87703   12797

     Using Slab Decomposition



     bravais-lattice index     =            0
     lattice parameter (alat)  =      11.1882  a.u.
     unit-cell volume          =    1400.4944 (a.u.)^3
     number of atoms/cell      =            5
     number of atomic types    =            3
     number of electrons       =        44.00
     number of Kohn-Sham states=           26
     kinetic-energy cutoff     =      60.0000  Ry
     charge density cutoff     =     480.0000  Ry
     scf convergence threshold =      5.0E-10
     mixing beta               =       0.4000
     number of iterations used =            8  plain     mixing
     Exchange-correlation=  SLA  PW   PBX  PBC
                           (   1   4   3   4   0   0   0)

     celldm(1)=  11.188210  celldm(2)=   0.000000  celldm(3)=   0.000000
     celldm(4)=   0.000000  celldm(5)=   0.000000  celldm(6)=   0.000000

     crystal axes: (cart. coord. in units of alat)
               a(1) = (   1.000000  -0.000000  -0.000000 )  
               a(2) = (  -0.000000   1.000001   0.000000 )  
               a(3) = (  -0.000000   0.000000   0.999999 )  

     reciprocal axes: (cart. coord. in units 2 pi/alat)
               b(1) = (  1.000000  0.000000  0.000000 )  
               b(2) = (  0.000000  0.999999 -0.000000 )  
               b(3) = (  0.000000 -0.000000  1.000001 )  


     PseudoPot. # 1 for Cs read from file:
     /root/sssp/Cs_pbe_v1.uspp.F.UPF
     MD5 check sum: 3476d69cb178dfad3ffaa59df4e07ca4
     Pseudo is Ultrasoft + core correction, Zval =  9.0
     Generated by new atomic code, or converted to UPF format
     Using radial grid of  905 points,  6 beta functions with: 
                l(1) =   0
                l(2) =   0
                l(3) =   1
                l(4) =   1
                l(5) =   2
                l(6) =   2
     Q(r) pseudized with  6 coefficients,  rinner =    1.500   1.500   1.500
                                                       1.500   1.500

     PseudoPot. # 2 for Sn read from file:
     /root/sssp/Sn_pbe_v1.uspp.F.UPF
     MD5 check sum: 4cf58ce39ec5d5d420df3dd08604eb00
     Pseudo is Ultrasoft + core correction, Zval = 14.0
     Generated by new atomic code, or converted to UPF format
     Using radial grid of  891 points,  6 beta functions with: 
                l(1) =   0
                l(2) =   0
                l(3) =   1
                l(4) =   1
                l(5) =   2
                l(6) =   2
     Q(r) pseudized with  6 coefficients,  rinner =    1.200   1.200   1.200
                                                       1.200   1.200

     PseudoPot. # 3 for Br read from file:
     /root/sssp/br_pbe_v1.4.uspp.F.UPF
     MD5 check sum: d3ffb7b29f6225aa16fe06858fb2a80b
     Pseudo is Ultrasoft + core correction, Zval =  7.0
     Generated by new atomic code, or converted to UPF format
     Using radial grid of  879 points,  6 beta functions with: 
                l(1) =   0
                l(2) =   0
                l(3) =   1
                l(4) =   1
                l(5) =   2
                l(6) =   2
     Q(r) pseudized with  8 coefficients,  rinner =    1.100   1.100   1.100
                                                       1.100   1.100

     atomic species   valence    mass     pseudopotential
     Cs                9.00   132.90550     Cs( 1.00)
     Sn               14.00   118.71000     Sn( 1.00)
     Br                7.00    79.90400     Br( 1.00)

      2 Sym. Ops. (no inversion) found



   Cartesian axes

     site n.     atom                  positions (alat units)
         1        Cs     tau(   1) = (   0.0037534   0.9962473  -0.0003500  )
         2        Sn     tau(   2) = (   0.5003162   0.4996837   0.4999712  )
         3        Br     tau(   3) = (  -0.0002777   0.5032533   0.5002982  )
         4        Br     tau(   4) = (   0.4967468   0.0002780   0.5002982  )
         5        Br     tau(   5) = (   0.4968179   0.5031822   1.0000244  )

     number of k points=    39  Marzari-Vanderbilt smearing, width (Ry)=  0.0050
                       cart. coord. in units 2pi/alat
        k(    1) = (   0.0000000   0.0000000   0.0000000), wk =   0.0160000
        k(    2) = (   0.0000000  -0.0000000   0.2000003), wk =   0.0320000
        k(    3) = (   0.0000000  -0.0000000   0.4000006), wk =   0.0320000
        k(    4) = (   0.0000000   0.1999999  -0.0000000), wk =   0.0640000
        k(    5) = (   0.0000000   0.1999999   0.2000003), wk =   0.0640000
        k(    6) = (   0.0000000   0.1999999   0.4000006), wk =   0.0640000
        k(    7) = (   0.0000000   0.3999998  -0.0000000), wk =   0.0640000
        k(    8) = (   0.0000000   0.3999998   0.2000003), wk =   0.0640000
        k(    9) = (   0.0000000   0.3999998   0.4000006), wk =   0.0640000
        k(   10) = (   0.2000000   0.1999999   0.0000000), wk =   0.0320000
        k(   11) = (   0.2000000   0.1999999   0.2000003), wk =   0.0640000
        k(   12) = (   0.2000000   0.1999999   0.4000006), wk =   0.0640000
        k(   13) = (   0.2000000   0.3999998   0.0000000), wk =   0.0640000
        k(   14) = (   0.2000000   0.3999998   0.2000003), wk =   0.0640000
        k(   15) = (   0.2000000   0.3999998   0.4000006), wk =   0.0640000
        k(   16) = (   0.4000000   0.3999998   0.0000000), wk =   0.0320000
        k(   17) = (   0.4000000   0.3999998   0.2000003), wk =   0.0640000
        k(   18) = (   0.4000000   0.3999998   0.4000006), wk =   0.0640000
        k(   19) = (  -0.0000000   0.1999999  -0.2000003), wk =   0.0640000
        k(   20) = (  -0.0000000   0.1999999  -0.4000006), wk =   0.0640000
        k(   21) = (  -0.0000000   0.3999998  -0.2000003), wk =   0.0640000
        k(   22) = (  -0.0000000   0.3999998  -0.4000006), wk =   0.0640000
        k(   23) = (  -0.2000000   0.1999999  -0.0000000), wk =   0.0320000
        k(   24) = (  -0.2000000   0.1999999  -0.2000003), wk =   0.0320000
        k(   25) = (   0.2000000  -0.1999999  -0.2000003), wk =   0.0320000
        k(   26) = (  -0.2000000   0.1999999  -0.4000006), wk =   0.0320000
        k(   27) = (   0.2000000  -0.1999999  -0.4000006), wk =   0.0320000
        k(   28) = (  -0.2000000   0.3999998  -0.0000000), wk =   0.0640000
        k(   29) = (  -0.2000000   0.3999998  -0.2000003), wk =   0.0640000
        k(   30) = (   0.2000000  -0.3999998  -0.2000003), wk =   0.0640000
        k(   31) = (  -0.4000000  -0.1999999  -0.2000003), wk =   0.0640000
        k(   32) = (  -0.2000000   0.3999998  -0.4000006), wk =   0.0640000
        k(   33) = (   0.2000000  -0.3999998  -0.4000006), wk =   0.0640000
        k(   34) = (  -0.4000000  -0.1999999  -0.4000006), wk =   0.0640000
        k(   35) = (  -0.4000000   0.3999998  -0.0000000), wk =   0.0320000
        k(   36) = (  -0.4000000   0.3999998  -0.2000003), wk =   0.0320000
        k(   37) = (   0.4000000  -0.3999998  -0.2000003), wk =   0.0320000
        k(   38) = (  -0.4000000   0.3999998  -0.4000006), wk =   0.0320000
        k(   39) = (   0.4000000  -0.3999998  -0.4000006), wk =   0.0320000

     Dense  grid:   248439 G-vectors     FFT dimensions: (  80,  80,  80)

     Smooth grid:    87703 G-vectors     FFT dimensions: (  60,  60,  60)

     Estimated max dynamical RAM per process >     292.29 MB

     Estimated total dynamical RAM >       1.87 GB

     Initial potential from superposition of free atoms

     starting charge      42.9605, renormalised to      44.0000
     Starting wfcs are   34 randomized atomic wfcs

     total cpu time spent up to now is        4.4 secs

     per-process dynamical memory:   171.3 Mb

     Self-consistent Calculation

     iteration #  1     ecut=    60.00 Ry     beta= 0.40
     Davidson diagonalization with overlap
     ethr =  1.00E-02,  avg # of iterations =  2.5

     Threshold (ethr) on eigenvalues was too large:
     Diagonalizing with lowered threshold

     Davidson diagonalization with overlap
     ethr =  4.89E-04,  avg # of iterations =  2.5

     total cpu time spent up to now is        9.5 secs

     total energy              =    -367.28025244 Ry
     estimated scf accuracy    <       0.20674096 Ry

     iteration #  2     ecut=    60.00 Ry     beta= 0.40
     Davidson diagonalization with overlap
     ethr =  4.70E-04,  avg # of iterations =  2.0

     total cpu time spent up to now is       12.4 secs

     total energy              =    -367.30386217 Ry
     estimated scf accuracy    <       0.01910359 Ry

     iteration #  3     ecut=    60.00 Ry     beta= 0.40
     Davidson diagonalization with overlap
     ethr =  4.34E-05,  avg # of iterations =  5.2

     total cpu time spent up to now is       15.7 secs

     total energy              =    -367.30560453 Ry
     estimated scf accuracy    <       0.00293846 Ry

     iteration #  4     ecut=    60.00 Ry     beta= 0.40
     Davidson diagonalization with overlap
     ethr =  6.68E-06,  avg # of iterations =  5.6

     total cpu time spent up to now is       19.3 secs

     total energy              =    -367.30591101 Ry
     estimated scf accuracy    <       0.00024812 Ry

     iteration #  5     ecut=    60.00 Ry     beta= 0.40
     Davidson diagonalization with overlap
     ethr =  5.64E-07,  avg # of iterations =  2.7

     total cpu time spent up to now is       22.2 secs

     total energy              =    -367.30594952 Ry
     estimated scf accuracy    <       0.00000642 Ry

     iteration #  6     ecut=    60.00 Ry     beta= 0.40
     Davidson diagonalization with overlap
     ethr =  1.46E-08,  avg # of iterations =  4.7

     total cpu time spent up to now is       25.7 secs

     total energy              =    -367.30595642 Ry
     estimated scf accuracy    <       0.00000067 Ry

     iteration #  7     ecut=    60.00 Ry     beta= 0.40
     Davidson diagonalization with overlap
     ethr =  1.53E-09,  avg # of iterations =  3.2

     total cpu time spent up to now is       29.9 secs

     total energy              =    -367.30595775 Ry
     estimated scf accuracy    <       0.00000012 Ry

     iteration #  8     ecut=    60.00 Ry     beta= 0.40
     Davidson diagonalization with overlap
     ethr =  2.80E-10,  avg # of iterations =  2.6

     total cpu time spent up to now is       33.8 secs

     total energy              =    -367.30595812 Ry
     estimated scf accuracy    <       0.00000003 Ry

     iteration #  9     ecut=    60.00 Ry     beta= 0.40
     Davidson diagonalization with overlap
     ethr =  6.45E-11,  avg # of iterations =  2.1

     total cpu time spent up to now is       37.4 secs

     End of self-consistent calculation

          k = 0.0000 0.0000 0.0000 ( 11067 PWs)   bands (ev):

   -18.1141 -18.1123 -18.1123 -18.0933 -18.0933 -18.0933 -11.3141 -10.8560
   -10.8558  -4.9022  -4.9021  -4.9020  -2.1808  -0.8869  -0.8868  -0.8866
     1.2481   1.2485   1.2489   1.3578   1.3579   1.3580   6.4075   7.5268
     7.5271   8.1650

          k = 0.0000-0.0000 0.2000 ( 10991 PWs)   bands (ev):

   -18.1138 -18.1123 -18.1107 -18.0934 -18.0934 -18.0933 -11.2804 -10.8978
   -10.8553  -4.8991  -4.8984  -4.8984  -2.6647  -0.8573  -0.8567  -0.1214
     1.1956   1.1987   1.2099   1.3156   1.3166   1.3799   6.7713   7.6095
     7.8028   7.8105

          k = 0.0000-0.0000 0.4000 ( 11004 PWs)   bands (ev):

   -18.1133 -18.1123 -18.1082 -18.0935 -18.0934 -18.0933 -11.2002 -10.9910
   -10.8543  -4.8942  -4.8926  -4.8925  -3.0959  -0.8051  -0.8046   0.5674
     1.0971   1.1008   1.1452   1.2666   1.2667   1.8836   5.8865   7.6117
     8.2653   8.3070

          k = 0.0000 0.2000-0.0000 ( 10991 PWs)   bands (ev):

   -18.1138 -18.1123 -18.1107 -18.0934 -18.0934 -18.0933 -11.2804 -10.8976
   -10.8554  -4.8991  -4.8984  -4.8984  -2.6648  -0.8570  -0.8568  -0.1215
     1.1969   1.1993   1.2085   1.3159   1.3163   1.3794   6.7713   7.6119
     7.8033   7.8111

          k = 0.0000 0.2000 0.2000 ( 10979 PWs)   bands (ev):

   -18.1135 -18.1115 -18.1099 -18.0934 -18.0934 -18.0934 -11.2483 -10.9128
   -10.8778  -4.9048  -4.8952  -4.8928  -3.0256  -0.8226  -0.4376   0.1063
     1.0017   1.1635   1.2560   1.2592   1.4129   1.4257   7.0344   7.3739
     7.5890   8.0274

          k = 0.0000 0.2000 0.4000 ( 10993 PWs)   bands (ev):

   -18.1131 -18.1112 -18.1076 -18.0935 -18.0934 -18.0933 -11.1707 -10.9919
   -10.8854  -4.9029  -4.8955  -4.8896  -3.4038  -0.7622  -0.2311   0.5028
     0.9368   1.0774   1.1866   1.2296   1.4230   2.0261   5.7453   7.2576
     7.8917   8.1307

          k = 0.0000 0.4000-0.0000 ( 11004 PWs)   bands (ev):

   -18.1133 -18.1123 -18.1082 -18.0935 -18.0934 -18.0933 -11.2003 -10.9908
   -10.8544  -4.8943  -4.8926  -4.8925  -3.0960  -0.8048  -0.8047   0.5674
     1.0990   1.1014   1.1431   1.2663   1.2665   1.8838   5.8862   7.6126
     8.2763   8.3037

          k = 0.0000 0.4000 0.2000 ( 10993 PWs)   bands (ev):

   -18.1131 -18.1113 -18.1076 -18.0934 -18.0934 -18.0934 -11.1708 -10.9917
   -10.8855  -4.9029  -4.8954  -4.8896  -3.4039  -0.7622  -0.2310   0.5028
     0.9370   1.0777   1.1863   1.2295   1.4229   2.0262   5.7451   7.2571
     7.8921   8.1310

          k = 0.0000 0.4000 0.4000 ( 10962 PWs)   bands (ev):

   -18.1129 -18.1102 -18.1061 -18.0935 -18.0934 -18.0932 -11.0959 -11.0017
   -10.9542  -4.9107  -4.9062  -4.8849  -3.7536  -0.6860   0.3920   0.5600
     0.9239   1.0358   1.0557   1.1349   1.6337   2.5972   5.4726   5.6120
     7.9623   8.3949

          k = 0.2000 0.2000 0.0000 ( 10979 PWs)   bands (ev):

   -18.1135 -18.1115 -18.1099 -18.0934 -18.0934 -18.0934 -11.2483 -10.9127
   -10.8779  -4.9050  -4.8951  -4.8928  -3.0256  -0.8223  -0.4382   0.1068
     1.0016   1.1638   1.2566   1.2585   1.4081   1.4302   7.0350   7.3665
     7.5994   8.0266

          k = 0.2000 0.2000 0.2000 ( 10978 PWs)   bands (ev):

   -18.1133 -18.1099 -18.1099 -18.0934 -18.0934 -18.0933 -11.2184 -10.9120
   -10.9119  -4.9053  -4.9051  -4.8866  -3.3289  -0.4020  -0.4011   0.2447
     0.9599   0.9601   1.3878   1.3958   1.4041   1.4196   7.1318   7.1981
     7.2002   7.7272

          k = 0.2000 0.2000 0.4000 ( 10967 PWs)   bands (ev):

   -18.1129 -18.1099 -18.1074 -18.0935 -18.0934 -18.0933 -11.1454 -10.9920
   -10.9105  -4.9074  -4.9058  -4.8908  -3.6741  -0.3364  -0.0798   0.4888
     0.7769   0.9559   1.3177   1.3819   1.4670   2.1206   5.6004   7.0085
     7.1749   8.0097

          k = 0.2000 0.4000 0.0000 ( 10993 PWs)   bands (ev):

   -18.1131 -18.1113 -18.1076 -18.0935 -18.0934 -18.0934 -11.1708 -10.9917
   -10.8855  -4.9030  -4.8954  -4.8896  -3.4039  -0.7619  -0.2313   0.5030
     0.9368   1.0776   1.1867   1.2289   1.4231   2.0264   5.7447   7.2585
     7.8925   8.1289

          k = 0.2000 0.4000 0.2000 ( 10967 PWs)   bands (ev):

   -18.1129 -18.1099 -18.1074 -18.0935 -18.0934 -18.0933 -11.1455 -10.9919
   -10.9106  -4.9075  -4.9057  -4.8907  -3.6742  -0.3358  -0.0805   0.4888
     0.7770   0.9559   1.3178   1.3815   1.4674   2.1208   5.5999   7.0126
     7.1706   8.0094

          k = 0.2000 0.4000 0.4000 ( 11024 PWs)   bands (ev):

   -18.1126 -18.1086 -18.1061 -18.0935 -18.0935 -18.0933 -11.0814 -11.0004
   -10.9662  -4.9170  -4.9146  -4.8980  -3.9992  -0.1575   0.4383   0.5611
     0.7079   0.8316   1.3637   1.3991   1.6372   2.6719   5.3169   5.4652
     6.9102   8.2752

          k = 0.4000 0.4000 0.0000 ( 10962 PWs)   bands (ev):

   -18.1129 -18.1102 -18.1061 -18.0935 -18.0934 -18.0932 -11.0960 -11.0016
   -10.9543  -4.9108  -4.9061  -4.8848  -3.7537  -0.6857   0.3919   0.5598
     0.9239   1.0360   1.0558   1.1344   1.6340   2.5975   5.4692   5.6152
     7.9608   8.3938

          k = 0.4000 0.4000 0.2000 ( 11024 PWs)   bands (ev):

   -18.1126 -18.1087 -18.1061 -18.0935 -18.0935 -18.0933 -11.0815 -11.0004
   -10.9662  -4.9172  -4.9146  -4.8979  -3.9993  -0.1573   0.4382   0.5608
     0.7080   0.8318   1.3636   1.3989   1.6376   2.6721   5.3137   5.4687
     6.9090   8.2750

          k = 0.4000 0.4000 0.4000 ( 10996 PWs)   bands (ev):

   -18.1120 -18.1061 -18.1061 -18.0936 -18.0936 -18.0935 -11.0450 -10.9985
   -10.9984  -4.9274  -4.9272  -4.9199  -4.3081   0.5050   0.5556   0.5559
     0.7107   0.7111   1.6163   1.6166   1.6581   3.1175   5.0653   5.0690
     5.4218   8.0452

          k =-0.0000 0.2000-0.2000 ( 10979 PWs)   bands (ev):

   -18.1135 -18.1115 -18.1099 -18.0934 -18.0934 -18.0934 -11.2483 -10.9128
   -10.8778  -4.9049  -4.8952  -4.8928  -3.0256  -0.8226  -0.4376   0.1063
     1.0017   1.1635   1.2560   1.2592   1.4122   1.4264   7.0344   7.3730
     7.5900   8.0270

          k =-0.0000 0.2000-0.4000 ( 10993 PWs)   bands (ev):

   -18.1131 -18.1112 -18.1076 -18.0935 -18.0934 -18.0933 -11.1707 -10.9919
   -10.8854  -4.9029  -4.8954  -4.8896  -3.4038  -0.7622  -0.2311   0.5028
     0.9368   1.0774   1.1866   1.2296   1.4230   2.0261   5.7452   7.2577
     7.8916   8.1307

          k =-0.0000 0.4000-0.2000 ( 10993 PWs)   bands (ev):

   -18.1131 -18.1113 -18.1076 -18.0934 -18.0934 -18.0934 -11.1708 -10.9917
   -10.8855  -4.9029  -4.8954  -4.8896  -3.4039  -0.7622  -0.2311   0.5029
     0.9370   1.0777   1.1863   1.2295   1.4229   2.0263   5.7450   7.2572
     7.8921   8.1310

          k =-0.0000 0.4000-0.4000 ( 10962 PWs)   bands (ev):

   -18.1129 -18.1102 -18.1061 -18.0935 -18.0934 -18.0932 -11.0959 -11.0017
   -10.9542  -4.9107  -4.9062  -4.8849  -3.7536  -0.6860   0.3920   0.5599
     0.9239   1.0358   1.0557   1.1349   1.6336   2.5972   5.4722   5.6124
     7.9623   8.3948

          k =-0.2000 0.2000-0.0000 ( 10979 PWs)   bands (ev):

   -18.1135 -18.1115 -18.1099 -18.0934 -18.0934 -18.0934 -11.2483 -10.9127
   -10.8779  -4.9048  -4.8951  -4.8929  -3.0258  -0.8223  -0.4374   0.1059
     1.0016   1.1638   1.2567   1.2589   1.4151   1.4229   7.0340   7.3773
     7.5879   8.0288

          k =-0.2000 0.2000-0.2000 ( 10978 PWs)   bands (ev):

   -18.1133 -18.1099 -18.1099 -18.0934 -18.0934 -18.0933 -11.2185 -10.9120
   -10.9119  -4.9052  -4.9051  -4.8866  -3.3290  -0.4015  -0.4012   0.2444
     0.9599   0.9600   1.3935   1.3964   1.4040   1.4134   7.1326   7.1988
     7.2010   7.7238

          k = 0.2000-0.2000-0.2000 ( 10978 PWs)   bands (ev):

   -18.1133 -18.1099 -18.1099 -18.0934 -18.0934 -18.0933 -11.2185 -10.9120
   -10.9119  -4.9052  -4.9051  -4.8867  -3.3290  -0.4014  -0.4012   0.2443
     0.9599   0.9599   1.3952   1.3965   1.4039   1.4117   7.1327   7.1991
     7.2010   7.7232

          k =-0.2000 0.2000-0.4000 ( 10967 PWs)   bands (ev):

   -18.1129 -18.1099 -18.1074 -18.0935 -18.0934 -18.0933 -11.1454 -10.9920
   -10.9105  -4.9074  -4.9057  -4.8908  -3.6742  -0.3355  -0.0807   0.4887
     0.7769   0.9561   1.3174   1.3817   1.4676   2.1202   5.6004   7.0150
     7.1682   8.0091

          k = 0.2000-0.2000-0.4000 ( 10967 PWs)   bands (ev):

   -18.1129 -18.1099 -18.1074 -18.0935 -18.0934 -18.0933 -11.1454 -10.9920
   -10.9105  -4.9074  -4.9057  -4.8909  -3.6742  -0.3355  -0.0806   0.4887
     0.7769   0.9561   1.3175   1.3817   1.4676   2.1201   5.6004   7.0150
     7.1681   8.0092

          k =-0.2000 0.4000-0.0000 ( 10993 PWs)   bands (ev):

   -18.1131 -18.1113 -18.1076 -18.0935 -18.0934 -18.0934 -11.1708 -10.9917
   -10.8855  -4.9029  -4.8955  -4.8896  -3.4040  -0.7619  -0.2311   0.5027
     0.9368   1.0776   1.1867   1.2291   1.4233   2.0260   5.7451   7.2579
     7.8925   8.1285

          k =-0.2000 0.4000-0.2000 ( 10967 PWs)   bands (ev):

   -18.1129 -18.1099 -18.1074 -18.0935 -18.0934 -18.0933 -11.1455 -10.9918
   -10.9106  -4.9074  -4.9057  -4.8908  -3.6742  -0.3358  -0.0803   0.4887
     0.7770   0.9559   1.3179   1.3815   1.4674   2.1204   5.6003   7.0126
     7.1701   8.0097

          k = 0.2000-0.4000-0.2000 ( 10967 PWs)   bands (ev):

   -18.1129 -18.1099 -18.1074 -18.0935 -18.0934 -18.0933 -11.1455 -10.9918
   -10.9106  -4.9074  -4.9057  -4.8908  -3.6742  -0.3358  -0.0803   0.4887
     0.7770   0.9559   1.3179   1.3815   1.4675   2.1203   5.6003   7.0132
     7.1694   8.0096

          k =-0.4000-0.2000-0.2000 ( 10967 PWs)   bands (ev):

   -18.1129 -18.1099 -18.1074 -18.0935 -18.0934 -18.0933 -11.1455 -10.9919
   -10.9106  -4.9075  -4.9057  -4.8907  -3.6742  -0.3357  -0.0806   0.4888
     0.7770   0.9559   1.3178   1.3815   1.4674   2.1207   5.5999   7.0132
     7.1700   8.0094

          k =-0.2000 0.4000-0.4000 ( 11024 PWs)   bands (ev):

   -18.1126 -18.1086 -18.1061 -18.0935 -18.0935 -18.0933 -11.0815 -11.0004
   -10.9661  -4.9170  -4.9145  -4.8981  -3.9993  -0.1574   0.4382   0.5608
     0.7080   0.8319   1.3637   1.3990   1.6373   2.6715   5.3165   5.4662
     6.9095   8.2753

          k = 0.2000-0.4000-0.4000 ( 11024 PWs)   bands (ev):

   -18.1126 -18.1086 -18.1061 -18.0935 -18.0935 -18.0933 -11.0815 -11.0004
   -10.9661  -4.9170  -4.9145  -4.8981  -3.9993  -0.1574   0.4382   0.5608
     0.7080   0.8319   1.3637   1.3990   1.6374   2.6714   5.3169   5.4659
     6.9095   8.2753

          k =-0.4000-0.2000-0.4000 ( 11024 PWs)   bands (ev):

   -18.1126 -18.1086 -18.1061 -18.0935 -18.0935 -18.0933 -11.0814 -11.0004
   -10.9661  -4.9170  -4.9146  -4.8980  -3.9992  -0.1575   0.4383   0.5611
     0.7080   0.8317   1.3637   1.3991   1.6372   2.6719   5.3166   5.4656
     6.9101   8.2749

          k =-0.4000 0.4000-0.0000 ( 10962 PWs)   bands (ev):

   -18.1129 -18.1102 -18.1061 -18.0935 -18.0934 -18.0932 -11.0960 -11.0015
   -10.9543  -4.9107  -4.9063  -4.8848  -3.7537  -0.6857   0.3918   0.5599
     0.9237   1.0360   1.0558   1.1346   1.6341   2.5971   5.4736   5.6109
     7.9607   8.3945

          k =-0.4000 0.4000-0.2000 ( 11024 PWs)   bands (ev):

   -18.1126 -18.1087 -18.1061 -18.0935 -18.0935 -18.0933 -11.0815 -11.0003
   -10.9662  -4.9170  -4.9147  -4.8980  -3.9993  -0.1573   0.4382   0.5609
     0.7079   0.8318   1.3636   1.3990   1.6377   2.6716   5.3179   5.4646
     6.9090   8.2754

          k = 0.4000-0.4000-0.2000 ( 11024 PWs)   bands (ev):

   -18.1126 -18.1087 -18.1061 -18.0935 -18.0935 -18.0933 -11.0815 -11.0003
   -10.9662  -4.9170  -4.9147  -4.8980  -3.9993  -0.1573   0.4382   0.5609
     0.7079   0.8318   1.3636   1.3990   1.6377   2.6715   5.3179   5.4647
     6.9089   8.2755

          k =-0.4000 0.4000-0.4000 ( 10996 PWs)   bands (ev):

   -18.1120 -18.1061 -18.1061 -18.0936 -18.0936 -18.0935 -11.0451 -10.9985
   -10.9983  -4.9273  -4.9272  -4.9199  -4.3081   0.5049   0.5555   0.5558
     0.7110   0.7111   1.6160   1.6167   1.6584   3.1169   5.0674   5.0692
     5.4197   8.0456

          k = 0.4000-0.4000-0.4000 ( 10996 PWs)   bands (ev):

   -18.1120 -18.1061 -18.1061 -18.0936 -18.0936 -18.0935 -11.0451 -10.9985
   -10.9983  -4.9273  -4.9272  -4.9199  -4.3081   0.5049   0.5555   0.5557
     0.7111   0.7112   1.6160   1.6166   1.6585   3.1167   5.0678   5.0692
     5.4193   8.0457

     the Fermi energy is     3.8496 ev

!    total energy              =    -367.30595831 Ry
     estimated scf accuracy    <          1.3E-10 Ry
     smearing contrib. (-TS)   =       0.00000000 Ry
     internal energy E=F+TS    =    -367.30595831 Ry

     The total energy is F=E-TS. E is the sum of the following terms:
     one-electron contribution =    -128.15702816 Ry
     hartree contribution      =      82.64485576 Ry
     xc contribution           =    -156.18251898 Ry
     ewald contribution        =    -165.61126693 Ry

     convergence has been achieved in   9 iterations

     Forces acting on atoms (cartesian axes, Ry/au):

     atom    1 type  1   force =     0.00001087   -0.00001087   -0.00000079
     atom    2 type  2   force =    -0.00031876    0.00031876    0.00002923
     atom    3 type  3   force =    -0.00027207   -0.00029163   -0.00002677
     atom    4 type  3   force =     0.00029163    0.00027207   -0.00002677
     atom    5 type  3   force =     0.00028832   -0.00028832    0.00002511

     Total force =     0.000831     Total SCF correction =     0.000004
     Message from routine punch:
     Nothing written, as per user request (disk_io='none')

     init_run     :      3.86s CPU      4.01s WALL (       1 calls)
     electrons    :     31.14s CPU     33.05s WALL (       1 calls)
     forces       :      1.15s CPU      1.37s WALL (       1 calls)

     Called by init_run:
     wfcinit      :      1.14s CPU      1.15s WALL (       1 calls)
     potinit      :      0.69s CPU      0.74s WALL (       1 calls)
     hinit0       :      1.67s CPU      1.69s WALL (       1 calls)

     Called by electrons:
     c_bands      :     19.76s CPU     19.94s WALL (      10 calls)
     sum_band     :      6.14s CPU      7.04s WALL (      10 calls)
     v_of_rho     :      2.40s CPU      2.63s WALL (      10 calls)
     newd         :      2.89s CPU      3.56s WALL (      10 calls)
     mix_rho      :      0.18s CPU      0.19s WALL (      10 calls)

     Called by c_bands:
     init_us_2    :      0.95s CPU      0.97s WALL (     110 calls)
     cegterg      :     16.26s CPU     16.42s WALL (      50 calls)

     Called by *egterg:
     cdiaghg      :      0.19s CPU      0.19s WALL (     247 calls)
     h_psi        :     12.76s CPU     12.84s WALL (     257 calls)
     s_psi        :      1.15s CPU      1.16s WALL (     257 calls)
     g_psi        :      0.18s CPU      0.18s WALL (     202 calls)

     Called by h_psi:
     h_psi:calbec :      1.17s CPU      1.17s WALL (     257 calls)
     vloc_psi     :     10.41s CPU     10.47s WALL (     257 calls)
                                        0.00s GPU  (     257 calls)
     add_vuspsi   :      1.11s CPU      1.11s WALL (     257 calls)

     General routines
     calbec       :      1.72s CPU      1.72s WALL (     327 calls)
     fft          :      1.46s CPU      1.47s WALL (     140 calls)
     ffts         :      0.39s CPU      0.39s WALL (      20 calls)
     fftw         :     10.38s CPU     10.42s WALL (    8572 calls)
     interpolate  :      0.46s CPU      0.46s WALL (      10 calls)

     Parallel routines

     PWSCF        :     36.54s CPU     38.85s WALL


   This run was terminated on:  21:23: 0   3Oct2026            

=------------------------------------------------------------------------------=
   JOB DONE.
=------------------------------------------------------------------------------=
