
     Program PWSCF v.7.5 starts on  5Oct2026 at  3:32:28 

     This program is part of the open-source Quantum ESPRESSO suite
     for quantum simulation of materials; please cite
         "P. Giannozzi et al., J. Phys.:Condens. Matter 21 395502 (2009);
         "P. Giannozzi et al., J. Phys.:Condens. Matter 29 465901 (2017);
         "P. Giannozzi et al., J. Chem. Phys. 152 154105 (2020);
          URL http://www.quantum-espresso.org", 
     in publications or presentations arising from this work. More details at
     http://www.quantum-espresso.org/quote

     Parallel version (MPI & OpenMP), running on       8 processor cores
     Number of MPI processes:                 8
     Threads/MPI process:                     1

     MPI processes distributed on     1 nodes
     111073 MiB available memory on the printing compute node when the environment starts

     Reading input from pw.in

     Current dimensions of program PWSCF are:
     Max number of different atomic species (ntypx) = 10
     Max number of k-points (npk) =  40000
     Max angular momentum in pseudopotentials (lmaxx) =  4
     file K.pbe-spn-kjpaw_psl.1.0.0.UPF: wavefunction(s)  3S renormalized
     file Nb.pbe-spn-kjpaw_psl.0.3.0.UPF: wavefunction(s)  4S 4P renormalized
     file O.pbe-n-kjpaw_psl.0.1.UPF: wavefunction(s)  2P renormalized
     Message from routine setup:
     using ibrav=0 with symmetry is DISCOURAGED, use correct ibrav instead

     K-points division:     npool     =       2
     R & G space division:  proc/nbgrp/npool/nimage =       4
     Subspace diagonalization in iterative solution of the eigenvalue problem:
     a serial algorithm will be used


     Parallelization info
     --------------------
     sticks:   dense  smooth     PW     G-vecs:    dense   smooth      PW
     Min        1458     730    201                59222    20959    3084
     Max        1460     732    202                59223    20960    3085
     Sum        5837    2925    805               236889    83839   12339

     Using Slab Decomposition



     bravais-lattice index     =            0
     lattice parameter (alat)  =      10.8414  a.u.
     unit-cell volume          =     901.0287 (a.u.)^3
     number of atoms/cell      =           10
     number of atomic types    =            3
     number of electrons       =        80.00
     number of Kohn-Sham states=           48
     kinetic-energy cutoff     =      78.0000  Ry
     charge density cutoff     =     624.0000  Ry
     scf convergence threshold =      1.0E-09
     mixing beta               =       0.4000
     number of iterations used =            8  plain     mixing
     Exchange-correlation= SLA  PW   PBX  PBC
                           (   1   4   3   4   0   0   0)

     celldm(1)=  10.841379  celldm(2)=   0.000000  celldm(3)=   0.000000
     celldm(4)=   0.000000  celldm(5)=   0.000000  celldm(6)=   0.000000

     crystal axes: (cart. coord. in units of alat)
               a(1) = (   0.000000  -0.707107  -0.707107 )  
               a(2) = (   0.000000  -0.707107   0.707107 )  
               a(3) = (  -0.707107   0.000000   0.000000 )  

     reciprocal axes: (cart. coord. in units 2 pi/alat)
               b(1) = ( -0.000000 -0.707107 -0.707107 )  
               b(2) = (  0.000000 -0.707107  0.707107 )  
               b(3) = ( -1.414214 -0.000000  0.000000 )  


     PseudoPot. # 1 for K  read from file:
     /root/sssp/K.pbe-spn-kjpaw_psl.1.0.0.UPF
     MD5 check sum: 7d58810084cac21f60fbe77ea2b688fd
     Pseudo is Projector augmented-wave + core cor, Zval =  9.0
     Generated using "atomic" code by A. Dal Corso  v.5.1
     Shape of augmentation charge: PSQ
     Using radial grid of 1165 points,  6 beta functions with: 
                l(1) =   0
                l(2) =   0
                l(3) =   1
                l(4) =   1
                l(5) =   2
                l(6) =   2
     Q(r) pseudized with 0 coefficients 


     PseudoPot. # 2 for Nb read from file:
     /root/sssp/Nb.pbe-spn-kjpaw_psl.0.3.0.UPF
     MD5 check sum: 411d72ad547312f8017e2943ceca08cc
     Pseudo is Projector augmented-wave + core cor, Zval = 13.0
     Generated using "atomic" code by A. Dal Corso  v.5.0.99 svn rev. 10869
     Shape of augmentation charge: PSQ
     Using radial grid of 1227 points,  6 beta functions with: 
                l(1) =   0
                l(2) =   0
                l(3) =   1
                l(4) =   1
                l(5) =   2
                l(6) =   2
     Q(r) pseudized with 0 coefficients 


     PseudoPot. # 3 for O  read from file:
     /root/sssp/O.pbe-n-kjpaw_psl.0.1.UPF
     MD5 check sum: 0234752ac141de4415c5fc33072bef88
     Pseudo is Projector augmented-wave + core cor, Zval =  6.0
     Generated using "atomic" code by A. Dal Corso  v.5.0.99 svn rev. 10869
     Shape of augmentation charge: BESSEL
     Using radial grid of 1095 points,  4 beta functions with: 
                l(1) =   0
                l(2) =   0
                l(3) =   1
                l(4) =   1
     Q(r) pseudized with 0 coefficients 


     atomic species   valence    mass     pseudopotential
     K                 9.00    39.09830     K ( 1.00)
     Nb               13.00    92.90640     Nb( 1.00)
     O                 6.00    15.99900     O ( 1.00)

     16 Sym. Ops., with inversion, found ( 8 have fractional translation)



   Cartesian axes

     site n.     atom                  positions (alat units)
         1        K      tau(   1) = (  -0.7071068  -0.7071068   0.0000000  )
         2        K      tau(   2) = (   0.0000000   0.0000000   0.0000000  )
         3        Nb     tau(   3) = (  -0.4155291  -0.3535534  -0.3535534  )
         4        Nb     tau(   4) = (  -0.2915776  -0.3535534   0.3535534  )
         5        O      tau(   5) = (  -0.6670829  -0.3535534  -0.3535534  )
         6        O      tau(   6) = (  -0.0400239  -0.3535534   0.3535534  )
         7        O      tau(   7) = (  -0.3535534  -0.7071068   0.3535534  )
         8        O      tau(   8) = (  -0.3535534  -0.7071068  -0.3535534  )
         9        O      tau(   9) = (  -0.3535534  -1.0606602   0.0000000  )
        10        O      tau(  10) = (  -0.3535534  -0.3535534   0.0000000  )

     number of k points=    24  Marzari-Vanderbilt smearing, width (Ry)=  0.0050
                       cart. coord. in units 2pi/alat
        k(    1) = (   0.0000000  -0.0000000   0.0000000), wk =   0.0114286
        k(    2) = (  -0.2020305  -0.0000000   0.0000000), wk =   0.0228571
        k(    3) = (  -0.4040610  -0.0000000   0.0000000), wk =   0.0228571
        k(    4) = (  -0.6060915  -0.0000000   0.0000000), wk =   0.0228571
        k(    5) = (   0.0000000  -0.1414214   0.1414214), wk =   0.0457143
        k(    6) = (  -0.2020305  -0.1414214   0.1414214), wk =   0.0914286
        k(    7) = (  -0.4040610  -0.1414214   0.1414214), wk =   0.0914286
        k(    8) = (  -0.6060915  -0.1414214   0.1414214), wk =   0.0914286
        k(    9) = (   0.0000000  -0.2828427   0.2828427), wk =   0.0457143
        k(   10) = (  -0.2020305  -0.2828427   0.2828427), wk =   0.0914286
        k(   11) = (  -0.4040610  -0.2828427   0.2828427), wk =   0.0914286
        k(   12) = (  -0.6060915  -0.2828427   0.2828427), wk =   0.0914286
        k(   13) = (   0.0000000  -0.2828427   0.0000000), wk =   0.0457143
        k(   14) = (  -0.2020305  -0.2828427   0.0000000), wk =   0.0914286
        k(   15) = (  -0.4040610  -0.2828427   0.0000000), wk =   0.0914286
        k(   16) = (  -0.6060915  -0.2828427   0.0000000), wk =   0.0914286
        k(   17) = (   0.0000000  -0.4242641   0.1414214), wk =   0.0914286
        k(   18) = (  -0.2020305  -0.4242641   0.1414214), wk =   0.1828571
        k(   19) = (  -0.4040610  -0.4242641   0.1414214), wk =   0.1828571
        k(   20) = (  -0.6060915  -0.4242641   0.1414214), wk =   0.1828571
        k(   21) = (   0.0000000  -0.5656854   0.0000000), wk =   0.0457143
        k(   22) = (  -0.2020305  -0.5656854   0.0000000), wk =   0.0914286
        k(   23) = (  -0.4040610  -0.5656854   0.0000000), wk =   0.0914286
        k(   24) = (  -0.6060915  -0.5656854   0.0000000), wk =   0.0914286

     Dense  grid:   236889 G-vectors     FFT dimensions: (  90,  90,  64)

     Smooth grid:    83839 G-vectors     FFT dimensions: (  64,  64,  45)

     Estimated max dynamical RAM per process >     164.35 MB

     Estimated total dynamical RAM >       1.23 GB

     Check: negative core charge=   -0.000001

     Initial potential from superposition of free atoms

     starting charge      79.9581, renormalised to      80.0000
     Starting wfcs are   60 randomized atomic wfcs
     Checking if some PAW data can be deallocated... 

     total cpu time spent up to now is        5.5 secs

     per-process dynamical memory:    82.3 Mb

     Self-consistent Calculation

     iteration #  1     ecut=    78.00 Ry     beta= 0.40
     Davidson diagonalization with overlap
     ethr =  1.00E-02,  avg # of iterations =  2.0

     total cpu time spent up to now is       14.7 secs

     total energy              =   -1143.67829252 Ry
     estimated scf accuracy    <       4.30702671 Ry

     iteration #  2     ecut=    78.00 Ry     beta= 0.40
     Davidson diagonalization with overlap
     ethr =  5.38E-03,  avg # of iterations =  3.8
     Minimization algorithm failed to find Fermi energy: reverting to bisection
     Possible cause: smearing is larger than the electronic band-gap.

     total cpu time spent up to now is       23.5 secs

     total energy              =   -1144.81868376 Ry
     estimated scf accuracy    <       0.76415890 Ry

     iteration #  3     ecut=    78.00 Ry     beta= 0.40
     Davidson diagonalization with overlap
     ethr =  9.55E-04,  avg # of iterations =  3.3

     total cpu time spent up to now is       31.9 secs

     total energy              =   -1144.96951327 Ry
     estimated scf accuracy    <       0.05267991 Ry

     iteration #  4     ecut=    78.00 Ry     beta= 0.40
     Davidson diagonalization with overlap
     ethr =  6.58E-05,  avg # of iterations =  7.0

     total cpu time spent up to now is       41.2 secs

     total energy              =   -1144.97201150 Ry
     estimated scf accuracy    <       0.01348697 Ry

     iteration #  5     ecut=    78.00 Ry     beta= 0.40
     Davidson diagonalization with overlap
     ethr =  1.69E-05,  avg # of iterations =  3.5

     total cpu time spent up to now is       50.7 secs

     total energy              =   -1144.97362695 Ry
     estimated scf accuracy    <       0.00074424 Ry

     iteration #  6     ecut=    78.00 Ry     beta= 0.40
     Davidson diagonalization with overlap
     ethr =  9.30E-07,  avg # of iterations =  6.5

     total cpu time spent up to now is       60.2 secs

     total energy              =   -1144.97372712 Ry
     estimated scf accuracy    <       0.00017215 Ry

     iteration #  7     ecut=    78.00 Ry     beta= 0.40
     Davidson diagonalization with overlap
     ethr =  2.15E-07,  avg # of iterations =  3.8

     total cpu time spent up to now is       69.8 secs

     total energy              =   -1144.97377721 Ry
     estimated scf accuracy    <       0.00005722 Ry

     iteration #  8     ecut=    78.00 Ry     beta= 0.40
     Davidson diagonalization with overlap
     ethr =  7.15E-08,  avg # of iterations =  2.9

     total cpu time spent up to now is       77.4 secs

     total energy              =   -1144.97378912 Ry
     estimated scf accuracy    <       0.00000160 Ry

     iteration #  9     ecut=    78.00 Ry     beta= 0.40
     Davidson diagonalization with overlap
     ethr =  2.00E-09,  avg # of iterations =  4.1

     total cpu time spent up to now is       86.5 secs

     total energy              =   -1144.97378988 Ry
     estimated scf accuracy    <       0.00000043 Ry

     iteration # 10     ecut=    78.00 Ry     beta= 0.40
     Davidson diagonalization with overlap
     ethr =  5.31E-10,  avg # of iterations =  2.6

     total cpu time spent up to now is       94.7 secs

     total energy              =   -1144.97379000 Ry
     estimated scf accuracy    <       0.00000004 Ry

     iteration # 11     ecut=    78.00 Ry     beta= 0.40
     Davidson diagonalization with overlap
     ethr =  4.51E-11,  avg # of iterations =  2.8

     total cpu time spent up to now is      102.9 secs

     total energy              =   -1144.97379001 Ry
     estimated scf accuracy    <          2.0E-09 Ry

     iteration # 12     ecut=    78.00 Ry     beta= 0.40
     Davidson diagonalization with overlap
     ethr =  2.51E-12,  avg # of iterations =  3.9

     total cpu time spent up to now is      111.5 secs

     End of self-consistent calculation

          k = 0.0000-0.0000 0.0000 ( 10505 PWs)   bands (ev):

   -46.4111 -46.4083 -25.1230 -25.1191 -22.1670 -22.1670 -22.0735 -22.0735
   -19.7367 -19.7085  -8.8593  -8.7698  -8.0764  -7.8121  -7.2712  -7.2712
    -3.3537  -3.3537  -3.3288  -3.3288  -3.1619  -3.0862   2.5510   2.5510
     2.7251   2.7251   3.2777   3.8490   4.4509   4.8848   6.0670   6.1855
     6.1855   6.9159   6.9592   6.9592   7.6806   7.8755   7.8755   8.6254
    10.1581  12.4344  12.4344  13.2178  13.3000  13.9435  14.6379  14.6379

          k =-0.2020-0.0000 0.0000 ( 10517 PWs)   bands (ev):

   -46.4107 -46.4079 -25.1369 -25.1335 -22.1658 -22.1658 -22.0727 -22.0727
   -19.7332 -19.7065  -8.7280  -8.6320  -8.0934  -7.8075  -7.2585  -7.2585
    -3.3913  -3.3913  -3.3245  -3.3245  -3.1359  -3.1344   2.4403   2.4403
     2.6771   2.6771   3.1500   3.8457   4.2822   4.5538   5.6019   6.2635
     6.2635   7.0223   7.0332   7.0332   7.5840   7.8587   7.8587   8.6335
    10.1782  12.7188  12.7188  13.2479  13.3017  14.1600  14.7141  14.7141

          k =-0.4041-0.0000 0.0000 ( 10466 PWs)   bands (ev):

   -46.4098 -46.4071 -25.1678 -25.1655 -22.1631 -22.1631 -22.0708 -22.0708
   -19.7254 -19.7017  -8.4350  -8.3031  -8.1099  -7.7972  -7.2293  -7.2293
    -3.4752  -3.4752  -3.3160  -3.3160  -3.2442  -3.0708   2.2320   2.2320
     2.5605   2.5605   2.6687   3.2497   3.8376   4.7848   4.8642   6.3494
     6.3494   7.0137   7.2484   7.2484   7.3834   7.8386   7.8386   8.6519
    10.2235  13.2946  13.3005  13.4136  13.4136  14.7563  14.9316  14.9316

          k =-0.6061-0.0000 0.0000 ( 10502 PWs)   bands (ev):

   -46.4091 -46.4064 -25.1921 -25.1912 -22.1609 -22.1609 -22.0693 -22.0693
   -19.7191 -19.6979  -8.2871  -8.0162  -8.0120  -7.7888  -7.2051  -7.2051
    -3.5427  -3.5427  -3.3277  -3.3093  -3.3093  -3.0168   2.0761   2.0895
     2.0895   2.4676   2.4676   2.5758   3.8302   4.5274   4.9704   6.3637
     6.3637   6.9181   7.2363   7.4238   7.4238   7.8570   7.8570   8.6667
    10.2595  13.2942  13.3177  14.0422  14.0422  15.2227  15.2227  15.2561

          k = 0.0000-0.1414 0.1414 ( 10515 PWs)   bands (ev):

   -46.4108 -46.4086 -25.1226 -25.1195 -22.1592 -22.1582 -22.0837 -22.0826
   -19.7323 -19.7096  -8.8550  -8.7837  -8.0109  -7.7641  -7.3599  -7.3269
    -3.3518  -3.3313  -3.3224  -3.3010  -3.1548  -3.0944   2.5159   2.5643
     2.6520   2.7021   3.4662   4.0784   4.6488   4.7874   6.0818   6.0889
     6.0997   6.8800   6.8922   6.8927   7.3572   7.5471   7.8145   8.4919
    10.6371  12.5638  12.6652  13.0538  13.6322  14.1004  14.4848  14.5566

          k =-0.2020-0.1414 0.1414 ( 10472 PWs)   bands (ev):

   -46.4104 -46.4082 -25.1365 -25.1338 -22.1579 -22.1570 -22.0827 -22.0817
   -19.7292 -19.7077  -8.7207  -8.6455  -8.0276  -7.7588  -7.3513  -7.3152
    -3.3852  -3.3608  -3.3309  -3.3060  -3.1299  -3.1259   2.4004   2.4578
     2.5883   2.6458   3.3155   4.0774   4.2439   4.7360   5.6462   6.1004
     6.1310   6.9723   6.9814   7.0498   7.3481   7.4878   7.8000   8.4950
    10.6545  12.8163  12.9110  13.0777  13.6843  14.2699  14.6250  14.6467

          k =-0.4041-0.1414 0.1414 ( 10473 PWs)   bands (ev):

   -46.4095 -46.4073 -25.1675 -25.1657 -22.1550 -22.1543 -22.0804 -22.0797
   -19.7224 -19.7033  -8.4086  -8.3147  -8.0560  -7.7470  -7.3325  -7.2881
    -3.4599  -3.4374  -3.3310  -3.3060  -3.2136  -3.0756   2.1829   2.2548
     2.4314   2.5157   2.7787   3.2461   4.0732   4.9111   5.0314   6.1345
     6.1867   7.0697   7.1908   7.1914   7.3656   7.3850   7.7738   8.5001
    10.6949  13.0421  13.5246  13.5367  13.7758  14.6768  14.8356  15.0773

          k =-0.6061-0.1414 0.1414 ( 10490 PWs)   bands (ev):

   -46.4088 -46.4067 -25.1919 -25.1912 -22.1527 -22.1522 -22.0786 -22.0781
   -19.7169 -19.6997  -8.2014  -8.0244  -8.0119  -7.7375  -7.3189  -7.2659
    -3.5202  -3.4890  -3.3314  -3.2991  -3.2902  -3.0397   2.0337   2.1126
     2.1147   2.3698   2.4147   2.5599   4.0682   4.7281   5.1063   6.1535
     6.2008   6.9960   7.2347   7.2722   7.3403   7.5315   7.7888   8.5006
    10.7292  13.0568  13.8255  14.1138  14.1255  15.0490  15.1281  15.5238

          k = 0.0000-0.2828 0.2828 ( 10488 PWs)   bands (ev):

   -46.4101 -46.4092 -25.1216 -25.1204 -22.1377 -22.1350 -22.1089 -22.1061
   -19.7225 -19.7139  -8.8407  -8.8142  -7.8279  -7.6350  -7.5795  -7.4683
    -3.3460  -3.3380  -3.2676  -3.2585  -3.1369  -3.1143   2.4730   2.5227
     2.6012   2.6524   3.9356   4.4542   4.6954   5.1896   5.5026   5.8070
     6.1818   6.5373   6.8270   6.8415   6.9447   7.2392   7.9117   8.1925
    11.4987  12.3391  13.0287  13.2086  13.6120  13.7602  15.1225  15.2142

          k =-0.2020-0.2828 0.2828 ( 10476 PWs)   bands (ev):

   -46.4097 -46.4089 -25.1356 -25.1346 -22.1363 -22.1339 -22.1076 -22.1051
   -19.7203 -19.7121  -8.7025  -8.6751  -7.8397  -7.6280  -7.5811  -7.4588
    -3.3687  -3.3478  -3.3067  -3.2855  -3.1150  -3.1109   2.3577   2.4277
     2.5072   2.5774   3.7036   4.0672   4.7000   5.2091   5.5177   5.7078
     5.8543   6.4590   6.9840   7.0283   7.0313   7.2613   7.8993   8.1846
    11.5171  12.3592  13.2600  13.3839  13.8080  13.8840  15.1569  15.3333

          k =-0.4041-0.2828 0.2828 ( 10479 PWs)   bands (ev):

   -46.4089 -46.4080 -25.1668 -25.1661 -22.1332 -22.1314 -22.1048 -22.1029
   -19.7153 -19.7080  -8.3697  -8.3404  -7.8694  -7.6120  -7.5876  -7.4371
    -3.4199  -3.3706  -3.3616  -3.3093  -3.1461  -3.0946   2.1306   2.2192
     2.3208   2.4181   3.0004   3.1769   4.7054   5.2099   5.5385   5.5765
     5.6751   6.4212   7.1524   7.2077   7.2107   7.3038   7.8641   8.1599
    11.5638  12.4052  13.8236  13.8650  14.2235  14.2610  15.2216  15.7141

          k =-0.6061-0.2828 0.2828 ( 10466 PWs)   bands (ev):

   -46.4082 -46.4073 -25.1916 -25.1913 -22.1307 -22.1295 -22.1025 -22.1012
   -19.7113 -19.7047  -8.0603  -8.0404  -7.9123  -7.6012  -7.5991  -7.4193
    -3.4615  -3.3893  -3.3789  -3.3053  -3.1996  -3.1048   1.9687   2.0332
     2.1888   2.3004   2.3780   2.4900   4.7064   5.1750   5.5471   5.5873
     5.6823   6.4145   7.1660   7.3242   7.3393   7.3397   7.8335   8.1290
    11.6064  12.4422  14.3409  14.3559  14.5729  14.6912  15.2951  16.1255

          k = 0.0000-0.2828 0.0000 ( 10479 PWs)   bands (ev):

   -46.4106 -46.4088 -25.1223 -25.1197 -22.1700 -22.1339 -22.1093 -22.0724
   -19.7284 -19.7102  -8.8577  -8.7987  -8.0029  -7.6699  -7.5424  -7.2507
    -3.3336  -3.3156  -3.3077  -3.2904  -3.1495  -3.1011   2.5256   2.5258
     2.6313   2.6416   3.4553   4.4198   4.6221   4.8420   5.8407   6.1210
     6.2013   6.7636   6.8842   6.9710   7.3462   7.4508   7.4567   8.3136
    11.0346  12.4642  12.8985  13.0773  13.5313  14.0128  14.6123  14.8853

          k =-0.2020-0.2828 0.0000 ( 10480 PWs)   bands (ev):

   -46.4102 -46.4084 -25.1362 -25.1340 -22.1685 -22.1329 -22.1080 -22.0717
   -19.7258 -19.7084  -8.7221  -8.6600  -8.0115  -7.6712  -7.5302  -7.2469
    -3.3640  -3.3432  -3.3102  -3.3074  -3.1258  -3.1249   2.3815   2.4353
     2.5357   2.6117   3.3283   4.1732   4.3502   4.9175   5.6969   5.7339
     6.2632   6.9022   7.0337   7.0464   7.3306   7.4008   7.4990   8.3150
    11.0479  12.7262  12.9305  13.2641  13.6909  14.0794  14.6819  15.0500

          k =-0.4041-0.2828 0.0000 ( 10484 PWs)   bands (ev):

   -46.4093 -46.4075 -25.1673 -25.1658 -22.1651 -22.1307 -22.1051 -22.0700
   -19.7198 -19.7044  -8.4020  -8.3273  -8.0292  -7.6714  -7.5039  -7.2386
    -3.4240  -3.4192  -3.3310  -3.2985  -3.1926  -3.0841   2.1364   2.2497
     2.3273   2.5023   2.8317   3.2271   4.1747   5.0873   5.2565   5.6507
     6.3095   7.0495   7.1642   7.2370   7.3332   7.3479   7.5413   8.3170
    11.0810  12.9065  13.4617  13.7680  13.9154  14.3934  14.8978  15.4844

          k =-0.6061-0.2828 0.0000 ( 10479 PWs)   bands (ev):

   -46.4086 -46.4069 -25.1918 -25.1912 -22.1623 -22.1290 -22.1027 -22.0687
   -19.7151 -19.7012  -8.1565  -8.0330  -8.0106  -7.6693  -7.4861  -7.2321
    -3.4904  -3.4491  -3.3427  -3.2894  -3.2592  -3.0582   1.9735   2.0512
     2.1452   2.3375   2.4094   2.5417   4.0760   5.0997   5.2247   5.6530
     6.2955   7.0529   7.2347   7.2452   7.3028   7.5027   7.6037   8.3168
    11.1110  12.9252  13.9827  14.0772  14.3009  14.7984  15.1852  15.8875

          k = 0.0000-0.4243 0.1414 ( 10471 PWs)   bands (ev):

   -46.4100 -46.4093 -25.1214 -25.1205 -22.1633 -22.1403 -22.1045 -22.0809
   -19.7201 -19.7132  -8.8538  -8.8305  -7.9270  -7.7613  -7.4776  -7.3076
    -3.3230  -3.3159  -3.2591  -3.2518  -3.1357  -3.1176   2.4754   2.5171
     2.5542   2.5965   3.6844   4.1639   5.0372   5.3706   5.5232   5.9974
     6.2480   6.5732   6.8541   6.8766   7.0597   7.2140   7.5591   7.9179
    11.7579  12.4077  12.6927  13.1073  13.7030  14.2340  14.6422  15.6573

          k =-0.2020-0.4243 0.1414 ( 10472 PWs)   bands (ev):

   -46.4096 -46.4089 -25.1355 -25.1346 -22.1616 -22.1386 -22.1037 -22.0802
   -19.7182 -19.7116  -8.7156  -8.6912  -7.9255  -7.7526  -7.4833  -7.3108
    -3.3401  -3.3201  -3.2947  -3.2797  -3.1196  -3.1172   2.3322   2.3755
     2.4968   2.5498   3.5400   3.9115   4.8277   5.2365   5.4023   5.9930
     6.0538   6.6137   6.9885   7.0325   7.1076   7.2454   7.5761   7.9172
    11.7724  12.4323  12.9479  13.3335  13.8318  14.2955  14.6940  15.5966

          k =-0.4041-0.4243 0.1414 ( 10486 PWs)   bands (ev):

   -46.4088 -46.4081 -25.1667 -25.1661 -22.1578 -22.1349 -22.1019 -22.0786
   -19.7139 -19.7080  -8.3830  -8.3554  -7.9265  -7.7362  -7.4946  -7.3179
    -3.3866  -3.3512  -3.3443  -3.2956  -3.1446  -3.1051   2.0694   2.1248
     2.3350   2.4223   2.9788   3.1434   4.4763   4.9925   5.4831   5.9055
     6.0210   6.6821   7.1309   7.2198   7.2291   7.3032   7.6066   7.9160
    11.8093  12.4745  13.5880  13.8726  14.2065  14.4979  14.8385  15.6755

          k =-0.6061-0.4243 0.1414 ( 10494 PWs)   bands (ev):

   -46.4081 -46.4074 -25.1915 -25.1912 -22.1546 -22.1319 -22.1004 -22.0774
   -19.7105 -19.7051  -8.0738  -8.0500  -7.9478  -7.7355  -7.5018  -7.3235
    -3.4397  -3.3840  -3.3493  -3.2862  -3.1866  -3.1105   1.8887   1.9255
     2.2127   2.3171   2.3916   2.4817   4.3523   4.9363   5.5480   5.8814
     6.0148   6.6964   7.1953   7.2985   7.3450   7.3556   7.6265   7.9134
    11.8432  12.5057  14.1737  14.3524  14.6103  14.7006  15.0584  15.7126

          k = 0.0000-0.5657 0.0000 ( 10474 PWs)   bands (ev):

   -46.4098 -46.4095 -25.1211 -25.1207 -22.1749 -22.1662 -22.0796 -22.0705
   -19.7154 -19.7128  -8.8711  -8.8611  -7.9824  -7.9243  -7.2881  -7.2181
    -3.2971  -3.2941  -3.2312  -3.2284  -3.1317  -3.1249   2.4830   2.4878
     2.4975   2.5079   3.5226   3.7181   5.3964   5.5236   5.8656   6.2703
     6.3985   6.5856   6.8346   6.9837   7.0692   7.1690   7.1957   7.3249
    12.1928  12.4282  12.5456  12.6977  14.2528  14.3560  14.5525  14.7780

          k =-0.2020-0.5657 0.0000 ( 10478 PWs)   bands (ev):

   -46.4094 -46.4092 -25.1351 -25.1348 -22.1729 -22.1642 -22.0790 -22.0700
   -19.7140 -19.7115  -8.7326  -8.7219  -7.9727  -7.9124  -7.3005  -7.2291
    -3.2980  -3.2865  -3.2649  -3.2622  -3.1280  -3.1278   2.2749   2.2879
     2.4942   2.5182   3.4155   3.5854   4.9669   5.0634   5.8725   6.2659
     6.4392   6.6831   6.9074   7.1234   7.1683   7.1875   7.2209   7.3481
    12.2060  12.4504  12.8200  12.9638  14.2804  14.3902  14.6071  14.8128

          k =-0.4041-0.5657 0.0000 ( 10491 PWs)   bands (ev):

   -46.4086 -46.4083 -25.1664 -25.1662 -22.1683 -22.1597 -22.0777 -22.0688
   -19.7109 -19.7087  -8.3987  -8.3855  -7.9539  -7.8892  -7.3278  -7.2541
    -3.3429  -3.3322  -3.2935  -3.2693  -3.1399  -3.1272   1.9748   1.9919
     2.3699   2.4119   2.9589   3.0424   4.3689   4.5368   5.8785   6.1912
     6.5260   6.8656   7.0526   7.2292   7.2395   7.3019   7.3404   7.4135
    12.2373  12.4855  13.5027  13.6088  14.3891  14.5490  14.8185  14.8998

          k =-0.6061-0.5657 0.0000 ( 10502 PWs)   bands (ev):

   -46.4079 -46.4076 -25.1912 -25.1911 -22.1646 -22.1560 -22.0767 -22.0679
   -19.7084 -19.7064  -8.0862  -8.0711  -7.9599  -7.8908  -7.3493  -7.2744
    -3.4088  -3.3883  -3.2812  -3.2554  -3.1574  -3.1289   1.7742   1.7846
     2.2637   2.3164   2.4020   2.4446   4.1690   4.3843   5.8740   6.1172
     6.5472   6.9027   7.1959   7.2950   7.3551   7.3685   7.4017   7.4759
    12.2637  12.5110  14.1191  14.1863  14.4616  14.7667  15.0252  15.0998

     the Fermi energy is     9.8171 ev

!    total energy              =   -1144.97379001 Ry
     total all-electron energy =    -18591.946521 Ry
     estimated scf accuracy    <          9.4E-10 Ry
     smearing contrib. (-TS)   =      -0.00000000 Ry
     internal energy E=F+TS    =   -1144.97379001 Ry

     The total energy is F=E-TS. E is the sum of the following terms:
     one-electron contribution =    -169.20277008 Ry
     hartree contribution      =     129.81110913 Ry
     xc contribution           =    -126.00703333 Ry
     ewald contribution        =    -394.62127433 Ry
     one-center paw contrib.   =    -584.95382140 Ry

     convergence has been achieved in  12 iterations

     Forces acting on atoms (cartesian axes, Ry/au):

     atom    1 type  1   force =     0.00000000   -0.00000000    0.00000000
     atom    2 type  1   force =     0.00000000   -0.00000000    0.00000000
     atom    3 type  2   force =     1.12173880    0.00000000    0.00000000
     atom    4 type  2   force =    -1.12173880   -0.00000000    0.00000000
     atom    5 type  3   force =    -1.06922657   -0.00000000    0.00000000
     atom    6 type  3   force =     1.06922657    0.00000000    0.00000000
     atom    7 type  3   force =    -0.00000000   -0.00000000   -0.00000000
     atom    8 type  3   force =    -0.00000000   -0.00000000    0.00000000
     atom    9 type  3   force =     0.00000000   -0.00000000   -0.00000000
     atom   10 type  3   force =     0.00000000    0.00000000    0.00000000

     Total force =     2.191595     Total SCF correction =     0.000117
     Message from routine punch:
     Nothing written, as per user request (disk_io='none')

     init_run     :      4.58s CPU      5.10s WALL (       1 calls)
     electrons    :     98.01s CPU    106.03s WALL (       1 calls)
     forces       :      1.63s CPU      1.85s WALL (       1 calls)

     Called by init_run:
     wfcinit      :      1.15s CPU      1.27s WALL (       1 calls)
     potinit      :      1.03s CPU      1.19s WALL (       1 calls)
     hinit0       :      0.62s CPU      0.66s WALL (       1 calls)

     Called by electrons:
     c_bands      :     62.53s CPU     65.25s WALL (      12 calls)
     sum_band     :     19.19s CPU     22.14s WALL (      12 calls)
     v_of_rho     :      1.56s CPU      1.66s WALL (      13 calls)
     newd         :      8.24s CPU     10.62s WALL (      13 calls)
     PAW_pot      :      7.38s CPU      7.52s WALL (      13 calls)
     mix_rho      :      0.17s CPU      0.19s WALL (      12 calls)

     Called by c_bands:
     init_us_2    :      1.40s CPU      1.41s WALL (     312 calls)
     cegterg      :     46.77s CPU     49.48s WALL (     144 calls)

     Called by *egterg:
     cdiaghg      :      2.03s CPU      2.04s WALL (     727 calls)
     h_psi        :     28.97s CPU     31.67s WALL (     739 calls)
     s_psi        :      1.95s CPU      1.95s WALL (     739 calls)
     g_psi        :      0.23s CPU      0.23s WALL (     583 calls)

     Called by h_psi:
     h_psi:calbec :      4.98s CPU      5.07s WALL (     739 calls)
     vloc_psi     :     21.22s CPU     23.79s WALL (     739 calls)
                                        0.00s GPU  (     739 calls)
     add_vuspsi   :      2.40s CPU      2.41s WALL (     739 calls)

     General routines
     calbec       :      6.50s CPU      6.63s WALL (     931 calls)
     fft          :      1.38s CPU      1.52s WALL (     178 calls)
     ffts         :      0.20s CPU      0.21s WALL (      25 calls)
     fftw         :     23.09s CPU     25.89s WALL (   44148 calls)
     interpolate  :      0.32s CPU      0.34s WALL (      13 calls)

     Parallel routines

     PWSCF        :   1m44.69s CPU   1m53.49s WALL


   This run was terminated on:   3:34:22   5Oct2026            

=------------------------------------------------------------------------------=
   JOB DONE.
=------------------------------------------------------------------------------=
