
     Program PWSCF v.7.5 starts on  4Oct2026 at  5: 4:34 

     This program is part of the open-source Quantum ESPRESSO suite
     for quantum simulation of materials; please cite
         "P. Giannozzi et al., J. Phys.:Condens. Matter 21 395502 (2009);
         "P. Giannozzi et al., J. Phys.:Condens. Matter 29 465901 (2017);
         "P. Giannozzi et al., J. Chem. Phys. 152 154105 (2020);
          URL http://www.quantum-espresso.org", 
     in publications or presentations arising from this work. More details at
     http://www.quantum-espresso.org/quote

     Parallel version (MPI & OpenMP), running on       8 processor cores
     Number of MPI processes:                 8
     Threads/MPI process:                     1

     MPI processes distributed on     1 nodes
     85166 MiB available memory on the printing compute node when the environment starts

     Reading input from pw.in

     Current dimensions of program PWSCF are:
     Max number of different atomic species (ntypx) = 10
     Max number of k-points (npk) =  40000
     Max angular momentum in pseudopotentials (lmaxx) =  4
     file Ba.pbe-spn-kjpaw_psl.1.0.0.UPF: wavefunction(s)  5S 6S renormalized
     file O.pbe-n-kjpaw_psl.0.1.UPF: wavefunction(s)  2P renormalized

     K-points division:     npool     =       4
     R & G space division:  proc/nbgrp/npool/nimage =       2
     Subspace diagonalization in iterative solution of the eigenvalue problem:
     a serial algorithm will be used


     Parallelization info
     --------------------
     sticks:   dense  smooth     PW     G-vecs:    dense   smooth      PW
     Min        3704    1852    503               239536    84620   12202
     Max        3705    1853    506               239537    84625   12203
     Sum        7409    3705   1009               479073   169245   24405

     Using Slab Decomposition



     bravais-lattice index     =            0
     lattice parameter (alat)  =      15.2465  a.u.
     unit-cell volume          =    3544.1285 (a.u.)^3
     number of atoms/cell      =           40
     number of atomic types    =            3
     number of electrons       =       320.00
     number of Kohn-Sham states=          192
     kinetic-energy cutoff     =      50.0000  Ry
     charge density cutoff     =     400.0000  Ry
     scf convergence threshold =      4.0E-09
     mixing beta               =       0.4000
     number of iterations used =            8  plain     mixing
     Exchange-correlation= SLA  PW   PBX  PBC
                           (   1   4   3   4   0   0   0)

     celldm(1)=  15.246488  celldm(2)=   0.000000  celldm(3)=   0.000000
     celldm(4)=   0.000000  celldm(5)=   0.000000  celldm(6)=   0.000000

     crystal axes: (cart. coord. in units of alat)
               a(1) = (   1.000000  -0.000000  -0.000000 )  
               a(2) = (  -0.000000   1.000000   0.000000 )  
               a(3) = (  -0.000000  -0.000000   1.000000 )  

     reciprocal axes: (cart. coord. in units 2 pi/alat)
               b(1) = (  1.000000  0.000000  0.000000 )  
               b(2) = (  0.000000  1.000000  0.000000 )  
               b(3) = (  0.000000  0.000000  1.000000 )  


     PseudoPot. # 1 for Ba read from file:
     /root/sssp/Ba.pbe-spn-kjpaw_psl.1.0.0.UPF
     MD5 check sum: c432291d3e53af55f19d5e8866385beb
     Pseudo is Projector augmented-wave + core cor, Zval = 10.0
     Generated using "atomic" code by A. Dal Corso  v.5.1
     Shape of augmentation charge: PSQ
     Using radial grid of 1251 points,  7 beta functions with: 
                l(1) =   0
                l(2) =   0
                l(3) =   0
                l(4) =   1
                l(5) =   1
                l(6) =   2
                l(7) =   2
     Q(r) pseudized with 0 coefficients 


     PseudoPot. # 2 for Ti read from file:
     /root/sssp/ti_pbe_v1.4.uspp.F.UPF
     MD5 check sum: 88a00a6731bd790ddea75d31a80cb452
     Pseudo is Ultrasoft + core correction, Zval = 12.0
     Generated by new atomic code, or converted to UPF format
     Using radial grid of  851 points,  6 beta functions with: 
                l(1) =   0
                l(2) =   0
                l(3) =   1
                l(4) =   1
                l(5) =   2
                l(6) =   2
     Q(r) pseudized with  6 coefficients,  rinner =    1.000   1.000   1.000
                                                       1.000   1.000

     PseudoPot. # 3 for O  read from file:
     /root/sssp/O.pbe-n-kjpaw_psl.0.1.UPF
     MD5 check sum: 0234752ac141de4415c5fc33072bef88
     Pseudo is Projector augmented-wave + core cor, Zval =  6.0
     Generated using "atomic" code by A. Dal Corso  v.5.0.99 svn rev. 10869
     Shape of augmentation charge: BESSEL
     Using radial grid of 1095 points,  4 beta functions with: 
                l(1) =   0
                l(2) =   0
                l(3) =   1
                l(4) =   1
     Q(r) pseudized with 0 coefficients 


     atomic species   valence    mass     pseudopotential
     Ba               10.00   137.32700     Ba( 1.00)
     Ti               12.00    47.86700     Ti( 1.00)
     O                 6.00    15.99900     O ( 1.00)

     No symmetry found



   Cartesian axes

     site n.     atom                  positions (alat units)
         1        Ba     tau(   1) = (   0.0028419   0.0134763  -0.0010646  )
         2        Ba     tau(   2) = (   0.4905137  -0.0056478   0.0030100  )
         3        Ba     tau(   3) = (  -0.0014652   0.5041886  -0.0056318  )
         4        Ba     tau(   4) = (   0.4995410   0.5022905  -0.0042057  )
         5        Ba     tau(   5) = (   0.0065576  -0.0022770   0.5031886  )
         6        Ba     tau(   6) = (   0.5009876   0.0051386   0.5053164  )
         7        Ba     tau(   7) = (   0.0023967   0.4891524   0.4928149  )
         8        Ba     tau(   8) = (   0.4999208   0.4949001   0.5018103  )
         9        Ti     tau(   9) = (   0.2556451   0.2466880   0.2466674  )
        10        Ti     tau(  10) = (   0.7480563   0.2523917   0.2446015  )
        11        Ti     tau(  11) = (   0.2524059   0.7506964   0.2515167  )
        12        Ti     tau(  12) = (   0.7427889   0.7456200   0.2599616  )
        13        Ti     tau(  13) = (   0.2522653   0.2533206   0.7514757  )
        14        Ti     tau(  14) = (   0.7533939   0.2542909   0.7499007  )
        15        Ti     tau(  15) = (   0.2497368   0.7525475   0.7516129  )
        16        Ti     tau(  16) = (   0.7451576   0.7530995   0.7479154  )
        17        O      tau(  17) = (  -0.0057336   0.2595821   0.2453371  )
        18        O      tau(  18) = (   0.5047568   0.2412054   0.2541552  )
        19        O      tau(  19) = (   0.0014283   0.7536380   0.2497282  )
        20        O      tau(  20) = (   0.4928373   0.7452304   0.2537465  )
        21        O      tau(  21) = (  -0.0044554   0.2536340   0.7603610  )
        22        O      tau(  22) = (   0.4820533   0.2535383   0.7657785  )
        23        O      tau(  23) = (   0.0068623   0.7510758   0.7498970  )
        24        O      tau(  24) = (   0.4995913   0.7440815   0.7640909  )
        25        O      tau(  25) = (   0.2330971   0.0036333   0.2662564  )
        26        O      tau(  26) = (   0.7533803  -0.0012232   0.2570168  )
        27        O      tau(  27) = (   0.2617877   0.4975850   0.2482938  )
        28        O      tau(  28) = (   0.7549143   0.5031279   0.2453020  )
        29        O      tau(  29) = (   0.2486010  -0.0087325   0.7339596  )
        30        O      tau(  30) = (   0.7480168  -0.0034936   0.7392700  )
        31        O      tau(  31) = (   0.2476088   0.5042759   0.7436663  )
        32        O      tau(  32) = (   0.7550204   0.4961291   0.7555107  )
        33        O      tau(  33) = (   0.2612461   0.2490291   0.0045345  )
        34        O      tau(  34) = (   0.7420249   0.2356413  -0.0088506  )
        35        O      tau(  35) = (   0.2507037   0.7525154  -0.0028440  )
        36        O      tau(  36) = (   0.7550580   0.7562178   0.0044907  )
        37        O      tau(  37) = (   0.2577161   0.2425442   0.4939695  )
        38        O      tau(  38) = (   0.7416415   0.2523719   0.5013593  )
        39        O      tau(  39) = (   0.2555233   0.7418541   0.4982356  )
        40        O      tau(  40) = (   0.7468593   0.7401598   0.5066835  )

     number of k points=    36  Marzari-Vanderbilt smearing, width (Ry)=  0.0050
                       cart. coord. in units 2pi/alat
        k(    1) = (   0.0000000   0.0000000   0.0000000), wk =   0.0312500
        k(    2) = (   0.0000000   0.0000000   0.2500000), wk =   0.0625000
        k(    3) = (   0.0000000   0.0000000  -0.5000000), wk =   0.0312500
        k(    4) = (   0.0000000   0.2500000   0.2500000), wk =   0.0625000
        k(    5) = (   0.0000000   0.2500000  -0.5000000), wk =   0.0625000
        k(    6) = (   0.0000000  -0.5000000  -0.5000000), wk =   0.0312500
        k(    7) = (   0.2500000   0.2500000   0.2500000), wk =   0.0625000
        k(    8) = (   0.2500000   0.2500000  -0.5000000), wk =   0.0625000
        k(    9) = (   0.2500000  -0.5000000  -0.5000000), wk =   0.0625000
        k(   10) = (  -0.5000000  -0.5000000  -0.5000000), wk =   0.0312500
        k(   11) = (   0.2500000   0.0000000   0.0000000), wk =   0.0625000
        k(   12) = (   0.0000000   0.2500000   0.0000000), wk =   0.0625000
        k(   13) = (  -0.5000000   0.0000000   0.0000000), wk =   0.0312500
        k(   14) = (   0.0000000  -0.5000000   0.0000000), wk =   0.0312500
        k(   15) = (   0.0000000  -0.2500000   0.2500000), wk =   0.0625000
        k(   16) = (   0.2500000   0.0000000  -0.2500000), wk =   0.0625000
        k(   17) = (  -0.2500000   0.0000000  -0.2500000), wk =   0.0625000
        k(   18) = (   0.2500000  -0.2500000   0.0000000), wk =   0.0625000
        k(   19) = (  -0.2500000  -0.2500000   0.0000000), wk =   0.0625000
        k(   20) = (   0.2500000   0.0000000   0.5000000), wk =   0.0625000
        k(   21) = (  -0.5000000  -0.2500000   0.0000000), wk =   0.0625000
        k(   22) = (   0.0000000  -0.5000000   0.2500000), wk =   0.0625000
        k(   23) = (   0.2500000  -0.5000000   0.0000000), wk =   0.0625000
        k(   24) = (  -0.5000000   0.0000000   0.2500000), wk =   0.0625000
        k(   25) = (  -0.5000000   0.0000000   0.5000000), wk =   0.0312500
        k(   26) = (  -0.5000000   0.5000000   0.0000000), wk =   0.0312500
        k(   27) = (  -0.2500000  -0.2500000   0.2500000), wk =   0.0625000
        k(   28) = (  -0.2500000   0.2500000  -0.2500000), wk =   0.0625000
        k(   29) = (   0.2500000  -0.2500000  -0.2500000), wk =   0.0625000
        k(   30) = (  -0.2500000   0.2500000   0.5000000), wk =   0.0625000
        k(   31) = (  -0.5000000  -0.2500000   0.2500000), wk =   0.0625000
        k(   32) = (   0.5000000  -0.2500000  -0.2500000), wk =   0.0625000
        k(   33) = (  -0.2500000  -0.5000000   0.2500000), wk =   0.0625000
        k(   34) = (  -0.2500000   0.5000000  -0.2500000), wk =   0.0625000
        k(   35) = (  -0.5000000   0.2500000   0.5000000), wk =   0.0625000
        k(   36) = (  -0.5000000   0.5000000   0.2500000), wk =   0.0625000

     Dense  grid:   479073 G-vectors     FFT dimensions: ( 100, 100, 100)

     Smooth grid:   169245 G-vectors     FFT dimensions: (  72,  72,  72)

     Estimated max dynamical RAM per process >     795.75 MB

     Estimated total dynamical RAM >       5.87 GB

     Check: negative core charge=   -0.000004

     Initial potential from superposition of free atoms

     starting charge     311.8636, renormalised to     320.0000

     negative rho (up, down):  1.112E-02 0.000E+00
     Starting wfcs are  216 randomized atomic wfcs
     Checking if some PAW data can be deallocated... 

     total cpu time spent up to now is       62.7 secs

     per-process dynamical memory:   531.7 Mb

     Self-consistent Calculation

     iteration #  1     ecut=    50.00 Ry     beta= 0.40
     Davidson diagonalization with overlap
     ethr =  1.00E-02,  avg # of iterations =  2.0

     negative rho (up, down):  1.004E-01 0.000E+00

     total cpu time spent up to now is      216.1 secs

     total energy              =   -5446.41096377 Ry
     estimated scf accuracy    <       7.91908261 Ry

     iteration #  2     ecut=    50.00 Ry     beta= 0.40
     Davidson diagonalization with overlap
     ethr =  2.47E-03,  avg # of iterations =  4.0

     negative rho (up, down):  1.446E-01 0.000E+00

     total cpu time spent up to now is      382.5 secs

     total energy              =   -5446.40792440 Ry
     estimated scf accuracy    <      13.59439674 Ry

     iteration #  3     ecut=    50.00 Ry     beta= 0.40
     Davidson diagonalization with overlap
     ethr =  2.47E-03,  avg # of iterations =  3.5

     negative rho (up, down):  2.653E-01 0.000E+00

     total cpu time spent up to now is      524.6 secs

     total energy              =   -5448.92422195 Ry
     estimated scf accuracy    <       0.84330972 Ry

     iteration #  4     ecut=    50.00 Ry     beta= 0.40
     Davidson diagonalization with overlap
     ethr =  2.64E-04,  avg # of iterations =  3.5

     negative rho (up, down):  2.868E-01 0.000E+00

     total cpu time spent up to now is      671.2 secs

     total energy              =   -5448.94379352 Ry
     estimated scf accuracy    <       0.25510596 Ry

     iteration #  5     ecut=    50.00 Ry     beta= 0.40
     Davidson diagonalization with overlap
     ethr =  7.97E-05,  avg # of iterations =  4.0

     negative rho (up, down):  2.254E-01 0.000E+00

     total cpu time spent up to now is      822.0 secs

     total energy              =   -5448.96746218 Ry
     estimated scf accuracy    <       0.09673879 Ry

     iteration #  6     ecut=    50.00 Ry     beta= 0.40
     Davidson diagonalization with overlap
     ethr =  3.02E-05,  avg # of iterations =  2.6

     negative rho (up, down):  1.356E-01 0.000E+00

     total cpu time spent up to now is      964.0 secs

     total energy              =   -5448.97450311 Ry
     estimated scf accuracy    <       0.04723001 Ry

     iteration #  7     ecut=    50.00 Ry     beta= 0.40
     Davidson diagonalization with overlap
     ethr =  1.48E-05,  avg # of iterations =  2.6

     negative rho (up, down):  1.346E-02 0.000E+00

     total cpu time spent up to now is     1103.2 secs

     total energy              =   -5448.97653475 Ry
     estimated scf accuracy    <       0.03238874 Ry

     iteration #  8     ecut=    50.00 Ry     beta= 0.40
     Davidson diagonalization with overlap
     ethr =  1.01E-05,  avg # of iterations =  3.9

     negative rho (up, down):  1.064E-02 0.000E+00

     total cpu time spent up to now is     1239.4 secs

     total energy              =   -5448.97789788 Ry
     estimated scf accuracy    <       0.00681884 Ry

     iteration #  9     ecut=    50.00 Ry     beta= 0.40
     Davidson diagonalization with overlap
     ethr =  2.13E-06,  avg # of iterations =  7.9

     negative rho (up, down):  1.061E-02 0.000E+00

     total cpu time spent up to now is     1420.8 secs

     total energy              =   -5448.97916782 Ry
     estimated scf accuracy    <       0.00415806 Ry

     iteration # 10     ecut=    50.00 Ry     beta= 0.40
     Davidson diagonalization with overlap
     ethr =  1.30E-06,  avg # of iterations =  3.6

     negative rho (up, down):  1.058E-02 0.000E+00

     total cpu time spent up to now is     1550.6 secs

     total energy              =   -5448.97943489 Ry
     estimated scf accuracy    <       0.00135964 Ry

     iteration # 11     ecut=    50.00 Ry     beta= 0.40
     Davidson diagonalization with overlap
     ethr =  4.25E-07,  avg # of iterations =  3.9

     negative rho (up, down):  1.058E-02 0.000E+00

     total cpu time spent up to now is     1683.7 secs

     total energy              =   -5448.97952862 Ry
     estimated scf accuracy    <       0.00088198 Ry

     iteration # 12     ecut=    50.00 Ry     beta= 0.40
     Davidson diagonalization with overlap
     ethr =  2.76E-07,  avg # of iterations =  2.7

     negative rho (up, down):  1.059E-02 0.000E+00

     total cpu time spent up to now is     1811.3 secs

     total energy              =   -5448.97955052 Ry
     estimated scf accuracy    <       0.00023168 Ry

     iteration # 13     ecut=    50.00 Ry     beta= 0.40
     Davidson diagonalization with overlap
     ethr =  7.24E-08,  avg # of iterations =  2.6

     negative rho (up, down):  1.058E-02 0.000E+00

     total cpu time spent up to now is     1938.0 secs

     total energy              =   -5448.97958615 Ry
     estimated scf accuracy    <       0.00091712 Ry

     iteration # 14     ecut=    50.00 Ry     beta= 0.40
     Davidson diagonalization with overlap
     ethr =  7.24E-08,  avg # of iterations =  2.0

     negative rho (up, down):  1.058E-02 0.000E+00

     total cpu time spent up to now is     2053.3 secs

     total energy              =   -5448.97959243 Ry
     estimated scf accuracy    <       0.00014663 Ry

     iteration # 15     ecut=    50.00 Ry     beta= 0.40
     Davidson diagonalization with overlap
     ethr =  4.58E-08,  avg # of iterations =  1.0

     negative rho (up, down):  1.058E-02 0.000E+00

     total cpu time spent up to now is     2155.8 secs

     total energy              =   -5448.97959247 Ry
     estimated scf accuracy    <       0.00010457 Ry

     iteration # 16     ecut=    50.00 Ry     beta= 0.40
     Davidson diagonalization with overlap
     ethr =  3.27E-08,  avg # of iterations =  2.0

     negative rho (up, down):  1.058E-02 0.000E+00

     total cpu time spent up to now is     2273.6 secs

     total energy              =   -5448.97959643 Ry
     estimated scf accuracy    <       0.00000298 Ry

     iteration # 17     ecut=    50.00 Ry     beta= 0.40
     Davidson diagonalization with overlap
     ethr =  9.30E-10,  avg # of iterations =  4.0

     negative rho (up, down):  1.058E-02 0.000E+00

     total cpu time spent up to now is     2416.3 secs

     total energy              =   -5448.97959728 Ry
     estimated scf accuracy    <       0.00001425 Ry

     iteration # 18     ecut=    50.00 Ry     beta= 0.40
     Davidson diagonalization with overlap
     ethr =  9.30E-10,  avg # of iterations =  1.0

     negative rho (up, down):  1.058E-02 0.000E+00

     total cpu time spent up to now is     2514.3 secs

     total energy              =   -5448.97959724 Ry
     estimated scf accuracy    <       0.00000892 Ry

     iteration # 19     ecut=    50.00 Ry     beta= 0.40
     Davidson diagonalization with overlap
     ethr =  9.30E-10,  avg # of iterations =  1.0

     negative rho (up, down):  1.058E-02 0.000E+00

     total cpu time spent up to now is     2614.7 secs

     total energy              =   -5448.97959724 Ry
     estimated scf accuracy    <       0.00000435 Ry

     iteration # 20     ecut=    50.00 Ry     beta= 0.40
     Davidson diagonalization with overlap
     ethr =  9.30E-10,  avg # of iterations =  1.0

     negative rho (up, down):  1.058E-02 0.000E+00

     total cpu time spent up to now is     2716.6 secs

     total energy              =   -5448.97959725 Ry
     estimated scf accuracy    <       0.00000058 Ry

     iteration # 21     ecut=    50.00 Ry     beta= 0.40
     Davidson diagonalization with overlap
     ethr =  1.80E-10,  avg # of iterations =  3.6

     negative rho (up, down):  1.058E-02 0.000E+00

     total cpu time spent up to now is     2846.1 secs

     total energy              =   -5448.97959728 Ry
     estimated scf accuracy    <       0.00000078 Ry

     iteration # 22     ecut=    50.00 Ry     beta= 0.40
     Davidson diagonalization with overlap
     ethr =  1.80E-10,  avg # of iterations =  1.2

     negative rho (up, down):  1.058E-02 0.000E+00

     total cpu time spent up to now is     2957.8 secs

     total energy              =   -5448.97959729 Ry
     estimated scf accuracy    <       0.00000011 Ry

     iteration # 23     ecut=    50.00 Ry     beta= 0.40
     Davidson diagonalization with overlap
     ethr =  3.35E-11,  avg # of iterations =  2.0

     negative rho (up, down):  1.058E-02 0.000E+00

     total cpu time spent up to now is     3076.6 secs

     total energy              =   -5448.97959729 Ry
     estimated scf accuracy    <       0.00000002 Ry

     iteration # 24     ecut=    50.00 Ry     beta= 0.40
     Davidson diagonalization with overlap
     ethr =  6.05E-12,  avg # of iterations =  3.7

     negative rho (up, down):  1.058E-02 0.000E+00

     total cpu time spent up to now is     3201.7 secs

     total energy              =   -5448.97959729 Ry
     estimated scf accuracy    <       0.00000006 Ry

     iteration # 25     ecut=    50.00 Ry     beta= 0.40
     Davidson diagonalization with overlap
     ethr =  6.05E-12,  avg # of iterations =  1.0

     negative rho (up, down):  1.058E-02 0.000E+00

     total cpu time spent up to now is     3302.2 secs

     total energy              =   -5448.97959730 Ry
     estimated scf accuracy    <       0.00000002 Ry

     iteration # 26     ecut=    50.00 Ry     beta= 0.40
     Davidson diagonalization with overlap
     ethr =  6.05E-12,  avg # of iterations =  2.0

     negative rho (up, down):  1.058E-02 0.000E+00

     total cpu time spent up to now is     3423.3 secs

     End of self-consistent calculation

          k = 0.0000 0.0000 0.0000 ( 21247 PWs)   bands (ev):

   -46.7352 -46.6872 -46.6685 -46.6491 -46.6093 -46.5852 -46.5076 -46.3326
   -23.0232 -22.9725 -22.9498 -22.9365 -22.9313 -22.9282 -22.9162 -22.9102
   -22.8874 -22.8851 -22.8722 -22.8633 -22.8470 -22.8415 -22.8346 -22.8268
   -22.8213 -22.8159 -22.7587 -22.7325 -22.7293 -22.6162 -22.5827 -22.5758
   -14.7952 -14.7209 -14.6638 -14.6394 -14.6254 -14.5939 -14.5480 -14.4638
    -7.0711  -6.9999  -6.9768  -6.7920  -6.5141  -6.4980  -6.4503  -6.2609
    -6.2448  -6.2234  -6.1815  -6.1637  -6.1175  -6.0309  -6.0235  -6.0002
    -5.9987  -5.9587  -5.8081  -5.7693  -5.7395  -5.7174  -5.6367  -5.5654
    -0.6072  -0.5978  -0.5941  -0.0624  -0.0422   0.0009   0.0194   0.0249
     0.0566   0.0675   0.0754   0.1161   0.1807   0.1902   0.2123   0.2332
     0.2487   0.2661   0.4014   0.4106   0.4283   0.4436   0.4720   0.4917
     5.5936   5.7918   5.8133   5.8752   6.0851   6.0913   6.1034   6.1285
     6.1359   6.1583   6.2204   6.2745   6.3020   6.3367   6.4068   7.1718
     7.2391   7.2654   7.2798   7.3281   7.3481   7.3994   7.4292   7.4603
     7.4785   7.4984   7.5294   7.6298   7.6627   7.6674   7.7447   7.7627
     7.7917   8.0168   8.0383   8.0809   8.1072   8.1435   8.2024   8.2266
     8.2776   8.2854   8.3023   8.3381   8.3625   8.3917   8.4172   8.4345
     8.9674   8.9799   9.0043   9.1086   9.1496   9.1663   9.1799   9.2119
     9.2212   9.2835   9.3579   9.3737   9.3957   9.4002   9.4271   9.8284
     9.8566   9.8988   9.9072   9.9709  10.0304  10.1097  10.1231  10.2172
    11.8297  11.8572  11.8916  11.9776  11.9977  12.0230  13.3131  13.3585
    13.3782  13.4009  13.4083  13.4270  13.4832  13.4905  13.5288  13.5497
    13.5629  13.6475  13.7741  13.8077  13.8558  13.8621  13.8693  13.9223
    13.9466  13.9841  14.1347  14.1445  14.1678  14.6208  14.6711  14.7452

          k = 0.0000 0.0000 0.2500 ( 21146 PWs)   bands (ev):

   -46.7352 -46.6872 -46.6685 -46.6491 -46.6093 -46.5852 -46.5076 -46.3326
   -23.0232 -22.9706 -22.9496 -22.9333 -22.9289 -22.9282 -22.9160 -22.9103
   -22.8908 -22.8835 -22.8717 -22.8628 -22.8489 -22.8417 -22.8349 -22.8310
   -22.8214 -22.8160 -22.7586 -22.7315 -22.7287 -22.6163 -22.5827 -22.5775
   -14.7837 -14.7221 -14.6592 -14.6408 -14.6274 -14.6002 -14.5503 -14.4683
    -7.0255  -6.9436  -6.9170  -6.7917  -6.6019  -6.5529  -6.4113  -6.2606
    -6.2386  -6.2221  -6.1842  -6.1660  -6.1038  -6.0347  -6.0177  -6.0051
    -5.9874  -5.9556  -5.8293  -5.7938  -5.7767  -5.7331  -5.6515  -5.5732
    -0.5139  -0.5116  -0.4849  -0.0977  -0.0903  -0.0181   0.0293   0.0647
     0.0785   0.0831   0.0968   0.1302   0.1486   0.1781   0.1892   0.2136
     0.2550   0.2696   0.2812   0.3696   0.3788   0.4042   0.4260   0.4421
     5.6798   5.8168   5.9105   5.9656   6.0760   6.1304   6.2309   6.2667
     6.2825   6.3153   6.3329   6.3594   6.3909   6.4287   6.5718   7.1312
     7.2316   7.2526   7.2828   7.3219   7.3463   7.3875   7.3985   7.4242
     7.4724   7.4889   7.5154   7.5488   7.5645   7.5877   7.6060   7.6728
     7.6908   7.7265   7.7705   7.9804   8.0313   8.1008   8.2018   8.2552
     8.3003   8.3491   8.3733   8.4233   8.4441   8.4846   8.7532   8.8155
     8.8719   8.9200   8.9514   8.9970   9.0494   9.0679   9.0857   9.1414
     9.1672   9.1822   9.2232   9.3196   9.3486   9.4339   9.4454   9.5686
     9.7307   9.7739   9.8053   9.9262   9.9620   9.9778  10.0842  10.1155
    11.8730  11.9654  12.1114  12.1440  12.2322  12.2694  13.1840  13.2098
    13.2290  13.3440  13.4003  13.4028  13.4253  13.4904  13.4946  13.5335
    13.5934  13.6421  13.7550  13.7700  13.8694  13.8903  13.9494  13.9934
    14.0500  14.1070  14.1387  14.1745  14.2995  14.6184  14.6896  15.1235

          k = 0.0000 0.0000-0.5000 ( 21178 PWs)   bands (ev):

   -46.7352 -46.6872 -46.6685 -46.6491 -46.6093 -46.5852 -46.5076 -46.3326
   -23.0232 -22.9687 -22.9493 -22.9324 -22.9284 -22.9219 -22.9153 -22.9105
   -22.8991 -22.8796 -22.8708 -22.8617 -22.8509 -22.8427 -22.8371 -22.8339
   -22.8215 -22.8162 -22.7585 -22.7309 -22.7277 -22.6163 -22.5827 -22.5792
   -14.7674 -14.7289 -14.6498 -14.6467 -14.6243 -14.6112 -14.5519 -14.4732
    -6.9672  -6.8566  -6.8039  -6.7546  -6.7419  -6.7040  -6.3083  -6.2986
    -6.2422  -6.2154  -6.1758  -6.1699  -6.0679  -6.0612  -6.0346  -5.9967
    -5.9766  -5.9465  -5.8655  -5.8229  -5.8091  -5.7477  -5.6661  -5.5797
    -0.3481  -0.3271  -0.2821  -0.2544  -0.1928  -0.1423   0.0371   0.0624
     0.0861   0.1136   0.1180   0.1314   0.1410   0.1625   0.1852   0.2119
     0.2406   0.2704   0.2762   0.3017   0.3220   0.3502   0.3629   0.3838
     5.7369   5.8323   6.0083   6.0244   6.0659   6.0957   6.2912   6.3171
     6.5800   6.6416   6.6817   6.6869   6.7376   6.7554   6.8156   6.9009
     6.9351   6.9924   7.0121   7.0302   7.1942   7.2703   7.3080   7.3369
     7.4111   7.4398   7.5138   7.5795   7.5951   7.6046   7.6234   7.6365
     7.6568   7.6782   7.7334   7.7796   7.8534   7.9227   8.3345   8.4193
     8.4374   8.4825   8.5276   8.6007   8.6135   8.6410   8.6711   8.6957
     8.7618   8.7870   8.8078   8.8397   8.9039   8.9318   8.9735   8.9820
     9.0344   9.0552   9.3939   9.4374   9.4605   9.5058   9.5209   9.5494
     9.6044   9.6646   9.7006   9.7294   9.7467   9.8141   9.9726  10.1047
    11.9108  11.9263  12.6177  12.6496  12.6751  12.6956  12.7320  12.8076
    12.8768  12.9420  13.4005  13.4025  13.4958  13.5158  13.5346  13.5613
    13.5763  13.6016  13.7507  13.7831  13.8255  13.8492  13.8771  13.8967
    13.9968  14.0602  14.4465  14.4686  14.5340  14.5478  15.0204  15.0526

          k = 0.0000 0.2500 0.2500 ( 21150 PWs)   bands (ev):

   -46.7352 -46.6872 -46.6685 -46.6491 -46.6093 -46.5852 -46.5076 -46.3326
   -23.0232 -22.9706 -22.9489 -22.9332 -22.9288 -22.9274 -22.9116 -22.9065
   -22.8908 -22.8836 -22.8751 -22.8648 -22.8486 -22.8455 -22.8349 -22.8312
   -22.8214 -22.8130 -22.7599 -22.7332 -22.7292 -22.6171 -22.5827 -22.5775
   -14.7727 -14.7214 -14.6521 -14.6451 -14.6262 -14.6081 -14.5563 -14.4716
    -6.9930  -6.8965  -6.8566  -6.7802  -6.6341  -6.5358  -6.4349  -6.2703
    -6.2516  -6.2166  -6.1953  -6.1564  -6.1000  -6.0560  -6.0373  -6.0274
    -5.9755  -5.9572  -5.8670  -5.8222  -5.7773  -5.7407  -5.6524  -5.5740
    -0.5016  -0.4325  -0.3189  -0.1058  -0.0867  -0.0716  -0.0194   0.0330
     0.0575   0.0878   0.1065   0.1287   0.1524   0.1741   0.1829   0.2094
     0.2511   0.2635   0.2897   0.3247   0.3304   0.3573   0.3887   0.4428
     5.7417   5.8976   5.9676   6.0571   6.1032   6.2856   6.3182   6.3457
     6.4053   6.4189   6.4479   6.4646   6.4873   6.5111   6.5986   7.1059
     7.1905   7.2342   7.2639   7.2737   7.3010   7.3217   7.3793   7.4058
     7.4405   7.4709   7.5088   7.5170   7.5538   7.5863   7.6123   7.6503
     7.6596   7.6746   7.7373   7.7681   7.8175   8.0726   8.1041   8.1659
     8.1921   8.3732   8.3950   8.4786   8.5638   8.6478   8.7418   8.8021
     8.8553   8.8943   8.9406   8.9826   9.0180   9.0774   9.1156   9.1312
     9.1729   9.1964   9.2171   9.2675   9.2920   9.3132   9.4002   9.4331
     9.6617   9.6919   9.7256   9.7916   9.8595   9.8914   9.9823  10.0956
    12.0907  12.1831  12.2163  12.2675  12.3008  12.4232  13.1632  13.1792
    13.2169  13.2447  13.2703  13.3464  13.3692  13.4300  13.4897  13.4923
    13.5462  13.6236  13.6698  13.7721  13.8327  13.8951  13.9923  14.0275
    14.0720  14.1418  14.2084  14.4516  14.4969  14.6335  15.0555  15.1479

          k = 0.0000 0.2500-0.5000 ( 21174 PWs)   bands (ev):

   -46.7352 -46.6872 -46.6685 -46.6491 -46.6093 -46.5852 -46.5076 -46.3326
   -23.0232 -22.9686 -22.9487 -22.9324 -22.9276 -22.9216 -22.9111 -22.9067
   -22.8991 -22.8797 -22.8745 -22.8632 -22.8507 -22.8460 -22.8378 -22.8339
   -22.8214 -22.8132 -22.7598 -22.7329 -22.7279 -22.6171 -22.5827 -22.5792
   -14.7596 -14.7209 -14.6521 -14.6446 -14.6226 -14.6190 -14.5598 -14.4764
    -6.9471  -6.8294  -6.7704  -6.7288  -6.6931  -6.6560  -6.3670  -6.3326
    -6.2486  -6.2164  -6.1891  -6.1633  -6.1057  -6.0717  -6.0515  -6.0071
    -5.9760  -5.9586  -5.8954  -5.8387  -5.8057  -5.7489  -5.6625  -5.5761
    -0.3379  -0.3159  -0.2759  -0.1911  -0.0882  -0.0623  -0.0293  -0.0151
     0.0460   0.0623   0.0875   0.1136   0.1428   0.1547   0.1710   0.1990
     0.2405   0.2561   0.2718   0.2832   0.3221   0.3456   0.3779   0.4081
     5.7929   5.9179   6.0404   6.0866   6.2212   6.2587   6.4133   6.4525
     6.5941   6.6606   6.6758   6.7565   6.7828   6.8279   6.8763   6.9083
     6.9280   6.9808   7.0108   7.0328   7.1686   7.2522   7.2915   7.3134
     7.4009   7.4384   7.4515   7.5102   7.5703   7.6069   7.6143   7.6529
     7.6850   7.7023   7.7147   7.7287   7.8353   7.9330   8.0100   8.0710
     8.2633   8.3227   8.3459   8.4963   8.5456   8.5665   8.6787   8.7326
     8.7854   8.8957   8.9399   8.9602   8.9935   9.0160   9.0512   9.0756
     9.1009   9.1493   9.3371   9.3794   9.4041   9.4260   9.4486   9.4706
     9.5209   9.5444   9.6698   9.6946   9.7186   9.7955   9.8742   9.9994
    12.1629  12.1829  12.6750  12.6937  12.7060  12.7175  12.7291  12.9067
    12.9390  12.9635  13.2392  13.2698  13.3984  13.4514  13.5121  13.5210
    13.5361  13.5791  13.6324  13.6770  13.7625  13.8433  13.8742  13.9608
    14.1420  14.1560  14.4717  14.5425  14.8678  14.8956  15.2121  15.2313

          k = 0.0000-0.5000-0.5000 ( 21152 PWs)   bands (ev):

   -46.7352 -46.6872 -46.6685 -46.6491 -46.6093 -46.5852 -46.5076 -46.3326
   -23.0232 -22.9686 -22.9480 -22.9323 -22.9271 -22.9214 -22.9045 -22.9023
   -22.8990 -22.8814 -22.8794 -22.8641 -22.8505 -22.8503 -22.8381 -22.8339
   -22.8214 -22.8097 -22.7615 -22.7349 -22.7280 -22.6179 -22.5828 -22.5792
   -14.7506 -14.7114 -14.6588 -14.6405 -14.6317 -14.6135 -14.5702 -14.4797
    -6.9262  -6.7978  -6.7499  -6.7003  -6.5823  -6.5515  -6.5112  -6.4053
    -6.2605  -6.2232  -6.1905  -6.1461  -6.1204  -6.0985  -6.0571  -6.0387
    -5.9834  -5.9680  -5.9112  -5.8566  -5.8048  -5.7494  -5.6603  -5.5733
    -0.2777  -0.2713  -0.2201  -0.1745  -0.1210  -0.0859  -0.0691  -0.0248
     0.0173   0.0737   0.0830   0.1140   0.1377   0.1607   0.1821   0.1951
     0.2114   0.2197   0.2407   0.2769   0.3226   0.3340   0.3694   0.4288
     5.8204   5.9649   6.0482   6.1218   6.4846   6.5436   6.5702   6.6318
     6.7192   6.7490   6.7922   6.8042   6.8190   6.8485   6.8803   6.9125
     6.9410   6.9804   7.0030   7.0813   7.1465   7.1537   7.2033   7.3211
     7.3405   7.3676   7.3955   7.4917   7.5147   7.5492   7.5719   7.5762
     7.6238   7.6571   7.7004   7.7048   7.8244   7.9197   7.9428   8.0253
     8.0444   8.1027   8.1416   8.1866   8.4835   8.5324   8.5853   8.6541
     8.9120   8.9561   8.9986   9.0348   9.0712   9.0921   9.1080   9.1377
     9.1953   9.2446   9.2976   9.3253   9.3629   9.3785   9.4040   9.4833
     9.5173   9.5705   9.6106   9.6479   9.7058   9.7243   9.7652   9.8130
    12.5745  12.6313  12.6533  12.7255  12.7691  12.7869  12.8231  12.9176
    12.9377  12.9475  13.0543  13.1306  13.1938  13.2952  13.3070  13.4584
    13.5480  13.5733  13.6136  13.6485  13.7088  13.7338  13.8212  13.8563
    14.3279  14.3830  14.4220  14.5513  15.2890  15.4615  15.7177  15.7557

          k = 0.2500 0.2500 0.2500 ( 21167 PWs)   bands (ev):

   -46.7352 -46.6872 -46.6685 -46.6491 -46.6093 -46.5852 -46.5076 -46.3326
   -23.0203 -22.9705 -22.9489 -22.9358 -22.9292 -22.9255 -22.9111 -22.9065
   -22.8908 -22.8833 -22.8746 -22.8635 -22.8487 -22.8455 -22.8341 -22.8310
   -22.8238 -22.8131 -22.7612 -22.7336 -22.7296 -22.6171 -22.5838 -22.5775
   -14.7648 -14.7119 -14.6627 -14.6393 -14.6288 -14.6068 -14.5641 -14.4766
    -6.9387  -6.8533  -6.8151  -6.7600  -6.6153  -6.5515  -6.4872  -6.3037
    -6.2489  -6.2206  -6.1843  -6.1630  -6.1131  -6.0859  -6.0323  -6.0162
    -5.9812  -5.9574  -5.8861  -5.8344  -5.7977  -5.7520  -5.6578  -5.5811
    -0.4336  -0.4216  -0.1883  -0.1082  -0.0826  -0.0586  -0.0336  -0.0121
     0.0257   0.0437   0.0580   0.0703   0.0986   0.1354   0.1738   0.1834
     0.2201   0.2913   0.3022   0.3268   0.3458   0.3857   0.4264   0.4523
     5.8924   6.0340   6.0497   6.1113   6.2504   6.2806   6.3058   6.4009
     6.4656   6.4985   6.5176   6.5503   6.5870   6.6129   6.6345   7.0324
     7.1279   7.1357   7.2114   7.2267   7.2956   7.3440   7.3658   7.4046
     7.4487   7.4863   7.5020   7.5435   7.5513   7.5868   7.5998   7.6212
     7.6419   7.6647   7.6923   7.7488   7.7988   7.8800   7.9466   8.1179
     8.1373   8.2021   8.3470   8.3735   8.6031   8.6182   8.6606   8.8316
     8.8906   8.9293   8.9671   8.9995   9.0239   9.0677   9.1117   9.1414
     9.1573   9.1807   9.2205   9.2610   9.2745   9.3111   9.3610   9.4255
     9.5722   9.6223   9.6270   9.7449   9.8396   9.8737   9.9205  10.0058
    12.2671  12.3139  12.3493  12.3955  12.4335  12.4656  13.1757  13.2002
    13.2120  13.2465  13.2693  13.2986  13.3454  13.3500  13.3763  13.4117
    13.4670  13.5105  13.6486  13.6942  13.7239  13.8632  13.8885  13.9148
    14.4196  14.4546  14.4720  14.5067  14.5790  15.0293  15.0811  15.1631

          k = 0.2500 0.2500-0.5000 ( 21192 PWs)   bands (ev):

   -46.7352 -46.6872 -46.6685 -46.6491 -46.6093 -46.5852 -46.5076 -46.3326
   -23.0203 -22.9686 -22.9486 -22.9354 -22.9256 -22.9216 -22.9106 -22.9067
   -22.8991 -22.8790 -22.8743 -22.8620 -22.8507 -22.8460 -22.8377 -22.8330
   -22.8239 -22.8132 -22.7612 -22.7333 -22.7282 -22.6171 -22.5838 -22.5792
   -14.7538 -14.7097 -14.6543 -14.6444 -14.6272 -14.6180 -14.5674 -14.4817
    -6.8923  -6.7951  -6.7335  -6.6910  -6.6857  -6.6428  -6.4231  -6.3515
    -6.2595  -6.2236  -6.1816  -6.1713  -6.1339  -6.0805  -6.0535  -6.0118
    -5.9868  -5.9693  -5.9020  -5.8473  -5.8139  -5.7616  -5.6682  -5.5853
    -0.2974  -0.2888  -0.2495  -0.2216  -0.0790  -0.0598  -0.0315  -0.0057
     0.0104   0.0451   0.0580   0.0709   0.0815   0.0966   0.1247   0.1423
     0.1748   0.2025   0.3442   0.3576   0.3827   0.4068   0.4402   0.4538
     5.9699   6.0710   6.1854   6.2043   6.2288   6.2484   6.4802   6.5057
     6.5863   6.6414   6.6819   6.7831   6.8057   6.8347   6.8679   6.9123
     6.9750   6.9989   7.0240   7.0708   7.1696   7.2321   7.2697   7.3452
     7.4096   7.4340   7.4928   7.5009   7.5168   7.5607   7.6067   7.6419
     7.6880   7.7049   7.7224   7.7495   7.7796   7.8325   7.9679   8.0114
     8.0255   8.0973   8.2445   8.2758   8.4045   8.4115   8.5861   8.6309
     8.9062   8.9484   8.9701   9.0342   9.0713   9.1084   9.1426   9.1535
     9.1951   9.2177   9.3072   9.3300   9.3526   9.3703   9.3953   9.4479
     9.4724   9.5457   9.6635   9.6792   9.6977   9.7659   9.8198   9.9372
    12.3532  12.3781  12.7121  12.7234  12.7574  12.7780  12.8470  12.9026
    12.9567  13.0241  13.2640  13.2797  13.3567  13.3768  13.3876  13.4227
    13.4379  13.4771  13.5764  13.6163  13.6669  13.6970  13.7632  13.8455
    14.4867  14.4983  14.8456  14.8648  14.9555  14.9701  15.2943  15.3303

          k = 0.2500-0.5000-0.5000 ( 21180 PWs)   bands (ev):

   -46.7352 -46.6872 -46.6685 -46.6491 -46.6093 -46.5852 -46.5076 -46.3326
   -23.0203 -22.9686 -22.9480 -22.9353 -22.9249 -22.9214 -22.9042 -22.9023
   -22.8990 -22.8811 -22.8790 -22.8627 -22.8506 -22.8503 -22.8380 -22.8330
   -22.8239 -22.8098 -22.7627 -22.7355 -22.7282 -22.6179 -22.5838 -22.5792
   -14.7455 -14.7004 -14.6513 -14.6447 -14.6322 -14.6192 -14.5793 -14.4853
    -6.8688  -6.7555  -6.7168  -6.6617  -6.6033  -6.5490  -6.5259  -6.4108
    -6.2646  -6.2296  -6.1920  -6.1552  -6.1312  -6.1105  -6.0659  -6.0450
    -6.0010  -5.9757  -5.9269  -5.8657  -5.8151  -5.7678  -5.6669  -5.5851
    -0.2453  -0.2358  -0.1954  -0.1657  -0.1334  -0.1216  -0.1111  -0.0631
    -0.0266  -0.0136   0.0335   0.0446   0.0482   0.0631   0.0931   0.1082
     0.2792   0.3133   0.3258   0.3366   0.4274   0.4464   0.4573   0.4865
     6.0067   6.1317   6.2122   6.2603   6.4387   6.4955   6.5025   6.5685
     6.6728   6.7158   6.7358   6.7708   6.8576   6.8689   6.9013   6.9833
     7.0360   7.0703   7.1239   7.1351   7.1531   7.1736   7.2254   7.2618
     7.3130   7.3270   7.3717   7.4755   7.5253   7.5548   7.5930   7.6339
     7.6519   7.6723   7.7125   7.7223   7.7891   7.8511   7.8799   7.9383
     7.9426   7.9965   8.0336   8.0556   8.2108   8.2633   8.2947   8.3884
     9.0176   9.0543   9.0733   9.0840   9.1411   9.1804   9.1928   9.2425
     9.2672   9.2810   9.3162   9.3378   9.3648   9.3810   9.4034   9.4373
     9.5282   9.5514   9.5953   9.6323   9.6841   9.7211   9.7462   9.7937
    12.6985  12.7369  12.7665  12.8172  12.8393  12.8536  12.8881  12.9494
    12.9839  13.0255  13.0771  13.1493  13.1922  13.2788  13.2923  13.3888
    13.4125  13.4408  13.4612  13.5049  13.5589  13.5835  13.6747  13.7085
    14.7667  14.8281  14.8700  14.9939  15.2945  15.4685  15.7323  15.7528

          k =-0.5000-0.5000-0.5000 ( 21008 PWs)   bands (ev):

   -46.7352 -46.6872 -46.6685 -46.6491 -46.6093 -46.5852 -46.5076 -46.3326
   -23.0171 -22.9685 -22.9479 -22.9386 -22.9227 -22.9213 -22.9037 -22.9023
   -22.8990 -22.8809 -22.8785 -22.8612 -22.8507 -22.8503 -22.8379 -22.8321
   -22.8265 -22.8098 -22.7641 -22.7361 -22.7284 -22.6179 -22.5849 -22.5792
   -14.7400 -14.6758 -14.6712 -14.6351 -14.6274 -14.6272 -14.5915 -14.4912
    -6.7661  -6.7049  -6.6976  -6.6487  -6.6062  -6.5753  -6.5347  -6.4246
    -6.2661  -6.2354  -6.1907  -6.1694  -6.1428  -6.1262  -6.0791  -6.0527
    -6.0111  -5.9826  -5.9420  -5.8787  -5.8278  -5.7801  -5.6750  -5.5955
    -0.1988  -0.1957  -0.1703  -0.1465  -0.1261  -0.1229  -0.1089  -0.1016
    -0.0857  -0.0670  -0.0533  -0.0454  -0.0330  -0.0117   0.0262   0.0513
     0.3922   0.4073   0.4207   0.4427   0.4458   0.4733   0.4847   0.5028
     6.2821   6.2929   6.3381   6.3527   6.3696   6.3838   6.4516   6.5072
     6.7822   6.7911   6.8203   6.8551   6.8808   6.9329   6.9442   6.9787
     7.0332   7.0671   7.0935   7.1358   7.1900   7.2321   7.2918   7.3590
     7.4215   7.4665   7.4959   7.5269   7.5430   7.5535   7.5618   7.5909
     7.6157   7.6332   7.6740   7.6779   7.7221   7.7546   7.7727   7.7911
     7.8270   7.8438   7.8592   7.8756   7.9043   7.9409   8.0021   8.0571
     9.1448   9.1638   9.1776   9.2006   9.2243   9.2440   9.2577   9.2773
     9.2914   9.3051   9.3378   9.3649   9.3845   9.4078   9.4578   9.4858
     9.5012   9.5407   9.5730   9.5959   9.6684   9.7017   9.7337   9.7574
    12.8278  12.9421  12.9698  12.9860  13.0169  13.0229  13.0634  13.0740
    13.0858  13.0952  13.1208  13.1298  13.1387  13.1743  13.2014  13.2282
    13.2326  13.2578  13.2751  13.3111  13.3626  13.4262  13.4414  13.4911
    15.2965  15.4409  15.4838  15.5590  15.6132  15.6534  15.7303  15.7672

          k = 0.2500 0.0000 0.0000 ( 21146 PWs)   bands (ev):

   -46.7352 -46.6872 -46.6685 -46.6491 -46.6093 -46.5852 -46.5076 -46.3326
   -23.0203 -22.9725 -22.9498 -22.9375 -22.9331 -22.9266 -22.9154 -22.9102
   -22.8872 -22.8851 -22.8711 -22.8624 -22.8471 -22.8415 -22.8336 -22.8267
   -22.8238 -22.8159 -22.7602 -22.7325 -22.7300 -22.6162 -22.5838 -22.5758
   -14.7850 -14.7142 -14.6750 -14.6347 -14.6288 -14.5906 -14.5552 -14.4685
    -7.0120  -6.9503  -6.9196  -6.7908  -6.5801  -6.5585  -6.4453  -6.2635
    -6.2450  -6.2178  -6.1774  -6.1685  -6.1096  -6.0269  -6.0142  -5.9930
    -5.9858  -5.9663  -5.8252  -5.7924  -5.7754  -5.7362  -5.6487  -5.5750
    -0.5259  -0.5153  -0.4717  -0.1039  -0.0838  -0.0235   0.0345   0.0683
     0.0772   0.0868   0.1085   0.1190   0.1526   0.1926   0.2110   0.2197
     0.2349   0.2425   0.2793   0.3602   0.3834   0.4090   0.4196   0.4471
     5.6982   5.8102   5.9265   5.9547   6.1109   6.1317   6.2035   6.2532
     6.2745   6.2983   6.3452   6.3785   6.3981   6.4424   6.5272   7.0930
     7.2070   7.2551   7.2840   7.3356   7.3667   7.4022   7.4115   7.4469
     7.4695   7.4951   7.5195   7.5314   7.5608   7.5735   7.6142   7.6603
     7.6869   7.7273   7.7437   7.9729   8.0576   8.1537   8.2167   8.2391
     8.3025   8.3387   8.3818   8.3982   8.4473   8.4813   8.7467   8.7952
     8.8651   8.9137   8.9624   9.0191   9.0436   9.0784   9.0937   9.1309
     9.1850   9.1971   9.2236   9.2918   9.3238   9.4395   9.4581   9.5500
     9.7320   9.7814   9.8115   9.8707   9.9829  10.0432  10.0801  10.1003
    11.8488  11.9554  12.1270  12.1492  12.2419  12.2702  13.1776  13.2357
    13.2873  13.3149  13.3824  13.3927  13.4334  13.4638  13.4832  13.5521
    13.5899  13.6453  13.7588  13.7798  13.8033  13.8736  13.9621  14.0245
    14.0533  14.1055  14.1378  14.1763  14.3050  14.6160  14.7253  15.1132

          k = 0.0000 0.2500 0.0000 ( 21146 PWs)   bands (ev):

   -46.7352 -46.6872 -46.6685 -46.6491 -46.6093 -46.5852 -46.5076 -46.3326
   -23.0232 -22.9724 -22.9491 -22.9364 -22.9312 -22.9274 -22.9118 -22.9064
   -22.8874 -22.8850 -22.8753 -22.8655 -22.8467 -22.8454 -22.8346 -22.8268
   -22.8213 -22.8129 -22.7599 -22.7338 -22.7302 -22.6170 -22.5827 -22.5758
   -14.7828 -14.7242 -14.6571 -14.6409 -14.6249 -14.6026 -14.5524 -14.4671
    -7.0321  -6.9396  -6.9171  -6.7940  -6.5897  -6.5672  -6.3852  -6.2651
    -6.2405  -6.2154  -6.1846  -6.1594  -6.1164  -6.0483  -6.0260  -6.0053
    -5.9778  -5.9574  -5.8546  -5.8087  -5.7538  -5.7260  -5.6422  -5.5703
    -0.5289  -0.5100  -0.4706  -0.1074  -0.0901  -0.0010   0.0226   0.0351
     0.0719   0.0911   0.1115   0.1381   0.1621   0.1735   0.1887   0.2098
     0.2650   0.2679   0.2857   0.3701   0.3782   0.3958   0.4195   0.4438
     5.6546   5.8515   5.8878   5.9265   6.1066   6.1310   6.2118   6.2547
     6.2717   6.3430   6.3510   6.3902   6.4332   6.4408   6.5122   7.2116
     7.2395   7.2587   7.2927   7.3172   7.3321   7.3558   7.3747   7.4130
     7.4465   7.4718   7.4976   7.5149   7.5596   7.5854   7.6178   7.6694
     7.6781   7.7231   7.7779   7.9416   8.0662   8.0944   8.2076   8.2869
     8.3126   8.3433   8.3728   8.4349   8.4766   8.4951   8.7622   8.8136
     8.8359   8.9424   8.9661   9.0011   9.0358   9.0768   9.1052   9.1579
     9.1723   9.2126   9.2530   9.2936   9.3153   9.4039   9.4296   9.5442
     9.7823   9.8113   9.8358   9.8601   9.9240   9.9636   9.9974  10.2108
    11.8826  12.0000  12.1216  12.1359  12.2222  12.2388  13.1950  13.2258
    13.2409  13.2671  13.3728  13.4118  13.4765  13.4817  13.5444  13.5491
    13.5652  13.6048  13.7702  13.7955  13.8312  13.8838  13.9460  13.9995
    14.0347  14.1365  14.1407  14.1772  14.2883  14.6481  14.6715  15.1062

          k =-0.5000 0.0000 0.0000 ( 21178 PWs)   bands (ev):

   -46.7352 -46.6872 -46.6685 -46.6491 -46.6093 -46.5852 -46.5076 -46.3326
   -23.0171 -22.9724 -22.9497 -22.9396 -22.9342 -22.9252 -22.9142 -22.9102
   -22.8870 -22.8851 -22.8703 -22.8613 -22.8473 -22.8415 -22.8327 -22.8267
   -22.8264 -22.8160 -22.7618 -22.7325 -22.7306 -22.6162 -22.5848 -22.5758
   -14.7723 -14.7034 -14.6920 -14.6370 -14.6255 -14.5850 -14.5649 -14.4735
    -6.9281  -6.8767  -6.8009  -6.7849  -6.7370  -6.6799  -6.3741  -6.2887
    -6.2402  -6.2177  -6.1728  -6.1671  -6.1029  -6.0158  -6.0041  -5.9982
    -5.9806  -5.9666  -5.8473  -5.8180  -5.8155  -5.7511  -5.6614  -5.5832
    -0.3795  -0.3253  -0.2815  -0.2378  -0.2044  -0.1073   0.0184   0.0771
     0.0878   0.1106   0.1241   0.1320   0.1688   0.1875   0.1974   0.2043
     0.2364   0.2571   0.2682   0.2784   0.2868   0.3288   0.3759   0.4067
     5.7851   5.8057   6.0076   6.0473   6.0731   6.1147   6.2725   6.3626
     6.5341   6.6079   6.6270   6.7130   6.7249   6.7857   6.8086   6.8838
     6.9179   6.9682   6.9911   7.0634   7.1830   7.2212   7.2880   7.3940
     7.4127   7.4911   7.5289   7.5393   7.5732   7.5966   7.6092   7.6161
     7.6690   7.6968   7.7291   7.7947   7.8909   7.9914   8.3060   8.3401
     8.4339   8.5005   8.5500   8.5618   8.6140   8.6705   8.6814   8.7280
     8.7894   8.8069   8.8286   8.8430   8.8718   8.9113   8.9423   8.9527
     9.0594   9.1132   9.3681   9.4001   9.4319   9.5089   9.5452   9.5808
     9.5916   9.6216   9.6398   9.7128   9.7952   9.8477  10.0445  10.0827
    11.8732  11.9315  12.6136  12.6499  12.6668  12.6776  12.7315  12.8496
    12.9082  13.0025  13.3286  13.3923  13.4810  13.5034  13.5264  13.5711
    13.6415  13.6517  13.7095  13.7215  13.7823  13.8523  13.8885  13.9111
    14.0132  14.0604  14.3858  14.4465  14.5190  14.7120  14.9244  15.1764

          k = 0.0000-0.5000 0.0000 ( 21178 PWs)   bands (ev):

   -46.7352 -46.6872 -46.6685 -46.6491 -46.6093 -46.5852 -46.5076 -46.3326
   -23.0232 -22.9724 -22.9484 -22.9364 -22.9312 -22.9268 -22.9052 -22.9018
   -22.8874 -22.8850 -22.8814 -22.8668 -22.8498 -22.8465 -22.8346 -22.8269
   -22.8212 -22.8094 -22.7616 -22.7355 -22.7305 -22.6179 -22.5827 -22.5758
   -14.7636 -14.7352 -14.6512 -14.6327 -14.6273 -14.6162 -14.5568 -14.4705
    -6.9839  -6.8319  -6.8198  -6.7813  -6.7133  -6.6983  -6.2988  -6.2633
    -6.2276  -6.2043  -6.1947  -6.1588  -6.1024  -6.0717  -6.0627  -5.9958
    -5.9674  -5.9620  -5.8963  -5.8487  -5.7714  -5.7351  -5.6472  -5.5751
    -0.3318  -0.3224  -0.3084  -0.2783  -0.1911  -0.1244   0.0529   0.0665
     0.0844   0.1059   0.1142   0.1253   0.1384   0.1679   0.1977   0.2254
     0.2533   0.2771   0.2846   0.2933   0.3138   0.3225   0.3583   0.3856
     5.6926   5.8908   5.9295   5.9688   6.1174   6.1294   6.2144   6.3716
     6.6358   6.6576   6.7288   6.7361   6.7819   6.8279   6.8433   6.8566
     6.8947   6.9690   6.9968   7.0243   7.1222   7.2316   7.2907   7.3603
     7.4164   7.4232   7.4360   7.4829   7.5293   7.5834   7.6104   7.6345
     7.6412   7.7172   7.7694   7.8173   7.8956   7.9667   8.3079   8.4275
     8.4706   8.4992   8.5165   8.6015   8.6281   8.6653   8.6933   8.7387
     8.7695   8.8012   8.8580   8.8741   8.8773   8.9118   8.9628   8.9832
     9.0250   9.0705   9.3905   9.4427   9.4525   9.4856   9.5343   9.5824
     9.6390   9.6485   9.6684   9.7174   9.7334   9.7476   9.8622  10.2055
    11.9026  11.9803  12.5851  12.6302  12.6750  12.7213  12.7709  12.7858
    12.8759  12.8935  13.3713  13.4091  13.5166  13.5209  13.5470  13.5655
    13.6413  13.6473  13.6815  13.7053  13.8231  13.8733  13.8839  13.9104
    13.9482  14.1145  14.3821  14.4547  14.5624  14.6277  14.9077  15.1177

          k = 0.0000-0.2500 0.2500 ( 21150 PWs)   bands (ev):

   -46.7352 -46.6872 -46.6685 -46.6491 -46.6093 -46.5852 -46.5076 -46.3326
   -23.0232 -22.9706 -22.9489 -22.9332 -22.9289 -22.9274 -22.9116 -22.9065
   -22.8907 -22.8836 -22.8751 -22.8648 -22.8486 -22.8455 -22.8349 -22.8312
   -22.8214 -22.8130 -22.7599 -22.7332 -22.7291 -22.6171 -22.5827 -22.5775
   -14.7728 -14.7212 -14.6524 -14.6449 -14.6263 -14.6080 -14.5563 -14.4716
    -6.9929  -6.8910  -6.8609  -6.7805  -6.6364  -6.5296  -6.4499  -6.2611
    -6.2462  -6.2153  -6.1787  -6.1711  -6.1248  -6.0597  -6.0245  -6.0019
    -5.9820  -5.9551  -5.8785  -5.8270  -5.7774  -5.7385  -5.6522  -5.5730
    -0.5000  -0.4324  -0.3209  -0.1266  -0.0757  -0.0533  -0.0148   0.0352
     0.0437   0.0847   0.1038   0.1264   0.1533   0.1631   0.1830   0.2186
     0.2556   0.2692   0.2830   0.3232   0.3428   0.3681   0.3926   0.4212
     5.7420   5.8969   5.9698   6.0547   6.1028   6.2835   6.3104   6.3388
     6.4082   6.4255   6.4508   6.4703   6.4854   6.5247   6.5997   7.0888
     7.2054   7.2357   7.2554   7.2767   7.3058   7.3449   7.3754   7.4052
     7.4328   7.4503   7.4972   7.5327   7.5589   7.5925   7.5998   7.6319
     7.6685   7.6807   7.7352   7.7695   7.8279   8.0418   8.0985   8.1613
     8.1908   8.3667   8.3888   8.5036   8.5708   8.6497   8.7706   8.7949
     8.8482   8.8823   8.9196   8.9987   9.0292   9.0942   9.1343   9.1559
     9.1889   9.1980   9.2209   9.2429   9.2655   9.3262   9.3581   9.4123
     9.6365   9.6931   9.7298   9.8197   9.8513   9.9054   9.9939  10.0954
    12.0936  12.1711  12.2260  12.2671  12.2944  12.4120  13.1643  13.1823
    13.2320  13.2449  13.2774  13.3456  13.3565  13.4313  13.4915  13.4941
    13.5438  13.6232  13.6699  13.7722  13.8331  13.8963  13.9896  14.0304
    14.0702  14.1454  14.2020  14.4531  14.5051  14.6319  15.0453  15.1528

          k = 0.2500 0.0000-0.2500 ( 21150 PWs)   bands (ev):

   -46.7352 -46.6872 -46.6685 -46.6491 -46.6093 -46.5852 -46.5076 -46.3326
   -23.0203 -22.9706 -22.9496 -22.9359 -22.9292 -22.9266 -22.9152 -22.9104
   -22.8908 -22.8832 -22.8709 -22.8619 -22.8490 -22.8417 -22.8340 -22.8309
   -22.8239 -22.8161 -22.7601 -22.7316 -22.7293 -22.6163 -22.5838 -22.5775
   -14.7746 -14.7137 -14.6691 -14.6386 -14.6294 -14.5975 -14.5575 -14.4732
    -6.9665  -6.8982  -6.8728  -6.7791  -6.6103  -6.5426  -6.4972  -6.2711
    -6.2361  -6.2217  -6.1915  -6.1656  -6.1102  -6.0321  -6.0221  -5.9986
    -5.9886  -5.9693  -5.8426  -5.8159  -5.7854  -5.7545  -5.6564  -5.5805
    -0.4979  -0.4333  -0.3295  -0.0954  -0.0886  -0.0307  -0.0238   0.0215
     0.0451   0.0780   0.0931   0.1184   0.1487   0.1753   0.2065   0.2234
     0.2369   0.2601   0.2840   0.3181   0.3293   0.3818   0.4031   0.4193
     5.8071   5.9243   5.9385   6.0602   6.1179   6.2229   6.2842   6.3720
     6.4092   6.4266   6.4449   6.4501   6.4750   6.5036   6.6073   7.0728
     7.1609   7.1970   7.2775   7.3061   7.3309   7.3719   7.3872   7.3974
     7.4428   7.4965   7.5139   7.5336   7.5713   7.5817   7.5980   7.6254
     7.6506   7.6870   7.7156   7.7629   7.8039   8.0862   8.1047   8.1205
     8.1923   8.4033   8.4251   8.4613   8.5381   8.6393   8.7790   8.8272
     8.8474   8.8784   8.9270   8.9668   9.0049   9.0704   9.1257   9.1617
     9.1678   9.2054   9.2212   9.2451   9.3013   9.3328   9.3639   9.3940
     9.6320   9.6582   9.7095   9.8411   9.9133   9.9646  10.0035  10.0256
    12.0827  12.1493  12.2151  12.2515  12.3186  12.4632  13.1741  13.1987
    13.2208  13.2562  13.2719  13.2957  13.4004  13.4373  13.4703  13.4969
    13.5474  13.6085  13.6475  13.7996  13.8291  13.9295  13.9656  14.0040
    14.0831  14.1331  14.1930  14.3941  14.5604  14.6611  15.0941  15.1276

          k =-0.2500 0.0000-0.2500 ( 21150 PWs)   bands (ev):

   -46.7352 -46.6872 -46.6685 -46.6491 -46.6093 -46.5852 -46.5076 -46.3326
   -23.0203 -22.9706 -22.9496 -22.9358 -22.9292 -22.9267 -22.9152 -22.9104
   -22.8908 -22.8832 -22.8709 -22.8619 -22.8490 -22.8417 -22.8340 -22.8309
   -22.8239 -22.8161 -22.7601 -22.7316 -22.7293 -22.6163 -22.5838 -22.5775
   -14.7746 -14.7136 -14.6694 -14.6381 -14.6296 -14.5975 -14.5575 -14.4732
    -6.9679  -6.8984  -6.8704  -6.7746  -6.6250  -6.5649  -6.4442  -6.2881
    -6.2537  -6.2241  -6.1824  -6.1675  -6.1015  -6.0505  -6.0214  -5.9935
    -5.9804  -5.9606  -5.8417  -5.8175  -5.7960  -5.7471  -5.6553  -5.5822
    -0.4983  -0.4342  -0.3271  -0.1064  -0.0869  -0.0257  -0.0188   0.0172
     0.0530   0.0734   0.0921   0.1202   0.1450   0.1761   0.2052   0.2187
     0.2397   0.2633   0.2856   0.3180   0.3372   0.3809   0.3991   0.4163
     5.8032   5.9186   5.9413   6.0609   6.1222   6.2301   6.2712   6.3747
     6.3970   6.4302   6.4391   6.4595   6.4938   6.5063   6.6060   7.0749
     7.1594   7.2232   7.2553   7.2919   7.3150   7.3552   7.3913   7.4058
     7.4521   7.4779   7.5055   7.5256   7.5540   7.5922   7.6045   7.6305
     7.6821   7.6979   7.7226   7.7659   7.8260   8.0655   8.0854   8.1288
     8.2071   8.3887   8.4150   8.4800   8.5174   8.6741   8.6951   8.8059
     8.8690   8.9017   8.9422   8.9794   9.0044   9.0803   9.1047   9.1351
     9.1657   9.2001   9.2040   9.2530   9.2832   9.3308   9.3882   9.4704
     9.6325   9.6661   9.7083   9.8502   9.9353   9.9408   9.9781  10.0229
    12.0816  12.1674  12.1887  12.2590  12.3064  12.4609  13.1886  13.2010
    13.2168  13.2536  13.2714  13.3085  13.3651  13.4673  13.4753  13.4957
    13.5465  13.6046  13.6453  13.7973  13.8331  13.9261  13.9712  13.9985
    14.0840  14.1295  14.1934  14.3995  14.5558  14.6629  15.0915  15.1281

          k = 0.2500-0.2500 0.0000 ( 21150 PWs)   bands (ev):

   -46.7352 -46.6872 -46.6685 -46.6491 -46.6093 -46.5852 -46.5076 -46.3326
   -23.0203 -22.9724 -22.9491 -22.9375 -22.9331 -22.9255 -22.9113 -22.9064
   -22.8872 -22.8850 -22.8747 -22.8642 -22.8469 -22.8454 -22.8337 -22.8268
   -22.8237 -22.8129 -22.7613 -22.7340 -22.7307 -22.6170 -22.5838 -22.5758
   -14.7737 -14.7160 -14.6689 -14.6353 -14.6280 -14.5995 -14.5603 -14.4718
    -6.9784  -6.8950  -6.8673  -6.7781  -6.6139  -6.5658  -6.4441  -6.2746
    -6.2447  -6.2241  -6.1817  -6.1666  -6.1016  -6.0548  -6.0383  -6.0073
    -5.9936  -5.9473  -5.8649  -5.8259  -5.7763  -5.7381  -5.6496  -5.5764
    -0.4967  -0.4440  -0.3154  -0.1074  -0.0887  -0.0580  -0.0105   0.0246
     0.0512   0.0773   0.1094   0.1240   0.1513   0.1735   0.1806   0.2278
     0.2489   0.2589   0.2965   0.3237   0.3393   0.3689   0.3956   0.4132
     5.7699   5.8963   5.9720   6.0437   6.1286   6.2500   6.3138   6.3451
     6.3988   6.4330   6.4527   6.4671   6.4982   6.5358   6.5452   7.0817
     7.2072   7.2350   7.2640   7.2845   7.2993   7.3313   7.3640   7.4220
     7.4370   7.4563   7.4942   7.5274   7.5388   7.5859   7.6114   7.6431
     7.6735   7.7023   7.7237   7.7516   7.8291   8.0348   8.0883   8.1437
     8.2506   8.3797   8.4386   8.4671   8.5042   8.6867   8.7421   8.8146
     8.8544   8.8979   8.9255   8.9835   9.0213   9.0722   9.1126   9.1461
     9.1799   9.1953   9.2291   9.2582   9.2926   9.3227   9.3660   9.4316
     9.6604   9.6923   9.7334   9.7645   9.8789   9.9320   9.9612  10.0983
    12.0734  12.1710  12.2132  12.2582  12.3211  12.4390  13.1487  13.2042
    13.2283  13.2591  13.3011  13.3293  13.3768  13.4115  13.4468  13.4873
    13.5878  13.5985  13.6877  13.7787  13.8029  13.9139  13.9664  14.0261
    14.0546  14.1343  14.2107  14.4616  14.5059  14.6702  15.0526  15.1516

          k =-0.2500-0.2500 0.0000 ( 21150 PWs)   bands (ev):

   -46.7352 -46.6872 -46.6685 -46.6491 -46.6093 -46.5852 -46.5076 -46.3326
   -23.0203 -22.9724 -22.9491 -22.9375 -22.9331 -22.9255 -22.9113 -22.9064
   -22.8872 -22.8850 -22.8747 -22.8642 -22.8469 -22.8454 -22.8337 -22.8268
   -22.8237 -22.8129 -22.7613 -22.7340 -22.7307 -22.6170 -22.5838 -22.5758
   -14.7738 -14.7157 -14.6691 -14.6349 -14.6283 -14.5998 -14.5602 -14.4718
    -6.9787  -6.8968  -6.8618  -6.7853  -6.6078  -6.5295  -6.4976  -6.2714
    -6.2366  -6.2165  -6.1804  -6.1588  -6.1309  -6.0514  -6.0312  -5.9994
    -5.9775  -5.9553  -5.8755  -5.8236  -5.7805  -5.7367  -5.6480  -5.5769
    -0.4974  -0.4439  -0.3163  -0.1025  -0.0858  -0.0656  -0.0126   0.0156
     0.0601   0.0859   0.1150   0.1247   0.1426   0.1697   0.1924   0.2268
     0.2429   0.2677   0.2938   0.3223   0.3284   0.3621   0.4018   0.4164
     5.7695   5.8943   5.9725   6.0380   6.1302   6.2502   6.3211   6.3458
     6.4030   6.4346   6.4543   6.4696   6.4948   6.5247   6.5538   7.0773
     7.2035   7.2321   7.2497   7.2775   7.3070   7.3452   7.3904   7.4101
     7.4399   7.4647   7.5169   7.5376   7.5564   7.5800   7.6031   7.6300
     7.6589   7.6811   7.7208   7.7437   7.8053   8.0534   8.0936   8.1527
     8.2059   8.3381   8.4526   8.4842   8.5584   8.6671   8.7601   8.8152
     8.8629   8.8883   8.9492   8.9947   9.0156   9.0962   9.1309   9.1477
     9.1786   9.1913   9.2269   9.2503   9.2739   9.3101   9.3583   9.3938
     9.6380   9.6999   9.7261   9.7640   9.9010   9.9419   9.9727  10.0927
    12.1055  12.1357  12.2065  12.2645  12.3244  12.4385  13.1706  13.2005
    13.2246  13.2425  13.2937  13.3334  13.3793  13.4159  13.4427  13.4860
    13.5886  13.6000  13.6937  13.7770  13.8020  13.9145  13.9638  14.0283
    14.0511  14.1319  14.2211  14.4606  14.5020  14.6698  15.0621  15.1418

          k = 0.2500 0.0000 0.5000 ( 21174 PWs)   bands (ev):

   -46.7352 -46.6872 -46.6685 -46.6491 -46.6093 -46.5852 -46.5076 -46.3326
   -23.0203 -22.9687 -22.9493 -22.9354 -22.9267 -22.9218 -22.9145 -22.9105
   -22.8991 -22.8790 -22.8702 -22.8608 -22.8510 -22.8427 -22.8370 -22.8330
   -22.8240 -22.8163 -22.7600 -22.7312 -22.7281 -22.6163 -22.5838 -22.5792
   -14.7608 -14.7175 -14.6584 -14.6476 -14.6250 -14.6087 -14.5588 -14.4783
    -6.9146  -6.8241  -6.7802  -6.7302  -6.7085  -6.6729  -6.3892  -6.3254
    -6.2556  -6.2244  -6.1830  -6.1649  -6.1140  -6.0645  -6.0306  -5.9924
    -5.9796  -5.9579  -5.8700  -5.8371  -5.8102  -5.7601  -5.6646  -5.5863
    -0.3435  -0.3017  -0.2567  -0.2132  -0.1098  -0.0712  -0.0013   0.0052
     0.0364   0.0719   0.0931   0.0991   0.1181   0.1418   0.1637   0.1842
     0.2393   0.2830   0.2917   0.3118   0.3163   0.3505   0.3770   0.3802
     5.8743   5.9478   6.0175   6.0917   6.1573   6.2234   6.4288   6.4360
     6.6106   6.6649   6.6976   6.7322   6.7869   6.8310   6.8658   6.8983
     6.9172   6.9888   7.0170   7.0381   7.1536   7.2175   7.2738   7.3682
     7.3880   7.4568   7.4903   7.5093   7.5446   7.6013   7.6317   7.6551
     7.6760   7.6971   7.7303   7.7700   7.8141   7.8958   7.9696   8.0431
     8.2787   8.3100   8.3544   8.4867   8.5857   8.6341   8.6826   8.7531
     8.7850   8.8733   8.8862   8.9436   8.9751   9.0101   9.0446   9.0780
     9.1001   9.1470   9.3351   9.3670   9.3888   9.4194   9.4577   9.4950
     9.5204   9.5853   9.6796   9.6966   9.7238   9.7878   9.8710  10.0028
    12.1533  12.1910  12.6196  12.6567  12.7444  12.7542  12.8048  12.8632
    12.8757  13.0279  13.2530  13.2890  13.3588  13.4102  13.4830  13.5372
    13.5763  13.6202  13.6382  13.7077  13.7345  13.8072  13.8734  13.9549
    14.1461  14.1499  14.4627  14.4928  14.9185  14.9431  15.1893  15.2560

          k =-0.5000-0.2500 0.0000 ( 21174 PWs)   bands (ev):

   -46.7352 -46.6872 -46.6685 -46.6491 -46.6093 -46.5852 -46.5076 -46.3326
   -23.0171 -22.9724 -22.9490 -22.9396 -22.9342 -22.9236 -22.9106 -22.9064
   -22.8871 -22.8850 -22.8743 -22.8626 -22.8470 -22.8454 -22.8327 -22.8267
   -22.8263 -22.8129 -22.7628 -22.7342 -22.7312 -22.6170 -22.5848 -22.5758
   -14.7630 -14.6962 -14.6932 -14.6354 -14.6256 -14.5938 -14.5709 -14.4769
    -6.9059  -6.8440  -6.7792  -6.7283  -6.6869  -6.6634  -6.4306  -6.3198
    -6.2394  -6.2209  -6.1766  -6.1679  -6.1164  -6.0704  -6.0320  -6.0042
    -5.9870  -5.9505  -5.8844  -5.8412  -5.8069  -5.7451  -5.6568  -5.5818
    -0.3378  -0.3180  -0.3005  -0.1715  -0.0904  -0.0460  -0.0401   0.0117
     0.0512   0.0554   0.0890   0.1057   0.1206   0.1313   0.1845   0.2209
     0.2422   0.2579   0.2848   0.2955   0.3140   0.3551   0.3665   0.3846
     5.8500   5.9033   6.0257   6.1266   6.2189   6.2608   6.4097   6.4810
     6.5588   6.6337   6.7005   6.7230   6.7801   6.8136   6.8443   6.8737
     6.9452   6.9659   7.0009   7.0685   7.1522   7.2729   7.2875   7.3529
     7.3606   7.4069   7.4805   7.5309   7.5544   7.5928   7.6232   7.6611
     7.6721   7.6955   7.7097   7.7690   7.8841   7.9182   7.9592   8.0289
     8.1766   8.3061   8.4225   8.5067   8.5719   8.6088   8.7098   8.7472
     8.8468   8.8653   8.9189   8.9755   8.9824   9.0226   9.0268   9.0913
     9.1036   9.1616   9.2888   9.3617   9.3944   9.4291   9.4609   9.4841
     9.5240   9.5625   9.5997   9.6267   9.7600   9.8272   9.9363   9.9828
    12.1399  12.1722  12.6519  12.6745  12.6961  12.7255  12.7952  12.9071
    12.9881  13.0137  13.2194  13.2430  13.3417  13.4749  13.4917  13.5393
    13.5656  13.5927  13.6114  13.6912  13.7260  13.8425  13.8895  13.9403
    14.1212  14.1451  14.4337  14.5639  14.8732  15.0336  15.1113  15.3348

          k = 0.0000-0.5000 0.2500 ( 21174 PWs)   bands (ev):

   -46.7352 -46.6872 -46.6685 -46.6491 -46.6093 -46.5852 -46.5076 -46.3326
   -23.0232 -22.9705 -22.9482 -22.9332 -22.9288 -22.9268 -22.9050 -22.9020
   -22.8907 -22.8836 -22.8814 -22.8659 -22.8500 -22.8484 -22.8350 -22.8312
   -22.8213 -22.8096 -22.7615 -22.7351 -22.7293 -22.6179 -22.5827 -22.5775
   -14.7574 -14.7252 -14.6487 -14.6392 -14.6308 -14.6157 -14.5631 -14.4750
    -6.9562  -6.8151  -6.7847  -6.7279  -6.6995  -6.6414  -6.3654  -6.3024
    -6.2575  -6.2175  -6.1914  -6.1507  -6.1114  -6.0968  -6.0469  -6.0195
    -5.9774  -5.9652  -5.9006  -5.8537  -5.7839  -5.7465  -5.6536  -5.5741
    -0.3412  -0.3231  -0.2535  -0.2185  -0.0853  -0.0496  -0.0374   0.0028
     0.0343   0.0601   0.1004   0.1183   0.1294   0.1527   0.1532   0.2222
     0.2437   0.2640   0.2756   0.2920   0.3125   0.3413   0.3607   0.4120
     5.7757   5.9486   5.9924   6.1164   6.1487   6.2842   6.3520   6.5060
     6.6828   6.7227   6.7486   6.7608   6.7968   6.8216   6.8526   6.8933
     6.9230   6.9574   6.9908   7.0330   7.1018   7.1809   7.2964   7.3523
     7.3647   7.4218   7.4658   7.5093   7.5298   7.5619   7.6081   7.6509
     7.6857   7.6924   7.7254   7.7580   7.8408   7.9827   8.0222   8.0663
     8.2832   8.3172   8.3975   8.4689   8.5264   8.6038   8.7048   8.7475
     8.7874   8.8862   8.9161   8.9469   8.9759   9.0317   9.0537   9.0745
     9.1177   9.1886   9.3145   9.3441   9.3705   9.4476   9.4806   9.5329
     9.5629   9.5938   9.6189   9.6439   9.7016   9.7221   9.8005  10.0884
    12.1399  12.2385  12.6277  12.6607  12.7177  12.7632  12.7887  12.8505
    12.8798  13.0005  13.2008  13.3452  13.3664  13.4349  13.4878  13.5376
    13.5490  13.6193  13.6559  13.6928  13.7245  13.7977  13.8657  14.0012
    14.0972  14.2105  14.4268  14.5704  14.8073  15.0326  15.0673  15.3032

          k = 0.2500-0.5000 0.0000 ( 21174 PWs)   bands (ev):

   -46.7352 -46.6872 -46.6685 -46.6491 -46.6093 -46.5852 -46.5076 -46.3326
   -23.0203 -22.9724 -22.9484 -22.9374 -22.9331 -22.9248 -22.9049 -22.9018
   -22.8873 -22.8850 -22.8811 -22.8651 -22.8498 -22.8466 -22.8337 -22.8268
   -22.8237 -22.8095 -22.7629 -22.7359 -22.7310 -22.6179 -22.5838 -22.5758
   -14.7576 -14.7232 -14.6627 -14.6304 -14.6245 -14.6160 -14.5653 -14.4753
    -6.9402  -6.8067  -6.7892  -6.7445  -6.6826  -6.6583  -6.3932  -6.3022
    -6.2400  -6.2210  -6.1826  -6.1633  -6.1169  -6.0773  -6.0681  -6.0051
    -5.9833  -5.9481  -5.9050  -5.8534  -5.7907  -5.7400  -5.6488  -5.5784
    -0.3349  -0.3172  -0.2592  -0.2350  -0.0836  -0.0574  -0.0399   0.0265
     0.0513   0.0661   0.0824   0.1030   0.1166   0.1283   0.1766   0.2219
     0.2492   0.2770   0.2898   0.3087   0.3179   0.3383   0.3631   0.3771
     5.8105   5.9574   5.9822   6.1146   6.1424   6.2806   6.3404   6.4941
     6.6897   6.7140   6.7397   6.7947   6.8031   6.8312   6.8522   6.8821
     6.9244   6.9543   6.9857   7.0350   7.1025   7.1838   7.2448   7.3536
     7.3923   7.4156   7.4762   7.4931   7.5386   7.5819   7.5974   7.6382
     7.6662   7.6978   7.7201   7.7692   7.8506   7.9472   7.9883   8.0519
     8.2671   8.3565   8.3780   8.4959   8.5711   8.6397   8.6771   8.7719
     8.8013   8.8805   8.9067   8.9387   8.9757   9.0077   9.0641   9.0861
     9.1012   9.1747   9.3176   9.3516   9.4162   9.4573   9.4910   9.5102
     9.5499   9.5642   9.6079   9.6390   9.6914   9.7618   9.7976  10.0899
    12.1349  12.2394  12.5927  12.6686  12.7129  12.7882  12.8108  12.8696
    12.8833  12.9862  13.1922  13.3433  13.3741  13.4496  13.4943  13.5354
    13.5617  13.5885  13.6550  13.6795  13.7437  13.7975  13.8467  14.0058
    14.0797  14.2094  14.3850  14.6120  14.8572  14.9971  15.1023  15.2898

          k =-0.5000 0.0000 0.2500 ( 21174 PWs)   bands (ev):

   -46.7352 -46.6872 -46.6685 -46.6491 -46.6093 -46.5852 -46.5076 -46.3326
   -23.0171 -22.9706 -22.9495 -22.9389 -22.9294 -22.9251 -22.9140 -22.9104
   -22.8908 -22.8830 -22.8701 -22.8608 -22.8491 -22.8417 -22.8333 -22.8306
   -22.8265 -22.8162 -22.7617 -22.7318 -22.7297 -22.6163 -22.5848 -22.5775
   -14.7639 -14.6934 -14.6927 -14.6412 -14.6258 -14.5930 -14.5666 -14.4784
    -6.8821  -6.8444  -6.7845  -6.7445  -6.7224  -6.6283  -6.4401  -6.3208
    -6.2479  -6.2228  -6.1809  -6.1711  -6.1144  -6.0580  -6.0144  -5.9944
    -5.9808  -5.9687  -5.8591  -5.8400  -5.8076  -5.7628  -5.6621  -5.5883
    -0.3615  -0.2978  -0.2580  -0.2086  -0.1063  -0.0308  -0.0099  -0.0087
     0.0352   0.0645   0.0894   0.0996   0.1351   0.1422   0.1581   0.2115
     0.2390   0.2429   0.2861   0.3039   0.3307   0.3527   0.3653   0.3915
     5.9030   5.9225   6.0197   6.0948   6.2040   6.2257   6.3947   6.4860
     6.5866   6.6711   6.6883   6.7100   6.7527   6.8052   6.8631   6.8982
     6.9154   6.9517   7.0290   7.0702   7.1313   7.2126   7.3135   7.3788
     7.4154   7.4586   7.4746   7.5108   7.5415   7.5768   7.6145   7.6336
     7.6608   7.6908   7.7173   7.7570   7.8974   7.9369   7.9661   8.0430
     8.2162   8.3788   8.3969   8.4351   8.5860   8.6203   8.6744   8.7096
     8.8256   8.8806   8.9079   8.9393   8.9781   9.0083   9.0514   9.0778
     9.1268   9.1740   9.3095   9.3448   9.3532   9.4154   9.4714   9.4930
     9.5190   9.5543   9.6407   9.6674   9.7685   9.8131   9.9405   9.9747
    12.1325  12.1781  12.6240  12.6667  12.7181  12.7599  12.8399  12.8547
    12.9013  13.0964  13.2273  13.2303  13.3567  13.4066  13.4985  13.5353
    13.5572  13.6086  13.6428  13.7174  13.7544  13.8199  13.8627  13.9381
    14.1207  14.1682  14.4238  14.5252  14.8887  15.0330  15.1053  15.3889

          k =-0.5000 0.0000 0.5000 ( 21152 PWs)   bands (ev):

   -46.7352 -46.6872 -46.6685 -46.6491 -46.6093 -46.5852 -46.5076 -46.3326
   -23.0171 -22.9687 -22.9493 -22.9386 -22.9252 -22.9216 -22.9135 -22.9106
   -22.8992 -22.8785 -22.8697 -22.8596 -22.8511 -22.8427 -22.8369 -22.8321
   -22.8266 -22.8164 -22.7616 -22.7316 -22.7284 -22.6163 -22.5849 -22.5792
   -14.7535 -14.6966 -14.6782 -14.6512 -14.6211 -14.6050 -14.5672 -14.4838
    -6.8246  -6.8057  -6.7733  -6.7202  -6.6409  -6.6024  -6.5038  -6.3844
    -6.2687  -6.2295  -6.1926  -6.1618  -6.1514  -6.0770  -6.0244  -5.9907
    -5.9795  -5.9685  -5.8743  -5.8554  -5.8125  -5.7686  -5.6656  -5.5918
    -0.2715  -0.2466  -0.2141  -0.1992  -0.1038  -0.0736  -0.0648  -0.0219
     0.0017   0.0086   0.0507   0.0809   0.1557   0.1838   0.1964   0.2090
     0.2256   0.2345   0.2670   0.2861   0.2936   0.3550   0.3776   0.3909
     5.9708   6.0066   6.0178   6.0982   6.4621   6.5121   6.5259   6.5933
     6.6995   6.7338   6.7503   6.7854   6.7932   6.8455   6.8938   6.9106
     6.9393   7.0010   7.0500   7.1045   7.1177   7.1839   7.2338   7.3316
     7.3402   7.3824   7.4482   7.4687   7.4830   7.5582   7.5913   7.6006
     7.6246   7.6339   7.6649   7.7199   7.8413   7.9163   7.9322   7.9536
     7.9907   8.0874   8.1376   8.1975   8.5267   8.5717   8.6254   8.6711
     8.8879   8.9208   8.9678   9.0379   9.0654   9.0834   9.0993   9.1350
     9.1653   9.2113   9.2649   9.3491   9.3672   9.3988   9.4525   9.4768
     9.5331   9.5835   9.6251   9.6823   9.6835   9.7101   9.7904   9.8131
    12.5134  12.5993  12.6344  12.7326  12.8107  12.8578  12.8956  12.9063
    12.9264  12.9626  13.0605  13.0897  13.1475  13.2521  13.3804  13.4493
    13.5719  13.6044  13.6238  13.6575  13.6809  13.7341  13.7935  13.8219
    14.3287  14.3867  14.4041  14.4985  15.5611  15.5761  15.6665  15.7007

          k =-0.5000 0.5000 0.0000 ( 21152 PWs)   bands (ev):

   -46.7352 -46.6872 -46.6685 -46.6491 -46.6093 -46.5852 -46.5076 -46.3326
   -23.0171 -22.9724 -22.9483 -22.9396 -22.9342 -22.9225 -22.9045 -22.9017
   -22.8871 -22.8850 -22.8809 -22.8633 -22.8498 -22.8468 -22.8327 -22.8268
   -22.8263 -22.8095 -22.7643 -22.7364 -22.7313 -22.6179 -22.5848 -22.5758
   -14.7511 -14.6984 -14.6876 -14.6348 -14.6176 -14.6094 -14.5772 -14.4804
    -6.8828  -6.8038  -6.7612  -6.6630  -6.6144  -6.5933  -6.5434  -6.3859
    -6.2402  -6.2232  -6.1883  -6.1772  -6.1345  -6.0812  -6.0698  -6.0088
    -5.9894  -5.9466  -5.9143  -5.8572  -5.8138  -5.7409  -5.6526  -5.5807
    -0.2793  -0.2527  -0.2273  -0.1793  -0.1397  -0.1027  -0.0545  -0.0025
     0.0050   0.0551   0.0766   0.0828   0.1672   0.1737   0.1852   0.2003
     0.2243   0.2366   0.2478   0.2971   0.3130   0.3383   0.3686   0.3891
     5.8843   5.9598   6.0282   6.1580   6.4763   6.5242   6.5596   6.6474
     6.6807   6.7093   6.7785   6.8064   6.8388   6.8544   6.8790   6.8848
     6.9610   7.0418   7.0588   7.0746   7.1043   7.1605   7.2049   7.2823
     7.3045   7.3638   7.4242   7.4440   7.5339   7.5516   7.5555   7.5877
     7.6137   7.6684   7.7113   7.7271   7.7949   7.8244   7.9384   7.9830
     8.0047   8.0804   8.1254   8.3338   8.5263   8.5803   8.5960   8.6604
     8.9055   8.9529   9.0021   9.0424   9.0585   9.1040   9.1238   9.1518
     9.1645   9.2118   9.3171   9.3413   9.3916   9.3997   9.4384   9.4677
     9.4838   9.5401   9.5800   9.6398   9.6584   9.7223   9.7953   9.8539
    12.5644  12.5942  12.6252  12.7022  12.7516  12.8154  12.8933  12.9423
    12.9925  13.0036  13.0255  13.1577  13.1646  13.2386  13.2775  13.5152
    13.5656  13.5868  13.6206  13.6262  13.6617  13.7023  13.8196  13.8810
    14.3027  14.3315  14.3971  14.6141  15.4913  15.6227  15.6580  15.6914

          k =-0.2500-0.2500 0.2500 ( 21167 PWs)   bands (ev):

   -46.7352 -46.6872 -46.6685 -46.6491 -46.6093 -46.5852 -46.5076 -46.3326
   -23.0203 -22.9705 -22.9489 -22.9358 -22.9291 -22.9255 -22.9111 -22.9065
   -22.8907 -22.8833 -22.8746 -22.8635 -22.8488 -22.8455 -22.8341 -22.8310
   -22.8238 -22.8131 -22.7612 -22.7336 -22.7296 -22.6171 -22.5838 -22.5775
   -14.7649 -14.7118 -14.6624 -14.6395 -14.6291 -14.6066 -14.5641 -14.4766
    -6.9377  -6.8454  -6.8251  -6.7633  -6.5862  -6.5592  -6.5192  -6.2811
    -6.2401  -6.2255  -6.1803  -6.1667  -6.1410  -6.0591  -6.0369  -6.0163
    -5.9840  -5.9641  -5.8862  -5.8335  -5.7922  -5.7541  -5.6575  -5.5822
    -0.4431  -0.4096  -0.1889  -0.1033  -0.0843  -0.0658  -0.0417  -0.0026
     0.0262   0.0507   0.0570   0.0706   0.1007   0.1259   0.1559   0.1874
     0.2302   0.3008   0.3143   0.3233   0.3364   0.3893   0.4303   0.4413
     5.8984   6.0341   6.0488   6.1075   6.2426   6.2866   6.3021   6.4065
     6.4600   6.4910   6.5190   6.5664   6.5806   6.6112   6.6403   7.0308
     7.1087   7.1701   7.2009   7.2313   7.2694   7.3660   7.3797   7.4183
     7.4534   7.4831   7.4940   7.5274   7.5612   7.5958   7.6087   7.6190
     7.6432   7.6598   7.6976   7.7077   7.8183   7.8749   7.8934   8.1080
     8.1666   8.1931   8.3002   8.4146   8.5957   8.6656   8.6814   8.8511
     8.8886   8.9163   8.9732   9.0147   9.0341   9.0699   9.0984   9.1479
     9.1842   9.1908   9.2231   9.2439   9.2913   9.3083   9.3182   9.3653
     9.5327   9.6098   9.6311   9.7412   9.8390   9.9046   9.9383  10.0189
    12.2778  12.3088  12.3435  12.4012  12.4327  12.4610  13.1659  13.1854
    13.2377  13.2498  13.2756  13.2946  13.3402  13.3560  13.3897  13.4141
    13.4403  13.5090  13.6542  13.6953  13.7217  13.8626  13.8865  13.9214
    14.4109  14.4513  14.4772  14.5110  14.5811  15.0286  15.0775  15.1687

          k =-0.2500 0.2500-0.2500 ( 21167 PWs)   bands (ev):

   -46.7352 -46.6872 -46.6685 -46.6491 -46.6093 -46.5852 -46.5076 -46.3326
   -23.0203 -22.9705 -22.9489 -22.9358 -22.9291 -22.9255 -22.9111 -22.9065
   -22.8907 -22.8833 -22.8746 -22.8635 -22.8488 -22.8455 -22.8341 -22.8310
   -22.8238 -22.8131 -22.7612 -22.7336 -22.7296 -22.6171 -22.5838 -22.5775
   -14.7647 -14.7120 -14.6627 -14.6399 -14.6286 -14.6063 -14.5643 -14.4766
    -6.9380  -6.8464  -6.8255  -6.7528  -6.6289  -6.5526  -6.4774  -6.2923
    -6.2474  -6.2330  -6.1869  -6.1679  -6.1076  -6.0681  -6.0491  -6.0070
    -5.9891  -5.9584  -5.8814  -5.8454  -5.7893  -5.7536  -5.6584  -5.5804
    -0.4397  -0.4123  -0.1866  -0.1205  -0.0743  -0.0541  -0.0234  -0.0148
     0.0161   0.0363   0.0544   0.0774   0.1010   0.1222   0.1556   0.1889
     0.2325   0.2957   0.3125   0.3298   0.3456   0.4065   0.4213   0.4313
     5.8921   6.0390   6.0506   6.1143   6.2459   6.2774   6.2974   6.3973
     6.4641   6.4959   6.5274   6.5511   6.5882   6.6098   6.6493   7.0359
     7.1202   7.1642   7.1908   7.2239   7.2909   7.3441   7.3711   7.3924
     7.4657   7.4817   7.4944   7.5168   7.5349   7.5908   7.6037   7.6262
     7.6590   7.6714   7.7055   7.7228   7.7907   7.9136   7.9584   8.0898
     8.1471   8.1800   8.3420   8.4070   8.5764   8.6460   8.6775   8.8377
     8.8750   8.9020   8.9757   8.9831   9.0090   9.0704   9.0975   9.1396
     9.1579   9.1945   9.2333   9.2589   9.2661   9.3181   9.3739   9.4243
     9.5894   9.6031   9.6519   9.7418   9.8420   9.8751   9.9049  10.0128
    12.2679  12.3001  12.3503  12.4000  12.4341  12.4569  13.1658  13.2081
    13.2228  13.2533  13.2787  13.2965  13.3455  13.3550  13.3637  13.4137
    13.4768  13.4973  13.6502  13.6921  13.7245  13.8610  13.8893  13.9169
    14.4193  14.4470  14.4768  14.5189  14.5692  15.0226  15.0773  15.1754

          k = 0.2500-0.2500-0.2500 ( 21167 PWs)   bands (ev):

   -46.7352 -46.6872 -46.6685 -46.6491 -46.6093 -46.5852 -46.5076 -46.3326
   -23.0203 -22.9705 -22.9489 -22.9358 -22.9291 -22.9255 -22.9111 -22.9065
   -22.8908 -22.8833 -22.8746 -22.8635 -22.8488 -22.8455 -22.8341 -22.8310
   -22.8238 -22.8131 -22.7612 -22.7336 -22.7296 -22.6171 -22.5838 -22.5775
   -14.7647 -14.7122 -14.6623 -14.6403 -14.6282 -14.6065 -14.5642 -14.4766
    -6.9375  -6.8467  -6.8292  -6.7560  -6.6058  -6.5615  -6.4867  -6.2923
    -6.2542  -6.2230  -6.1917  -6.1619  -6.1037  -6.0678  -6.0344  -6.0271
    -6.0030  -5.9541  -5.8773  -5.8334  -5.7955  -5.7592  -5.6521  -5.5830
    -0.4343  -0.4184  -0.1920  -0.0926  -0.0746  -0.0647  -0.0500  -0.0165
     0.0250   0.0530   0.0591   0.0723   0.0930   0.1282   0.1567   0.1904
     0.2297   0.2885   0.3122   0.3225   0.3480   0.3900   0.4196   0.4562
     5.8993   6.0379   6.0514   6.1059   6.2403   6.2875   6.3007   6.4041
     6.4622   6.4914   6.5246   6.5498   6.5694   6.6121   6.6388   7.0730
     7.1085   7.1564   7.1875   7.2103   7.2758   7.3426   7.3792   7.4220
     7.4639   7.4795   7.4961   7.5104   7.5618   7.5832   7.6074   7.6174
     7.6463   7.6820   7.6994   7.7306   7.8194   7.8890   7.9446   8.1158
     8.1550   8.1759   8.3361   8.3951   8.5933   8.6333   8.6399   8.8385
     8.8837   8.9372   8.9798   9.0099   9.0433   9.0546   9.0954   9.1367
     9.1537   9.1756   9.2210   9.2496   9.2977   9.3030   9.3753   9.4038
     9.5953   9.6076   9.6283   9.7356   9.8158   9.8825   9.9074  10.0256
    12.2670  12.3284  12.3453  12.4187  12.4278  12.4535  13.1642  13.1887
    13.2179  13.2393  13.2692  13.3036  13.3405  13.3659  13.3940  13.4176
    13.4426  13.5017  13.6548  13.6951  13.7200  13.8593  13.8950  13.9157
    14.4126  14.4493  14.4776  14.5178  14.5706  15.0255  15.0860  15.1669

          k =-0.2500 0.2500 0.5000 ( 21192 PWs)   bands (ev):

   -46.7352 -46.6872 -46.6685 -46.6491 -46.6093 -46.5852 -46.5076 -46.3326
   -23.0203 -22.9686 -22.9486 -22.9354 -22.9256 -22.9216 -22.9106 -22.9067
   -22.8991 -22.8790 -22.8743 -22.8620 -22.8507 -22.8460 -22.8377 -22.8330
   -22.8239 -22.8133 -22.7612 -22.7333 -22.7282 -22.6171 -22.5838 -22.5792
   -14.7537 -14.7097 -14.6544 -14.6457 -14.6258 -14.6179 -14.5676 -14.4817
    -6.8919  -6.7920  -6.7434  -6.6958  -6.6782  -6.6375  -6.4202  -6.3613
    -6.2568  -6.2297  -6.1868  -6.1645  -6.1167  -6.0826  -6.0520  -6.0157
    -5.9891  -5.9679  -5.9020  -5.8549  -5.8108  -5.7667  -5.6630  -5.5856
    -0.2929  -0.2822  -0.2572  -0.2197  -0.0844  -0.0604  -0.0283  -0.0066
     0.0119   0.0342   0.0569   0.0752   0.0840   0.1024   0.1189   0.1362
     0.1696   0.2059   0.3426   0.3693   0.3944   0.4048   0.4357   0.4486
     5.9700   6.0743   6.1806   6.2016   6.2279   6.2558   6.4791   6.4973
     6.6023   6.6413   6.6803   6.7777   6.8004   6.8373   6.8682   6.9067
     6.9421   6.9980   7.0458   7.0979   7.1722   7.2181   7.2802   7.3533
     7.4062   7.4336   7.4632   7.4844   7.5108   7.5884   7.5972   7.6254
     7.6725   7.6960   7.7264   7.7380   7.8080   7.8757   7.9877   8.0280
     8.0393   8.0976   8.2330   8.2727   8.3822   8.4078   8.5641   8.6417
     8.8984   8.9437   8.9524   8.9961   9.0877   9.1180   9.1360   9.1598
     9.1677   9.2422   9.3154   9.3341   9.3631   9.4000   9.4386   9.4437
     9.4839   9.5175   9.6594   9.6753   9.6995   9.7641   9.8184   9.9160
    12.3521  12.3808  12.7131  12.7225  12.7577  12.7774  12.8455  12.9014
    12.9579  13.0234  13.2671  13.2771  13.3579  13.3732  13.3915  13.4221
    13.4341  13.4770  13.5887  13.6131  13.6633  13.6959  13.7634  13.8445
    14.4874  14.4970  14.8432  14.8619  14.9636  14.9696  15.2893  15.3320

          k =-0.5000-0.2500 0.2500 ( 21192 PWs)   bands (ev):

   -46.7352 -46.6872 -46.6685 -46.6491 -46.6093 -46.5852 -46.5076 -46.3326
   -23.0171 -22.9705 -22.9488 -22.9389 -22.9293 -22.9236 -22.9104 -22.9065
   -22.8908 -22.8830 -22.8742 -22.8620 -22.8489 -22.8455 -22.8334 -22.8307
   -22.8265 -22.8131 -22.7628 -22.7340 -22.7299 -22.6171 -22.5848 -22.5775
   -14.7557 -14.6897 -14.6871 -14.6366 -14.6289 -14.6020 -14.5745 -14.4819
    -6.8584  -6.8101  -6.7451  -6.7106  -6.6754  -6.6208  -6.4747  -6.3375
    -6.2419  -6.2380  -6.1834  -6.1719  -6.1247  -6.0730  -6.0513  -6.0207
    -5.9927  -5.9674  -5.8910  -5.8528  -5.8064  -5.7641  -5.6651  -5.5884
    -0.3122  -0.2860  -0.2582  -0.1963  -0.0860  -0.0471  -0.0228  -0.0072
     0.0194   0.0241   0.0384   0.0601   0.0867   0.1036   0.1289   0.1528
     0.1648   0.2144   0.3470   0.3561   0.3919   0.4130   0.4322   0.4413
     6.0153   6.0476   6.1855   6.2127   6.2392   6.2607   6.4656   6.5217
     6.5789   6.6557   6.6983   6.7284   6.7791   6.8180   6.8562   6.8898
     6.9630   7.0144   7.0460   7.0790   7.1559   7.2642   7.3096   7.3409
     7.3893   7.4292   7.4833   7.4995   7.5168   7.5443   7.5918   7.6313
     7.6727   7.6897   7.7037   7.7667   7.7910   7.8960   7.9330   7.9864
     8.0224   8.1131   8.2197   8.3436   8.3741   8.4105   8.6231   8.6457
     8.9136   8.9480   8.9937   9.0249   9.0711   9.1009   9.1301   9.1681
     9.1895   9.2181   9.2665   9.3360   9.3500   9.3838   9.4035   9.4373
     9.4842   9.5501   9.5956   9.6309   9.7425   9.7998   9.8675   9.9182
    12.3304  12.3545  12.7132  12.7392  12.7612  12.7903  12.8292  12.9191
    12.9898  13.0867  13.2061  13.2547  13.3448  13.3672  13.3828  13.4268
    13.4835  13.4998  13.5362  13.5749  13.6921  13.7392  13.7509  13.8312
    14.4619  14.4858  14.7978  14.8597  14.9420  15.1588  15.1935  15.4505

          k = 0.5000-0.2500-0.2500 ( 21192 PWs)   bands (ev):

   -46.7352 -46.6872 -46.6685 -46.6491 -46.6093 -46.5852 -46.5076 -46.3326
   -23.0171 -22.9705 -22.9489 -22.9389 -22.9293 -22.9236 -22.9104 -22.9065
   -22.8908 -22.8830 -22.8742 -22.8620 -22.8489 -22.8455 -22.8334 -22.8307
   -22.8265 -22.8131 -22.7628 -22.7340 -22.7299 -22.6171 -22.5848 -22.5775
   -14.7557 -14.6900 -14.6871 -14.6366 -14.6286 -14.6022 -14.5744 -14.4820
    -6.8594  -6.8076  -6.7550  -6.7060  -6.6709  -6.6181  -6.4727  -6.3515
    -6.2483  -6.2227  -6.1811  -6.1705  -6.1258  -6.0920  -6.0370  -6.0095
    -5.9977  -5.9609  -5.8977  -5.8499  -5.8203  -5.7626  -5.6596  -5.5886
    -0.3123  -0.2834  -0.2551  -0.2068  -0.0864  -0.0465  -0.0216  -0.0022
     0.0141   0.0295   0.0370   0.0690   0.0836   0.1008   0.1367   0.1507
     0.1624   0.2065   0.3381   0.3620   0.3890   0.4113   0.4252   0.4571
     6.0185   6.0496   6.1784   6.2136   6.2350   6.2624   6.4656   6.5225
     6.5767   6.6519   6.6921   6.7417   6.7823   6.8163   6.8582   6.8895
     6.9811   7.0085   7.0297   7.0608   7.1397   7.2714   7.3191   7.3319
     7.4132   7.4435   7.4726   7.4831   7.5201   7.5532   7.5755   7.6384
     7.6701   7.6886   7.7265   7.7638   7.8197   7.8768   7.9344   7.9999
     8.0319   8.1021   8.2168   8.3482   8.3757   8.4003   8.6128   8.6274
     8.8977   8.9574   8.9988   9.0152   9.0488   9.0926   9.1339   9.1811
     9.1831   9.2686   9.2940   9.3292   9.3500   9.3862   9.4134   9.4342
     9.4770   9.5361   9.6115   9.6243   9.7307   9.7977   9.8683   9.9013
    12.3372  12.3614  12.7145  12.7357  12.7652  12.7892  12.8294  12.9185
    12.9907  13.0900  13.2001  13.2303  13.3555  13.3692  13.3839  13.4244
    13.4864  13.5019  13.5359  13.5698  13.7004  13.7389  13.7475  13.8293
    14.4607  14.4815  14.8001  14.8743  14.9423  15.1438  15.1924  15.4515

          k =-0.2500-0.5000 0.2500 ( 21192 PWs)   bands (ev):

   -46.7352 -46.6872 -46.6685 -46.6491 -46.6093 -46.5852 -46.5076 -46.3326
   -23.0203 -22.9705 -22.9482 -22.9358 -22.9291 -22.9248 -22.9047 -22.9020
   -22.8907 -22.8833 -22.8811 -22.8644 -22.8500 -22.8485 -22.8342 -22.8310
   -22.8238 -22.8096 -22.7628 -22.7357 -22.7297 -22.6179 -22.5838 -22.5775
   -14.7519 -14.7135 -14.6562 -14.6352 -14.6278 -14.6200 -14.5718 -14.4801
    -6.9068  -6.7725  -6.7583  -6.7106  -6.6588  -6.6261  -6.4238  -6.3387
    -6.2619  -6.2231  -6.1862  -6.1630  -6.1231  -6.0990  -6.0545  -6.0343
    -5.9962  -5.9618  -5.9105  -5.8540  -5.8036  -5.7598  -5.6532  -5.5847
    -0.3065  -0.2790  -0.2551  -0.2263  -0.0721  -0.0526  -0.0272  -0.0044
     0.0002   0.0342   0.0571   0.0673   0.0878   0.1111   0.1253   0.1464
     0.1592   0.2058   0.3487   0.3682   0.3849   0.4084   0.4239   0.4538
     5.9430   6.1037   6.1259   6.1433   6.2584   6.2941   6.4081   6.5588
     6.6792   6.7037   6.7449   6.7640   6.7857   6.8272   6.8527   6.8940
     6.9508   6.9993   7.0289   7.0723   7.1397   7.1975   7.2864   7.3312
     7.3972   7.4168   7.4492   7.4789   7.5069   7.5719   7.5843   7.6259
     7.6579   7.6932   7.7184   7.7722   7.8089   7.8886   7.9741   8.0119
     8.0816   8.1137   8.2908   8.3018   8.3341   8.3944   8.5532   8.6821
     8.9053   8.9376   8.9943   9.0369   9.0762   9.0907   9.1499   9.1609
     9.1759   9.2362   9.2784   9.3310   9.3734   9.4069   9.4406   9.4737
     9.5150   9.5457   9.5855   9.6136   9.6666   9.7371   9.7751  10.0140
    12.3322  12.4278  12.6670  12.7252  12.7739  12.8185  12.8650  12.8703
    12.9656  12.9931  13.2018  13.2867  13.3738  13.3860  13.3974  13.4439
    13.4929  13.5139  13.5340  13.5485  13.6724  13.6999  13.7338  13.8892
    14.4277  14.5601  14.7795  14.8836  14.9834  15.0593  15.1658  15.3801

          k =-0.2500 0.5000-0.2500 ( 21192 PWs)   bands (ev):

   -46.7352 -46.6872 -46.6685 -46.6491 -46.6093 -46.5852 -46.5076 -46.3326
   -23.0203 -22.9705 -22.9482 -22.9358 -22.9291 -22.9248 -22.9047 -22.9020
   -22.8907 -22.8833 -22.8811 -22.8644 -22.8500 -22.8485 -22.8342 -22.8310
   -22.8238 -22.8096 -22.7628 -22.7357 -22.7297 -22.6179 -22.5838 -22.5775
   -14.7519 -14.7135 -14.6564 -14.6351 -14.6278 -14.6199 -14.5718 -14.4801
    -6.9068  -6.7767  -6.7535  -6.7082  -6.6659  -6.6171  -6.4383  -6.3394
    -6.2470  -6.2179  -6.1969  -6.1582  -6.1226  -6.1034  -6.0602  -6.0189
    -5.9999  -5.9607  -5.9155  -5.8626  -5.7961  -5.7581  -5.6609  -5.5796
    -0.3028  -0.2728  -0.2598  -0.2380  -0.0705  -0.0529  -0.0274  -0.0045
     0.0138   0.0431   0.0544   0.0592   0.0858   0.1139   0.1267   0.1409
     0.1543   0.2031   0.3477   0.3789   0.3915   0.4075   0.4210   0.4460
     5.9365   6.1121   6.1295   6.1424   6.2556   6.2941   6.4064   6.5606
     6.6804   6.7079   6.7434   6.7744   6.7954   6.8118   6.8542   6.8857
     6.9602   6.9941   7.0148   7.0830   7.1350   7.1951   7.2790   7.3501
     7.3865   7.4046   7.4512   7.4759   7.5255   7.5700   7.6045   7.6327
     7.6606   7.6777   7.7139   7.7322   7.7967   7.9136   7.9843   8.0258
     8.0847   8.1055   8.2909   8.3057   8.3524   8.3990   8.5483   8.6610
     8.8922   8.9356   8.9731   9.0013   9.0462   9.0899   9.1502   9.1643
     9.1827   9.2781   9.3001   9.3323   9.3688   9.4167   9.4585   9.4987
     9.5282   9.5364   9.5861   9.6120   9.6940   9.7094   9.7667   9.9994
    12.3100  12.4347  12.6601  12.7290  12.7752  12.8201  12.8633  12.8750
    12.9695  12.9922  13.2213  13.2797  13.3483  13.3790  13.3976  13.4744
    13.5032  13.5065  13.5352  13.5438  13.6748  13.7040  13.7253  13.8860
    14.4364  14.5555  14.7789  14.8768  14.9830  15.0653  15.1651  15.3789

          k =-0.5000 0.2500 0.5000 ( 21180 PWs)   bands (ev):

   -46.7352 -46.6872 -46.6685 -46.6491 -46.6093 -46.5852 -46.5076 -46.3326
   -23.0171 -22.9686 -22.9486 -22.9386 -22.9236 -22.9215 -22.9099 -22.9067
   -22.8991 -22.8785 -22.8741 -22.8606 -22.8509 -22.8460 -22.8376 -22.8321
   -22.8266 -22.8133 -22.7627 -22.7338 -22.7284 -22.6171 -22.5849 -22.5792
   -14.7472 -14.6877 -14.6748 -14.6417 -14.6277 -14.6144 -14.5770 -14.4874
    -6.7956  -6.7643  -6.7380  -6.6814  -6.6220  -6.6016  -6.5104  -6.3975
    -6.2669  -6.2336  -6.1876  -6.1682  -6.1521  -6.0893  -6.0553  -6.0169
    -5.9975  -5.9783  -5.9088  -5.8665  -5.8200  -5.7749  -5.6704  -5.5936
    -0.2398  -0.2233  -0.1848  -0.1732  -0.1369  -0.1225  -0.1004  -0.0736
    -0.0380  -0.0251   0.0083   0.0381   0.0484   0.0561   0.1110   0.1293
     0.2918   0.3105   0.3380   0.3411   0.3976   0.4401   0.4718   0.4862
     6.1417   6.1681   6.1773   6.2307   6.4301   6.4640   6.4864   6.5391
     6.6574   6.6914   6.7110   6.7589   6.8537   6.8802   6.8978   6.9626
     7.0265   7.0477   7.1160   7.1321   7.1742   7.2284   7.2621   7.2877
     7.3163   7.3624   7.4056   7.4518   7.5296   7.5582   7.5978   7.6153
     7.6393   7.6718   7.7036   7.7428   7.7819   7.8208   7.8440   7.9076
     7.9146   7.9751   8.0254   8.0908   8.2060   8.2946   8.3287   8.3753
     9.0340   9.0695   9.0899   9.1132   9.1452   9.1572   9.1859   9.2053
     9.2328   9.2487   9.2916   9.3238   9.3598   9.3911   9.4288   9.4934
     9.5170   9.5537   9.6142   9.6434   9.6771   9.7038   9.7673   9.7950
    12.6472  12.7157  12.7513  12.8061  12.8863  12.9303  12.9478  12.9622
    12.9800  12.9903  13.0794  13.1154  13.1296  13.2377  13.3606  13.4189
    13.4324  13.4524  13.4632  13.5178  13.5349  13.5915  13.6446  13.6840
    14.7808  14.8206  14.8244  14.9223  15.5697  15.5866  15.6717  15.7505

          k =-0.5000 0.5000 0.2500 ( 21180 PWs)   bands (ev):

   -46.7352 -46.6872 -46.6685 -46.6491 -46.6093 -46.5852 -46.5076 -46.3326
   -23.0171 -22.9705 -22.9482 -22.9389 -22.9293 -22.9226 -22.9043 -22.9019
   -22.8907 -22.8831 -22.8809 -22.8627 -22.8500 -22.8487 -22.8334 -22.8307
   -22.8264 -22.8097 -22.7642 -22.7362 -22.7299 -22.6179 -22.5848 -22.5775
   -14.7458 -14.6890 -14.6803 -14.6308 -14.6240 -14.6183 -14.5840 -14.4856
    -6.8352  -6.7635  -6.7277  -6.6328  -6.6083  -6.5977  -6.5447  -6.3968
    -6.2483  -6.2285  -6.1896  -6.1759  -6.1408  -6.1015  -6.0688  -6.0368
    -6.0024  -5.9637  -5.9254  -5.8660  -5.8199  -5.7644  -5.6626  -5.5889
    -0.2452  -0.2216  -0.2090  -0.1685  -0.1482  -0.1303  -0.0838  -0.0555
    -0.0302  -0.0059   0.0164   0.0243   0.0414   0.0602   0.0967   0.1412
     0.2765   0.3222   0.3331   0.3392   0.4046   0.4519   0.4623   0.4796
     6.0623   6.1222   6.1944   6.2905   6.4299   6.4724   6.5023   6.5891
     6.6548   6.6663   6.7193   6.7814   6.8837   6.9021   6.9452   6.9530
     6.9903   7.0726   7.0909   7.1318   7.1588   7.2028   7.2286   7.2682
     7.3135   7.3568   7.3741   7.4477   7.5145   7.5389   7.5973   7.6275
     7.6476   7.6678   7.7167   7.7435   7.7590   7.8122   7.8602   7.8904
     7.9355   7.9676   8.0289   8.1238   8.2433   8.3001   8.3447   8.3722
     9.0354   9.0542   9.0853   9.1211   9.1370   9.1718   9.1848   9.2136
     9.2274   9.2687   9.3097   9.3581   9.3741   9.4040   9.4457   9.4794
     9.4980   9.5221   9.5704   9.6095   9.6495   9.7159   9.7638   9.8325
    12.6666  12.7208  12.7357  12.7916  12.8232  12.9013  12.9686  12.9770
    13.0181  13.0296  13.1062  13.1407  13.1548  13.2296  13.2776  13.4054
    13.4363  13.4641  13.4739  13.4988  13.5082  13.5573  13.6739  13.7310
    14.7259  14.7753  14.8444  15.0685  15.4993  15.6367  15.6500  15.6896

     the Fermi energy is    11.4582 ev

!    total energy              =   -5448.97959730 Ry
     estimated scf accuracy    <          2.8E-10 Ry
     smearing contrib. (-TS)   =      -0.00000000 Ry
     internal energy E=F+TS    =   -5448.97959730 Ry

     The total energy is F=E-TS. E is the sum of the following terms:
     one-electron contribution =    -574.85835889 Ry
     hartree contribution      =     484.22392334 Ry
     xc contribution           =    -486.39758299 Ry
     ewald contribution        =   -1643.88793650 Ry
     one-center paw contrib.   =   -3228.05964226 Ry

     convergence has been achieved in  26 iterations

     negative rho (up, down):  1.058E-02 0.000E+00

     Forces acting on atoms (cartesian axes, Ry/au):

     atom    1 type  1   force =    -0.01859374   -0.04174123    0.01190989
     atom    2 type  1   force =     0.02990339    0.00276318   -0.00351308
     atom    3 type  1   force =     0.00485536    0.01715781    0.01502903
     atom    4 type  1   force =    -0.00035321    0.00147140    0.01131730
     atom    5 type  1   force =    -0.01808094   -0.00457171   -0.01061028
     atom    6 type  1   force =    -0.00131670   -0.01029352   -0.00928431
     atom    7 type  1   force =     0.00650584    0.02502234    0.00714502
     atom    8 type  1   force =    -0.01203302    0.00800326   -0.00132823
     atom    9 type  2   force =    -0.00568704    0.01892034    0.02099942
     atom   10 type  2   force =     0.01443399   -0.03738280    0.01227451
     atom   11 type  2   force =    -0.04541824   -0.02053264    0.02607299
     atom   12 type  2   force =     0.04556497    0.03383198   -0.04846575
     atom   13 type  2   force =     0.01913000    0.01629302   -0.01717209
     atom   14 type  2   force =     0.01611149    0.00053043   -0.00001768
     atom   15 type  2   force =    -0.03040141   -0.00780536   -0.01391688
     atom   16 type  2   force =     0.01542040    0.01716223    0.03636115
     atom   17 type  3   force =    -0.00025906   -0.00895058   -0.00087678
     atom   18 type  3   force =    -0.00726982    0.01035636   -0.01339594
     atom   19 type  3   force =     0.00154354   -0.01786400    0.01296370
     atom   20 type  3   force =     0.03421338    0.01834246   -0.00399191
     atom   21 type  3   force =     0.00255407   -0.01010648   -0.01788124
     atom   22 type  3   force =     0.02507681   -0.00801436   -0.03154799
     atom   23 type  3   force =    -0.02242026   -0.00207579   -0.00235305
     atom   24 type  3   force =     0.02934252    0.00687582   -0.02339986
     atom   25 type  3   force =     0.03659426   -0.00441962   -0.04169321
     atom   26 type  3   force =    -0.01121655    0.00189635   -0.00077375
     atom   27 type  3   force =    -0.01686597   -0.00595962   -0.00227348
     atom   28 type  3   force =    -0.02266562   -0.01194524    0.00317433
     atom   29 type  3   force =     0.00627142    0.03518856    0.03064906
     atom   30 type  3   force =    -0.00554739   -0.00337006    0.01004079
     atom   31 type  3   force =    -0.00096355   -0.04802225    0.01058833
     atom   32 type  3   force =    -0.01512368   -0.01116966   -0.00542362
     atom   33 type  3   force =    -0.02904384   -0.00986453   -0.00934824
     atom   34 type  3   force =     0.00156903    0.01835761    0.02538482
     atom   35 type  3   force =     0.00042944    0.00283539    0.01535315
     atom   36 type  3   force =    -0.01410458   -0.00793261   -0.00718102
     atom   37 type  3   force =    -0.01796879    0.02302617    0.03153753
     atom   38 type  3   force =     0.01013339    0.00552369    0.01024517
     atom   39 type  3   force =    -0.00092446    0.00731726   -0.00999691
     atom   40 type  3   force =    -0.00339542    0.00114641   -0.01660090

     Total force =     0.204794     Total SCF correction =     0.000025
     Message from routine punch:
     Nothing written, as per user request (disk_io='none')

     init_run     :     59.49s CPU     62.23s WALL (       1 calls)
     electrons    :   3184.77s CPU   3360.53s WALL (       1 calls)
     forces       :     32.31s CPU     33.42s WALL (       1 calls)

     Called by init_run:
     wfcinit      :     22.01s CPU     24.11s WALL (       1 calls)
     potinit      :      4.58s CPU      4.72s WALL (       1 calls)
     hinit0       :      0.92s CPU      0.99s WALL (       1 calls)

     Called by electrons:
     c_bands      :   2648.12s CPU   2774.59s WALL (      26 calls)
     sum_band     :    401.66s CPU    430.36s WALL (      26 calls)
     v_of_rho     :     23.77s CPU     27.31s WALL (      27 calls)
     newd         :     53.63s CPU     70.80s WALL (      27 calls)
     PAW_pot      :     54.07s CPU     54.09s WALL (      27 calls)
     mix_rho      :      4.80s CPU      4.99s WALL (      26 calls)

     Called by c_bands:
     init_us_2    :     87.77s CPU     88.01s WALL (     486 calls)
     cegterg      :   1572.09s CPU   1697.47s WALL (     234 calls)

     Called by *egterg:
     cdiaghg      :     52.91s CPU     52.93s WALL (     887 calls)
     h_psi        :    776.80s CPU    842.03s WALL (     896 calls)
     s_psi        :    182.34s CPU    182.37s WALL (     896 calls)
     g_psi        :      7.04s CPU      7.04s WALL (     653 calls)

     Called by h_psi:
     h_psi:calbec :    184.20s CPU    185.33s WALL (     896 calls)
     vloc_psi     :    393.08s CPU    432.13s WALL (     896 calls)
                                        0.00s GPU  (     896 calls)
     add_vuspsi   :    190.12s CPU    190.15s WALL (     896 calls)

     General routines
     calbec       :    276.62s CPU    278.48s WALL (    1166 calls)
     fft          :     15.95s CPU     18.28s WALL (     360 calls)
     ffts         :      0.80s CPU      0.87s WALL (      53 calls)
     fftw         :    392.77s CPU    437.75s WALL (  240994 calls)
     interpolate  :      2.29s CPU      2.45s WALL (      27 calls)

     Parallel routines

     PWSCF        :  54m37.74s CPU  57m37.54s WALL


   This run was terminated on:   6: 2:12   4Oct2026            

=------------------------------------------------------------------------------=
   JOB DONE.
=------------------------------------------------------------------------------=
