
     Program PWSCF v.7.5 starts on  5Oct2026 at  0: 0:14 

     This program is part of the open-source Quantum ESPRESSO suite
     for quantum simulation of materials; please cite
         "P. Giannozzi et al., J. Phys.:Condens. Matter 21 395502 (2009);
         "P. Giannozzi et al., J. Phys.:Condens. Matter 29 465901 (2017);
         "P. Giannozzi et al., J. Chem. Phys. 152 154105 (2020);
          URL http://www.quantum-espresso.org", 
     in publications or presentations arising from this work. More details at
     http://www.quantum-espresso.org/quote

     Parallel version (MPI & OpenMP), running on       8 processor cores
     Number of MPI processes:                 8
     Threads/MPI process:                     1

     MPI processes distributed on     1 nodes
     103797 MiB available memory on the printing compute node when the environment starts

     Reading input from pw.in

     Current dimensions of program PWSCF are:
     Max number of different atomic species (ntypx) = 10
     Max number of k-points (npk) =  40000
     Max angular momentum in pseudopotentials (lmaxx) =  4
     file Ba.pbe-spn-kjpaw_psl.1.0.0.UPF: wavefunction(s)  5S 6S renormalized
     file O.pbe-n-kjpaw_psl.0.1.UPF: wavefunction(s)  2P renormalized

     K-points division:     npool     =       8
     Subspace diagonalization in iterative solution of the eigenvalue problem:
     a serial algorithm will be used


     G-vector sticks info
     --------------------
     sticks:   dense  smooth     PW     G-vecs:    dense   smooth      PW
     Sum        3713    1855    547               119945    42425    6649

     Using Slab Decomposition



     bravais-lattice index     =            0
     lattice parameter (alat)  =       7.6246  a.u.
     unit-cell volume          =     887.1631 (a.u.)^3
     number of atoms/cell      =           10
     number of atomic types    =            3
     number of electrons       =        80.00
     number of Kohn-Sham states=           48
     kinetic-energy cutoff     =      50.0000  Ry
     charge density cutoff     =     400.0000  Ry
     scf convergence threshold =      1.0E-09
     mixing beta               =       0.4000
     number of iterations used =            8  plain     mixing
     Exchange-correlation= SLA  PW   PBX  PBC
                           (   1   4   3   4   0   0   0)

     celldm(1)=   7.624593  celldm(2)=   0.000000  celldm(3)=   0.000000
     celldm(4)=   0.000000  celldm(5)=   0.000000  celldm(6)=   0.000000

     crystal axes: (cart. coord. in units of alat)
               a(1) = (  -1.000000   0.000002  -0.000000 )  
               a(2) = (  -0.000004   2.000525  -0.000001 )  
               a(3) = (  -0.000000   0.000000  -1.000483 )  

     reciprocal axes: (cart. coord. in units 2 pi/alat)
               b(1) = ( -1.000000 -0.000002  0.000000 )  
               b(2) = (  0.000001  0.499869  0.000000 )  
               b(3) = (  0.000000 -0.000000 -0.999518 )  


     PseudoPot. # 1 for Ba read from file:
     /root/sssp/Ba.pbe-spn-kjpaw_psl.1.0.0.UPF
     MD5 check sum: c432291d3e53af55f19d5e8866385beb
     Pseudo is Projector augmented-wave + core cor, Zval = 10.0
     Generated using "atomic" code by A. Dal Corso  v.5.1
     Shape of augmentation charge: PSQ
     Using radial grid of 1251 points,  7 beta functions with: 
                l(1) =   0
                l(2) =   0
                l(3) =   0
                l(4) =   1
                l(5) =   1
                l(6) =   2
                l(7) =   2
     Q(r) pseudized with 0 coefficients 


     PseudoPot. # 2 for Ti read from file:
     /root/sssp/ti_pbe_v1.4.uspp.F.UPF
     MD5 check sum: 88a00a6731bd790ddea75d31a80cb452
     Pseudo is Ultrasoft + core correction, Zval = 12.0
     Generated by new atomic code, or converted to UPF format
     Using radial grid of  851 points,  6 beta functions with: 
                l(1) =   0
                l(2) =   0
                l(3) =   1
                l(4) =   1
                l(5) =   2
                l(6) =   2
     Q(r) pseudized with  6 coefficients,  rinner =    1.000   1.000   1.000
                                                       1.000   1.000

     PseudoPot. # 3 for O  read from file:
     /root/sssp/O.pbe-n-kjpaw_psl.0.1.UPF
     MD5 check sum: 0234752ac141de4415c5fc33072bef88
     Pseudo is Projector augmented-wave + core cor, Zval =  6.0
     Generated using "atomic" code by A. Dal Corso  v.5.0.99 svn rev. 10869
     Shape of augmentation charge: BESSEL
     Using radial grid of 1095 points,  4 beta functions with: 
                l(1) =   0
                l(2) =   0
                l(3) =   1
                l(4) =   1
     Q(r) pseudized with 0 coefficients 


     atomic species   valence    mass     pseudopotential
     Ba               10.00   137.32700     Ba( 1.00)
     Ti               12.00    47.86700     Ti( 1.00)
     O                 6.00    15.99900     O ( 1.00)

     No symmetry found



   Cartesian axes

     site n.     atom                  positions (alat units)
         1        Ba     tau(   1) = (   0.0000056   1.0002206  -1.0004891  )
         2        Ba     tau(   2) = (  -0.0000590   2.0005167  -1.0004763  )
         3        Ti     tau(   3) = (  -0.5881391   0.5003547  -0.5085754  )
         4        Ti     tau(   4) = (  -0.4118960   1.5001602  -0.4918676  )
         5        O      tau(   5) = (  -0.9977831   0.5008917  -0.5002152  )
         6        O      tau(   6) = (  -1.0021805   1.4996767  -0.5002942  )
         7        O      tau(   7) = (  -0.5000480   1.0002083  -0.5002417  )
         8        O      tau(   8) = (  -0.4999358   2.0005744  -0.5002435  )
         9        O      tau(   9) = (  -0.5003119   0.5004692   0.0004459  )
        10        O      tau(  10) = (  -0.4996774   1.5000881  -0.0004614  )

     number of k points=    99  Marzari-Vanderbilt smearing, width (Ry)=  0.0050
                       cart. coord. in units 2pi/alat
        k(    1) = (   0.0000000   0.0000000   0.0000000), wk =   0.0102041
        k(    2) = (   0.0000000  -0.0000001  -0.1427882), wk =   0.0204082
        k(    3) = (   0.0000000  -0.0000001  -0.2855764), wk =   0.0204082
        k(    4) = (   0.0000001  -0.0000002  -0.4283646), wk =   0.0204082
        k(    5) = (   0.0000002   0.1249672   0.0000000), wk =   0.0204082
        k(    6) = (   0.0000003   0.1249672  -0.1427882), wk =   0.0204082
        k(    7) = (   0.0000003   0.1249671  -0.2855764), wk =   0.0204082
        k(    8) = (   0.0000003   0.1249671  -0.4283646), wk =   0.0204082
        k(    9) = (   0.0000002   0.1249674   0.4283647), wk =   0.0204082
        k(   10) = (   0.0000002   0.1249673   0.2855765), wk =   0.0204082
        k(   11) = (   0.0000002   0.1249673   0.1427883), wk =   0.0204082
        k(   12) = (  -0.0000005  -0.2499344  -0.0000001), wk =   0.0102041
        k(   13) = (  -0.0000005  -0.2499345  -0.1427883), wk =   0.0204082
        k(   14) = (  -0.0000004  -0.2499345  -0.2855765), wk =   0.0204082
        k(   15) = (  -0.0000004  -0.2499346  -0.4283647), wk =   0.0204082
        k(   16) = (  -0.1428571  -0.0000003   0.0000000), wk =   0.0204082
        k(   17) = (  -0.1428571  -0.0000003  -0.1427882), wk =   0.0204082
        k(   18) = (  -0.1428571  -0.0000004  -0.2855764), wk =   0.0204082
        k(   19) = (  -0.1428571  -0.0000004  -0.4283646), wk =   0.0204082
        k(   20) = (  -0.1428572  -0.0000001   0.4283647), wk =   0.0204082
        k(   21) = (  -0.1428572  -0.0000002   0.2855765), wk =   0.0204082
        k(   22) = (  -0.1428572  -0.0000002   0.1427882), wk =   0.0204082
        k(   23) = (  -0.1428569   0.1249669   0.0000001), wk =   0.0204082
        k(   24) = (  -0.1428569   0.1249669  -0.1427882), wk =   0.0204082
        k(   25) = (  -0.1428569   0.1249668  -0.2855764), wk =   0.0204082
        k(   26) = (  -0.1428568   0.1249668  -0.4283646), wk =   0.0204082
        k(   27) = (  -0.1428570   0.1249671   0.4283647), wk =   0.0204082
        k(   28) = (  -0.1428569   0.1249670   0.2855765), wk =   0.0204082
        k(   29) = (  -0.1428569   0.1249670   0.1427883), wk =   0.0204082
        k(   30) = (  -0.1428576  -0.2499347  -0.0000001), wk =   0.0204082
        k(   31) = (  -0.1428576  -0.2499347  -0.1427883), wk =   0.0204082
        k(   32) = (  -0.1428576  -0.2499348  -0.2855765), wk =   0.0204082
        k(   33) = (  -0.1428576  -0.2499348  -0.4283647), wk =   0.0204082
        k(   34) = (  -0.1428577  -0.2499345   0.4283646), wk =   0.0204082
        k(   35) = (  -0.1428577  -0.2499346   0.2855764), wk =   0.0204082
        k(   36) = (  -0.1428576  -0.2499346   0.1427881), wk =   0.0204082
        k(   37) = (  -0.1428574  -0.1249675  -0.0000000), wk =   0.0204082
        k(   38) = (  -0.1428574  -0.1249675  -0.1427882), wk =   0.0204082
        k(   39) = (  -0.1428573  -0.1249676  -0.2855765), wk =   0.0204082
        k(   40) = (  -0.1428573  -0.1249676  -0.4283647), wk =   0.0204082
        k(   41) = (  -0.1428574  -0.1249673   0.4283646), wk =   0.0204082
        k(   42) = (  -0.1428574  -0.1249674   0.2855764), wk =   0.0204082
        k(   43) = (  -0.1428574  -0.1249674   0.1427882), wk =   0.0204082
        k(   44) = (  -0.2857143  -0.0000006   0.0000000), wk =   0.0204082
        k(   45) = (  -0.2857143  -0.0000006  -0.1427882), wk =   0.0204082
        k(   46) = (  -0.2857142  -0.0000007  -0.2855764), wk =   0.0204082
        k(   47) = (  -0.2857142  -0.0000007  -0.4283646), wk =   0.0204082
        k(   48) = (  -0.2857143  -0.0000004   0.4283647), wk =   0.0204082
        k(   49) = (  -0.2857143  -0.0000005   0.2855765), wk =   0.0204082
        k(   50) = (  -0.2857143  -0.0000005   0.1427883), wk =   0.0204082
        k(   51) = (  -0.2857140   0.1249667   0.0000001), wk =   0.0204082
        k(   52) = (  -0.2857140   0.1249666  -0.1427881), wk =   0.0204082
        k(   53) = (  -0.2857140   0.1249665  -0.2855763), wk =   0.0204082
        k(   54) = (  -0.2857140   0.1249665  -0.4283646), wk =   0.0204082
        k(   55) = (  -0.2857141   0.1249668   0.4283647), wk =   0.0204082
        k(   56) = (  -0.2857141   0.1249668   0.2855765), wk =   0.0204082
        k(   57) = (  -0.2857141   0.1249667   0.1427883), wk =   0.0204082
        k(   58) = (  -0.2857148  -0.2499350  -0.0000001), wk =   0.0204082
        k(   59) = (  -0.2857148  -0.2499350  -0.1427883), wk =   0.0204082
        k(   60) = (  -0.2857147  -0.2499351  -0.2855765), wk =   0.0204082
        k(   61) = (  -0.2857147  -0.2499351  -0.4283647), wk =   0.0204082
        k(   62) = (  -0.2857148  -0.2499348   0.4283646), wk =   0.0204082
        k(   63) = (  -0.2857148  -0.2499349   0.2855764), wk =   0.0204082
        k(   64) = (  -0.2857148  -0.2499349   0.1427882), wk =   0.0204082
        k(   65) = (  -0.2857145  -0.1249678  -0.0000000), wk =   0.0204082
        k(   66) = (  -0.2857145  -0.1249678  -0.1427882), wk =   0.0204082
        k(   67) = (  -0.2857145  -0.1249679  -0.2855764), wk =   0.0204082
        k(   68) = (  -0.2857145  -0.1249679  -0.4283647), wk =   0.0204082
        k(   69) = (  -0.2857146  -0.1249676   0.4283646), wk =   0.0204082
        k(   70) = (  -0.2857146  -0.1249677   0.2855764), wk =   0.0204082
        k(   71) = (  -0.2857145  -0.1249677   0.1427882), wk =   0.0204082
        k(   72) = (  -0.4285714  -0.0000008   0.0000001), wk =   0.0204082
        k(   73) = (  -0.4285714  -0.0000009  -0.1427882), wk =   0.0204082
        k(   74) = (  -0.4285714  -0.0000009  -0.2855764), wk =   0.0204082
        k(   75) = (  -0.4285714  -0.0000010  -0.4283646), wk =   0.0204082
        k(   76) = (  -0.4285715  -0.0000007   0.4283647), wk =   0.0204082
        k(   77) = (  -0.4285715  -0.0000007   0.2855765), wk =   0.0204082
        k(   78) = (  -0.4285714  -0.0000008   0.1427883), wk =   0.0204082
        k(   79) = (  -0.4285712   0.1249664   0.0000001), wk =   0.0204082
        k(   80) = (  -0.4285712   0.1249663  -0.1427881), wk =   0.0204082
        k(   81) = (  -0.4285711   0.1249663  -0.2855763), wk =   0.0204082
        k(   82) = (  -0.4285711   0.1249662  -0.4283645), wk =   0.0204082
        k(   83) = (  -0.4285712   0.1249665   0.4283647), wk =   0.0204082
        k(   84) = (  -0.4285712   0.1249665   0.2855765), wk =   0.0204082
        k(   85) = (  -0.4285712   0.1249664   0.1427883), wk =   0.0204082
        k(   86) = (  -0.4285719  -0.2499352  -0.0000000), wk =   0.0204082
        k(   87) = (  -0.4285719  -0.2499353  -0.1427882), wk =   0.0204082
        k(   88) = (  -0.4285719  -0.2499353  -0.2855765), wk =   0.0204082
        k(   89) = (  -0.4285719  -0.2499354  -0.4283647), wk =   0.0204082
        k(   90) = (  -0.4285720  -0.2499351   0.4283646), wk =   0.0204082
        k(   91) = (  -0.4285720  -0.2499351   0.2855764), wk =   0.0204082
        k(   92) = (  -0.4285719  -0.2499352   0.1427882), wk =   0.0204082
        k(   93) = (  -0.4285717  -0.1249680   0.0000000), wk =   0.0204082
        k(   94) = (  -0.4285717  -0.1249681  -0.1427882), wk =   0.0204082
        k(   95) = (  -0.4285716  -0.1249681  -0.2855764), wk =   0.0204082
        k(   96) = (  -0.4285716  -0.1249682  -0.4283646), wk =   0.0204082
        k(   97) = (  -0.4285717  -0.1249679   0.4283647), wk =   0.0204082
        k(   98) = (  -0.4285717  -0.1249679   0.2855764), wk =   0.0204082
        k(   99) = (  -0.4285717  -0.1249680   0.1427882), wk =   0.0204082

     Dense  grid:   119945 G-vectors     FFT dimensions: (  50, 100,  50)

     Smooth grid:    42425 G-vectors     FFT dimensions: (  36,  72,  36)

     Estimated max dynamical RAM per process >     195.87 MB

     Estimated total dynamical RAM >       1.33 GB

     Check: negative core charge=   -0.000004

     Initial potential from superposition of free atoms

     starting charge      77.9659, renormalised to      80.0000

     negative rho (up, down):  3.075E-03 0.000E+00
     Starting wfcs are   54 randomized atomic wfcs
     Checking if some PAW data can be deallocated... 

     total cpu time spent up to now is       20.7 secs

     per-process dynamical memory:   136.4 Mb

     Self-consistent Calculation

     iteration #  1     ecut=    50.00 Ry     beta= 0.40
     Davidson diagonalization with overlap
     ethr =  1.00E-02,  avg # of iterations =  2.0

     negative rho (up, down):  8.203E-03 0.000E+00

     total cpu time spent up to now is       56.2 secs

     total energy              =   -1361.66228214 Ry
     estimated scf accuracy    <       1.69614677 Ry

     iteration #  2     ecut=    50.00 Ry     beta= 0.40
     Davidson diagonalization with overlap
     ethr =  2.12E-03,  avg # of iterations =  3.5

     negative rho (up, down):  1.639E-02 0.000E+00

     total cpu time spent up to now is       92.2 secs

     total energy              =   -1361.88127807 Ry
     estimated scf accuracy    <       1.59118297 Ry

     iteration #  3     ecut=    50.00 Ry     beta= 0.40
     Davidson diagonalization with overlap
     ethr =  1.99E-03,  avg # of iterations =  2.3

     negative rho (up, down):  3.664E-02 0.000E+00

     total cpu time spent up to now is      120.7 secs

     total energy              =   -1362.18265516 Ry
     estimated scf accuracy    <       0.08583291 Ry

     iteration #  4     ecut=    50.00 Ry     beta= 0.40
     Davidson diagonalization with overlap
     ethr =  1.07E-04,  avg # of iterations =  6.6

     negative rho (up, down):  3.833E-02 0.000E+00

     total cpu time spent up to now is      154.3 secs

     total energy              =   -1362.18865372 Ry
     estimated scf accuracy    <       0.01940646 Ry

     iteration #  5     ecut=    50.00 Ry     beta= 0.40
     Davidson diagonalization with overlap
     ethr =  2.43E-05,  avg # of iterations =  4.8

     negative rho (up, down):  2.616E-02 0.000E+00

     total cpu time spent up to now is      195.9 secs

     total energy              =   -1362.19235987 Ry
     estimated scf accuracy    <       0.00786282 Ry

     iteration #  6     ecut=    50.00 Ry     beta= 0.40
     Davidson diagonalization with overlap
     ethr =  9.83E-06,  avg # of iterations =  2.5

     negative rho (up, down):  6.507E-02 0.000E+00

     total cpu time spent up to now is      235.6 secs

     total energy              =   -1362.19225541 Ry
     estimated scf accuracy    <       0.00923597 Ry

     iteration #  7     ecut=    50.00 Ry     beta= 0.40
     Davidson diagonalization with overlap
     ethr =  9.83E-06,  avg # of iterations =  1.3

     negative rho (up, down):  2.852E-03 0.000E+00

     total cpu time spent up to now is      267.6 secs

     total energy              =   -1362.19313884 Ry
     estimated scf accuracy    <       0.02924551 Ry

     iteration #  8     ecut=    50.00 Ry     beta= 0.40
     Davidson diagonalization with overlap
     ethr =  9.83E-06,  avg # of iterations =  2.0

     negative rho (up, down):  2.847E-03 0.000E+00

     total cpu time spent up to now is      307.9 secs

     total energy              =   -1362.19359971 Ry
     estimated scf accuracy    <       0.00051267 Ry

     iteration #  9     ecut=    50.00 Ry     beta= 0.40
     Davidson diagonalization with overlap
     ethr =  6.41E-07,  avg # of iterations =  6.4

     negative rho (up, down):  2.846E-03 0.000E+00

     total cpu time spent up to now is      358.6 secs

     total energy              =   -1362.19368378 Ry
     estimated scf accuracy    <       0.00110186 Ry

     iteration # 10     ecut=    50.00 Ry     beta= 0.40
     Davidson diagonalization with overlap
     ethr =  6.41E-07,  avg # of iterations =  1.1

     negative rho (up, down):  2.843E-03 0.000E+00

     total cpu time spent up to now is      392.3 secs

     total energy              =   -1362.19369649 Ry
     estimated scf accuracy    <       0.00085907 Ry

     iteration # 11     ecut=    50.00 Ry     beta= 0.40
     Davidson diagonalization with overlap
     ethr =  6.41E-07,  avg # of iterations =  1.0

     negative rho (up, down):  2.841E-03 0.000E+00

     total cpu time spent up to now is      423.7 secs

     total energy              =   -1362.19370762 Ry
     estimated scf accuracy    <       0.00034727 Ry

     iteration # 12     ecut=    50.00 Ry     beta= 0.40
     Davidson diagonalization with overlap
     ethr =  4.34E-07,  avg # of iterations =  1.6

     negative rho (up, down):  2.839E-03 0.000E+00

     total cpu time spent up to now is      460.0 secs

     total energy              =   -1362.19371678 Ry
     estimated scf accuracy    <       0.00010819 Ry

     iteration # 13     ecut=    50.00 Ry     beta= 0.40
     Davidson diagonalization with overlap
     ethr =  1.35E-07,  avg # of iterations =  1.7

     negative rho (up, down):  2.840E-03 0.000E+00

     total cpu time spent up to now is      490.8 secs

     total energy              =   -1362.19371974 Ry
     estimated scf accuracy    <       0.00000960 Ry

     iteration # 14     ecut=    50.00 Ry     beta= 0.40
     Davidson diagonalization with overlap
     ethr =  1.20E-08,  avg # of iterations =  3.9

     negative rho (up, down):  2.840E-03 0.000E+00

     total cpu time spent up to now is      532.2 secs

     total energy              =   -1362.19372130 Ry
     estimated scf accuracy    <       0.00006179 Ry

     iteration # 15     ecut=    50.00 Ry     beta= 0.40
     Davidson diagonalization with overlap
     ethr =  1.20E-08,  avg # of iterations =  2.0

     negative rho (up, down):  2.839E-03 0.000E+00

     total cpu time spent up to now is      563.0 secs

     total energy              =   -1362.19372156 Ry
     estimated scf accuracy    <       0.00001535 Ry

     iteration # 16     ecut=    50.00 Ry     beta= 0.40
     Davidson diagonalization with overlap
     ethr =  1.20E-08,  avg # of iterations =  1.0

     negative rho (up, down):  2.839E-03 0.000E+00

     total cpu time spent up to now is      590.0 secs

     total energy              =   -1362.19372167 Ry
     estimated scf accuracy    <       0.00000266 Ry

     iteration # 17     ecut=    50.00 Ry     beta= 0.40
     Davidson diagonalization with overlap
     ethr =  3.33E-09,  avg # of iterations =  1.0

     negative rho (up, down):  2.839E-03 0.000E+00

     total cpu time spent up to now is      619.7 secs

     total energy              =   -1362.19372169 Ry
     estimated scf accuracy    <       0.00000081 Ry

     iteration # 18     ecut=    50.00 Ry     beta= 0.40
     Davidson diagonalization with overlap
     ethr =  1.01E-09,  avg # of iterations =  1.6

     negative rho (up, down):  2.839E-03 0.000E+00

     total cpu time spent up to now is      639.2 secs

     total energy              =   -1362.19372171 Ry
     estimated scf accuracy    <       0.00000007 Ry

     iteration # 19     ecut=    50.00 Ry     beta= 0.40
     Davidson diagonalization with overlap
     ethr =  8.18E-11,  avg # of iterations =  4.0

     negative rho (up, down):  2.839E-03 0.000E+00

     total cpu time spent up to now is      664.8 secs

     total energy              =   -1362.19372172 Ry
     estimated scf accuracy    <       0.00000009 Ry

     iteration # 20     ecut=    50.00 Ry     beta= 0.40
     Davidson diagonalization with overlap
     ethr =  8.18E-11,  avg # of iterations =  1.0

     negative rho (up, down):  2.839E-03 0.000E+00

     total cpu time spent up to now is      679.7 secs

     total energy              =   -1362.19372172 Ry
     estimated scf accuracy    <       0.00000002 Ry

     iteration # 21     ecut=    50.00 Ry     beta= 0.40
     Davidson diagonalization with overlap
     ethr =  2.48E-11,  avg # of iterations =  1.1

     negative rho (up, down):  2.839E-03 0.000E+00

     total cpu time spent up to now is      693.1 secs

     End of self-consistent calculation

          k = 0.0000 0.0000 0.0000 (  5267 PWs)   bands (ev):

   -46.0667 -46.0645 -22.6936 -22.6923 -22.3082 -22.2681 -22.2642 -22.2615
   -14.9215 -14.8175  -7.2107  -6.9834  -6.0691  -5.9874  -5.7218  -5.5766
    -0.1689  -0.1375  -0.0422   0.0285   0.1819   0.2527   6.5256   6.8333
     6.9322   7.4567   7.5530   7.6259   7.8318   7.8879   7.9528   8.3556
     8.4378   8.6096   8.6519   9.0421   9.0713   9.4262   9.8216   9.8374
    12.0693  12.9729  13.5439  13.7136  13.7409  14.0073  14.6121  14.7802

          k = 0.0000-0.0000-0.1428 (  5307 PWs)   bands (ev):

   -46.0666 -46.0643 -22.6932 -22.6919 -22.3076 -22.2727 -22.2698 -22.2678
   -14.9025 -14.8053  -7.1577  -7.0186  -6.0341  -5.9549  -5.7257  -5.6184
    -0.1403  -0.0707  -0.0329  -0.0235   0.1862   0.2130   6.4246   7.0351
     7.0873   7.3765   7.3886   7.5274   7.6203   7.6976   7.7152   7.8998
     8.0140   8.7196   8.8967   9.2271   9.3530   9.3699   9.5689   9.6084
    12.4391  13.0067  13.3770  13.4390  13.7226  14.2246  14.6133  15.1549

          k = 0.0000-0.0000-0.2856 (  5323 PWs)   bands (ev):

   -46.0662 -46.0639 -22.6922 -22.6910 -22.3061 -22.2917 -22.2884 -22.2670
   -14.8591 -14.7776  -7.1114  -7.0368  -5.9853  -5.8801  -5.7136  -5.6818
    -0.1322  -0.1048  -0.0677   0.0837   0.1376   0.2828   6.2766   6.9071
     7.0091   7.0489   7.0514   7.0907   7.5294   7.5502   7.7034   7.8066
     7.9112   8.6328   8.6357   8.9754   9.0672   9.1750   9.2817   9.9639
    13.0605  13.1604  13.5446  13.5616  13.8071  14.3710  14.6163  15.6719

          k = 0.0000-0.0000-0.4284 (  5310 PWs)   bands (ev):

   -46.0659 -46.0636 -22.6915 -22.6903 -22.3069 -22.3050 -22.3032 -22.2664
   -14.8237 -14.7550  -7.1964  -6.9381  -5.9750  -5.8183  -5.7910  -5.5982
    -0.2201  -0.2006  -0.0132   0.1706   0.2031   0.3412   6.1006   6.5372
     6.6616   6.7899   6.8074   6.8684   7.6810   7.7097   7.8161   7.8661
     7.9508   8.3387   8.5168   8.5864   8.8093   8.9734   9.1087  10.2328
    13.1437  13.6496  13.9292  13.9747  13.9942  14.3832  14.6179  15.4313

          k = 0.0000 0.1250 0.0000 (  5286 PWs)   bands (ev):

   -46.0667 -46.0645 -22.6936 -22.6923 -22.3024 -22.2740 -22.2640 -22.2616
   -14.9068 -14.8328  -7.1723  -7.0106  -6.0440  -5.9882  -5.7244  -5.6186
    -0.1247  -0.1147  -0.0310   0.0038   0.1660   0.2138   6.6971   6.9411
     7.0353   7.4161   7.4767   7.5008   7.8221   7.8335   7.9800   8.2194
     8.5682   8.6533   8.8698   8.9555   8.9899   9.3331   9.5658   9.6290
    12.3595  13.2227  13.4950  13.5760  13.7108  14.2373  14.4891  15.1486

          k = 0.0000 0.1250-0.1428 (  5297 PWs)   bands (ev):

   -46.0665 -46.0643 -22.6932 -22.6919 -22.3018 -22.2737 -22.2725 -22.2699
   -14.8887 -14.8196  -7.1310  -7.0319  -6.0060  -5.9514  -5.7376  -5.6596
    -0.1620  -0.0851  -0.0108   0.0074   0.1885   0.1983   6.5520   7.0251
     7.1118   7.2883   7.4775   7.5593   7.6049   7.7132   7.8015   7.8954
     8.0133   8.6511   8.8544   9.0552   9.1758   9.2798   9.4869   9.7519
    12.6046  13.2254  13.4059  13.4365  13.5312  14.3379  14.6291  15.3332

          k = 0.0000 0.1250-0.2856 (  5313 PWs)   bands (ev):

   -46.0661 -46.0639 -22.6922 -22.6910 -22.3005 -22.2915 -22.2886 -22.2727
   -14.8476 -14.7894  -7.0950  -7.0418  -5.9538  -5.8642  -5.7490  -5.7107
    -0.1810  -0.1247  -0.0192   0.0960   0.1631   0.2648   6.3818   6.7798
     7.0356   7.0882   7.1544   7.3324   7.3398   7.6359   7.6981   7.8316
     7.9149   8.2982   8.5785   8.8293   8.9198   9.2002   9.5330   9.9471
    13.1725  13.2828  13.5432  13.5693  13.6888  14.3710  14.7259  15.5746

          k = 0.0000 0.1250-0.4284 (  5302 PWs)   bands (ev):

   -46.0658 -46.0636 -22.6915 -22.6903 -22.3066 -22.3035 -22.2994 -22.2720
   -14.8141 -14.7649  -7.1583  -6.9755  -5.9498  -5.8201  -5.7861  -5.6305
    -0.2139  -0.1286  -0.0556   0.1474   0.1952   0.3160   6.2082   6.5427
     6.6998   6.8573   6.9479   7.0332   7.5444   7.6329   7.7485   7.8114
     7.8678   8.1769   8.4154   8.4605   8.8367   8.9943   9.3209  10.1452
    13.3396  13.6565  13.8541  13.9769  14.0040  14.3648  14.6791  15.3739

          k = 0.0000 0.1250 0.4284 (  5302 PWs)   bands (ev):

   -46.0658 -46.0636 -22.6915 -22.6903 -22.3066 -22.3035 -22.2994 -22.2720
   -14.8141 -14.7649  -7.1583  -6.9755  -5.9498  -5.8200  -5.7861  -5.6305
    -0.2145  -0.1267  -0.0571   0.1474   0.1954   0.3159   6.2082   6.5424
     6.7002   6.8582   6.9453   7.0350   7.5454   7.6304   7.7504   7.8110
     7.8674   8.1770   8.4153   8.4610   8.8363   8.9944   9.3209  10.1452
    13.3398  13.6566  13.8539  13.9769  14.0038  14.3650  14.6792  15.3738

          k = 0.0000 0.1250 0.2856 (  5313 PWs)   bands (ev):

   -46.0661 -46.0639 -22.6922 -22.6910 -22.3005 -22.2915 -22.2886 -22.2727
   -14.8476 -14.7894  -7.0950  -7.0418  -5.9538  -5.8642  -5.7490  -5.7107
    -0.1821  -0.1224  -0.0209   0.0965   0.1631   0.2648   6.3819   6.7796
     7.0346   7.0898   7.1537   7.3294   7.3440   7.6337   7.6992   7.8321
     7.9145   8.2983   8.5784   8.8312   8.9179   9.2003   9.5330   9.9471
    13.1728  13.2830  13.5428  13.5690  13.6888  14.3712  14.7259  15.5745

          k = 0.0000 0.1250 0.1428 (  5297 PWs)   bands (ev):

   -46.0665 -46.0643 -22.6932 -22.6919 -22.3018 -22.2737 -22.2725 -22.2699
   -14.8887 -14.8196  -7.1310  -7.0319  -6.0060  -5.9514  -5.7376  -5.6596
    -0.1611  -0.0878  -0.0079   0.0066   0.1867   0.1998   6.5520   7.0252
     7.1117   7.2882   7.4779   7.5586   7.6046   7.7132   7.8031   7.8949
     8.0129   8.6511   8.8543   9.0554   9.1757   9.2795   9.4872   9.7516
    12.6047  13.2259  13.4052  13.4365  13.5312  14.3381  14.6291  15.3331

          k =-0.0000-0.2499-0.0000 (  5338 PWs)   bands (ev):

   -46.0667 -46.0645 -22.6936 -22.6924 -22.2892 -22.2872 -22.2639 -22.2617
   -14.8756 -14.8646  -7.0868  -7.0850  -6.0029  -6.0019  -5.6957  -5.6952
    -0.0678  -0.0585  -0.0416  -0.0311   0.1499   0.1609   7.0881   7.0915
     7.2089   7.2157   7.2862   7.2873   7.8127   7.8173   8.0665   8.0689
     8.7492   8.7514   8.8842   8.8862   9.2119   9.2157   9.2553   9.2567
    12.9579  12.9608  13.6396  13.6426  13.7780  13.7815  14.9834  14.9857

          k =-0.0000-0.2499-0.1428 (  5324 PWs)   bands (ev):

   -46.0665 -46.0643 -22.6932 -22.6920 -22.2887 -22.2867 -22.2723 -22.2701
   -14.8600 -14.8489  -7.0753  -7.0741  -5.9597  -5.9588  -5.7290  -5.7287
    -0.1452  -0.1434   0.0303   0.0326   0.1788   0.1876   6.8081   6.8113
     7.2640   7.2680   7.5010   7.5049   7.6886   7.6910   7.8464   7.8504
     8.3071   8.3081   8.8153   8.8159   9.1338   9.1390   9.6607   9.6613
    13.0436  13.0465  13.4036  13.4060  13.8213  13.8246  15.3578  15.3609

          k =-0.0000-0.2499-0.2856 (  5308 PWs)   bands (ev):

   -46.0661 -46.0640 -22.6922 -22.6910 -22.2912 -22.2892 -22.2874 -22.2855
   -14.8244 -14.8131  -7.0630  -7.0622  -5.8795  -5.8793  -5.7684  -5.7676
    -0.1838  -0.1809   0.0620   0.0640   0.2144   0.2229   6.5730   6.5745
     7.1252   7.1277   7.4353   7.4378   7.5403   7.5424   7.5878   7.5896
     7.9828   7.9862   8.5920   8.5950   9.0128   9.0178   9.8349   9.8370
    13.3590  13.3616  13.5178  13.5195  13.8835  13.8865  15.3041  15.3076

          k =-0.0000-0.2499-0.4284 (  5290 PWs)   bands (ev):

   -46.0658 -46.0637 -22.6915 -22.6903 -22.3062 -22.3040 -22.2867 -22.2847
   -14.7954 -14.7839  -7.0677  -7.0655  -5.8869  -5.8862  -5.7093  -5.7080
    -0.1526  -0.1458   0.0102   0.0188   0.2498   0.2594   6.3927   6.3938
     7.0082   7.0095   7.1465   7.1482   7.3876   7.3915   7.5552   7.5621
     7.9860   7.9865   8.5040   8.5093   8.7276   8.7346   9.8486   9.8517
    13.7067  13.7091  13.8168  13.8195  14.0225  14.0242  15.1442  15.1478

          k =-0.1429-0.0000 0.0000 (  5307 PWs)   bands (ev):

   -46.0665 -46.0643 -22.7028 -22.7014 -22.3075 -22.2678 -22.2638 -22.2611
   -14.9031 -14.8055  -7.1109  -6.9066  -6.1497  -5.9820  -5.7152  -5.6185
    -0.1511  -0.1128   0.0091   0.0594   0.1492   0.1858   6.4839   6.6070
     6.7406   7.1588   7.3769   7.5011   7.5041   7.8899   7.8969   8.4303
     8.4786   8.5986   8.6601   8.9466   9.2182   9.2685   9.7589   9.7606
    12.1296  13.2243  13.7036  13.7302  13.8880  14.0919  14.5908  15.0598

          k =-0.1429-0.0000-0.1428 (  5292 PWs)   bands (ev):

   -46.0664 -46.0641 -22.7024 -22.7010 -22.3068 -22.2722 -22.2694 -22.2675
   -14.8852 -14.7935  -7.0608  -6.9374  -6.1067  -5.9453  -5.7189  -5.6456
    -0.1416  -0.1093  -0.0641  -0.0117   0.1690   0.2141   6.3870   6.7434
     6.9372   7.1966   7.2594   7.3436   7.3611   7.5801   7.8003   7.9312
     8.0488   8.7402   9.0944   9.1186   9.2146   9.3473   9.5239   9.5983
    12.4754  13.2560  13.5308  13.6260  13.7355  14.3816  14.6049  15.4532

          k =-0.1429-0.0000-0.2856 (  5305 PWs)   bands (ev):

   -46.0660 -46.0637 -22.7013 -22.7000 -22.3055 -22.2912 -22.2880 -22.2667
   -14.8446 -14.7664  -7.0207  -6.9456  -6.0217  -5.8604  -5.7094  -5.6948
    -0.2530  -0.1911  -0.0519  -0.0294   0.1935   0.2191   6.2619   6.8516
     6.8734   6.9198   7.0576   7.0683   7.3133   7.3990   7.4322   7.6864
     8.0648   8.7052   8.8267   8.9461   9.0976   9.1309   9.3491   9.9574
    13.1213  13.3416  13.6204  13.7677  13.8536  14.5394  14.6335  15.8775

          k =-0.1429-0.0000-0.4284 (  5300 PWs)   bands (ev):

   -46.0657 -46.0634 -22.7005 -22.6993 -22.3063 -22.3045 -22.3027 -22.2661
   -14.8114 -14.7443  -7.0979  -6.8514  -5.9755  -5.7889  -5.7634  -5.6366
    -0.3276  -0.3179  -0.0266   0.0780   0.1672   0.1958   6.0999   6.6118
     6.6137   6.7500   6.8332   6.8508   7.3936   7.4376   7.4908   7.6627
     8.2773   8.5743   8.6033   8.6594   8.7835   9.0616   9.2110  10.2461
    13.3524  13.6549  13.9937  13.9954  14.1245  14.5594  14.6546  15.7910

          k =-0.1429-0.0000 0.4284 (  5300 PWs)   bands (ev):

   -46.0657 -46.0634 -22.7005 -22.6993 -22.3063 -22.3045 -22.3027 -22.2661
   -14.8113 -14.7442  -7.0977  -6.8503  -5.9757  -5.7894  -5.7635  -5.6368
    -0.3300  -0.3228  -0.0198   0.0696   0.1757   0.1949   6.0921   6.5828
     6.6137   6.7174   6.8622   6.8694   7.3780   7.4332   7.4402   7.7587
     8.2989   8.5537   8.6088   8.6678   8.7859   9.0279   9.2504  10.2450
    13.3597  13.6453  13.9900  13.9946  14.1037  14.5424  14.6541  15.7935

          k =-0.1429-0.0000 0.2856 (  5305 PWs)   bands (ev):

   -46.0660 -46.0637 -22.7014 -22.7001 -22.3055 -22.2912 -22.2880 -22.2667
   -14.8445 -14.7663  -7.0201  -6.9432  -6.0228  -5.8611  -5.7098  -5.6949
    -0.2666  -0.1999  -0.0379  -0.0299   0.1983   0.2200   6.2616   6.7855
     6.8355   6.8973   7.0747   7.0840   7.2183   7.4186   7.4711   7.8152
     8.0786   8.7474   8.8208   8.9359   9.0901   9.1128   9.4022   9.9578
    13.1557  13.3041  13.6102  13.7181  13.8507  14.4962  14.6316  15.8983

          k =-0.1429-0.0000 0.1428 (  5292 PWs)   bands (ev):

   -46.0664 -46.0641 -22.7024 -22.7010 -22.3069 -22.2722 -22.2694 -22.2675
   -14.8852 -14.7935  -7.0591  -6.9368  -6.1078  -5.9459  -5.7185  -5.6459
    -0.1617  -0.1259  -0.0459   0.0043   0.1655   0.2171   6.3994   6.7346
     6.8963   7.1464   7.2179   7.3306   7.3520   7.6243   7.8283   7.9359
     8.1269   8.7807   9.0929   9.1154   9.2175   9.3079   9.5534   9.6290
    12.4835  13.2454  13.5179  13.5807  13.7339  14.3305  14.6025  15.4545

          k =-0.1429 0.1250 0.0000 (  5297 PWs)   bands (ev):

   -46.0665 -46.0643 -22.7028 -22.7015 -22.3017 -22.2737 -22.2637 -22.2612
   -14.8893 -14.8198  -7.0759  -6.9301  -6.1185  -5.9971  -5.7177  -5.6509
    -0.1453  -0.0898  -0.0240   0.0334   0.1537   0.2140   6.6195   6.7406
     6.8462   7.1601   7.2854   7.3807   7.4559   7.7473   7.9296   8.2047
     8.5706   8.7831   8.8059   8.8975   9.1493   9.2898   9.5656   9.5820
    12.4072  13.3929  13.4983  13.7563  13.8674  14.2610  14.5247  15.1313

          k =-0.1429 0.1250-0.1428 (  5300 PWs)   bands (ev):

   -46.0663 -46.0641 -22.7023 -22.7011 -22.3011 -22.2733 -22.2720 -22.2695
   -14.8723 -14.8070  -7.0367  -6.9485  -6.0745  -5.9563  -5.7269  -5.6783
    -0.1689  -0.1253  -0.0644  -0.0470   0.2099   0.2616   6.4727   6.8210
     6.9861   7.0671   7.1966   7.3824   7.4437   7.6125   7.7914   7.8274
     8.1144   8.6980   8.9886   9.0296   9.1290   9.3355   9.4633   9.7015
    12.6496  13.4147  13.5331  13.5776  13.6304  14.3468  14.7841  15.5620

          k =-0.1429 0.1250-0.2856 (  5302 PWs)   bands (ev):

   -46.0660 -46.0638 -22.7013 -22.7001 -22.2999 -22.2909 -22.2882 -22.2724
   -14.8336 -14.7777  -7.0043  -6.9510  -5.9887  -5.8603  -5.7388  -5.7138
    -0.2622  -0.1794  -0.1264  -0.0515   0.2429   0.2695   6.3434   6.6587
     6.9332   6.9555   7.0887   7.2237   7.3345   7.4114   7.5355   7.6728
     7.9116   8.4367   8.7737   8.8791   9.0107   9.2349   9.5148   9.9403
    13.1979  13.4769  13.6251  13.7488  13.7557  14.4013  14.9475  15.9414

          k =-0.1429 0.1250-0.4284 (  5305 PWs)   bands (ev):

   -46.0657 -46.0635 -22.7005 -22.6993 -22.3060 -22.3031 -22.2989 -22.2717
   -14.8020 -14.7539  -7.0612  -6.8868  -5.9472  -5.7993  -5.7636  -5.6579
    -0.3199  -0.2520  -0.1156   0.0276   0.1816   0.2319   6.1972   6.5012
     6.6924   6.8702   6.9497   6.9584   7.3586   7.3764   7.4866   7.6817
     7.9124   8.2601   8.6247   8.6896   8.9523   9.1132   9.2964  10.1516
    13.5211  13.6729  13.8950  14.0345  14.1110  14.4217  14.9370  15.8083

          k =-0.1429 0.1250 0.4284 (  5305 PWs)   bands (ev):

   -46.0657 -46.0635 -22.7005 -22.6993 -22.3060 -22.3031 -22.2989 -22.2717
   -14.8020 -14.7539  -7.0609  -6.8859  -5.9474  -5.7999  -5.7636  -5.6581
    -0.3216  -0.2602  -0.1084   0.0226   0.1843   0.2355   6.1895   6.4875
     6.6761   6.8373   6.9517   6.9866   7.3286   7.3936   7.5032   7.7137
     7.9313   8.2516   8.6169   8.7155   8.9231   9.1452   9.2968  10.1500
    13.5249  13.6664  13.8946  14.0253  14.0913  14.4228  14.9241  15.8180

          k =-0.1429 0.1250 0.2856 (  5302 PWs)   bands (ev):

   -46.0660 -46.0638 -22.7013 -22.7001 -22.2999 -22.2909 -22.2882 -22.2724
   -14.8335 -14.7777  -7.0035  -6.9490  -5.9898  -5.8614  -5.7387  -5.7137
    -0.2723  -0.1973  -0.1094  -0.0529   0.2478   0.2738   6.3398   6.6201
     6.8779   6.9239   7.1023   7.1891   7.3182   7.4204   7.5792   7.7649
     7.9518   8.4291   8.7735   8.9276   8.9777   9.2776   9.5148   9.9375
    13.2054  13.4623  13.6103  13.7053  13.7467  14.4016  14.9117  15.9581

          k =-0.1429 0.1250 0.1428 (  5300 PWs)   bands (ev):

   -46.0663 -46.0641 -22.7023 -22.7011 -22.3011 -22.2733 -22.2721 -22.2695
   -14.8722 -14.8069  -7.0351  -6.9477  -6.0757  -5.9571  -5.7264  -5.6783
    -0.1812  -0.1428  -0.0562  -0.0337   0.2116   0.2653   6.4782   6.7994
     6.9470   7.0437   7.1886   7.3651   7.3906   7.6541   7.8018   7.8759
     8.1735   8.7261   8.9796   9.0498   9.1246   9.3533   9.4666   9.7065
    12.6509  13.4036  13.5130  13.5698  13.5918  14.3469  14.7450  15.5931

          k =-0.1429-0.2499-0.0000 (  5332 PWs)   bands (ev):

   -46.0665 -46.0643 -22.7027 -22.7016 -22.2887 -22.2867 -22.2635 -22.2613
   -14.8604 -14.8493  -6.9983  -6.9966  -6.0495  -6.0485  -5.7027  -5.7023
    -0.1070  -0.0988  -0.0318  -0.0230   0.1991   0.2060   6.8845   6.8889
     7.0878   7.0919   7.1394   7.1422   7.4887   7.4934   8.0287   8.0320
     8.6937   8.6950   9.0046   9.0074   9.1767   9.1779   9.3675   9.3707
    12.9824  12.9855  13.8029  13.8048  13.8413  13.8434  14.9673  14.9698

          k =-0.1429-0.2499-0.1428 (  5316 PWs)   bands (ev):

   -46.0663 -46.0642 -22.7023 -22.7011 -22.2882 -22.2862 -22.2719 -22.2697
   -14.8455 -14.8343  -6.9866  -6.9855  -6.0039  -6.0030  -5.7244  -5.7241
    -0.1723  -0.1674  -0.0684  -0.0632   0.2704   0.2761   6.6658   6.6667
     7.0729   7.0770   7.3365   7.3398   7.4946   7.4998   7.7492   7.7521
     8.3849   8.3856   8.8909   8.8923   9.2093   9.2134   9.6363   9.6371
    13.0814  13.0844  13.6006  13.6030  13.8778  13.8810  15.4636  15.4661

          k =-0.1429-0.2499-0.2856 (  5300 PWs)   bands (ev):

   -46.0659 -46.0638 -22.7013 -22.7001 -22.2907 -22.2887 -22.2869 -22.2851
   -14.8115 -14.8002  -6.9725  -6.9717  -5.9090  -5.9087  -5.7499  -5.7492
    -0.2435  -0.2396  -0.1076  -0.1013   0.2920   0.2983   6.4751   6.4763
     6.9836   6.9876   7.2458   7.2482   7.4445   7.4456   7.6098   7.6101
     7.9143   7.9165   8.8174   8.8204   9.0728   9.0766   9.8203   9.8221
    13.3923  13.3947  13.7020  13.7040  13.9553  13.9584  15.6707  15.6742

          k =-0.1429-0.2499-0.4284 (  5292 PWs)   bands (ev):

   -46.0656 -46.0635 -22.7005 -22.6993 -22.3056 -22.3034 -22.2863 -22.2843
   -14.7838 -14.7724  -6.9744  -6.9723  -5.8755  -5.8750  -5.7111  -5.7099
    -0.2500  -0.2442  -0.1177  -0.1071   0.2251   0.2323   6.3603   6.3621
     6.8679   6.8696   7.1070   7.1127   7.3778   7.3831   7.4919   7.4946
     7.8111   7.8153   8.7265   8.7321   8.9030   8.9057   9.8352   9.8381
    13.7396  13.7419  13.9515  13.9553  14.0878  14.0895  15.5534  15.5568

          k =-0.1429-0.2499 0.4284 (  5292 PWs)   bands (ev):

   -46.0656 -46.0635 -22.7005 -22.6993 -22.3056 -22.3034 -22.2863 -22.2843
   -14.7838 -14.7723  -6.9739  -6.9718  -5.8758  -5.8753  -5.7112  -5.7100
    -0.2537  -0.2475  -0.1179  -0.1075   0.2282   0.2354   6.3520   6.3533
     6.8336   6.8359   7.1095   7.1152   7.4060   7.4102   7.5145   7.5167
     7.8040   7.8082   8.7122   8.7172   8.9294   8.9324   9.8331   9.8361
    13.7372  13.7395  13.9419  13.9449  14.0838  14.0853  15.5550  15.5583

          k =-0.1429-0.2499 0.2856 (  5300 PWs)   bands (ev):

   -46.0659 -46.0638 -22.7013 -22.7001 -22.2907 -22.2886 -22.2870 -22.2851
   -14.8114 -14.8001  -6.9712  -6.9704  -5.9104  -5.9100  -5.7494  -5.7486
    -0.2529  -0.2477  -0.1059  -0.0996   0.2975   0.3037   6.4573   6.4578
     6.9281   6.9316   7.2261   7.2297   7.4683   7.4690   7.6711   7.6726
     7.9314   7.9330   8.8036   8.8062   9.1167   9.1205   9.8142   9.8160
    13.3897  13.3922  13.6583  13.6605  13.9621  13.9652  15.6650  15.6683

          k =-0.1429-0.2499 0.1428 (  5316 PWs)   bands (ev):

   -46.0663 -46.0642 -22.7023 -22.7011 -22.2882 -22.2862 -22.2719 -22.2697
   -14.8454 -14.8342  -6.9855  -6.9844  -6.0052  -6.0042  -5.7239  -5.7236
    -0.1843  -0.1779  -0.0628  -0.0573   0.2748   0.2801   6.6520   6.6524
     7.0503   7.0537   7.3010   7.3037   7.5004   7.5045   7.7921   7.7951
     8.4218   8.4225   8.8956   8.8967   9.2287   9.2329   9.6316   9.6326
    13.0774  13.0804  13.5555  13.5581  13.8853  13.8885  15.4549  15.4575

          k =-0.1429-0.1250-0.0000 (  5297 PWs)   bands (ev):

   -46.0665 -46.0643 -22.7028 -22.7015 -22.3017 -22.2737 -22.2637 -22.2612
   -14.8893 -14.8198  -7.0759  -6.9302  -6.1184  -5.9972  -5.7177  -5.6509
    -0.1434  -0.0900  -0.0288   0.0333   0.1630   0.2079   6.6198   6.7377
     6.8464   7.1622   7.2908   7.3803   7.4519   7.7468   7.9295   8.2049
     8.5713   8.7828   8.8041   8.8980   9.1536   9.2854   9.5658   9.5823
    12.4075  13.3924  13.4978  13.7563  13.8673  14.2616  14.5244  15.1315

          k =-0.1429-0.1250-0.1428 (  5300 PWs)   bands (ev):

   -46.0663 -46.0641 -22.7023 -22.7010 -22.3011 -22.2733 -22.2720 -22.2695
   -14.8723 -14.8070  -7.0366  -6.9485  -6.0745  -5.9563  -5.7268  -5.6783
    -0.1704  -0.1190  -0.0711  -0.0467   0.2154   0.2576   6.4733   6.8171
     6.9887   7.0653   7.1994   7.3855   7.4417   7.6131   7.7906   7.8262
     8.1150   8.6972   8.9899   9.0299   9.1285   9.3351   9.4627   9.7015
    12.6502  13.4149  13.5328  13.5774  13.6301  14.3473  14.7835  15.5626

          k =-0.1429-0.1250-0.2856 (  5302 PWs)   bands (ev):

   -46.0660 -46.0638 -22.7013 -22.7001 -22.2999 -22.2909 -22.2882 -22.2724
   -14.8336 -14.7777  -7.0044  -6.9510  -5.9885  -5.8604  -5.7389  -5.7138
    -0.2600  -0.1879  -0.1192  -0.0513   0.2349   0.2763   6.3442   6.6581
     6.9278   6.9558   7.0918   7.2239   7.3361   7.4107   7.5382   7.6722
     7.9114   8.4350   8.7735   8.8815   9.0092   9.2345   9.5145   9.9404
    13.1985  13.4783  13.6244  13.7490  13.7550  14.4013  14.9465  15.9418

          k =-0.1429-0.1250-0.4284 (  5305 PWs)   bands (ev):

   -46.0657 -46.0635 -22.7005 -22.6993 -22.3060 -22.3031 -22.2989 -22.2717
   -14.8020 -14.7539  -7.0613  -6.8867  -5.9470  -5.7995  -5.7636  -5.6579
    -0.3203  -0.2527  -0.1128   0.0280   0.1729   0.2385   6.1980   6.5001
     6.6923   6.8680   6.9548   6.9567   7.3535   7.3764   7.4888   7.6855
     7.9129   8.2581   8.6256   8.6900   8.9504   9.1134   9.2960  10.1518
    13.5228  13.6730  13.8951  14.0349  14.1105  14.4209  14.9356  15.8090

          k =-0.1429-0.1250 0.4284 (  5305 PWs)   bands (ev):

   -46.0657 -46.0635 -22.7005 -22.6993 -22.3060 -22.3031 -22.2989 -22.2717
   -14.8020 -14.7539  -7.0610  -6.8858  -5.9472  -5.8001  -5.7635  -5.6581
    -0.3213  -0.2619  -0.1055   0.0233   0.1758   0.2418   6.1901   6.4869
     6.6761   6.8348   6.9568   6.9844   7.3245   7.3928   7.5078   7.7153
     7.9318   8.2494   8.6180   8.7157   8.9217   9.1451   9.2964  10.1502
    13.5265  13.6663  13.8948  14.0257  14.0908  14.4219  14.9227  15.8169

          k =-0.1429-0.1250 0.2856 (  5302 PWs)   bands (ev):

   -46.0660 -46.0638 -22.7013 -22.7001 -22.2999 -22.2909 -22.2882 -22.2724
   -14.8335 -14.7777  -7.0036  -6.9489  -5.9897  -5.8615  -5.7387  -5.7137
    -0.2688  -0.2060  -0.1026  -0.0533   0.2400   0.2803   6.3404   6.6206
     6.8768   6.9189   7.1067   7.1865   7.3218   7.4201   7.5821   7.7631
     7.9519   8.4271   8.7740   8.9296   8.9760   9.2773   9.5145   9.9376
    13.2056  13.4637  13.6097  13.7056  13.7462  14.4015  14.9107  15.9585

          k =-0.1429-0.1250 0.1428 (  5300 PWs)   bands (ev):

   -46.0663 -46.0641 -22.7023 -22.7011 -22.3011 -22.2733 -22.2721 -22.2695
   -14.8722 -14.8069  -7.0351  -6.9478  -6.0756  -5.9572  -5.7264  -5.6783
    -0.1836  -0.1371  -0.0600  -0.0346   0.2164   0.2618   6.4785   6.7959
     6.9507   7.0413   7.1903   7.3680   7.3895   7.6547   7.8011   7.8742
     8.1743   8.7249   8.9809   9.0498   9.1250   9.3525   9.4659   9.7069
    12.6512  13.4038  13.5130  13.5699  13.5909  14.3474  14.7445  15.5937

          k =-0.2857-0.0000 0.0000 (  5319 PWs)   bands (ev):

   -46.0661 -46.0639 -22.7235 -22.7218 -22.3058 -22.2672 -22.2629 -22.2603
   -14.8611 -14.7781  -6.8622  -6.7391  -6.3114  -5.9910  -5.7135  -5.7002
    -0.1220  -0.0905  -0.0506   0.1004   0.1309   0.2514   6.0838   6.2476
     6.4601   6.5559   6.6811   7.2698   7.3807   7.7199   7.7545   8.1169
     8.5316   8.5592   8.9326   9.0003   9.0070   9.4793   9.6584   9.6674
    12.2596  13.6773  13.7809  14.1181  14.2028  14.2580  14.6103  15.1951

          k =-0.2857-0.0000-0.1428 (  5308 PWs)   bands (ev):

   -46.0660 -46.0637 -22.7230 -22.7213 -22.3053 -22.2713 -22.2685 -22.2669
   -14.8460 -14.7668  -6.8206  -6.7476  -6.2681  -5.9405  -5.7093  -5.7013
    -0.1992  -0.1865  -0.0954  -0.0344   0.1631   0.2499   6.2194   6.2892
     6.4459   6.6421   6.7378   6.9648   7.2255   7.5960   7.7450   7.9367
     8.1397   8.8585   8.9542   9.0900   9.3566   9.3845   9.5013   9.5565
    12.5733  13.7188  13.8292  13.9123  13.9591  14.5856  14.6352  15.7207

          k =-0.2857-0.0000-0.2856 (  5288 PWs)   bands (ev):

   -46.0656 -46.0633 -22.7217 -22.7202 -22.3041 -22.2900 -22.2870 -22.2661
   -14.8115 -14.7409  -6.7964  -6.7243  -6.1376  -5.8225  -5.7042  -5.7024
    -0.4465  -0.4039  -0.1327  -0.1101   0.1146   0.1903   6.1424   6.3557
     6.4873   6.7123   6.7271   6.9164   6.9281   7.3591   7.4930   7.6508
     7.9274   8.9178   8.9516   9.1632   9.1987   9.3530   9.5095   9.9460
    13.1819  13.8006  13.8977  13.9667  14.0681  14.6943  14.7012  16.2995

          k =-0.2857-0.0000-0.4284 (  5280 PWs)   bands (ev):

   -46.0653 -46.0631 -22.7207 -22.7194 -22.3049 -22.3032 -22.3017 -22.2654
   -14.7834 -14.7199  -6.8522  -6.6477  -6.0024  -5.7241  -5.7135  -5.6995
    -0.5697  -0.5678  -0.2934  -0.0958   0.0761   0.1486   5.9976   6.1631
     6.3632   6.6614   6.6998   6.9789   7.0445   7.1379   7.3030   7.4999
     8.0794   8.6003   8.9878   9.2240   9.2573   9.2706   9.5027  10.2733
    13.6275  13.8501  14.1249  14.1326  14.3447  14.6601  14.7459  16.0940

          k =-0.2857-0.0000 0.4284 (  5280 PWs)   bands (ev):

   -46.0653 -46.0631 -22.7207 -22.7194 -22.3048 -22.3033 -22.3018 -22.2654
   -14.7833 -14.7199  -6.8514  -6.6461  -6.0037  -5.7226  -5.7155  -5.6997
    -0.5741  -0.5723  -0.2852  -0.1012   0.0821   0.1472   6.0005   6.1140
     6.3609   6.6590   6.7209   6.9309   7.0691   7.1233   7.3692   7.5122
     8.0963   8.5898   8.9771   9.2347   9.2543   9.2585   9.5275  10.2716
    13.6369  13.8354  14.1322  14.1328  14.3390  14.6342  14.7450  16.0912

          k =-0.2857-0.0000 0.2856 (  5288 PWs)   bands (ev):

   -46.0656 -46.0633 -22.7217 -22.7203 -22.3042 -22.2899 -22.2870 -22.2660
   -14.8114 -14.7409  -6.7944  -6.7207  -6.1405  -5.8244  -5.7037  -5.7029
    -0.4586  -0.4112  -0.1377  -0.0896   0.1082   0.1968   6.1471   6.2619
     6.4862   6.7107   6.7544   6.8452   6.9096   7.4018   7.6130   7.6657
     7.9507   8.8976   8.9393   9.1798   9.1928   9.3534   9.5501   9.9426
    13.1914  13.7853  13.9047  13.9623  14.0460  14.6393  14.6925  16.3195

          k =-0.2857-0.0000 0.1428 (  5308 PWs)   bands (ev):

   -46.0660 -46.0637 -22.7230 -22.7213 -22.3053 -22.2713 -22.2686 -22.2669
   -14.8459 -14.7667  -6.8177  -6.7458  -6.2703  -5.9424  -5.7097  -5.7007
    -0.2175  -0.1970  -0.0939  -0.0132   0.1621   0.2536   6.2184   6.2803
     6.4316   6.6030   6.7151   6.9695   7.2172   7.6274   7.7521   7.9594
     8.1951   8.8676   8.9438   9.1078   9.3128   9.4100   9.5057   9.5869
    12.5795  13.7091  13.8270  13.9051  13.9360  14.5222  14.6336  15.7413

          k =-0.2857 0.1250 0.0000 (  5311 PWs)   bands (ev):

   -46.0661 -46.0639 -22.7234 -22.7219 -22.3002 -22.2729 -22.2628 -22.2604
   -14.8494 -14.7902  -6.8358  -6.7447  -6.2804  -6.0532  -5.7070  -5.7007
    -0.1475  -0.1149  -0.0277   0.1024   0.1490   0.2556   6.1614   6.2798
     6.5199   6.6583   6.8009   7.1498   7.1686   7.5780   7.7864   8.0207
     8.6010   8.7172   8.8183   9.0572   9.1166   9.4401   9.4702   9.6003
    12.5114  13.4982  13.8442  14.1631  14.2276  14.3385  14.5930  15.1636

          k =-0.2857 0.1250-0.1428 (  5304 PWs)   bands (ev):

   -46.0660 -46.0637 -22.7229 -22.7214 -22.2997 -22.2726 -22.2711 -22.2686
   -14.8348 -14.7783  -6.8027  -6.7488  -6.2318  -6.0006  -5.7054  -5.7019
    -0.2222  -0.1976  -0.1228  -0.0555   0.2137   0.2874   6.2098   6.3113
     6.4707   6.7082   6.8574   6.8814   7.2024   7.5899   7.6809   7.8763
     8.2484   8.7846   8.9309   8.9936   9.2826   9.4081   9.5052   9.5995
    12.7507  13.5669  13.8804  13.9539  13.9818  14.4283  14.9373  15.6987

          k =-0.2857 0.1250-0.2856 (  5301 PWs)   bands (ev):

   -46.0656 -46.0634 -22.7217 -22.7203 -22.2986 -22.2898 -22.2872 -22.2716
   -14.8016 -14.7511  -6.7806  -6.7300  -6.0978  -5.8749  -5.7053  -5.7022
    -0.4339  -0.3785  -0.2023  -0.1296   0.0882   0.2665   6.1876   6.3285
     6.4338   6.6041   6.8646   6.9712   7.0348   7.4272   7.4954   7.6730
     7.8459   8.4849   9.0730   9.1490   9.2915   9.3667   9.5397   9.9142
    13.2628  13.7506  13.9282  13.9747  14.0621  14.5065  15.1368  16.3591

          k =-0.2857 0.1250-0.4284 (  5280 PWs)   bands (ev):

   -46.0653 -46.0631 -22.7207 -22.7194 -22.3047 -22.3020 -22.2977 -22.2709
   -14.7746 -14.7290  -6.8208  -6.6763  -5.9645  -5.7625  -5.7143  -5.7047
    -0.5432  -0.4987  -0.2471  -0.1680  -0.0485   0.1762   6.0710   6.2640
     6.3325   6.7287   6.8112   6.9415   7.0527   7.1137   7.2353   7.5991
     7.9324   8.2677   9.1565   9.2088   9.2609   9.3767   9.4653  10.1598
    13.6760  13.9441  14.0176  14.1829  14.3198  14.5609  15.1137  16.2574

          k =-0.2857 0.1250 0.4284 (  5280 PWs)   bands (ev):

   -46.0653 -46.0631 -22.7207 -22.7194 -22.3047 -22.3020 -22.2977 -22.2709
   -14.7745 -14.7289  -6.8200  -6.6749  -5.9658  -5.7639  -5.7139  -5.7042
    -0.5441  -0.5074  -0.2363  -0.1714  -0.0504   0.1786   6.0725   6.2199
     6.3248   6.7082   6.8379   6.8758   7.0970   7.1538   7.2646   7.6029
     7.9515   8.2576   9.1463   9.2031   9.2734   9.3673   9.4888  10.1568
    13.6791  13.9412  14.0144  14.1834  14.3134  14.5607  15.0901  16.2530

          k =-0.2857 0.1250 0.2856 (  5301 PWs)   bands (ev):

   -46.0656 -46.0634 -22.7217 -22.7203 -22.2986 -22.2898 -22.2872 -22.2716
   -14.8015 -14.7510  -6.7785  -6.7268  -6.1006  -5.8774  -5.7043  -5.7022
    -0.4419  -0.3913  -0.1973  -0.1223   0.0875   0.2719   6.1745   6.2759
     6.4147   6.5723   6.8726   6.9590   7.0193   7.4600   7.5998   7.6820
     7.8814   8.4730   9.0660   9.1597   9.3002   9.3746   9.5559   9.9058
    13.2662  13.7479  13.9161  13.9729  14.0392  14.5076  15.0799  16.3791

          k =-0.2857 0.1250 0.1428 (  5304 PWs)   bands (ev):

   -46.0660 -46.0637 -22.7229 -22.7214 -22.2997 -22.2725 -22.2711 -22.2687
   -14.8348 -14.7782  -6.8000  -6.7469  -6.2341  -6.0026  -5.7053  -5.7014
    -0.2315  -0.2146  -0.1157  -0.0483   0.2175   0.2924   6.1963   6.2774
     6.4741   6.7030   6.8038   6.9118   7.1848   7.6108   7.6953   7.9105
     8.2900   8.7981   8.9215   9.0110   9.3062   9.3910   9.5160   9.5988
    12.7518  13.5616  13.8723  13.9369  13.9574  14.4322  14.8895  15.7134

          k =-0.2857-0.2499-0.0000 (  5304 PWs)   bands (ev):

   -46.0661 -46.0639 -22.7233 -22.7221 -22.2876 -22.2855 -22.2627 -22.2605
   -14.8256 -14.8144  -6.7811  -6.7797  -6.1814  -6.1804  -5.7020  -5.7016
    -0.1581  -0.1495   0.0312   0.0401   0.2219   0.2285   6.2663   6.2713
     6.7473   6.7504   6.9007   6.9063   7.2130   7.2141   7.8784   7.8827
     8.6546   8.6551   9.0765   9.0782   9.1440   9.1484   9.5069   9.5096
    13.0352  13.0389  14.0653  14.0680  14.1989  14.2018  14.9759  14.9786

          k =-0.2857-0.2499-0.1428 (  5300 PWs)   bands (ev):

   -46.0659 -46.0638 -22.7228 -22.7216 -22.2871 -22.2851 -22.2710 -22.2688
   -14.8124 -14.8011  -6.7681  -6.7671  -6.1276  -6.1266  -5.7029  -5.7025
    -0.2370  -0.2304  -0.1047  -0.0965   0.2856   0.2915   6.2579   6.2626
     6.5572   6.5600   7.0611   7.0629   7.2568   7.2594   7.7614   7.7650
     8.4549   8.4562   8.9371   8.9398   9.3449   9.3487   9.5816   9.5825
    13.1623  13.1658  13.9846  13.9871  14.1109  14.1138  15.4844  15.4873

          k =-0.2857-0.2499-0.2856 (  5288 PWs)   bands (ev):

   -46.0656 -46.0634 -22.7216 -22.7204 -22.2896 -22.2876 -22.2859 -22.2841
   -14.7822 -14.7708  -6.7506  -6.7498  -5.9930  -5.9921  -5.7046  -5.7040
    -0.3707  -0.3673  -0.2511  -0.2449   0.2185   0.2244   6.2453   6.2491
     6.4802   6.4826   6.9911   6.9932   7.3798   7.3817   7.5235   7.5244
     7.9789   7.9790   9.1162   9.1199   9.3333   9.3357   9.7629   9.7644
    13.4847  13.4875  14.0139  14.0161  14.1953  14.1982  15.9903  15.9935

          k =-0.2857-0.2499-0.4284 (  5278 PWs)   bands (ev):

   -46.0653 -46.0631 -22.7207 -22.7195 -22.3044 -22.3022 -22.2853 -22.2833
   -14.7577 -14.7461  -6.7482  -6.7463  -5.8673  -5.8668  -5.7097  -5.7086
    -0.4103  -0.4068  -0.3375  -0.3271   0.0598   0.0656   6.1941   6.1967
     6.6019   6.6054   6.8552   6.8598   7.1134   7.1154   7.5516   7.5547
     7.7852   7.7867   9.1636   9.1676   9.3636   9.3647   9.8187   9.8210
    13.8098  13.8122  14.2331  14.2351  14.2646  14.2651  16.0202  16.0235

          k =-0.2857-0.2499 0.4284 (  5278 PWs)   bands (ev):

   -46.0653 -46.0631 -22.7207 -22.7195 -22.3044 -22.3022 -22.2854 -22.2833
   -14.7576 -14.7461  -6.7471  -6.7452  -5.8687  -5.8683  -5.7090  -5.7080
    -0.4188  -0.4141  -0.3317  -0.3223   0.0615   0.0671   6.1919   6.1945
     6.5368   6.5407   6.8866   6.8925   7.1471   7.1494   7.5681   7.5713
     7.7778   7.7795   9.1560   9.1598   9.3799   9.3810   9.8142   9.8164
    13.8099  13.8123  14.2238  14.2258  14.2674  14.2680  16.0007  16.0041

          k =-0.2857-0.2499 0.2856 (  5288 PWs)   bands (ev):

   -46.0656 -46.0634 -22.7216 -22.7204 -22.2896 -22.2874 -22.2861 -22.2841
   -14.7821 -14.7707  -6.7481  -6.7473  -5.9958  -5.9949  -5.7038  -5.7032
    -0.3827  -0.3776  -0.2464  -0.2402   0.2230   0.2289   6.2189   6.2230
     6.4491   6.4505   6.9806   6.9832   7.3929   7.3949   7.5905   7.5913
     7.9854   7.9858   9.1125   9.1161   9.3609   9.3632   9.7508   9.7522
    13.4816  13.4844  13.9962  13.9986  14.1946  14.1976  15.9452  15.9484

          k =-0.2857-0.2499 0.1428 (  5300 PWs)   bands (ev):

   -46.0659 -46.0638 -22.7228 -22.7216 -22.2871 -22.2851 -22.2710 -22.2688
   -14.8123 -14.8010  -6.7659  -6.7650  -6.1298  -6.1287  -5.7025  -5.7020
    -0.2464  -0.2393  -0.1026  -0.0947   0.2914   0.2972   6.2212   6.2258
     6.5753   6.5780   7.0229   7.0247   7.2745   7.2770   7.7886   7.7922
     8.4851   8.4860   8.9459   8.9486   9.3577   9.3615   9.5713   9.5725
    13.1572  13.1607  13.9538  13.9564  14.1168  14.1197  15.4719  15.4746

          k =-0.2857-0.1250-0.0000 (  5311 PWs)   bands (ev):

   -46.0661 -46.0639 -22.7234 -22.7219 -22.3002 -22.2729 -22.2628 -22.2604
   -14.8494 -14.7902  -6.8357  -6.7448  -6.2802  -6.0534  -5.7069  -5.7008
    -0.1558  -0.1044  -0.0276   0.1024   0.1439   0.2584   6.1581   6.2808
     6.5222   6.6585   6.8038   7.1487   7.1671   7.5774   7.7864   8.0207
     8.6010   8.7170   8.8194   9.0589   9.1142   9.4387   9.4704   9.6015
    12.5119  13.4976  13.8432  14.1631  14.2276  14.3393  14.5929  15.1638

          k =-0.2857-0.1250-0.1428 (  5304 PWs)   bands (ev):

   -46.0660 -46.0637 -22.7229 -22.7214 -22.2997 -22.2726 -22.2711 -22.2687
   -14.8348 -14.7783  -6.8026  -6.7489  -6.2317  -6.0008  -5.7053  -5.7019
    -0.2267  -0.1962  -0.1146  -0.0597   0.2092   0.2910   6.2111   6.3069
     6.4723   6.7115   6.8572   6.8804   7.2025   7.5898   7.6807   7.8755
     8.2486   8.7850   8.9324   8.9919   9.2805   9.4112   9.5045   9.5990
    12.7514  13.5663  13.8797  13.9539  13.9817  14.4292  14.9369  15.6989

          k =-0.2857-0.1250-0.2856 (  5301 PWs)   bands (ev):

   -46.0656 -46.0634 -22.7217 -22.7203 -22.2986 -22.2898 -22.2872 -22.2716
   -14.8016 -14.7511  -6.7807  -6.7299  -6.0977  -5.8751  -5.7052  -5.7023
    -0.4327  -0.3824  -0.1977  -0.1278   0.0813   0.2697   6.1900   6.3278
     6.4322   6.6005   6.8644   6.9729   7.0385   7.4277   7.4950   7.6727
     7.8449   8.4846   9.0708   9.1500   9.2919   9.3681   9.5390   9.9142
    13.2633  13.7501  13.9295  13.9736  14.0618  14.5069  15.1360  16.3592

          k =-0.2857-0.1250-0.4284 (  5280 PWs)   bands (ev):

   -46.0653 -46.0631 -22.7207 -22.7194 -22.3047 -22.3020 -22.2977 -22.2709
   -14.7746 -14.7290  -6.8210  -6.6762  -5.9643  -5.7627  -5.7143  -5.7047
    -0.5442  -0.4992  -0.2396  -0.1679  -0.0577   0.1795   6.0723   6.2634
     6.3318   6.7241   6.8147   6.9416   7.0523   7.1150   7.2366   7.5992
     7.9320   8.2669   9.1538   9.2115   9.2611   9.3765   9.4652  10.1599
    13.6759  13.9449  14.0178  14.1834  14.3194  14.5608  15.1128  16.2571

          k =-0.2857-0.1250 0.4284 (  5280 PWs)   bands (ev):

   -46.0653 -46.0631 -22.7207 -22.7194 -22.3046 -22.3020 -22.2977 -22.2709
   -14.7745 -14.7289  -6.8201  -6.6748  -5.9656  -5.7641  -5.7139  -5.7042
    -0.5448  -0.5082  -0.2292  -0.1708  -0.0596   0.1816   6.0738   6.2198
     6.3236   6.7040   6.8383   6.8784   7.0971   7.1570   7.2637   7.6029
     7.9511   8.2567   9.1439   9.2054   9.2737   9.3672   9.4886  10.1570
    13.6789  13.9421  14.0147  14.1839  14.3130  14.5606  15.0891  16.2526

          k =-0.2857-0.1250 0.2856 (  5301 PWs)   bands (ev):

   -46.0656 -46.0634 -22.7217 -22.7203 -22.2986 -22.2898 -22.2872 -22.2716
   -14.8015 -14.7510  -6.7786  -6.7267  -6.1005  -5.8776  -5.7042  -5.7023
    -0.4395  -0.3962  -0.1930  -0.1206   0.0812   0.2747   6.1772   6.2755
     6.4115   6.5701   6.8711   6.9610   7.0236   7.4608   7.5994   7.6813
     7.8804   8.4726   9.0643   9.1604   9.3003   9.3761   9.5553   9.9058
    13.2665  13.7477  13.9176  13.9717  14.0388  14.5080  15.0791  16.3793

          k =-0.2857-0.1250 0.1428 (  5304 PWs)   bands (ev):

   -46.0660 -46.0637 -22.7229 -22.7214 -22.2997 -22.2725 -22.2711 -22.2687
   -14.8347 -14.7782  -6.7999  -6.7470  -6.2339  -6.0028  -5.7052  -5.7014
    -0.2375  -0.2106  -0.1080  -0.0534   0.2138   0.2955   6.1970   6.2742
     6.4754   6.7061   6.8035   6.9103   7.1856   7.6105   7.6953   7.9096
     8.2902   8.7983   8.9227   9.0092   9.3042   9.3939   9.5156   9.5988
    12.7522  13.5612  13.8720  13.9365  13.9571  14.4333  14.8890  15.7131

          k =-0.4286-0.0000 0.0000 (  5310 PWs)   bands (ev):

   -46.0658 -46.0636 -22.7401 -22.7380 -22.3044 -22.2668 -22.2622 -22.2596
   -14.8269 -14.7559  -6.6532  -6.6089  -6.3869  -6.0395  -5.7905  -5.6880
    -0.2339  -0.1148  -0.0067   0.0908   0.1906   0.3813   5.7181   5.7539
     5.9871   6.4154   6.4954   7.1183   7.2874   7.5395   7.6191   7.8461
     8.3176   8.5978   8.6849   9.2488   9.3653   9.4466   9.6067   9.7656
    12.3629  13.6516  14.2242  14.2407  14.5022  14.5410  14.6735  15.1735

          k =-0.4286-0.0000-0.1428 (  5300 PWs)   bands (ev):

   -46.0657 -46.0634 -22.7394 -22.7375 -22.3040 -22.2705 -22.2679 -22.2664
   -14.8139 -14.7450  -6.6021  -6.5711  -6.3983  -5.9690  -5.7630  -5.6862
    -0.3434  -0.1953  -0.0611  -0.0226   0.0945   0.3089   5.7352   5.9554
     6.0427   6.4623   6.5742   6.7581   7.1342   7.5699   7.5784   7.9030
     8.1914   8.6876   8.9084   9.2495   9.2685   9.5200   9.5350   9.7113
    12.6580  13.7445  14.1588  14.2434  14.3099  14.7054  14.7117  15.6604

          k =-0.4286-0.0000-0.2856 (  5280 PWs)   bands (ev):

   -46.0653 -46.0630 -22.7380 -22.7363 -22.3030 -22.2890 -22.2863 -22.2655
   -14.7845 -14.7203  -6.5591  -6.5250  -6.2898  -5.8046  -5.7023  -5.6992
    -0.5805  -0.4931  -0.3473  -0.1635   0.1344   0.1461   5.7595   5.9058
     6.1002   6.6199   6.6272   6.7894   6.8206   7.3505   7.4623   7.6932
     7.9658   8.8787   9.0975   9.2393   9.4116   9.5584   9.7104   9.9313
    13.2280  13.9751  14.2093  14.2357  14.3177  14.7451  14.7994  16.2967

          k =-0.4286-0.0000-0.4284 (  5283 PWs)   bands (ev):

   -46.0650 -46.0627 -22.7368 -22.7354 -22.3037 -22.3023 -22.3010 -22.2648
   -14.7606 -14.7002  -6.6060  -6.4749  -6.0755  -5.7718  -5.6655  -5.6460
    -0.7620  -0.7410  -0.5748  -0.2265   0.0126   0.1956   5.7428   5.8146
     5.8910   6.5630   6.5804   6.7904   7.0001   7.0333   7.2232   7.8108
     7.9792   8.5845   9.3460   9.4525   9.6013   9.7115   9.7480  10.2871
    13.6348  14.1781  14.2428  14.2966  14.5494  14.6295  14.8689  16.0783

          k =-0.4286-0.0000 0.4284 (  5283 PWs)   bands (ev):

   -46.0650 -46.0627 -22.7368 -22.7354 -22.3037 -22.3023 -22.3010 -22.2648
   -14.7606 -14.7002  -6.6052  -6.4740  -6.0771  -5.7711  -5.6661  -5.6461
    -0.7633  -0.7447  -0.5705  -0.2280   0.0145   0.1953   5.7283   5.8232
     5.8795   6.5717   6.5802   6.7781   7.0100   7.0295   7.2408   7.8101
     7.9861   8.5835   9.3344   9.4497   9.6153   9.7148   9.7484  10.2859
    13.6339  14.1767  14.2411  14.3025  14.5465  14.6233  14.8689  16.0792

          k =-0.4286-0.0000 0.2856 (  5280 PWs)   bands (ev):

   -46.0653 -46.0630 -22.7380 -22.7363 -22.3031 -22.2889 -22.2863 -22.2655
   -14.7845 -14.7202  -6.5558  -6.5232  -6.2935  -5.8059  -5.7019  -5.6994
    -0.5834  -0.5048  -0.3333  -0.1665   0.1331   0.1496   5.7346   5.9150
     6.0890   6.6151   6.6366   6.7655   6.8177   7.3667   7.5033   7.6949
     7.9764   8.8780   9.0913   9.2098   9.4419   9.5718   9.7115   9.9265
    13.2292  13.9746  14.2251  14.2282  14.3067  14.7209  14.8002  16.2910

          k =-0.4286-0.0000 0.1428 (  5300 PWs)   bands (ev):

   -46.0657 -46.0634 -22.7394 -22.7375 -22.3040 -22.2705 -22.2679 -22.2664
   -14.8139 -14.7450  -6.5992  -6.5696  -6.4011  -5.9704  -5.7631  -5.6859
    -0.3458  -0.2069  -0.0631  -0.0023   0.0864   0.3114   5.7223   5.9607
     6.0390   6.4627   6.5528   6.7656   7.1317   7.5803   7.5818   7.9092
     8.2107   8.6899   8.8977   9.2583   9.2736   9.5274   9.5343   9.7096
    12.6600  13.7434  14.1570  14.2387  14.3065  14.6796  14.7126  15.6616

          k =-0.4286 0.1250 0.0000 (  5301 PWs)   bands (ev):

   -46.0658 -46.0636 -22.7399 -22.7382 -22.2989 -22.2723 -22.2621 -22.2597
   -14.8170 -14.7662  -6.6084  -6.5800  -6.3993  -6.1578  -5.7379  -5.6864
    -0.2138  -0.1080   0.0206   0.1015   0.1601   0.3270   5.7289   5.7676
     6.0986   6.5134   6.6819   6.9849   7.0077   7.4658   7.6459   7.8071
     8.4519   8.7260   8.9205   9.0670   9.2676   9.4057   9.4283   9.6825
    12.5947  13.4943  14.2554  14.4049  14.5078  14.5289  14.6803  15.1526

          k =-0.4286 0.1250-0.1428 (  5300 PWs)   bands (ev):

   -46.0656 -46.0634 -22.7393 -22.7376 -22.2985 -22.2719 -22.2704 -22.2680
   -14.8043 -14.7549  -6.5769  -6.5457  -6.3866  -6.0872  -5.7142  -5.6816
    -0.3342  -0.1962  -0.0893   0.0220   0.1031   0.2637   5.7496   5.8774
     6.1219   6.5299   6.6801   6.7531   7.0708   7.4926   7.6404   7.8358
     8.3454   8.7692   8.9339   9.0999   9.1363   9.4301   9.5336   9.6587
    12.8324  13.5949  14.2380  14.2711  14.3222  14.5735  14.9918  15.6577

          k =-0.4286 0.1250-0.2856 (  5280 PWs)   bands (ev):

   -46.0653 -46.0631 -22.7379 -22.7364 -22.2976 -22.2888 -22.2864 -22.2710
   -14.7756 -14.7295  -6.5491  -6.5267  -6.2381  -5.9148  -5.6899  -5.6660
    -0.5759  -0.4066  -0.2943  -0.2098   0.0113   0.1477   5.7889   5.8987
     6.1435   6.4524   6.7087   6.8491   6.9753   7.4050   7.4675   7.6747
     8.0206   8.5575   9.1715   9.3160   9.3996   9.5158   9.6443   9.8416
    13.3223  13.8463  14.2279  14.3008  14.3298  14.6604  15.1567  16.3492

          k =-0.4286 0.1250-0.4284 (  5271 PWs)   bands (ev):

   -46.0650 -46.0628 -22.7368 -22.7354 -22.3036 -22.3011 -22.2968 -22.2703
   -14.7522 -14.7088  -6.5862  -6.4936  -6.0230  -5.7516  -5.7415  -5.6527
    -0.7083  -0.6289  -0.4846  -0.3103  -0.0919   0.0746   5.7775   5.8648
     6.0314   6.5475   6.7437   6.8420   6.8941   7.0691   7.1560   7.8457
     7.9784   8.2774   9.4213   9.5118   9.6068   9.6711   9.6852  10.1372
    13.6999  14.1028  14.2712  14.3527  14.5221  14.7188  15.0835  16.2958

          k =-0.4286 0.1250 0.4284 (  5271 PWs)   bands (ev):

   -46.0650 -46.0628 -22.7368 -22.7355 -22.3036 -22.3011 -22.2968 -22.2703
   -14.7522 -14.7088  -6.5853  -6.4927  -6.0245  -5.7505  -5.7430  -5.6524
    -0.7086  -0.6351  -0.4777  -0.3120  -0.0920   0.0751   5.7712   5.8654
     6.0195   6.5453   6.7484   6.8048   6.9316   7.0777   7.1658   7.8440
     7.9857   8.2754   9.4145   9.5059   9.6181   9.6725   9.6897  10.1347
    13.6992  14.1045  14.2683  14.3551  14.5225  14.7187  15.0742  16.2926

          k =-0.4286 0.1250 0.2856 (  5280 PWs)   bands (ev):

   -46.0653 -46.0631 -22.7379 -22.7364 -22.2976 -22.2888 -22.2864 -22.2710
   -14.7756 -14.7294  -6.5463  -6.5248  -6.2413  -5.9164  -5.6893  -5.6661
    -0.5786  -0.4213  -0.2738  -0.2148   0.0075   0.1517   5.7678   5.9003
     6.1388   6.4407   6.7079   6.8367   6.9810   7.4211   7.5033   7.6765
     8.0296   8.5538   9.1720   9.2946   9.4195   9.5322   9.6463   9.8318
    13.3222  13.8455  14.2307  14.2975  14.3264  14.6625  15.1318  16.3325

          k =-0.4286 0.1250 0.1428 (  5300 PWs)   bands (ev):

   -46.0656 -46.0634 -22.7393 -22.7377 -22.2985 -22.2719 -22.2704 -22.2680
   -14.8043 -14.7549  -6.5744  -6.5432  -6.3898  -6.0888  -5.7143  -5.6814
    -0.3365  -0.2049  -0.0877   0.0308   0.0982   0.2680   5.7368   5.8703
     6.1291   6.5281   6.6612   6.7626   7.0669   7.4997   7.6460   7.8471
     8.3583   8.7706   8.9253   9.1177   9.1407   9.4354   9.5299   9.6551
    12.8326  13.5931  14.2389  14.2518  14.3255  14.5783  14.9711  15.6587

          k =-0.4286-0.2499-0.0000 (  5302 PWs)   bands (ev):

   -46.0658 -46.0636 -22.7396 -22.7385 -22.2866 -22.2846 -22.2620 -22.2598
   -14.7974 -14.7861  -6.5502  -6.5490  -6.3429  -6.3419  -5.6944  -5.6938
    -0.1603  -0.1492   0.0842   0.0932   0.1951   0.2045   5.7526   5.7546
     6.4610   6.4655   6.7520   6.7575   7.1380   7.1405   7.7172   7.7218
     8.7241   8.7252   9.0482   9.0508   9.1806   9.1844   9.4642   9.4675
    13.0762  13.0803  14.3385  14.3412  14.5139  14.5167  14.9932  14.9958

          k =-0.4286-0.2499-0.1428 (  5292 PWs)   bands (ev):

   -46.0656 -46.0635 -22.7391 -22.7379 -22.2862 -22.2842 -22.2703 -22.2681
   -14.7855 -14.7741  -6.5396  -6.5387  -6.2777  -6.2765  -5.6814  -5.6808
    -0.2826  -0.2767  -0.0134  -0.0064   0.1646   0.1717   5.7932   5.7951
     6.3043   6.3050   6.8854   6.8862   7.1942   7.1973   7.7231   7.7270
     8.6044   8.6062   8.9419   8.9437   9.3005   9.3032   9.5155   9.5169
    13.2244  13.2282  14.2891  14.2907  14.4017  14.4036  15.4729  15.4758

          k =-0.4286-0.2499-0.2856 (  5280 PWs)   bands (ev):

   -46.0652 -46.0631 -22.7378 -22.7366 -22.2888 -22.2866 -22.2852 -22.2833
   -14.7584 -14.7469  -6.5345  -6.5338  -6.0951  -6.0938  -5.6662  -5.6656
    -0.4674  -0.4669  -0.2210  -0.2159   0.0070   0.0127   5.8537   5.8549
     6.2548   6.2561   6.8390   6.8399   7.3696   7.3733   7.4779   7.4788
     8.1776   8.1780   9.3059   9.3091   9.4370   9.4388   9.6514   9.6527
    13.5672  13.5704  14.2872  14.2891  14.4587  14.4609  15.9649  15.9679

          k =-0.4286-0.2499-0.4284 (  5274 PWs)   bands (ev):

   -46.0649 -46.0628 -22.7367 -22.7355 -22.3034 -22.3012 -22.2846 -22.2826
   -14.7364 -14.7248  -6.5401  -6.5386  -5.8896  -5.8885  -5.7008  -5.6998
    -0.5289  -0.5223  -0.4097  -0.4062  -0.1707  -0.1639   5.8322   5.8332
     6.4667   6.4718   6.6847   6.6867   7.0164   7.0176   7.5335   7.5374
     7.9835   7.9841   9.5232   9.5271   9.6343   9.6348   9.8007   9.8022
    13.8786  13.8812  14.4310  14.4322  14.4930  14.4948  15.9961  15.9996

          k =-0.4286-0.2499 0.4284 (  5274 PWs)   bands (ev):

   -46.0649 -46.0628 -22.7367 -22.7355 -22.3034 -22.3012 -22.2846 -22.2826
   -14.7364 -14.7248  -6.5393  -6.5378  -5.8909  -5.8898  -5.7002  -5.6992
    -0.5322  -0.5254  -0.4059  -0.4045  -0.1706  -0.1640   5.8298   5.8307
     6.4436   6.4484   6.6978   6.7001   7.0291   7.0304   7.5378   7.5417
     7.9822   7.9828   9.5216   9.5255   9.6411   9.6416   9.7968   9.7983
    13.8786  13.8811  14.4319  14.4331  14.4915  14.4934  15.9870  15.9905

          k =-0.4286-0.2499 0.2856 (  5280 PWs)   bands (ev):

   -46.0652 -46.0631 -22.7378 -22.7366 -22.2887 -22.2866 -22.2852 -22.2833
   -14.7584 -14.7469  -6.5324  -6.5317  -6.0974  -6.0961  -5.6658  -5.6652
    -0.4716  -0.4697  -0.2204  -0.2161   0.0095   0.0149   5.8432   5.8446
     6.2484   6.2495   6.8322   6.8331   7.3743   7.3780   7.5045   7.5055
     8.1773   8.1776   9.3110   9.3145   9.4447   9.4463   9.6428   9.6440
    13.5656  13.5687  14.2863  14.2883  14.4574  14.4597  15.9458  15.9488

          k =-0.4286-0.2499 0.1428 (  5292 PWs)   bands (ev):

   -46.0656 -46.0635 -22.7391 -22.7379 -22.2862 -22.2842 -22.2703 -22.2681
   -14.7854 -14.7741  -6.5372  -6.5363  -6.2801  -6.2788  -5.6812  -5.6807
    -0.2853  -0.2793  -0.0166  -0.0100   0.1701   0.1770   5.7814   5.7833
     6.3110   6.3121   6.8721   6.8728   7.2004   7.2035   7.7335   7.7374
     8.6109   8.6126   8.9490   8.9509   9.3069   9.3095   9.5081   9.5096
    13.2223  13.2261  14.2780  14.2797  14.4059  14.4078  15.4674  15.4703

          k =-0.4286-0.1250 0.0000 (  5301 PWs)   bands (ev):

   -46.0658 -46.0636 -22.7399 -22.7382 -22.2989 -22.2723 -22.2621 -22.2597
   -14.8170 -14.7662  -6.6087  -6.5796  -6.3992  -6.1580  -5.7378  -5.6864
    -0.2160  -0.1039   0.0206   0.0987   0.1601   0.3278   5.7298   5.7652
     6.1005   6.5135   6.6825   6.9839   7.0076   7.4656   7.6459   7.8071
     8.4517   8.7259   8.9231   9.0640   9.2696   9.4043   9.4281   9.6829
    12.5950  13.4940  14.2549  14.4052  14.5080  14.5288  14.6803  15.1528

          k =-0.4286-0.1250-0.1428 (  5300 PWs)   bands (ev):

   -46.0656 -46.0634 -22.7393 -22.7376 -22.2985 -22.2719 -22.2704 -22.2680
   -14.8043 -14.7549  -6.5770  -6.5456  -6.3864  -6.0874  -5.7142  -5.6816
    -0.3349  -0.1974  -0.0828   0.0179   0.1009   0.2654   5.7503   5.8754
     6.1232   6.5311   6.6791   6.7528   7.0710   7.4925   7.6400   7.8358
     8.3456   8.7691   8.9355   9.0990   9.1347   9.4325   9.5321   9.6588
    12.8328  13.5945  14.2385  14.2702  14.3222  14.5738  14.9917  15.6577

          k =-0.4286-0.1250-0.2856 (  5280 PWs)   bands (ev):

   -46.0653 -46.0631 -22.7379 -22.7364 -22.2976 -22.2888 -22.2864 -22.2710
   -14.7756 -14.7295  -6.5492  -6.5267  -6.2380  -5.9149  -5.6898  -5.6660
    -0.5760  -0.4101  -0.2852  -0.2135   0.0066   0.1506   5.7897   5.8982
     6.1432   6.4518   6.7086   6.8487   6.9771   7.4048   7.4677   7.6742
     8.0207   8.5575   9.1707   9.3161   9.3999   9.5163   9.6440   9.8416
    13.3226  13.8460  14.2283  14.3007  14.3293  14.6607  15.1565  16.3489

          k =-0.4286-0.1250-0.4284 (  5271 PWs)   bands (ev):

   -46.0650 -46.0628 -22.7368 -22.7354 -22.3036 -22.3011 -22.2968 -22.2703
   -14.7522 -14.7088  -6.5862  -6.4935  -6.0229  -5.7516  -5.7416  -5.6528
    -0.7087  -0.6300  -0.4815  -0.3107  -0.0952   0.0766   5.7780   5.8645
     6.0315   6.5461   6.7440   6.8438   6.8930   7.0696   7.1560   7.8458
     7.9783   8.2771   9.4206   9.5123   9.6068   9.6713   9.6852  10.1372
    13.6998  14.1029  14.2714  14.3528  14.5220  14.7189  15.0834  16.2959

          k =-0.4286-0.1250 0.4284 (  5271 PWs)   bands (ev):

   -46.0650 -46.0628 -22.7368 -22.7355 -22.3036 -22.3011 -22.2968 -22.2703
   -14.7522 -14.7088  -6.5854  -6.4927  -6.0244  -5.7505  -5.7431  -5.6524
    -0.7081  -0.6372  -0.4748  -0.3117  -0.0954   0.0770   5.7717   5.8650
     6.0195   6.5438   6.7481   6.8074   6.9309   7.0780   7.1657   7.8440
     7.9855   8.2751   9.4138   9.5064   9.6183   9.6726   9.6898  10.1347
    13.6992  14.1046  14.2686  14.3550  14.5222  14.7190  15.0739  16.2924

          k =-0.4286-0.1250 0.2856 (  5280 PWs)   bands (ev):

   -46.0653 -46.0631 -22.7379 -22.7364 -22.2976 -22.2888 -22.2864 -22.2710
   -14.7756 -14.7294  -6.5464  -6.5248  -6.2411  -5.9166  -5.6893  -5.6660
    -0.5779  -0.4257  -0.2647  -0.2179   0.0027   0.1542   5.7685   5.8998
     6.1384   6.4405   6.7076   6.8362   6.9830   7.4213   7.5032   7.6758
     8.0297   8.5538   9.1712   9.2947   9.4198   9.5330   9.6460   9.8318
    13.3224  13.8454  14.2315  14.2971  14.3256  14.6630  15.1314  16.3324

          k =-0.4286-0.1250 0.1428 (  5300 PWs)   bands (ev):

   -46.0656 -46.0634 -22.7393 -22.7377 -22.2985 -22.2719 -22.2704 -22.2680
   -14.8043 -14.7549  -6.5745  -6.5432  -6.3896  -6.0889  -5.7142  -5.6814
    -0.3368  -0.2069  -0.0812   0.0274   0.0958   0.2695   5.7375   5.8683
     6.1306   6.5285   6.6610   6.7621   7.0673   7.4995   7.6458   7.8470
     8.3584   8.7704   8.9267   9.1153   9.1408   9.4380   9.5285   9.6552
    12.8328  13.5929  14.2388  14.2518  14.3249  14.5791  14.9706  15.6588

     the Fermi energy is    11.0777 ev

!    total energy              =   -1362.19372172 Ry
     estimated scf accuracy    <          1.3E-10 Ry
     smearing contrib. (-TS)   =       0.00000000 Ry
     internal energy E=F+TS    =   -1362.19372172 Ry

     The total energy is F=E-TS. E is the sum of the following terms:
     one-electron contribution =    -149.47101143 Ry
     hartree contribution      =     124.16594324 Ry
     xc contribution           =    -121.85700109 Ry
     ewald contribution        =    -408.01166632 Ry
     one-center paw contrib.   =    -807.01998612 Ry

     convergence has been achieved in  21 iterations

     negative rho (up, down):  2.839E-03 0.000E+00

     Forces acting on atoms (cartesian axes, Ry/au):

     atom    1 type  1   force =    -0.00002296    0.00003214    0.00001179
     atom    2 type  1   force =     0.00003819    0.00003934    0.00000412
     atom    3 type  2   force =     0.21673005    0.00001186    0.00140119
     atom    4 type  2   force =    -0.21627929   -0.00002328   -0.00140232
     atom    5 type  3   force =    -0.11421492   -0.00058844    0.00062403
     atom    6 type  3   force =     0.11375822    0.00054319   -0.00061190
     atom    7 type  3   force =     0.00005522    0.00015996    0.00000025
     atom    8 type  3   force =    -0.00004918   -0.00012962    0.00000191
     atom    9 type  3   force =    -0.02556847   -0.00041485    0.00352649
     atom   10 type  3   force =     0.02555313    0.00036970   -0.00355555

     Total force =     0.347954     Total SCF correction =     0.000016
     Message from routine punch:
     Nothing written, as per user request (disk_io='none')

     init_run     :     19.33s CPU     19.97s WALL (       1 calls)
     electrons    :    656.40s CPU    672.42s WALL (       1 calls)
     forces       :      4.22s CPU      4.44s WALL (       1 calls)

     Called by init_run:
     wfcinit      :      4.74s CPU      4.89s WALL (       1 calls)
     potinit      :      4.82s CPU      5.06s WALL (       1 calls)
     hinit0       :      2.20s CPU      2.28s WALL (       1 calls)

     Called by electrons:
     c_bands      :    500.25s CPU    502.47s WALL (      21 calls)
     sum_band     :     97.70s CPU    103.15s WALL (      21 calls)
     v_of_rho     :      6.67s CPU      7.31s WALL (      22 calls)
     newd         :     19.86s CPU     24.21s WALL (      22 calls)
     PAW_pot      :     33.08s CPU     36.76s WALL (      22 calls)
     mix_rho      :      0.88s CPU      0.88s WALL (      21 calls)

     Called by c_bands:
     init_us_2    :     13.49s CPU     13.53s WALL (     572 calls)
     cegterg      :    179.53s CPU    181.39s WALL (     273 calls)

     Called by *egterg:
     cdiaghg      :      3.58s CPU      3.58s WALL (     971 calls)
     h_psi        :    113.86s CPU    115.00s WALL (     984 calls)
     s_psi        :     14.56s CPU     14.59s WALL (     984 calls)
     g_psi        :      0.91s CPU      0.92s WALL (     698 calls)

     Called by h_psi:
     h_psi:calbec :     18.02s CPU     18.04s WALL (     984 calls)
     vloc_psi     :     78.33s CPU     78.80s WALL (     984 calls)
                                        0.00s GPU  (     984 calls)
     add_vuspsi   :     15.01s CPU     15.04s WALL (     984 calls)

     General routines
     calbec       :     25.28s CPU     25.32s WALL (    1309 calls)
     fft          :      2.46s CPU      2.49s WALL (     295 calls)
     ffts         :      0.39s CPU      0.39s WALL (      43 calls)
     fftw         :     75.79s CPU     76.21s WALL (   71566 calls)
     interpolate  :      0.60s CPU      0.60s WALL (      22 calls)

     Parallel routines

     PWSCF        :  11m20.96s CPU  11m37.93s WALL


   This run was terminated on:   0:11:52   5Oct2026            

=------------------------------------------------------------------------------=
   JOB DONE.
=------------------------------------------------------------------------------=
