
     Program PWSCF v.7.5 starts on  3Oct2026 at 21:53:35 

     This program is part of the open-source Quantum ESPRESSO suite
     for quantum simulation of materials; please cite
         "P. Giannozzi et al., J. Phys.:Condens. Matter 21 395502 (2009);
         "P. Giannozzi et al., J. Phys.:Condens. Matter 29 465901 (2017);
         "P. Giannozzi et al., J. Chem. Phys. 152 154105 (2020);
          URL http://www.quantum-espresso.org", 
     in publications or presentations arising from this work. More details at
     http://www.quantum-espresso.org/quote

     Parallel version (MPI & OpenMP), running on       8 processor cores
     Number of MPI processes:                 8
     Threads/MPI process:                     1

     MPI processes distributed on     1 nodes
     106150 MiB available memory on the printing compute node when the environment starts

     Reading input from pw.in

     Current dimensions of program PWSCF are:
     Max number of different atomic species (ntypx) = 10
     Max number of k-points (npk) =  40000
     Max angular momentum in pseudopotentials (lmaxx) =  4
     file O.pbe-n-kjpaw_psl.0.1.UPF: wavefunction(s)  2P renormalized
     Message from routine setup:
     using ibrav=0 with symmetry is DISCOURAGED, use correct ibrav instead

     K-points division:     npool     =       8
     Subspace diagonalization in iterative solution of the eigenvalue problem:
     a serial algorithm will be used


     G-vector sticks info
     --------------------
     sticks:   dense  smooth     PW     G-vecs:    dense   smooth      PW
     Sum        1765     885    261                55803    19837    3191

     Using Slab Decomposition



     bravais-lattice index     =            0
     lattice parameter (alat)  =       7.4511  a.u.
     unit-cell volume          =     413.6798 (a.u.)^3
     number of atoms/cell      =            5
     number of atomic types    =            3
     number of electrons       =        40.00
     number of Kohn-Sham states=           24
     kinetic-energy cutoff     =      50.0000  Ry
     charge density cutoff     =     400.0000  Ry
     scf convergence threshold =      5.0E-10
     mixing beta               =       0.4000
     number of iterations used =            8  plain     mixing
     Exchange-correlation= SLA  PW   PBX  PBC
                           (   1   4   3   4   0   0   0)

     celldm(1)=   7.451118  celldm(2)=   0.000000  celldm(3)=   0.000000
     celldm(4)=   0.000000  celldm(5)=   0.000000  celldm(6)=   0.000000

     crystal axes: (cart. coord. in units of alat)
               a(1) = (   1.000000  -0.000000  -0.000000 )  
               a(2) = (  -0.000000   1.000000  -0.000000 )  
               a(3) = (   0.000000  -0.000000   1.000000 )  

     reciprocal axes: (cart. coord. in units 2 pi/alat)
               b(1) = (  1.000000  0.000000  0.000000 )  
               b(2) = (  0.000000  1.000000  0.000000 )  
               b(3) = (  0.000000  0.000000  1.000000 )  


     PseudoPot. # 1 for Sr read from file:
     /root/sssp/Sr_pbe_v1.uspp.F.UPF
     MD5 check sum: 6b418c05fbe9db5448babca5e47b7a5b
     Pseudo is Ultrasoft + core correction, Zval = 10.0
     Generated by new atomic code, or converted to UPF format
     Using radial grid of  883 points,  6 beta functions with: 
                l(1) =   0
                l(2) =   0
                l(3) =   1
                l(4) =   1
                l(5) =   2
                l(6) =   2
     Q(r) pseudized with  6 coefficients,  rinner =    1.400   1.400   1.400
                                                       1.400   1.400

     PseudoPot. # 2 for Ti read from file:
     /root/sssp/ti_pbe_v1.4.uspp.F.UPF
     MD5 check sum: 88a00a6731bd790ddea75d31a80cb452
     Pseudo is Ultrasoft + core correction, Zval = 12.0
     Generated by new atomic code, or converted to UPF format
     Using radial grid of  851 points,  6 beta functions with: 
                l(1) =   0
                l(2) =   0
                l(3) =   1
                l(4) =   1
                l(5) =   2
                l(6) =   2
     Q(r) pseudized with  6 coefficients,  rinner =    1.000   1.000   1.000
                                                       1.000   1.000

     PseudoPot. # 3 for O  read from file:
     /root/sssp/O.pbe-n-kjpaw_psl.0.1.UPF
     MD5 check sum: 0234752ac141de4415c5fc33072bef88
     Pseudo is Projector augmented-wave + core cor, Zval =  6.0
     Generated using "atomic" code by A. Dal Corso  v.5.0.99 svn rev. 10869
     Shape of augmentation charge: BESSEL
     Using radial grid of 1095 points,  4 beta functions with: 
                l(1) =   0
                l(2) =   0
                l(3) =   1
                l(4) =   1
     Q(r) pseudized with 0 coefficients 


     atomic species   valence    mass     pseudopotential
     Sr               10.00    87.62000     Sr( 1.00)
     Ti               12.00    47.86700     Ti( 1.00)
     O                 6.00    15.99900     O ( 1.00)

     48 Sym. Ops., with inversion, found



   Cartesian axes

     site n.     atom                  positions (alat units)
         1        Sr     tau(   1) = (   0.0000000  -0.0000000   0.0000000  )
         2        Ti     tau(   2) = (   0.5000000   0.5000000   0.5000000  )
         3        O      tau(   3) = (   0.0000000   0.5000000   0.5000000  )
         4        O      tau(   4) = (   0.5000000  -0.0000000   0.5000000  )
         5        O      tau(   5) = (   0.5000000   0.5000000   0.0000000  )

     number of k points=    20  Marzari-Vanderbilt smearing, width (Ry)=  0.0050
                       cart. coord. in units 2pi/alat
        k(    1) = (   0.0000000   0.0000000   0.0000000), wk =   0.0058309
        k(    2) = (   0.0000000   0.0000000   0.1428571), wk =   0.0349854
        k(    3) = (   0.0000000   0.0000000   0.2857143), wk =   0.0349854
        k(    4) = (   0.0000000   0.0000000   0.4285714), wk =   0.0349854
        k(    5) = (   0.0000000   0.1428571   0.1428571), wk =   0.0699708
        k(    6) = (   0.0000000   0.1428571   0.2857143), wk =   0.1399417
        k(    7) = (   0.0000000   0.1428571   0.4285714), wk =   0.1399417
        k(    8) = (   0.0000000   0.2857143   0.2857143), wk =   0.0699708
        k(    9) = (   0.0000000   0.2857143   0.4285714), wk =   0.1399417
        k(   10) = (   0.0000000   0.4285714   0.4285714), wk =   0.0699708
        k(   11) = (   0.1428571   0.1428571   0.1428571), wk =   0.0466472
        k(   12) = (   0.1428571   0.1428571   0.2857143), wk =   0.1399417
        k(   13) = (   0.1428571   0.1428571   0.4285714), wk =   0.1399417
        k(   14) = (   0.1428571   0.2857143   0.2857143), wk =   0.1399417
        k(   15) = (   0.1428571   0.2857143   0.4285714), wk =   0.2798834
        k(   16) = (   0.1428571   0.4285714   0.4285714), wk =   0.1399417
        k(   17) = (   0.2857143   0.2857143   0.2857143), wk =   0.0466472
        k(   18) = (   0.2857143   0.2857143   0.4285714), wk =   0.1399417
        k(   19) = (   0.2857143   0.4285714   0.4285714), wk =   0.1399417
        k(   20) = (   0.4285714   0.4285714   0.4285714), wk =   0.0466472

     Dense  grid:    55803 G-vectors     FFT dimensions: (  48,  48,  48)

     Smooth grid:    19837 G-vectors     FFT dimensions: (  36,  36,  36)

     Estimated max dynamical RAM per process >      65.60 MB

     Estimated total dynamical RAM >     429.45 MB

     Check: negative core charge=   -0.000005

     Initial potential from superposition of free atoms

     starting charge      38.9663, renormalised to      40.0000

     negative rho (up, down):  6.542E-02 0.000E+00
     Starting wfcs are   35 randomized atomic wfcs
     Checking if some PAW data can be deallocated... 

     total cpu time spent up to now is        4.9 secs

     per-process dynamical memory:    62.7 Mb

     Self-consistent Calculation

     iteration #  1     ecut=    50.00 Ry     beta= 0.40
     Davidson diagonalization with overlap
     ethr =  1.00E-02,  avg # of iterations =  1.9

     negative rho (up, down):  6.481E-02 0.000E+00

     total cpu time spent up to now is        6.8 secs

     total energy              =    -314.84002224 Ry
     estimated scf accuracy    <       0.96857140 Ry

     iteration #  2     ecut=    50.00 Ry     beta= 0.40
     Davidson diagonalization with overlap
     ethr =  2.42E-03,  avg # of iterations =  3.8

     negative rho (up, down):  6.438E-02 0.000E+00

     total cpu time spent up to now is        9.5 secs

     total energy              =    -314.91462525 Ry
     estimated scf accuracy    <       1.02165747 Ry

     iteration #  3     ecut=    50.00 Ry     beta= 0.40
     Davidson diagonalization with overlap
     ethr =  2.42E-03,  avg # of iterations =  2.6

     negative rho (up, down):  6.488E-02 0.000E+00

     total cpu time spent up to now is       12.1 secs

     total energy              =    -315.11613243 Ry
     estimated scf accuracy    <       0.06427000 Ry

     iteration #  4     ecut=    50.00 Ry     beta= 0.40
     Davidson diagonalization with overlap
     ethr =  1.61E-04,  avg # of iterations =  2.6

     negative rho (up, down):  6.577E-02 0.000E+00

     total cpu time spent up to now is       14.8 secs

     total energy              =    -315.11653479 Ry
     estimated scf accuracy    <       0.01379095 Ry

     iteration #  5     ecut=    50.00 Ry     beta= 0.40
     Davidson diagonalization with overlap
     ethr =  3.45E-05,  avg # of iterations =  3.2

     negative rho (up, down):  6.600E-02 0.000E+00

     total cpu time spent up to now is       17.9 secs

     total energy              =    -315.11959953 Ry
     estimated scf accuracy    <       0.00223289 Ry

     iteration #  6     ecut=    50.00 Ry     beta= 0.40
     Davidson diagonalization with overlap
     ethr =  5.58E-06,  avg # of iterations =  4.0

     negative rho (up, down):  6.604E-02 0.000E+00

     total cpu time spent up to now is       20.9 secs

     total energy              =    -315.12014474 Ry
     estimated scf accuracy    <       0.00010954 Ry

     iteration #  7     ecut=    50.00 Ry     beta= 0.40
     Davidson diagonalization with overlap
     ethr =  2.74E-07,  avg # of iterations =  4.0

     negative rho (up, down):  6.594E-02 0.000E+00

     total cpu time spent up to now is       24.1 secs

     total energy              =    -315.12013519 Ry
     estimated scf accuracy    <       0.00006901 Ry

     iteration #  8     ecut=    50.00 Ry     beta= 0.40
     Davidson diagonalization with overlap
     ethr =  1.73E-07,  avg # of iterations =  3.8

     negative rho (up, down):  6.591E-02 0.000E+00

     total cpu time spent up to now is       27.0 secs

     total energy              =    -315.12015447 Ry
     estimated scf accuracy    <       0.00003077 Ry

     iteration #  9     ecut=    50.00 Ry     beta= 0.40
     Davidson diagonalization with overlap
     ethr =  7.69E-08,  avg # of iterations =  2.7

     negative rho (up, down):  6.590E-02 0.000E+00

     total cpu time spent up to now is       29.9 secs

     total energy              =    -315.12015906 Ry
     estimated scf accuracy    <       0.00000016 Ry

     iteration # 10     ecut=    50.00 Ry     beta= 0.40
     Davidson diagonalization with overlap
     ethr =  4.05E-10,  avg # of iterations =  5.0

     negative rho (up, down):  6.590E-02 0.000E+00

     total cpu time spent up to now is       33.5 secs

     total energy              =    -315.12015927 Ry
     estimated scf accuracy    <       0.00000003 Ry

     iteration # 11     ecut=    50.00 Ry     beta= 0.40
     Davidson diagonalization with overlap
     ethr =  8.27E-11,  avg # of iterations =  3.5

     negative rho (up, down):  6.589E-02 0.000E+00

     total cpu time spent up to now is       36.4 secs

     total energy              =    -315.12015928 Ry
     estimated scf accuracy    <       0.00000003 Ry

     iteration # 12     ecut=    50.00 Ry     beta= 0.40
     Davidson diagonalization with overlap
     ethr =  8.27E-11,  avg # of iterations =  2.3

     negative rho (up, down):  6.589E-02 0.000E+00

     total cpu time spent up to now is       39.2 secs

     total energy              =    -315.12015928 Ry
     estimated scf accuracy    <          7.5E-10 Ry

     iteration # 13     ecut=    50.00 Ry     beta= 0.40
     Davidson diagonalization with overlap
     ethr =  1.86E-12,  avg # of iterations =  3.8

     negative rho (up, down):  6.589E-02 0.000E+00

     total cpu time spent up to now is       42.2 secs

     total energy              =    -315.12015928 Ry
     estimated scf accuracy    <          1.1E-09 Ry

     iteration # 14     ecut=    50.00 Ry     beta= 0.40
     Davidson diagonalization with overlap
     ethr =  1.86E-12,  avg # of iterations =  2.0

     negative rho (up, down):  6.589E-02 0.000E+00

     total cpu time spent up to now is       45.3 secs

     End of self-consistent calculation

          k = 0.0000 0.0000 0.0000 (  2517 PWs)   bands (ev):

   -46.8624 -23.1452 -23.1055 -23.1055 -23.1055  -7.6467  -6.6872  -6.6872
    -5.1303  -5.1303  -5.1303   6.8784   6.8784   6.8784   8.5453   8.5453
     8.5453   9.3046   9.3046   9.3046  11.4949  11.4949  11.4949  13.8084

          k = 0.0000 0.0000 0.1429 (  2485 PWs)   bands (ev):

   -46.8622 -23.1746 -23.1051 -23.1051 -23.0840  -7.6544  -6.6937  -6.6804
    -5.1225  -5.1225  -5.0049   6.6251   6.8700   6.8700   8.2973   8.2973
     8.3811   8.7329   9.1891   9.1891  11.5226  11.9158  11.9158  13.8109

          k = 0.0000 0.0000 0.2857 (  2485 PWs)   bands (ev):

   -46.8617 -23.2167 -23.1040 -23.1040 -23.0594  -7.7329  -6.6653  -6.5922
    -5.1046  -5.1046  -4.7676   6.0295   6.8624   6.8624   7.8074   7.8074
     7.8317   8.0509   9.0399   9.0399  11.5866  12.6943  12.6943  13.8152

          k = 0.0000 0.0000 0.4286 (  2448 PWs)   bands (ev):

   -46.8612 -23.2445 -23.1032 -23.1032 -23.0454  -7.8289  -6.6529  -6.4358
    -5.0902  -5.0902  -4.6077   5.5238   6.8840   6.8840   7.3183   7.4483
     7.4483   7.8154   8.9547   8.9547  11.6398  13.2464  13.2464  13.8180

          k = 0.0000 0.1429 0.1429 (  2458 PWs)   bands (ev):

   -46.8620 -23.1839 -23.1169 -23.1046 -23.0705  -7.6354  -6.7220  -6.6669
    -5.1143  -5.0537  -4.9627   6.4739   6.7560   6.8633   7.7799   8.1091
     8.5494   8.5627   8.9043   9.0229  11.8840  11.9841  12.1594  14.0856

          k = 0.0000 0.1429 0.2857 (  2472 PWs)   bands (ev):

   -46.8614 -23.2109 -23.1196 -23.1035 -23.0577  -7.6588  -6.6958  -6.6136
    -5.0959  -5.0224  -4.7818   5.9790   6.6089   6.8597   7.1200   7.6910
     7.9732   8.5260   8.7413   8.8109  11.9743  12.7054  12.7648  14.1780

          k = 0.0000 0.1429 0.4286 (  2465 PWs)   bands (ev):

   -46.8610 -23.2340 -23.1157 -23.1027 -23.0519  -7.7258  -6.6381  -6.5242
    -5.0810  -5.0106  -4.6472   5.5095   6.4488   6.7593   6.8878   7.3559
     7.6908   8.4800   8.5887   8.7015  12.0160  13.2483  13.2727  14.1912

          k = 0.0000 0.2857 0.2857 (  2480 PWs)   bands (ev):

   -46.8609 -23.2020 -23.1424 -23.1025 -23.0618  -7.5180  -6.7892  -6.5776
    -5.0760  -4.8888  -4.7858   5.7592   6.2156   6.3569   6.8622   7.4133
     7.9454   8.2769   8.4641   9.0696  12.6593  12.7803  13.0760  14.5004

          k = 0.0000 0.2857 0.4286 (  2479 PWs)   bands (ev):

   -46.8605 -23.2064 -23.1431 -23.1017 -23.0709  -7.4617  -6.7336  -6.6022
    -5.0600  -4.8596  -4.7189   5.4543   5.7310   6.1413   6.8979   7.1542
     7.9092   8.2065   8.2746   9.1943  12.7354  13.2539  13.4431  14.5897

          k = 0.0000 0.4286 0.4286 (  2478 PWs)   bands (ev):

   -46.8600 -23.1769 -23.1627 -23.1009 -23.0958  -7.1741  -6.8348  -6.7093
    -5.0430  -4.7598  -4.7467   5.2693   5.3561   5.6785   6.9167   6.9886
     8.0078   8.0752   8.1489   9.5131  13.2469  13.2681  13.6910  14.7180

          k = 0.1429 0.1429 0.1429 (  2469 PWs)   bands (ev):

   -46.8617 -23.1873 -23.1164 -23.1164 -23.0630  -7.5997  -6.7008  -6.7008
    -5.0689  -5.0689  -4.9045   6.3191   6.7535   6.7535   7.6857   7.6857
     8.1928   8.7387   8.8554   8.8554  12.1249  12.2150  12.2150  14.6878

          k = 0.1429 0.1429 0.2857 (  2473 PWs)   bands (ev):

   -46.8612 -23.2049 -23.1218 -23.1153 -23.0574  -7.5817  -6.6785  -6.6510
    -5.1052  -4.9879  -4.7792   5.9177   6.5029   6.7494   7.1031   7.1759
     7.9493   8.6182   8.7235   8.7418  12.2359  12.7864  12.7947  14.6819

          k = 0.1429 0.1429 0.4286 (  2478 PWs)   bands (ev):

   -46.8608 -23.2244 -23.1159 -23.1144 -23.0575  -7.6229  -6.6088  -6.5759
    -5.1368  -4.9275  -4.6921   5.4977   6.3018   6.6743   6.7474   6.8889
     8.0347   8.3796   8.6041   8.6560  12.2832  13.2817  13.2978  14.6701

          k = 0.1429 0.2857 0.2857 (  2463 PWs)   bands (ev):

   -46.8607 -23.1952 -23.1418 -23.1162 -23.0632  -7.4302  -6.7420  -6.5909
    -5.1095  -4.9490  -4.7611   5.7206   6.2206   6.4137   6.6450   7.0419
     7.5156   8.5657   8.6221   9.0793  12.7912  12.8847  13.1111  15.1398

          k = 0.1429 0.2857 0.4286 (  2476 PWs)   bands (ev):

   -46.8602 -23.1995 -23.1425 -23.1140 -23.0739  -7.3594  -6.6962  -6.5717
    -5.1434  -4.8693  -4.7702   5.4549   5.7966   6.1508   6.6381   6.7833
     7.5377   8.4690   8.5595   9.2032  12.8749  13.3255  13.4756  15.2125

          k = 0.1429 0.4286 0.4286 (  2465 PWs)   bands (ev):

   -46.8598 -23.1737 -23.1621 -23.1129 -23.0952  -7.0714  -6.7717  -6.6474
    -5.1165  -4.8515  -4.8140   5.3250   5.4481   5.6822   6.6324   6.6934
     7.3947   8.5042   8.5440   9.5258  13.3416  13.3613  13.7266  15.3474

          k = 0.2857 0.2857 0.2857 (  2464 PWs)   bands (ev):

   -46.8601 -23.1812 -23.1406 -23.1406 -23.0711  -7.2374  -6.6226  -6.6226
    -5.0980  -5.0980  -4.7753   5.6315   6.2331   6.2331   6.5465   6.5812
     6.5812   8.8736   8.8736   9.2023  13.1538  13.2046  13.2046  16.2912

          k = 0.2857 0.2857 0.4286 (  2456 PWs)   bands (ev):

   -46.8597 -23.1822 -23.1422 -23.1397 -23.0831  -7.1019  -6.6312  -6.5070
    -5.2375  -4.9956  -4.8652   5.4459   5.8607   6.1304   6.2491   6.3232
     6.6872   8.9056   9.0359   9.3073  13.2473  13.5346  13.5614  16.2516

          k = 0.2857 0.4286 0.4286 (  2452 PWs)   bands (ev):

   -46.8593 -23.1665 -23.1609 -23.1392 -23.0943  -6.8221  -6.6042  -6.5035
    -5.2568  -5.0825  -4.9967   5.3360   5.6908   5.7533   6.2048   6.3002
     6.3820   9.1233   9.1571   9.5579  13.5995  13.6119  13.8080  16.4648

          k = 0.4286 0.4286 0.4286 (  2455 PWs)   bands (ev):

   -46.8589 -23.1610 -23.1598 -23.1598 -23.0937  -6.5622  -6.4235  -6.4235
    -5.3134  -5.3134  -5.2056   5.2306   5.6987   5.6987   5.9779   6.0809
     6.0809   9.5251   9.5251   9.6085  13.8635  13.8787  13.8787  16.7328

     the Fermi energy is    10.3085 ev

!    total energy              =    -315.12015928 Ry
     estimated scf accuracy    <          7.8E-11 Ry
     smearing contrib. (-TS)   =       0.00000000 Ry
     internal energy E=F+TS    =    -315.12015928 Ry

     The total energy is F=E-TS. E is the sum of the following terms:
     one-electron contribution =     -78.71578647 Ry
     hartree contribution      =      61.41106591 Ry
     xc contribution           =     -58.81132728 Ry
     ewald contribution        =    -210.46084311 Ry
     one-center paw contrib.   =     -28.54326834 Ry

     convergence has been achieved in  14 iterations

     negative rho (up, down):  6.589E-02 0.000E+00

     Forces acting on atoms (cartesian axes, Ry/au):

     atom    1 type  1   force =     0.00000000    0.00000000    0.00000000
     atom    2 type  2   force =     0.00000000    0.00000000    0.00000000
     atom    3 type  3   force =     0.00000000    0.00000000    0.00000000
     atom    4 type  3   force =     0.00000000    0.00000000    0.00000000
     atom    5 type  3   force =     0.00000000    0.00000000    0.00000000

     Total force =     0.000000     Total SCF correction =     0.000000
     Message from routine punch:
     Nothing written, as per user request (disk_io='none')

     init_run     :      4.05s CPU      4.37s WALL (       1 calls)
     electrons    :     40.28s CPU     40.45s WALL (       1 calls)
     forces       :      0.87s CPU      0.88s WALL (       1 calls)

     Called by init_run:
     wfcinit      :      0.64s CPU      0.65s WALL (       1 calls)
     potinit      :      0.88s CPU      0.97s WALL (       1 calls)
     hinit0       :      1.80s CPU      1.81s WALL (       1 calls)

     Called by electrons:
     c_bands      :     18.12s CPU     18.17s WALL (      14 calls)
     sum_band     :      8.97s CPU      9.05s WALL (      14 calls)
     v_of_rho     :      1.56s CPU      1.66s WALL (      15 calls)
     newd         :      4.92s CPU      5.14s WALL (      15 calls)
     PAW_pot      :      6.55s CPU      6.55s WALL (      15 calls)
     mix_rho      :      0.18s CPU      0.18s WALL (      14 calls)

     Called by c_bands:
     init_us_2    :      0.33s CPU      0.33s WALL (      90 calls)
     cegterg      :      4.71s CPU      4.74s WALL (      42 calls)

     Called by *egterg:
     cdiaghg      :      0.14s CPU      0.14s WALL (     160 calls)
     h_psi        :      3.94s CPU      3.97s WALL (     163 calls)
     s_psi        :      0.23s CPU      0.23s WALL (     163 calls)
     g_psi        :      0.03s CPU      0.03s WALL (     118 calls)

     Called by h_psi:
     h_psi:calbec :      0.36s CPU      0.36s WALL (     163 calls)
     vloc_psi     :      3.27s CPU      3.30s WALL (     163 calls)
                                        0.00s GPU  (     163 calls)
     add_vuspsi   :      0.26s CPU      0.26s WALL (     163 calls)

     General routines
     calbec       :      0.50s CPU      0.50s WALL (     217 calls)
     fft          :      0.77s CPU      0.78s WALL (     204 calls)
     ffts         :      0.26s CPU      0.26s WALL (      29 calls)
     fftw         :      3.18s CPU      3.21s WALL (    6144 calls)
     interpolate  :      0.29s CPU      0.29s WALL (      15 calls)

     Parallel routines

     PWSCF        :     46.03s CPU     46.54s WALL


   This run was terminated on:  21:54:22   3Oct2026            

=------------------------------------------------------------------------------=
   JOB DONE.
=------------------------------------------------------------------------------=
