
     Program PWSCF v.7.5 starts on  4Oct2026 at 12: 3:54 

     This program is part of the open-source Quantum ESPRESSO suite
     for quantum simulation of materials; please cite
         "P. Giannozzi et al., J. Phys.:Condens. Matter 21 395502 (2009);
         "P. Giannozzi et al., J. Phys.:Condens. Matter 29 465901 (2017);
         "P. Giannozzi et al., J. Chem. Phys. 152 154105 (2020);
          URL http://www.quantum-espresso.org", 
     in publications or presentations arising from this work. More details at
     http://www.quantum-espresso.org/quote

     Parallel version (MPI & OpenMP), running on       8 processor cores
     Number of MPI processes:                 8
     Threads/MPI process:                     1

     MPI processes distributed on     1 nodes
     80086 MiB available memory on the printing compute node when the environment starts

     Reading input from pw.in

     Current dimensions of program PWSCF are:
     Max number of different atomic species (ntypx) = 10
     Max number of k-points (npk) =  40000
     Max angular momentum in pseudopotentials (lmaxx) =  4
     file K.pbe-spn-kjpaw_psl.1.0.0.UPF: wavefunction(s)  3S renormalized
     file Nb.pbe-spn-kjpaw_psl.0.3.0.UPF: wavefunction(s)  4S 4P renormalized
     file O.pbe-n-kjpaw_psl.0.1.UPF: wavefunction(s)  2P renormalized

     K-points division:     npool     =       4
     R & G space division:  proc/nbgrp/npool/nimage =       2
     Subspace diagonalization in iterative solution of the eigenvalue problem:
     a serial algorithm will be used


     Parallelization info
     --------------------
     sticks:   dense  smooth     PW     G-vecs:    dense   smooth      PW
     Min        4496    2246    612               320300   113319   16210
     Max        4497    2247    613               320303   113320   16213
     Sum        8993    4493   1225               640603   226639   32423

     Using Slab Decomposition



     bravais-lattice index     =            0
     lattice parameter (alat)  =      15.3349  a.u.
     unit-cell volume          =    3606.1296 (a.u.)^3
     number of atoms/cell      =           40
     number of atomic types    =            3
     number of electrons       =       320.00
     number of Kohn-Sham states=          192
     kinetic-energy cutoff     =      60.0000  Ry
     charge density cutoff     =     480.0000  Ry
     scf convergence threshold =      4.0E-09
     mixing beta               =       0.4000
     number of iterations used =            8  plain     mixing
     Exchange-correlation= SLA  PW   PBX  PBC
                           (   1   4   3   4   0   0   0)

     celldm(1)=  15.334882  celldm(2)=   0.000000  celldm(3)=   0.000000
     celldm(4)=   0.000000  celldm(5)=   0.000000  celldm(6)=   0.000000

     crystal axes: (cart. coord. in units of alat)
               a(1) = (   1.000000   0.000000  -0.000000 )  
               a(2) = (   0.000000   1.000000   0.000000 )  
               a(3) = (  -0.000000   0.000000   1.000000 )  

     reciprocal axes: (cart. coord. in units 2 pi/alat)
               b(1) = (  1.000000 -0.000000  0.000000 )  
               b(2) = ( -0.000000  1.000000 -0.000000 )  
               b(3) = (  0.000000 -0.000000  1.000000 )  


     PseudoPot. # 1 for K  read from file:
     /root/sssp/K.pbe-spn-kjpaw_psl.1.0.0.UPF
     MD5 check sum: 7d58810084cac21f60fbe77ea2b688fd
     Pseudo is Projector augmented-wave + core cor, Zval =  9.0
     Generated using "atomic" code by A. Dal Corso  v.5.1
     Shape of augmentation charge: PSQ
     Using radial grid of 1165 points,  6 beta functions with: 
                l(1) =   0
                l(2) =   0
                l(3) =   1
                l(4) =   1
                l(5) =   2
                l(6) =   2
     Q(r) pseudized with 0 coefficients 


     PseudoPot. # 2 for Nb read from file:
     /root/sssp/Nb.pbe-spn-kjpaw_psl.0.3.0.UPF
     MD5 check sum: 411d72ad547312f8017e2943ceca08cc
     Pseudo is Projector augmented-wave + core cor, Zval = 13.0
     Generated using "atomic" code by A. Dal Corso  v.5.0.99 svn rev. 10869
     Shape of augmentation charge: PSQ
     Using radial grid of 1227 points,  6 beta functions with: 
                l(1) =   0
                l(2) =   0
                l(3) =   1
                l(4) =   1
                l(5) =   2
                l(6) =   2
     Q(r) pseudized with 0 coefficients 


     PseudoPot. # 3 for O  read from file:
     /root/sssp/O.pbe-n-kjpaw_psl.0.1.UPF
     MD5 check sum: 0234752ac141de4415c5fc33072bef88
     Pseudo is Projector augmented-wave + core cor, Zval =  6.0
     Generated using "atomic" code by A. Dal Corso  v.5.0.99 svn rev. 10869
     Shape of augmentation charge: BESSEL
     Using radial grid of 1095 points,  4 beta functions with: 
                l(1) =   0
                l(2) =   0
                l(3) =   1
                l(4) =   1
     Q(r) pseudized with 0 coefficients 


     atomic species   valence    mass     pseudopotential
     K                 9.00    39.09830     K ( 1.00)
     Nb               13.00    92.90640     Nb( 1.00)
     O                 6.00    15.99900     O ( 1.00)

     No symmetry found



   Cartesian axes

     site n.     atom                  positions (alat units)
         1        K      tau(   1) = (   0.5061567   0.0262474   0.5135777  )
         2        K      tau(   2) = (   0.9839118   0.0170801   0.5042815  )
         3        K      tau(   3) = (   0.5017821   0.5223580   0.4984641  )
         4        K      tau(   4) = (   1.0042153   0.4771188   0.4976673  )
         5        K      tau(   5) = (   0.4887073  -0.0155066   1.0077460  )
         6        K      tau(   6) = (   1.0026025  -0.0215666   1.0108193  )
         7        K      tau(   7) = (   0.4986376   0.4782603   0.9757197  )
         8        K      tau(   8) = (   1.0090384   0.4963355   0.9846258  )
         9        Nb     tau(   9) = (   0.2351761   0.2566703   0.2090583  )
        10        Nb     tau(  10) = (   0.7399477   0.2423924   0.2647082  )
        11        Nb     tau(  11) = (   0.2614447   0.7551360   0.2814720  )
        12        Nb     tau(  12) = (   0.7532528   0.7428642   0.2435015  )
        13        Nb     tau(  13) = (   0.2571020   0.2759170   0.7110568  )
        14        Nb     tau(  14) = (   0.7602727   0.2437145   0.7690604  )
        15        Nb     tau(  15) = (   0.2267431   0.7772776   0.7800937  )
        16        Nb     tau(  16) = (   0.7245937   0.7458138   0.7428828  )
        17        O      tau(  17) = (   0.0130191   0.2502670   0.2627041  )
        18        O      tau(  18) = (   0.5047688   0.2374087   0.2585538  )
        19        O      tau(  19) = (   0.0103251   0.7415188   0.2255826  )
        20        O      tau(  20) = (   0.5127146   0.7442202   0.2515797  )
        21        O      tau(  21) = (   0.0030490   0.2419375   0.7612297  )
        22        O      tau(  22) = (   0.5023280   0.2329125   0.7772886  )
        23        O      tau(  23) = (   0.0162658   0.7290745   0.7483671  )
        24        O      tau(  24) = (   0.5164588   0.7292817   0.7350160  )
        25        O      tau(  25) = (   0.2597892   0.4867135   0.2389863  )
        26        O      tau(  26) = (   0.7494850   0.5044241   0.2514725  )
        27        O      tau(  27) = (   0.2540148   0.9940646   0.2531641  )
        28        O      tau(  28) = (   0.7716266   1.0055970   0.2626206  )
        29        O      tau(  29) = (   0.2766698   0.4804805   0.7534462  )
        30        O      tau(  30) = (   0.7521584   0.4948941   0.7530473  )
        31        O      tau(  31) = (   0.2576548   0.9849013   0.7595756  )
        32        O      tau(  32) = (   0.7587811   0.9913688   0.7475743  )
        33        O      tau(  33) = (   0.2540731   0.2446027   0.5046115  )
        34        O      tau(  34) = (   0.7638681   0.2709799   0.5039041  )
        35        O      tau(  35) = (   0.2612554   0.7336709   0.4823956  )
        36        O      tau(  36) = (   0.7785628   0.7664350   0.4908167  )
        37        O      tau(  37) = (   0.2515765   0.2414857   0.9975843  )
        38        O      tau(  38) = (   0.7537549   0.2460035   1.0173496  )
        39        O      tau(  39) = (   0.2767872   0.7155508   0.9832110  )
        40        O      tau(  40) = (   0.7538994   0.7492533   0.9866186  )

     number of k points=    36  Marzari-Vanderbilt smearing, width (Ry)=  0.0050
                       cart. coord. in units 2pi/alat
        k(    1) = (   0.0000000   0.0000000   0.0000000), wk =   0.0312500
        k(    2) = (   0.0000000  -0.0000000   0.2500000), wk =   0.0625000
        k(    3) = (  -0.0000000   0.0000000  -0.5000000), wk =   0.0312500
        k(    4) = (   0.0000000   0.2500000   0.2500000), wk =   0.0625000
        k(    5) = (  -0.0000000   0.2500000  -0.5000000), wk =   0.0625000
        k(    6) = (  -0.0000000  -0.5000000  -0.5000000), wk =   0.0312500
        k(    7) = (   0.2500000   0.2500000   0.2500000), wk =   0.0625000
        k(    8) = (   0.2500000   0.2500000  -0.5000000), wk =   0.0625000
        k(    9) = (   0.2500000  -0.5000000  -0.5000000), wk =   0.0625000
        k(   10) = (  -0.5000000  -0.5000000  -0.5000000), wk =   0.0312500
        k(   11) = (   0.2500000  -0.0000000   0.0000000), wk =   0.0625000
        k(   12) = (  -0.0000000   0.2500000  -0.0000000), wk =   0.0625000
        k(   13) = (  -0.5000000   0.0000000  -0.0000000), wk =   0.0312500
        k(   14) = (   0.0000000  -0.5000000   0.0000000), wk =   0.0312500
        k(   15) = (   0.0000000  -0.2500000   0.2500000), wk =   0.0625000
        k(   16) = (   0.2500000   0.0000000  -0.2500000), wk =   0.0625000
        k(   17) = (  -0.2500000   0.0000000  -0.2500000), wk =   0.0625000
        k(   18) = (   0.2500000  -0.2500000   0.0000000), wk =   0.0625000
        k(   19) = (  -0.2500000  -0.2500000   0.0000000), wk =   0.0625000
        k(   20) = (   0.2500000  -0.0000000   0.5000000), wk =   0.0625000
        k(   21) = (  -0.5000000  -0.2500000  -0.0000000), wk =   0.0625000
        k(   22) = (   0.0000000  -0.5000000   0.2500000), wk =   0.0625000
        k(   23) = (   0.2500000  -0.5000000   0.0000000), wk =   0.0625000
        k(   24) = (  -0.5000000  -0.0000000   0.2500000), wk =   0.0625000
        k(   25) = (  -0.5000000  -0.0000000   0.5000000), wk =   0.0312500
        k(   26) = (  -0.5000000   0.5000000  -0.0000000), wk =   0.0312500
        k(   27) = (  -0.2500000  -0.2500000   0.2500000), wk =   0.0625000
        k(   28) = (  -0.2500000   0.2500000  -0.2500000), wk =   0.0625000
        k(   29) = (   0.2500000  -0.2500000  -0.2500000), wk =   0.0625000
        k(   30) = (  -0.2500000   0.2500000   0.5000000), wk =   0.0625000
        k(   31) = (  -0.5000000  -0.2500000   0.2500000), wk =   0.0625000
        k(   32) = (   0.5000000  -0.2500000  -0.2500000), wk =   0.0625000
        k(   33) = (  -0.2500000  -0.5000000   0.2500000), wk =   0.0625000
        k(   34) = (  -0.2500000   0.5000000  -0.2500000), wk =   0.0625000
        k(   35) = (  -0.5000000   0.2500000   0.5000000), wk =   0.0625000
        k(   36) = (  -0.5000000   0.5000000   0.2500000), wk =   0.0625000

     Dense  grid:   640603 G-vectors     FFT dimensions: ( 108, 108, 108)

     Smooth grid:   226639 G-vectors     FFT dimensions: (  75,  75,  75)

     Estimated max dynamical RAM per process >       1.01 GB

     Estimated total dynamical RAM >       7.61 GB

     Check: negative core charge=   -0.000003

     Initial potential from superposition of free atoms

     starting charge     319.8323, renormalised to     320.0000
     Starting wfcs are  240 randomized atomic wfcs
     Checking if some PAW data can be deallocated... 

     total cpu time spent up to now is       76.6 secs

     per-process dynamical memory:   704.7 Mb

     Self-consistent Calculation

     iteration #  1     ecut=    60.00 Ry     beta= 0.40
     Davidson diagonalization with overlap
     ethr =  1.00E-02,  avg # of iterations =  2.2

     total cpu time spent up to now is      234.2 secs

     total energy              =   -4575.50045577 Ry
     estimated scf accuracy    <      19.82876055 Ry

     iteration #  2     ecut=    60.00 Ry     beta= 0.40
     Davidson diagonalization with overlap
     ethr =  6.20E-03,  avg # of iterations =  4.0

     total cpu time spent up to now is      432.3 secs

     total energy              =   -4580.57687096 Ry
     estimated scf accuracy    <       5.55582369 Ry

     iteration #  3     ecut=    60.00 Ry     beta= 0.40
     Davidson diagonalization with overlap
     ethr =  1.74E-03,  avg # of iterations =  2.1

     total cpu time spent up to now is      592.1 secs

     total energy              =   -4581.74351927 Ry
     estimated scf accuracy    <       0.35662203 Ry

     iteration #  4     ecut=    60.00 Ry     beta= 0.40
     Davidson diagonalization with overlap
     ethr =  1.11E-04,  avg # of iterations = 14.8

     total cpu time spent up to now is      861.0 secs

     total energy              =   -4581.75453737 Ry
     estimated scf accuracy    <       0.11854233 Ry

     iteration #  5     ecut=    60.00 Ry     beta= 0.40
     Davidson diagonalization with overlap
     c_bands:  1 eigenvalues not converged
     ethr =  3.70E-05,  avg # of iterations = 10.4

     total cpu time spent up to now is     1100.7 secs

     total energy              =   -4581.77492856 Ry
     estimated scf accuracy    <       0.02614140 Ry

     iteration #  6     ecut=    60.00 Ry     beta= 0.40
     Davidson diagonalization with overlap
     ethr =  8.17E-06,  avg # of iterations =  8.7

     total cpu time spent up to now is     1315.8 secs

     total energy              =   -4581.77592400 Ry
     estimated scf accuracy    <       0.00801382 Ry

     iteration #  7     ecut=    60.00 Ry     beta= 0.40
     Davidson diagonalization with overlap
     c_bands:  1 eigenvalues not converged
     ethr =  2.50E-06,  avg # of iterations =  8.6

     total cpu time spent up to now is     1510.4 secs

     total energy              =   -4581.77573406 Ry
     estimated scf accuracy    <       0.00177347 Ry

     iteration #  8     ecut=    60.00 Ry     beta= 0.40
     Davidson diagonalization with overlap
     c_bands:  1 eigenvalues not converged
     c_bands:  1 eigenvalues not converged
     ethr =  5.54E-07,  avg # of iterations =  7.6

     total cpu time spent up to now is     1731.1 secs

     total energy              =   -4581.77633336 Ry
     estimated scf accuracy    <       0.00031812 Ry

     iteration #  9     ecut=    60.00 Ry     beta= 0.40
     Davidson diagonalization with overlap
     ethr =  9.94E-08,  avg # of iterations =  2.2

     total cpu time spent up to now is     1893.9 secs

     total energy              =   -4581.77633689 Ry
     estimated scf accuracy    <       0.00009391 Ry

     iteration # 10     ecut=    60.00 Ry     beta= 0.40
     Davidson diagonalization with overlap
     ethr =  2.93E-08,  avg # of iterations =  2.2

     total cpu time spent up to now is     2070.6 secs

     total energy              =   -4581.77635283 Ry
     estimated scf accuracy    <       0.00000604 Ry

     iteration # 11     ecut=    60.00 Ry     beta= 0.40
     Davidson diagonalization with overlap
     ethr =  1.89E-09,  avg # of iterations =  4.9

     total cpu time spent up to now is     2314.9 secs

     total energy              =   -4581.77635517 Ry
     estimated scf accuracy    <       0.00000605 Ry

     iteration # 12     ecut=    60.00 Ry     beta= 0.40
     Davidson diagonalization with overlap
     ethr =  1.89E-09,  avg # of iterations =  2.2

     total cpu time spent up to now is     2481.3 secs

     total energy              =   -4581.77635641 Ry
     estimated scf accuracy    <       0.00000020 Ry

     iteration # 13     ecut=    60.00 Ry     beta= 0.40
     Davidson diagonalization with overlap
     ethr =  6.15E-11,  avg # of iterations =  4.4

     total cpu time spent up to now is     2735.0 secs

     total energy              =   -4581.77635650 Ry
     estimated scf accuracy    <       0.00000005 Ry

     iteration # 14     ecut=    60.00 Ry     beta= 0.40
     Davidson diagonalization with overlap
     ethr =  1.42E-11,  avg # of iterations =  2.9

     total cpu time spent up to now is     2957.0 secs

     total energy              =   -4581.77635651 Ry
     estimated scf accuracy    <       0.00000001 Ry

     iteration # 15     ecut=    60.00 Ry     beta= 0.40
     Davidson diagonalization with overlap
     ethr =  4.62E-12,  avg # of iterations =  2.0

     total cpu time spent up to now is     3132.9 secs

     End of self-consistent calculation

          k = 0.0000 0.0000 0.0000 ( 28353 PWs)   bands (ev):

   -47.1642 -46.8770 -46.7912 -46.7175 -46.7021 -46.5556 -46.3332 -46.2869
   -23.8469 -23.5144 -23.4759 -23.2464 -23.2281 -23.1994 -23.1124 -23.0365
   -23.0047 -22.9987 -22.9698 -22.9387 -22.8623 -22.8544 -22.8257 -22.8121
   -22.8119 -22.7869 -22.7532 -22.7413 -22.5689 -22.5454 -22.5368 -22.4854
   -19.7519 -19.6849 -19.6110 -19.5376 -19.5254 -19.3415 -19.3305 -19.1204
    -9.4030  -9.2160  -9.0853  -8.8942  -8.8185  -8.7370  -8.6290  -8.5450
    -8.4777  -8.4571  -8.3735  -8.3158  -8.2962  -8.1456  -8.0602  -7.9980
    -7.7696  -7.7321  -7.6973  -7.6833  -7.6403  -7.5931  -7.5283  -7.4433
    -3.4203  -3.3937  -3.3412  -3.2958  -3.2720  -3.2422  -3.2102  -3.1829
    -3.1694  -3.1130  -3.1056  -3.0878  -3.0338  -3.0199  -3.0155  -2.9528
    -2.9142  -2.9089  -2.8754  -2.8155  -2.8073  -2.7253  -2.6762  -2.6257
     2.8172   2.8815   2.9912   3.0179   3.1238   3.2058   3.2490   3.2739
     3.3719   3.4247   3.4401   3.4723   3.5982   3.6564   3.8199   3.8985
     4.0659   4.2516   4.2722   4.3171   4.4382   4.6575   4.7013   4.8894
     4.9885   5.1001   5.1762   5.3600   5.3775   5.4278   5.4784   5.5300
     5.6185   5.6496   5.6723   5.6910   5.7941   5.8459   5.9163   5.9353
     5.9782   6.0518   6.1393   6.1787   6.2001   6.2578   6.3802   6.4105
     6.4627   6.5309   6.6020   6.6423   6.6859   6.7158   6.7786   6.8302
     6.8783   6.9030   6.9659   7.0216   7.0497   7.0771   7.1914   7.3053
     7.3475   7.3907   7.4498   7.6860   7.8226   7.8467   8.1731   8.1908
     9.9264  10.2130  10.5598  10.8662  11.1397  11.7039  11.9217  12.0486
    12.1312  12.1855  12.2941  12.3921  12.4521  12.6306  12.7116  12.8193
    12.8288  12.9469  12.9997  13.0761  13.1456  13.1813  13.2117  13.2993
    13.4590  13.5451  13.7188  13.9736  13.9881  14.3401  14.5980  14.6996

          k = 0.0000-0.0000 0.2500 ( 28242 PWs)   bands (ev):

   -47.1642 -46.8770 -46.7912 -46.7174 -46.7021 -46.5556 -46.3332 -46.2868
   -23.8462 -23.5131 -23.4760 -23.2464 -23.2261 -23.1975 -23.1113 -23.0288
   -23.0045 -22.9987 -22.9802 -22.9322 -22.8634 -22.8577 -22.8255 -22.8128
   -22.8120 -22.7871 -22.7532 -22.7483 -22.5688 -22.5455 -22.5372 -22.4855
   -19.7518 -19.6848 -19.6110 -19.5375 -19.5255 -19.3416 -19.3306 -19.1204
    -9.3614  -9.1523  -9.0752  -8.8654  -8.7780  -8.7352  -8.6145  -8.5468
    -8.4878  -8.4294  -8.3653  -8.3171  -8.2359  -8.2114  -8.0885  -8.0095
    -7.8725  -7.7380  -7.7183  -7.6888  -7.6797  -7.6066  -7.5958  -7.4432
    -3.4084  -3.3793  -3.3227  -3.2946  -3.2807  -3.2414  -3.2043  -3.1882
    -3.1674  -3.1156  -3.1041  -3.0919  -3.0398  -3.0239  -3.0196  -2.9476
    -2.9188  -2.9071  -2.8796  -2.8280  -2.8148  -2.7293  -2.6796  -2.6281
     2.8496   2.9115   3.0210   3.1198   3.2062   3.2385   3.3389   3.3753
     3.4379   3.4907   3.5381   3.5976   3.6917   3.7852   3.9164   3.9449
     4.0570   4.2600   4.2945   4.3753   4.4348   4.5727   4.6542   4.7658
     4.8948   4.9878   5.0841   5.1159   5.3363   5.3674   5.4076   5.4715
     5.5017   5.5649   5.6495   5.6756   5.7544   5.8288   5.8591   5.9222
     5.9800   6.0333   6.0986   6.1749   6.2212   6.2745   6.3543   6.4697
     6.5002   6.5433   6.5820   6.6604   6.6950   6.7523   6.7854   6.8561
     6.8842   6.9305   6.9608   7.0120   7.0731   7.1375   7.1817   7.2293
     7.2913   7.3302   7.4236   7.6822   7.7276   7.7666   8.0573   8.1898
    10.1845  10.2496  10.7332  10.9102  11.1912  11.6725  11.7023  11.9184
    12.1215  12.1756  12.2010  12.2987  12.3891  12.4904  12.6517  12.7452
    12.8219  12.8611  12.9469  13.0057  13.1348  13.1544  13.2515  13.3504
    13.5144  13.6513  13.6808  14.1183  14.2242  14.5877  14.6767  14.8083

          k =-0.0000 0.0000-0.5000 ( 28326 PWs)   bands (ev):

   -47.1642 -46.8770 -46.7912 -46.7175 -46.7021 -46.5556 -46.3332 -46.2868
   -23.8454 -23.5118 -23.4760 -23.2463 -23.2243 -23.1954 -23.1102 -23.0137
   -23.0043 -22.9988 -22.9980 -22.9251 -22.8660 -22.8596 -22.8252 -22.8138
   -22.8120 -22.7874 -22.7557 -22.7532 -22.5687 -22.5456 -22.5377 -22.4856
   -19.7516 -19.6847 -19.6109 -19.5374 -19.5256 -19.3417 -19.3306 -19.1205
    -9.3156  -9.1073  -9.0336  -8.8183  -8.7626  -8.7131  -8.6278  -8.5706
    -8.4919  -8.3644  -8.3404  -8.3231  -8.2654  -8.1234  -8.0812  -8.0670
    -8.0087  -7.8759  -7.7388  -7.7089  -7.6881  -7.6221  -7.6010  -7.4440
    -3.3954  -3.3586  -3.3085  -3.2930  -3.2896  -3.2387  -3.2021  -3.1970
    -3.1580  -3.1188  -3.1041  -3.0989  -3.0457  -3.0274  -3.0241  -2.9409
    -2.9236  -2.9087  -2.8799  -2.8434  -2.8217  -2.7334  -2.6829  -2.6305
     2.8521   2.9281   3.0651   3.1734   3.2299   3.2911   3.3861   3.4489
     3.5203   3.5777   3.6214   3.7419   3.9077   4.0202   4.0539   4.1399
     4.2091   4.2757   4.3217   4.4288   4.4549   4.5427   4.6375   4.6949
     4.7621   4.7950   4.8990   4.9811   5.0120   5.1578   5.3229   5.3382
     5.4221   5.4338   5.4937   5.5974   5.6629   5.7929   5.8199   5.9224
     5.9895   6.0013   6.1121   6.1561   6.3147   6.3756   6.4565   6.4772
     6.5183   6.5340   6.6498   6.6618   6.6850   6.7256   6.7890   6.8186
     6.8640   6.9030   6.9099   6.9655   7.0364   7.1561   7.2466   7.3078
     7.3814   7.4077   7.4970   7.6182   7.6395   7.6781   7.7776   8.1896
    10.2091  10.7354  10.8419  11.1975  11.2270  11.3717  11.6733  11.7373
    11.8113  12.1254  12.1516  12.2699  12.3367  12.4191  12.5950  12.7050
    12.7182  12.8029  12.9095  13.0011  13.0595  13.1180  13.2296  13.2638
    13.5924  13.6007  13.9399  14.2306  14.4066  14.6323  14.8423  14.9593

          k = 0.0000 0.2500 0.2500 ( 28303 PWs)   bands (ev):

   -47.1642 -46.8770 -46.7912 -46.7174 -46.7021 -46.5556 -46.3332 -46.2868
   -23.8462 -23.5122 -23.4760 -23.2464 -23.2248 -23.1958 -23.1066 -23.0335
   -23.0001 -22.9958 -22.9813 -22.9317 -22.8635 -22.8577 -22.8253 -22.8203
   -22.8096 -22.7905 -22.7532 -22.7484 -22.5689 -22.5464 -22.5375 -22.4885
   -19.7515 -19.6851 -19.6109 -19.5374 -19.5255 -19.3417 -19.3307 -19.1205
    -9.3214  -9.1397  -9.0675  -8.8386  -8.7385  -8.6924  -8.6112  -8.5006
    -8.4651  -8.4035  -8.3865  -8.2630  -8.2263  -8.2139  -8.0875  -8.0180
    -7.8924  -7.8261  -7.7832  -7.7364  -7.7187  -7.6815  -7.6467  -7.4432
    -3.3955  -3.3644  -3.3093  -3.3038  -3.2808  -3.2485  -3.2105  -3.1847
    -3.1734  -3.1177  -3.1017  -3.0890  -3.0391  -3.0274  -3.0132  -2.9608
    -2.9258  -2.9038  -2.8765  -2.8366  -2.8157  -2.7308  -2.6810  -2.6311
     2.9127   2.9531   3.0739   3.2125   3.3558   3.3755   3.4061   3.4718
     3.5306   3.6054   3.6482   3.7063   3.7771   3.8657   3.9540   4.0252
     4.0883   4.2705   4.3199   4.3979   4.4387   4.5200   4.6286   4.7242
     4.8119   4.9983   5.0688   5.1055   5.1853   5.2560   5.3154   5.3789
     5.3925   5.4876   5.5440   5.6015   5.6370   5.7167   5.7653   5.8131
     5.8780   5.9894   6.0403   6.1051   6.1710   6.2296   6.2492   6.4028
     6.4854   6.5357   6.5821   6.6636   6.6950   6.7470   6.8192   6.8615
     6.8790   6.9795   7.0131   7.0466   7.0978   7.1355   7.1757   7.1890
     7.3056   7.3547   7.3964   7.6198   7.7292   7.7691   7.9684   8.0835
    10.4484  10.5266  10.7683  11.0095  11.1828  11.7403  11.8544  11.9210
    11.9968  12.0120  12.1819  12.2738  12.3409  12.4523  12.5571  12.6633
    12.7010  12.7446  12.8970  12.9623  13.0055  13.1244  13.2885  13.3183
    13.6405  13.7842  14.0357  14.2514  14.5433  14.6939  14.9371  15.0261

          k =-0.0000 0.2500-0.5000 ( 28312 PWs)   bands (ev):

   -47.1642 -46.8770 -46.7912 -46.7175 -46.7021 -46.5556 -46.3332 -46.2868
   -23.8454 -23.5109 -23.4760 -23.2463 -23.2228 -23.1939 -23.1060 -23.0186
   -23.0000 -22.9986 -22.9957 -22.9246 -22.8661 -22.8596 -22.8252 -22.8203
   -22.8103 -22.7907 -22.7559 -22.7531 -22.5688 -22.5466 -22.5379 -22.4885
   -19.7513 -19.6850 -19.6108 -19.5374 -19.5255 -19.3417 -19.3308 -19.1205
    -9.2718  -9.0911  -9.0238  -8.8025  -8.7234  -8.6747  -8.6031  -8.5151
    -8.4563  -8.4115  -8.3163  -8.2886  -8.2483  -8.1314  -8.0862  -8.0692
    -8.0135  -7.8917  -7.8267  -7.7506  -7.7380  -7.7211  -7.6799  -7.4432
    -3.3843  -3.3495  -3.3091  -3.3011  -3.2859  -3.2472  -3.2161  -3.1873
    -3.1667  -3.1155  -3.0989  -3.0928  -3.0435  -3.0232  -3.0169  -2.9576
    -2.9345  -2.9121  -2.8909  -2.8315  -2.8152  -2.7345  -2.6836  -2.6310
     2.9376   3.0265   3.1254   3.2844   3.3687   3.4253   3.4956   3.5527
     3.6211   3.6736   3.7146   3.8173   3.9541   4.0243   4.0786   4.1094
     4.2859   4.3359   4.3699   4.4181   4.4614   4.5451   4.5902   4.6867
     4.7401   4.8047   4.9131   4.9975   5.0203   5.1153   5.1706   5.2581
     5.3174   5.4074   5.4258   5.4911   5.5398   5.6227   5.6695   5.7225
     5.8465   5.9535   6.0348   6.1009   6.1496   6.2229   6.2774   6.3508
     6.4759   6.5416   6.6149   6.6812   6.6965   6.7075   6.8095   6.8433
     6.8981   6.9416   7.0369   7.1047   7.1526   7.1913   7.1999   7.2931
     7.3816   7.4189   7.4980   7.5881   7.6167   7.6632   7.7346   8.0844
    10.4814  10.9041  10.9601  11.2337  11.3365  11.3961  11.7173  11.7484
    11.9244  12.0103  12.0557  12.1886  12.2833  12.3368  12.3848  12.5542
    12.7032  12.7333  12.8661  12.9135  13.0090  13.0733  13.1443  13.2556
    13.7150  13.7812  14.3127  14.4271  14.8160  14.8590  14.9714  15.2739

          k =-0.0000-0.5000-0.5000 ( 28276 PWs)   bands (ev):

   -47.1642 -46.8770 -46.7912 -46.7174 -46.7021 -46.5556 -46.3332 -46.2868
   -23.8454 -23.5099 -23.4760 -23.2464 -23.2214 -23.1921 -23.1012 -23.0242
   -22.9995 -22.9989 -22.9883 -22.9238 -22.8662 -22.8596 -22.8295 -22.8252
   -22.8067 -22.7941 -22.7560 -22.7530 -22.5688 -22.5476 -22.5382 -22.4915
   -19.7511 -19.6853 -19.6108 -19.5373 -19.5254 -19.3418 -19.3309 -19.1206
    -9.2305  -9.0650  -9.0093  -8.7968  -8.6798  -8.6430  -8.5983  -8.5087
    -8.4343  -8.3043  -8.2845  -8.2061  -8.1830  -8.1331  -8.0856  -8.0810
    -8.0425  -7.9964  -7.9710  -7.9077  -7.8367  -7.7375  -7.6838  -7.4430
    -3.3671  -3.3379  -3.3259  -3.2990  -3.2744  -3.2661  -3.2267  -3.1808
    -3.1735  -3.1129  -3.0941  -3.0885  -3.0360  -3.0204  -3.0106  -2.9711
    -2.9478  -2.9169  -2.8970  -2.8255  -2.8090  -2.7356  -2.6843  -2.6314
     2.9512   3.1467   3.1883   3.3716   3.4265   3.5141   3.5483   3.6210
     3.6695   3.7569   3.9893   4.0224   4.1361   4.1984   4.2364   4.2843
     4.3505   4.3808   4.4835   4.4950   4.5235   4.6069   4.6389   4.6745
     4.7282   4.7714   4.7886   4.8579   4.9035   4.9695   5.0087   5.1155
     5.2088   5.2355   5.2876   5.3386   5.3736   5.4635   5.4978   5.5092
     5.5545   5.7315   5.8816   5.9493   6.0292   6.2091   6.2701   6.3322
     6.4803   6.5344   6.6450   6.6727   6.6861   6.6948   6.7878   6.8823
     6.9455   6.9813   7.0448   7.1168   7.1539   7.2989   7.3404   7.3940
     7.4598   7.4701   7.5232   7.5648   7.6049   7.6769   7.7052   7.8271
    10.9852  11.0860  11.2500  11.2909  11.3969  11.4977  11.5892  11.7021
    11.7613  11.7941  11.9382  12.1819  12.2404  12.3094  12.4107  12.4804
    12.5068  12.6472  12.7286  12.7920  12.9055  12.9606  13.1496  13.2243
    13.7392  14.0022  14.2921  14.8591  15.2651  15.3763  15.6723  15.7326

          k = 0.2500 0.2500 0.2500 ( 28324 PWs)   bands (ev):

   -47.1642 -46.8770 -46.7912 -46.7174 -46.7021 -46.5556 -46.3332 -46.2869
   -23.8462 -23.5122 -23.4745 -23.2451 -23.2248 -23.1958 -23.1068 -23.0334
   -22.9974 -22.9932 -22.9811 -22.9316 -22.8620 -22.8558 -22.8261 -22.8203
   -22.8097 -22.7907 -22.7588 -22.7484 -22.5707 -22.5497 -22.5381 -22.4892
   -19.7514 -19.6850 -19.6106 -19.5375 -19.5256 -19.3416 -19.3307 -19.1206
    -9.2872  -9.1278  -9.0355  -8.8325  -8.7248  -8.6370  -8.5640  -8.4859
    -8.4577  -8.3958  -8.3562  -8.2670  -8.2272  -8.2069  -8.1181  -8.0424
    -7.8952  -7.8417  -7.8046  -7.7963  -7.7777  -7.7157  -7.6486  -7.5269
    -3.3875  -3.3684  -3.3095  -3.2967  -3.2714  -3.2435  -3.2092  -3.1844
    -3.1761  -3.1291  -3.1102  -3.0915  -3.0382  -3.0332  -3.0210  -2.9612
    -2.9186  -2.9005  -2.8784  -2.8378  -2.8143  -2.7313  -2.6836  -2.6307
     2.9082   2.9876   3.1756   3.2397   3.4504   3.4773   3.5063   3.5709
     3.6434   3.6707   3.7323   3.7537   3.8184   3.9396   4.0333   4.0816
     4.1307   4.2856   4.3299   4.4065   4.4621   4.5294   4.6225   4.6637
     4.8139   4.8805   4.9389   5.1145   5.1754   5.2016   5.2500   5.3203
     5.3608   5.3954   5.4350   5.4919   5.5831   5.6262   5.6685   5.7147
     5.7822   5.9603   5.9888   6.0765   6.1056   6.1441   6.2594   6.3555
     6.4687   6.4920   6.5604   6.6868   6.7305   6.7908   6.8585   6.9428
     6.9530   7.0098   7.0326   7.0380   7.1123   7.1495   7.1948   7.2327
     7.3004   7.3467   7.3742   7.5951   7.6657   7.7558   7.9566   8.0052
    10.4823  10.7236  10.8634  10.9564  11.1694  11.7312  11.8399  11.9025
    11.9588  12.0055  12.0384  12.1776  12.2306  12.4297  12.4858  12.5233
    12.5925  12.6623  12.7968  12.9013  12.9880  13.0699  13.1464  13.3147
    14.0167  14.0973  14.2220  14.6414  14.6749  14.9228  15.0600  15.1512

          k = 0.2500 0.2500-0.5000 ( 28314 PWs)   bands (ev):

   -47.1642 -46.8770 -46.7912 -46.7175 -46.7021 -46.5556 -46.3332 -46.2868
   -23.8454 -23.5109 -23.4745 -23.2451 -23.2228 -23.1938 -23.1062 -23.0184
   -22.9985 -22.9972 -22.9931 -22.9246 -22.8655 -22.8568 -22.8260 -22.8203
   -22.8104 -22.7910 -22.7589 -22.7558 -22.5706 -22.5499 -22.5385 -22.4893
   -19.7513 -19.6849 -19.6106 -19.5376 -19.5256 -19.3416 -19.3308 -19.1206
    -9.2276  -9.0821  -9.0030  -8.7766  -8.6847  -8.6322  -8.5758  -8.5047
    -8.4449  -8.3989  -8.3221  -8.2816  -8.2203  -8.1673  -8.0924  -8.0750
    -8.0327  -7.8950  -7.8352  -7.8069  -7.7981  -7.7463  -7.7178  -7.5268
    -3.3787  -3.3539  -3.3086  -3.3012  -3.2840  -3.2503  -3.2131  -3.1769
    -3.1732  -3.1272  -3.1103  -3.0898  -3.0440  -3.0326  -3.0232  -2.9562
    -2.9284  -2.9072  -2.8834  -2.8271  -2.8152  -2.7350  -2.6820  -2.6302
     2.9924   3.0660   3.2045   3.3848   3.4748   3.5207   3.5886   3.6402
     3.6771   3.7456   3.8080   3.8930   3.9463   4.0771   4.0997   4.1449
     4.2737   4.3558   4.4187   4.4458   4.4824   4.5713   4.6215   4.6571
     4.7347   4.7789   4.8359   4.9408   4.9898   5.0804   5.1594   5.1806
     5.2593   5.3039   5.3547   5.4212   5.4611   5.5457   5.5820   5.6077
     5.7781   5.8371   5.9558   6.0261   6.1231   6.1667   6.2018   6.2596
     6.4276   6.4938   6.5760   6.6830   6.7440   6.7945   6.8485   6.9148
     6.9673   7.0035   7.0839   7.1500   7.1643   7.2096   7.2367   7.2614
     7.3380   7.4035   7.4701   7.5704   7.6204   7.6651   7.7369   7.9943
    10.7028  10.9136  10.9628  11.2015  11.3227  11.3983  11.7332  11.7871
    11.9252  11.9601  12.0212  12.0716  12.1801  12.2470  12.3675  12.4646
    12.5487  12.6571  12.7356  12.8095  12.9378  12.9940  13.0361  13.2013
    14.1681  14.2348  14.4532  14.7725  14.9364  15.0841  15.2453  15.3115

          k = 0.2500-0.5000-0.5000 ( 28280 PWs)   bands (ev):

   -47.1642 -46.8770 -46.7912 -46.7174 -46.7021 -46.5556 -46.3332 -46.2868
   -23.8455 -23.5099 -23.4745 -23.2451 -23.2214 -23.1921 -23.1014 -23.0240
   -22.9988 -22.9944 -22.9881 -22.9238 -22.8656 -22.8567 -22.8295 -22.8260
   -22.8069 -22.7943 -22.7588 -22.7559 -22.5706 -22.5508 -22.5388 -22.4923
   -19.7510 -19.6852 -19.6105 -19.5375 -19.5255 -19.3417 -19.3309 -19.1207
    -9.1909  -9.0380  -8.9869  -8.7741  -8.6607  -8.5812  -8.5585  -8.4958
    -8.4404  -8.3140  -8.2550  -8.2130  -8.1874  -8.1427  -8.0994  -8.0810
    -8.0547  -8.0039  -7.9758  -7.9100  -7.8400  -7.8132  -7.7885  -7.5265
    -3.3709  -3.3436  -3.3258  -3.2929  -3.2778  -3.2640  -3.2267  -3.1838
    -3.1741  -3.1259  -3.1073  -3.0900  -3.0396  -3.0241  -3.0178  -2.9686
    -2.9411  -2.9054  -2.8887  -2.8181  -2.8036  -2.7317  -2.6811  -2.6303
     3.0521   3.2342   3.2679   3.4216   3.5511   3.6123   3.6743   3.7302
     3.7533   3.8310   4.0032   4.0700   4.0905   4.2364   4.2502   4.2949
     4.3583   4.4301   4.4674   4.4898   4.5278   4.5746   4.6069   4.6849
     4.7523   4.7622   4.8144   4.8378   4.9345   4.9760   5.0226   5.0779
     5.1484   5.1824   5.2390   5.2789   5.3510   5.4070   5.4332   5.4853
     5.5096   5.5887   5.6943   5.7391   5.9719   6.0658   6.1397   6.2657
     6.3281   6.4261   6.5791   6.6480   6.7744   6.8018   6.8987   6.9593
     7.0089   7.0356   7.0755   7.1689   7.2102   7.2751   7.3440   7.3825
     7.4534   7.4659   7.5118   7.5630   7.5923   7.6663   7.6980   7.8125
    11.1210  11.1598  11.2257  11.2873  11.3837  11.5720  11.6156  11.7004
    11.7959  11.8180  11.9428  12.0311  12.1664  12.1849  12.2572  12.3857
    12.3996  12.5728  12.6103  12.7446  12.8113  12.8789  12.9400  13.0996
    14.2460  14.5799  14.8714  15.2254  15.2941  15.4204  15.6775  15.7540

          k =-0.5000-0.5000-0.5000 ( 28480 PWs)   bands (ev):

   -47.1643 -46.8770 -46.7912 -46.7175 -46.7022 -46.5556 -46.3332 -46.2869
   -23.8455 -23.5099 -23.4730 -23.2438 -23.2215 -23.1921 -23.1017 -23.0237
   -22.9987 -22.9900 -22.9868 -22.9238 -22.8654 -22.8534 -22.8295 -22.8268
   -22.8071 -22.7946 -22.7646 -22.7560 -22.5725 -22.5542 -22.5394 -22.4930
   -19.7509 -19.6850 -19.6102 -19.5378 -19.5256 -19.3416 -19.3310 -19.1208
    -9.1600  -9.0053  -8.9271  -8.8061  -8.6271  -8.5095  -8.4899  -8.4767
    -8.4479  -8.3317  -8.2265  -8.2020  -8.1682  -8.1373  -8.1238  -8.1122
    -8.0300  -8.0092  -7.9808  -7.9768  -7.9105  -7.8867  -7.8386  -7.6173
    -3.3748  -3.3474  -3.3256  -3.2916  -3.2759  -3.2632  -3.2283  -3.1885
    -3.1691  -3.1410  -3.1189  -3.0927  -3.0467  -3.0322  -3.0132  -2.9670
    -2.9372  -2.8953  -2.8802  -2.8109  -2.7982  -2.7282  -2.6782  -2.6292
     3.1545   3.2912   3.3272   3.4361   3.5945   3.7161   3.7747   3.8611
     3.9592   3.9900   4.0216   4.1701   4.2491   4.2671   4.2979   4.3372
     4.3726   4.3973   4.4130   4.4852   4.5094   4.5701   4.5892   4.6372
     4.7298   4.7587   4.7988   4.8946   4.9213   5.0072   5.0423   5.0907
     5.1077   5.1347   5.1482   5.2564   5.2833   5.3488   5.3958   5.4299
     5.5025   5.5265   5.5765   5.6106   5.7011   5.7270   5.8094   6.0301
     6.3093   6.4042   6.5992   6.6576   6.8227   6.8994   6.9544   7.0031
     7.0570   7.0679   7.0884   7.2127   7.2866   7.3124   7.4032   7.4294
     7.4481   7.4636   7.4956   7.5193   7.5779   7.6253   7.7272   7.7991
    11.2160  11.2622  11.3307  11.4561  11.4838  11.5848  11.6749  11.7198
    11.7964  11.8373  11.8608  11.9143  11.9919  12.0494  12.1014  12.2886
    12.3315  12.3794  12.4693  12.6448  12.7345  12.7999  12.8355  12.9764
    14.8238  15.2538  15.3078  15.4241  15.6411  15.6988  15.7551  15.7915

          k = 0.2500-0.0000 0.0000 ( 28242 PWs)   bands (ev):

   -47.1642 -46.8770 -46.7912 -46.7174 -46.7021 -46.5556 -46.3332 -46.2868
   -23.8469 -23.5144 -23.4745 -23.2451 -23.2281 -23.1993 -23.1125 -23.0364
   -23.0044 -22.9937 -22.9696 -22.9387 -22.8597 -22.8536 -22.8265 -22.8121
   -22.8121 -22.7871 -22.7589 -22.7414 -22.5708 -22.5487 -22.5374 -22.4860
   -19.7518 -19.6848 -19.6108 -19.5377 -19.5257 -19.3414 -19.3305 -19.1205
    -9.3811  -9.1974  -9.0463  -8.8842  -8.8189  -8.6957  -8.6075  -8.5113
    -8.4650  -8.4241  -8.3741  -8.3046  -8.2693  -8.1608  -8.0830  -8.0181
    -7.8211  -7.8033  -7.7510  -7.6948  -7.6405  -7.5977  -7.5382  -7.5226
    -3.4078  -3.3730  -3.3234  -3.2958  -3.2801  -3.2395  -3.2087  -3.1874
    -3.1740  -3.1193  -3.1025  -3.0907  -3.0334  -3.0229  -3.0165  -2.9558
    -2.9176  -2.9128  -2.8836  -2.8196  -2.8098  -2.7309  -2.6802  -2.6292
     2.8067   2.8935   2.9966   3.0922   3.1464   3.2586   3.3048   3.3237
     3.4290   3.4800   3.5370   3.6134   3.7114   3.8713   3.9452   4.0522
     4.1507   4.1965   4.2525   4.3241   4.4235   4.6633   4.6886   4.7841
     4.8643   4.9673   5.1249   5.1749   5.2922   5.3642   5.3875   5.4972
     5.5262   5.5986   5.6448   5.6726   5.7453   5.7969   5.8474   5.9252
     5.9789   6.0218   6.0647   6.1362   6.1832   6.2538   6.3693   6.4423
     6.4893   6.5716   6.6040   6.6557   6.6769   6.7624   6.7853   6.8523
     6.8984   6.9243   6.9640   7.0379   7.0627   7.1157   7.1783   7.2386
     7.3309   7.3859   7.4225   7.6205   7.7419   7.8071   8.0712   8.1736
     9.9286  10.5248  10.6520  10.8836  11.1950  11.6952  11.8710  11.9166
    11.9546  12.0595  12.1886  12.3598  12.4429  12.5017  12.5749  12.7077
    12.7566  12.9638  12.9975  13.0779  13.1011  13.1533  13.2385  13.3134
    13.3877  13.8259  13.9244  14.1030  14.2515  14.4296  14.7173  14.8886

          k =-0.0000 0.2500-0.0000 ( 28242 PWs)   bands (ev):

   -47.1642 -46.8770 -46.7912 -46.7174 -46.7021 -46.5556 -46.3332 -46.2868
   -23.8469 -23.5135 -23.4759 -23.2464 -23.2270 -23.1974 -23.1074 -23.0414
   -23.0002 -22.9960 -22.9709 -22.9381 -22.8624 -22.8544 -22.8254 -22.8203
   -22.8089 -22.7903 -22.7532 -22.7414 -22.5690 -22.5463 -22.5371 -22.4884
   -19.7516 -19.6852 -19.6109 -19.5374 -19.5255 -19.3416 -19.3306 -19.1204
    -9.3646  -9.2149  -9.0706  -8.8518  -8.7934  -8.6958  -8.6213  -8.5158
    -8.4723  -8.4190  -8.3844  -8.2728  -8.2552  -8.1500  -8.0653  -8.0027
    -7.8588  -7.7773  -7.7517  -7.7204  -7.7077  -7.6786  -7.5367  -7.4438
    -3.4030  -3.3764  -3.3230  -3.3056  -3.2701  -3.2502  -3.2130  -3.1780
    -3.1671  -3.1154  -3.1037  -3.0862  -3.0414  -3.0307  -3.0170  -2.9502
    -2.9212  -2.9061  -2.8802  -2.8230  -2.8154  -2.7292  -2.6782  -2.6286
     2.8362   2.9075   3.0180   3.1312   3.1623   3.3232   3.3726   3.4098
     3.4402   3.5163   3.5654   3.5888   3.7232   3.8187   3.8949   3.9484
     4.1246   4.2493   4.3514   4.3736   4.4362   4.5102   4.6514   4.8551
     4.9208   5.0505   5.1526   5.1769   5.2303   5.2580   5.3840   5.4414
     5.4974   5.5394   5.6047   5.6789   5.7477   5.7709   5.8277   5.9027
     5.9604   5.9772   6.0573   6.1253   6.1529   6.1826   6.2836   6.4092
     6.5357   6.5473   6.6250   6.6742   6.6876   6.7601   6.7917   6.8706
     6.9022   6.9321   6.9869   6.9974   7.0506   7.1083   7.1318   7.1751
     7.3017   7.3677   7.4167   7.6330   7.8194   7.8439   8.0587   8.0829
    10.2802  10.4880  10.5715  10.9832  11.1405  11.7728  11.8824  11.9889
    12.0660  12.1493  12.2670  12.3372  12.4462  12.5066  12.6788  12.7661
    12.8076  12.8393  12.8891  12.9945  13.0628  13.1865  13.3202  13.4125
    13.4876  13.6527  13.7916  14.0889  14.3719  14.4748  14.6445  14.8097

          k =-0.5000 0.0000-0.0000 ( 28326 PWs)   bands (ev):

   -47.1642 -46.8770 -46.7912 -46.7174 -46.7021 -46.5556 -46.3332 -46.2868
   -23.8469 -23.5144 -23.4730 -23.2439 -23.2281 -23.1993 -23.1127 -23.0363
   -23.0042 -22.9882 -22.9694 -22.9386 -22.8579 -22.8520 -22.8273 -22.8123
   -22.8120 -22.7873 -22.7648 -22.7414 -22.5728 -22.5522 -22.5380 -22.4866
   -19.7517 -19.6846 -19.6106 -19.5377 -19.5260 -19.3413 -19.3306 -19.1206
    -9.3613  -9.1809  -8.9754  -8.8983  -8.8267  -8.6445  -8.5969  -8.4909
    -8.4176  -8.3851  -8.3685  -8.3115  -8.2030  -8.1304  -8.0864  -8.0418
    -8.0103  -7.8989  -7.7539  -7.6950  -7.6421  -7.6340  -7.5996  -7.5285
    -3.3946  -3.3439  -3.3004  -3.2977  -3.2931  -3.2366  -3.2072  -3.2026
    -3.1754  -3.1247  -3.0988  -3.0955  -3.0330  -3.0257  -3.0176  -2.9591
    -2.9211  -2.9173  -2.8912  -2.8234  -2.8122  -2.7364  -2.6842  -2.6329
     2.7983   2.8886   3.0063   3.1158   3.1871   3.3292   3.3502   3.3796
     3.4568   3.5959   3.6436   3.7118   3.8114   4.0265   4.1690   4.1851
     4.2000   4.2946   4.4409   4.4772   4.5887   4.6148   4.6360   4.7067
     4.7769   4.8091   4.9276   4.9844   5.1342   5.1797   5.2485   5.3446
     5.4107   5.4626   5.5481   5.6541   5.6781   5.7352   5.8047   5.8800
     5.9382   5.9566   6.0302   6.0829   6.1657   6.3212   6.4021   6.4759
     6.5543   6.5921   6.6260   6.6712   6.7023   6.7550   6.8097   6.8440
     6.8706   6.8957   6.9518   6.9762   7.0997   7.1480   7.2247   7.3143
     7.3761   7.4062   7.5334   7.5784   7.5968   7.7551   7.8183   8.1730
     9.9304  10.8240  11.0164  11.1619  11.2936  11.4021  11.6060  11.7017
    11.8537  11.9338  12.1813  12.2295  12.3165  12.4769  12.5843  12.6617
    12.7317  12.8306  12.9526  13.0002  13.0226  13.0974  13.2304  13.3118
    13.4242  13.9726  14.1795  14.1890  14.5875  14.5972  14.7429  15.1036

          k = 0.0000-0.5000 0.0000 ( 28326 PWs)   bands (ev):

   -47.1642 -46.8770 -46.7912 -46.7174 -46.7022 -46.5556 -46.3332 -46.2869
   -23.8469 -23.5126 -23.4759 -23.2464 -23.2260 -23.1953 -23.1013 -23.0475
   -22.9995 -22.9889 -22.9720 -22.9372 -22.8625 -22.8544 -22.8294 -22.8252
   -22.8056 -22.7937 -22.7531 -22.7415 -22.5690 -22.5474 -22.5373 -22.4913
   -19.7513 -19.6854 -19.6109 -19.5372 -19.5256 -19.3416 -19.3307 -19.1205
    -9.3243  -9.2141  -9.0572  -8.7968  -8.7327  -8.6912  -8.6339  -8.5532
    -8.4447  -8.4181  -8.2278  -8.1632  -8.1243  -8.0996  -8.0833  -8.0631
    -8.0439  -8.0056  -7.8971  -7.7568  -7.7111  -7.6826  -7.5402  -7.4450
    -3.3820  -3.3500  -3.3256  -3.2897  -3.2794  -3.2623  -3.2176  -3.1724
    -3.1663  -3.1168  -3.1024  -3.0784  -3.0546  -3.0422  -3.0188  -2.9443
    -2.9322  -2.9063  -2.8789  -2.8357  -2.8207  -2.7332  -2.6802  -2.6316
     2.8504   2.8989   3.0187   3.1591   3.2852   3.3652   3.4498   3.4749
     3.6056   3.6149   3.6623   3.7397   3.8353   4.0263   4.1137   4.2149
     4.3826   4.4252   4.4983   4.5384   4.6105   4.6476   4.6779   4.6941
     4.7443   4.7815   4.8536   4.9145   4.9648   4.9818   5.1143   5.1728
     5.1899   5.3979   5.4922   5.5777   5.6617   5.7469   5.7804   5.8324
     5.9026   5.9606   6.0594   6.0906   6.1197   6.2249   6.3403   6.3857
     6.4968   6.5885   6.6088   6.6487   6.6763   6.7200   6.7997   6.8433
     6.8831   6.9766   6.9816   7.0086   7.0872   7.1019   7.1208   7.1736
     7.3062   7.5469   7.6276   7.6796   7.7612   7.7942   7.8237   7.8624
    10.5735  10.9580  11.0146  11.0239  11.1842  11.2901  11.4796  12.0885
    12.1700  12.2641  12.3778  12.3937  12.4181  12.4635  12.4728  12.5216
    12.6955  12.7466  12.7704  12.8471  13.0186  13.0908  13.3472  13.4244
    13.4855  13.7907  14.0664  14.2664  14.3767  14.6681  14.9198  15.1818

          k = 0.0000-0.2500 0.2500 ( 28303 PWs)   bands (ev):

   -47.1642 -46.8770 -46.7912 -46.7174 -46.7021 -46.5556 -46.3332 -46.2868
   -23.8462 -23.5122 -23.4760 -23.2464 -23.2248 -23.1958 -23.1067 -23.0332
   -23.0001 -22.9958 -22.9815 -22.9316 -22.8635 -22.8577 -22.8253 -22.8203
   -22.8096 -22.7905 -22.7532 -22.7484 -22.5689 -22.5465 -22.5375 -22.4885
   -19.7515 -19.6851 -19.6109 -19.5374 -19.5255 -19.3417 -19.3307 -19.1205
    -9.3205  -9.1477  -9.0640  -8.8172  -8.7477  -8.6925  -8.6178  -8.5145
    -8.4633  -8.4008  -8.3783  -8.2587  -8.2336  -8.2142  -8.0841  -8.0163
    -7.9071  -7.8132  -7.7762  -7.7353  -7.7236  -7.6818  -7.6503  -7.4430
    -3.3921  -3.3690  -3.3129  -3.3023  -3.2780  -3.2509  -3.2156  -3.1795
    -3.1622  -3.1140  -3.1006  -3.0896  -3.0487  -3.0274  -3.0183  -2.9468
    -2.9286  -2.9142  -2.8910  -2.8283  -2.8089  -2.7330  -2.6809  -2.6286
     2.9053   3.0270   3.0979   3.1254   3.3280   3.3831   3.4168   3.4620
     3.5202   3.5871   3.6095   3.7193   3.8169   3.8710   3.9496   3.9878
     4.1216   4.2997   4.3652   4.4031   4.4503   4.5036   4.6456   4.7366
     4.7814   4.9534   5.0714   5.1109   5.1577   5.2355   5.3428   5.3929
     5.4308   5.4812   5.5262   5.5845   5.6347   5.6860   5.7558   5.8459
     5.9410   5.9832   6.0245   6.0693   6.1732   6.1821   6.2603   6.4362
     6.5108   6.5634   6.5887   6.6641   6.6899   6.7517   6.8025   6.8448
     6.9025   6.9556   7.0313   7.0647   7.0812   7.1427   7.1592   7.1825
     7.2870   7.3264   7.4146   7.6373   7.7226   7.7614   7.9639   8.0837
    10.4736  10.5289  10.7725  10.9898  11.2041  11.7297  11.8350  11.9402
    11.9669  12.0108  12.1882  12.2746  12.3246  12.4758  12.5743  12.6581
    12.6829  12.7715  12.8865  12.9389  13.0264  13.1385  13.2632  13.3238
    13.6616  13.7883  14.0333  14.2381  14.5550  14.6725  14.9270  15.0688

          k = 0.2500 0.0000-0.2500 ( 28303 PWs)   bands (ev):

   -47.1642 -46.8770 -46.7912 -46.7174 -46.7021 -46.5556 -46.3332 -46.2868
   -23.8462 -23.5131 -23.4745 -23.2451 -23.2261 -23.1975 -23.1114 -23.0288
   -23.0042 -22.9937 -22.9800 -22.9322 -22.8619 -22.8558 -22.8262 -22.8130
   -22.8120 -22.7873 -22.7589 -22.7483 -22.5707 -22.5489 -22.5379 -22.4861
   -19.7517 -19.6847 -19.6107 -19.5377 -19.5257 -19.3415 -19.3306 -19.1205
    -9.3358  -9.1389  -9.0317  -8.8607  -8.7650  -8.6967  -8.5772  -8.5256
    -8.4638  -8.4207  -8.3636  -8.2945  -8.2335  -8.2104  -8.1087  -8.0369
    -7.8806  -7.8147  -7.7932  -7.7183  -7.6806  -7.6088  -7.5992  -7.5284
    -3.3976  -3.3567  -3.3176  -3.2977  -3.2917  -3.2436  -3.2037  -3.1784
    -3.1735  -3.1227  -3.1035  -3.0926  -3.0435  -3.0278  -3.0193  -2.9479
    -2.9212  -2.9124  -2.8784  -2.8293  -2.8171  -2.7348  -2.6798  -2.6316
     2.8571   2.9442   3.0907   3.1630   3.2410   3.2937   3.3849   3.4771
     3.5148   3.5523   3.6268   3.7069   3.7708   3.8486   3.9996   4.0752
     4.1898   4.2387   4.3128   4.3559   4.4617   4.5741   4.6480   4.7522
     4.8188   4.9311   4.9508   5.0329   5.1883   5.2658   5.3133   5.3850
     5.4558   5.4976   5.5914   5.6411   5.7066   5.7587   5.8547   5.8909
     5.9074   5.9783   6.0650   6.1069   6.2015   6.2245   6.3452   6.4454
     6.5268   6.5698   6.6149   6.6577   6.7167   6.7929   6.8319   6.8976
     6.9092   6.9491   7.0010   7.0393   7.0777   7.1174   7.1589   7.2330
     7.2679   7.3194   7.3773   7.6147   7.6614   7.7358   8.0482   8.0801
    10.2155  10.5293  10.8191  10.8830  11.2895  11.6718  11.7133  11.8185
    11.9076  12.0362  12.1662  12.1980  12.3640  12.4536  12.5183  12.5862
    12.7422  12.8526  12.9058  12.9945  13.0313  13.1339  13.2293  13.3207
    13.5536  13.8327  14.0651  14.2170  14.5683  14.7493  14.8215  15.0668

          k =-0.2500 0.0000-0.2500 ( 28303 PWs)   bands (ev):

   -47.1642 -46.8770 -46.7912 -46.7174 -46.7021 -46.5556 -46.3332 -46.2868
   -23.8462 -23.5131 -23.4745 -23.2451 -23.2261 -23.1975 -23.1114 -23.0287
   -23.0042 -22.9937 -22.9801 -22.9322 -22.8619 -22.8558 -22.8263 -22.8130
   -22.8120 -22.7873 -22.7589 -22.7483 -22.5707 -22.5489 -22.5379 -22.4861
   -19.7517 -19.6847 -19.6107 -19.5376 -19.5257 -19.3415 -19.3306 -19.1205
    -9.3329  -9.1396  -9.0413  -8.8519  -8.7700  -8.6917  -8.5781  -8.5126
    -8.4827  -8.4117  -8.3681  -8.2853  -8.2399  -8.2113  -8.1100  -8.0394
    -7.8774  -7.8111  -7.7973  -7.7182  -7.6817  -7.6067  -7.5994  -7.5292
    -3.4013  -3.3737  -3.3057  -3.2962  -3.2703  -3.2372  -3.2068  -3.1864
    -3.1789  -3.1220  -3.1094  -3.0893  -3.0413  -3.0317  -3.0224  -2.9509
    -2.9196  -2.9063  -2.8866  -2.8276  -2.8157  -2.7304  -2.6833  -2.6297
     2.8530   2.9265   3.0819   3.1584   3.2414   3.2926   3.3990   3.4535
     3.5373   3.6008   3.6453   3.7361   3.7919   3.8753   3.9714   3.9860
     4.1488   4.2762   4.3197   4.3480   4.4291   4.5989   4.6500   4.7399
     4.8375   4.8918   4.9708   5.0712   5.2118   5.2491   5.2994   5.3963
     5.4372   5.5326   5.5710   5.6548   5.7042   5.7379   5.7966   5.8827
     5.9480   5.9908   6.0651   6.1065   6.1298   6.2351   6.3188   6.4425
     6.5571   6.5921   6.6020   6.6808   6.7397   6.8002   6.8587   6.8853
     6.9435   6.9819   6.9955   7.0283   7.0635   7.0958   7.1381   7.2212
     7.2641   7.3279   7.3607   7.6227   7.6630   7.7532   8.0443   8.0861
    10.2178  10.5282  10.8550  10.9005  11.1543  11.6584  11.6998  11.8682
    11.9308  12.0260  12.1669  12.1908  12.4015  12.4812  12.5301  12.5850
    12.6848  12.8585  12.9310  12.9940  13.0397  13.1412  13.1872  13.3455
    13.5532  13.8441  14.0584  14.1914  14.5942  14.7432  14.8596  15.1084

          k = 0.2500-0.2500 0.0000 ( 28303 PWs)   bands (ev):

   -47.1642 -46.8770 -46.7912 -46.7174 -46.7021 -46.5556 -46.3332 -46.2868
   -23.8469 -23.5135 -23.4745 -23.2451 -23.2270 -23.1974 -23.1076 -23.0413
   -22.9977 -22.9932 -22.9707 -22.9381 -22.8598 -22.8536 -22.8262 -22.8203
   -22.8090 -22.7905 -22.7588 -22.7415 -22.5709 -22.5496 -22.5377 -22.4891
   -19.7515 -19.6850 -19.6107 -19.5375 -19.5257 -19.3415 -19.3307 -19.1205
    -9.3428  -9.1967  -9.0329  -8.8367  -8.7842  -8.6468  -8.5809  -8.4954
    -8.4764  -8.3994  -8.3637  -8.2756  -8.2346  -8.1653  -8.0906  -8.0180
    -7.8611  -7.8210  -7.8116  -7.7670  -7.7194  -7.7091  -7.5415  -7.5253
    -3.4010  -3.3551  -3.3061  -3.3030  -3.2796  -3.2501  -3.2109  -3.1843
    -3.1738  -3.1233  -3.1027  -3.0869  -3.0383  -3.0316  -3.0202  -2.9539
    -2.9229  -2.9098  -2.8818  -2.8252  -2.8160  -2.7312  -2.6811  -2.6320
     2.8274   2.9086   3.1504   3.1767   3.1998   3.3844   3.4403   3.4907
     3.5544   3.5972   3.6465   3.6677   3.7881   3.9032   3.9441   4.0852
     4.1879   4.2253   4.3371   4.3675   4.4565   4.5670   4.6542   4.7500
     4.8444   4.9537   5.0970   5.1444   5.2282   5.2510   5.3039   5.3620
     5.3862   5.4786   5.5543   5.5865   5.6640   5.7006   5.7583   5.7988
     5.9069   5.9322   6.0050   6.0822   6.1417   6.1968   6.2949   6.3459
     6.4837   6.5299   6.6313   6.6744   6.6963   6.7896   6.8497   6.8885
     6.9383   6.9543   6.9878   7.0224   7.0828   7.0984   7.1498   7.2161
     7.2957   7.3590   7.4007   7.5658   7.7432   7.8068   7.9937   8.0587
    10.2819  10.6548  10.7545  11.0509  11.1978  11.7637  11.8629  11.9042
    11.9409  12.0399  12.1500  12.2072  12.3914  12.4510  12.5174  12.6112
    12.7385  12.8214  12.8438  12.9506  13.0408  13.1611  13.2635  13.3714
    13.5587  13.8920  14.2021  14.2745  14.5712  14.6252  14.8445  15.1092

          k =-0.2500-0.2500 0.0000 ( 28303 PWs)   bands (ev):

   -47.1642 -46.8770 -46.7912 -46.7174 -46.7021 -46.5556 -46.3332 -46.2868
   -23.8469 -23.5135 -23.4745 -23.2451 -23.2270 -23.1974 -23.1075 -23.0413
   -22.9977 -22.9931 -22.9707 -22.9381 -22.8598 -22.8536 -22.8262 -22.8203
   -22.8090 -22.7905 -22.7588 -22.7415 -22.5709 -22.5496 -22.5377 -22.4891
   -19.7515 -19.6850 -19.6107 -19.5375 -19.5257 -19.3415 -19.3307 -19.1205
    -9.3383  -9.2003  -9.0289  -8.8445  -8.7949  -8.6463  -8.5792  -8.5070
    -8.4477  -8.4005  -8.3567  -8.2788  -8.2399  -8.1550  -8.1042  -8.0167
    -7.8631  -7.8169  -7.8069  -7.7729  -7.7169  -7.7146  -7.5412  -7.5247
    -3.3878  -3.3708  -3.3114  -3.3065  -3.2774  -3.2467  -3.2112  -3.1763
    -3.1682  -3.1246  -3.1058  -3.0896  -3.0434  -3.0314  -3.0190  -2.9480
    -2.9207  -2.9050  -2.8869  -2.8271  -2.8169  -2.7347  -2.6810  -2.6306
     2.8249   2.9114   3.1136   3.1695   3.1868   3.3795   3.4427   3.5053
     3.5764   3.6126   3.6300   3.7026   3.7798   3.9616   4.0176   4.0818
     4.1446   4.2299   4.3221   4.3994   4.4523   4.5068   4.6534   4.7063
     4.8354   4.9648   5.1082   5.1551   5.1986   5.2377   5.2784   5.3432
     5.4209   5.4529   5.5356   5.5736   5.6289   5.6879   5.7478   5.8526
     5.8862   5.9861   6.0329   6.0817   6.1305   6.1963   6.3061   6.3618
     6.4534   6.5685   6.6109   6.6499   6.7209   6.7761   6.8468   6.8749
     6.9277   6.9570   6.9788   7.0426   7.0544   7.1373   7.1846   7.2395
     7.3026   7.3476   7.3983   7.6057   7.7382   7.8035   7.9863   8.0621
    10.2832  10.6418  10.7273  10.9607  11.1902  11.7705  11.8820  11.9298
    11.9620  12.0511  12.1543  12.2193  12.3736  12.4550  12.5189  12.6256
    12.7195  12.8092  12.8439  12.9673  13.0522  13.1569  13.2793  13.3712
    13.5629  13.9066  14.2111  14.2735  14.5470  14.6356  14.8533  15.0836

          k = 0.2500-0.0000 0.5000 ( 28312 PWs)   bands (ev):

   -47.1642 -46.8770 -46.7912 -46.7175 -46.7021 -46.5556 -46.3332 -46.2868
   -23.8454 -23.5118 -23.4745 -23.2451 -23.2243 -23.1954 -23.1104 -23.0136
   -23.0040 -22.9980 -22.9937 -22.9251 -22.8654 -22.8567 -22.8260 -22.8139
   -22.8120 -22.7876 -22.7590 -22.7557 -22.5706 -22.5490 -22.5383 -22.4862
   -19.7516 -19.6846 -19.6107 -19.5376 -19.5257 -19.3416 -19.3307 -19.1206
    -9.2801  -9.1035  -9.0000  -8.7911  -8.7272  -8.6892  -8.6041  -8.5449
    -8.4646  -8.3727  -8.3407  -8.3186  -8.2331  -8.1467  -8.0981  -8.0675
    -8.0282  -7.8786  -7.8143  -7.7966  -7.7089  -7.6220  -7.6028  -7.5299
    -3.3902  -3.3563  -3.3091  -3.2951  -3.2775  -3.2415  -3.2012  -3.1840
    -3.1696  -3.1267  -3.1092  -3.0910  -3.0547  -3.0356  -3.0250  -2.9410
    -2.9245  -2.9093  -2.8765  -2.8413  -2.8218  -2.7342  -2.6829  -2.6321
     2.8577   2.9945   3.1137   3.2350   3.2923   3.3635   3.4301   3.5515
     3.6341   3.6854   3.7499   3.8670   3.9408   4.0388   4.0879   4.1759
     4.2392   4.3141   4.3667   4.3862   4.4869   4.5358   4.6418   4.7070
     4.7538   4.7966   4.8093   4.9200   5.0205   5.1067   5.2048   5.2247
     5.2881   5.3327   5.4249   5.4794   5.6371   5.6901   5.7947   5.8437
     5.9077   5.9815   6.0302   6.1221   6.1957   6.2640   6.3532   6.4697
     6.5126   6.6193   6.6824   6.6931   6.7583   6.7910   6.8206   6.8635
     6.9193   6.9387   6.9696   7.0245   7.0955   7.1186   7.1840   7.2625
     7.2979   7.3948   7.4654   7.5930   7.6256   7.6749   7.7714   8.0747
    10.5111  10.7532  10.8900  11.1913  11.2000  11.3462  11.6834  11.7562
    11.8142  11.9201  12.0324  12.1465  12.3209  12.4406  12.5404  12.5626
    12.6281  12.6844  12.8324  12.8789  13.0212  13.1078  13.1170  13.2738
    13.7642  13.8276  14.1757  14.3133  14.8340  14.9612  15.0370  15.2414

          k =-0.5000-0.2500-0.0000 ( 28312 PWs)   bands (ev):

   -47.1642 -46.8770 -46.7912 -46.7174 -46.7021 -46.5556 -46.3332 -46.2868
   -23.8469 -23.5135 -23.4730 -23.2439 -23.2270 -23.1974 -23.1077 -23.0412
   -22.9972 -22.9881 -22.9705 -22.9380 -22.8580 -22.8519 -22.8270 -22.8203
   -22.8092 -22.7907 -22.7647 -22.7415 -22.5728 -22.5530 -22.5383 -22.4898
   -19.7514 -19.6849 -19.6105 -19.5377 -19.5259 -19.3414 -19.3307 -19.1207
    -9.3192  -9.1836  -8.9616  -8.8533  -8.7922  -8.5865  -8.5461  -8.4916
    -8.4405  -8.3675  -8.3151  -8.2899  -8.1976  -8.1491  -8.0894  -8.0432
    -8.0041  -7.9079  -7.8515  -7.7753  -7.7260  -7.7177  -7.6216  -7.5362
    -3.3860  -3.3440  -3.3072  -3.2953  -3.2857  -3.2454  -3.2091  -3.1888
    -3.1716  -3.1326  -3.1054  -3.0901  -3.0387  -3.0314  -3.0251  -2.9512
    -2.9217  -2.9096  -2.8887  -2.8293  -2.8171  -2.7365  -2.6840  -2.6340
     2.8184   2.9145   3.1490   3.1838   3.3455   3.4221   3.4726   3.5857
     3.6219   3.6863   3.7282   3.7913   3.8705   4.0786   4.1363   4.1732
     4.2815   4.3428   4.3942   4.4803   4.5215   4.5921   4.6869   4.7307
     4.8020   4.8143   4.9257   5.0050   5.0951   5.1227   5.1900   5.2751
     5.3027   5.3438   5.4242   5.4414   5.5534   5.6220   5.6506   5.7442
     5.7864   5.8935   5.9716   6.0294   6.1579   6.1940   6.2281   6.3577
     6.4159   6.5605   6.6226   6.6643   6.7530   6.8164   6.8691   6.9095
     6.9264   6.9514   7.0087   7.0777   7.1277   7.1804   7.2094   7.2368
     7.3198   7.3853   7.5221   7.5653   7.5971   7.7529   7.7993   8.0606
    10.2851  10.8271  11.1236  11.2720  11.3642  11.4435  11.6368  11.7839
    11.8423  11.8877  12.1544  12.1965  12.2996  12.3801  12.4364  12.5209
    12.5639  12.7427  12.8405  12.9323  12.9603  13.1127  13.1734  13.3855
    13.5760  14.1577  14.3320  14.6788  14.7424  14.8070  15.0413  15.2291

          k = 0.0000-0.5000 0.2500 ( 28312 PWs)   bands (ev):

   -47.1642 -46.8770 -46.7912 -46.7175 -46.7022 -46.5556 -46.3332 -46.2868
   -23.8462 -23.5113 -23.4759 -23.2464 -23.2236 -23.1939 -23.1013 -23.0388
   -22.9995 -22.9885 -22.9824 -22.9308 -22.8636 -22.8577 -22.8295 -22.8252
   -22.8061 -22.7939 -22.7531 -22.7485 -22.5689 -22.5475 -22.5378 -22.4914
   -19.7512 -19.6853 -19.6108 -19.5372 -19.5255 -19.3417 -19.3308 -19.1205
    -9.2809  -9.1307  -9.0580  -8.7611  -8.7090  -8.6718  -8.6321  -8.5477
    -8.4108  -8.3772  -8.2624  -8.2132  -8.1336  -8.1065  -8.0882  -8.0758
    -8.0385  -8.0156  -7.9023  -7.8501  -7.7346  -7.6847  -7.6578  -7.4436
    -3.3739  -3.3477  -3.3260  -3.2860  -3.2794  -3.2674  -3.2220  -3.1761
    -3.1687  -3.1155  -3.0990  -3.0849  -3.0450  -3.0313  -3.0141  -2.9600
    -2.9374  -2.9114  -2.8897  -2.8290  -2.8144  -2.7344  -2.6823  -2.6315
     2.9391   3.0379   3.0593   3.3084   3.3860   3.4078   3.5190   3.5680
     3.6286   3.6654   3.7629   3.8337   3.9427   4.0874   4.1061   4.2108
     4.3253   4.4190   4.4985   4.5433   4.5854   4.6378   4.6675   4.6895
     4.7383   4.7920   4.8648   4.8994   4.9526   5.0203   5.0524   5.0944
     5.1532   5.3133   5.3723   5.4281   5.4963   5.6422   5.6629   5.7183
     5.8653   5.9081   5.9983   6.0932   6.1308   6.1572   6.2467   6.3368
     6.4418   6.4983   6.6131   6.6476   6.6751   6.7446   6.8265   6.8822
     6.9497   6.9786   7.0242   7.0677   7.1126   7.1644   7.1810   7.2485
     7.2751   7.5439   7.5920   7.6699   7.7114   7.7348   7.7723   7.8322
    10.7818  11.0049  11.0784  11.1357  11.2150  11.3092  11.4801  11.9647
    12.0934  12.1708  12.2392  12.2601  12.2688  12.3788  12.4273  12.4811
    12.5770  12.6831  12.7324  12.8108  12.9837  13.0019  13.2714  13.3297
    13.6488  13.9515  14.2410  14.6277  14.6624  14.9152  15.1097  15.4805

          k = 0.2500-0.5000 0.0000 ( 28312 PWs)   bands (ev):

   -47.1642 -46.8770 -46.7912 -46.7174 -46.7021 -46.5556 -46.3332 -46.2868
   -23.8469 -23.5126 -23.4745 -23.2451 -23.2260 -23.1953 -23.1016 -23.0474
   -22.9945 -22.9886 -22.9717 -22.9371 -22.8599 -22.8536 -22.8294 -22.8259
   -22.8057 -22.7939 -22.7587 -22.7415 -22.5709 -22.5505 -22.5379 -22.4921
   -19.7512 -19.6853 -19.6106 -19.5374 -19.5257 -19.3415 -19.3308 -19.1206
    -9.2969  -9.2014  -9.0172  -8.7794  -8.7222  -8.6602  -8.5992  -8.5174
    -8.4405  -8.3583  -8.2298  -8.1729  -8.1437  -8.1123  -8.0784  -8.0679
    -8.0479  -8.0331  -7.8988  -7.8196  -7.7936  -7.7203  -7.5435  -7.5261
    -3.3773  -3.3495  -3.3234  -3.2854  -3.2745  -3.2633  -3.2153  -3.1733
    -3.1672  -3.1286  -3.1062  -3.0821  -3.0511  -3.0418  -3.0233  -2.9430
    -2.9275  -2.9036  -2.8824  -2.8367  -2.8210  -2.7350  -2.6820  -2.6333
     2.8446   2.8975   3.1665   3.1829   3.3875   3.4419   3.5224   3.5912
     3.6748   3.7357   3.7708   3.8386   3.9892   4.0378   4.1369   4.2154
     4.3892   4.4445   4.5069   4.5458   4.5820   4.6391   4.6669   4.6906
     4.7456   4.7880   4.8250   4.8792   4.9359   5.0088   5.0629   5.1353
     5.1714   5.2492   5.4131   5.4690   5.4979   5.6482   5.7114   5.7446
     5.7793   5.8771   5.9175   6.0568   6.1417   6.1806   6.2479   6.3546
     6.4111   6.4957   6.5897   6.6709   6.7271   6.7923   6.8437   6.8900
     6.9133   6.9553   7.0297   7.0731   7.1122   7.1366   7.1754   7.2238
     7.3133   7.5241   7.6146   7.6458   7.7280   7.7707   7.7879   7.8238
    10.6480  10.9911  11.0236  11.1624  11.1971  11.3311  11.5996  11.9645
    12.0104  12.1414  12.2239  12.3212  12.3688  12.4081  12.4428  12.4865
    12.5706  12.6131  12.6516  12.7723  12.9832  13.1055  13.2633  13.3295
    13.7354  14.0341  14.2627  14.6160  14.7711  14.8644  15.1563  15.3221

          k =-0.5000-0.0000 0.2500 ( 28312 PWs)   bands (ev):

   -47.1642 -46.8770 -46.7912 -46.7174 -46.7021 -46.5556 -46.3332 -46.2868
   -23.8462 -23.5131 -23.4730 -23.2439 -23.2261 -23.1975 -23.1116 -23.0287
   -23.0041 -22.9882 -22.9799 -22.9322 -22.8612 -22.8530 -22.8271 -22.8132
   -22.8120 -22.7875 -22.7648 -22.7483 -22.5726 -22.5524 -22.5385 -22.4867
   -19.7516 -19.6846 -19.6105 -19.5378 -19.5259 -19.3414 -19.3306 -19.1206
    -9.3095  -9.1287  -8.9684  -8.8734  -8.7618  -8.6448  -8.5429  -8.5070
    -8.4294  -8.3837  -8.3664  -8.2881  -8.2314  -8.1507  -8.0936  -8.0651
    -8.0109  -7.9103  -7.8549  -7.7191  -7.6862  -7.6310  -7.6038  -7.5968
    -3.3893  -3.3511  -3.3036  -3.2962  -3.2802  -3.2401  -3.2064  -3.1926
    -3.1656  -3.1329  -3.1098  -3.0915  -3.0432  -3.0348  -3.0234  -2.9515
    -2.9214  -2.9126  -2.8850  -2.8288  -2.8179  -2.7356  -2.6836  -2.6332
     2.8535   2.9422   3.1415   3.1788   3.2658   3.3940   3.4675   3.5214
     3.5755   3.6466   3.7174   3.7865   3.8975   3.9662   4.1417   4.2239
     4.2987   4.3229   4.3930   4.4941   4.5460   4.6006   4.6357   4.6748
     4.7564   4.7633   4.9557   4.9835   5.0656   5.1154   5.1706   5.2468
     5.2876   5.3267   5.4480   5.5239   5.5926   5.7005   5.7491   5.8149
     5.8738   5.9449   6.0016   6.0870   6.1370   6.1943   6.3375   6.4356
     6.5844   6.6235   6.6564   6.7242   6.7393   6.7617   6.8333   6.8918
     6.9399   6.9594   7.0304   7.0633   7.0784   7.1184   7.1731   7.2179
     7.3195   7.3518   7.5318   7.5555   7.5800   7.7146   7.8159   8.0614
    10.2186  10.9577  11.0302  11.1590  11.2902  11.3601  11.6287  11.6952
    11.7345  11.8572  12.1704  12.1999  12.2560  12.2994  12.4816  12.6297
    12.6843  12.7458  12.8380  12.8651  12.9584  13.0171  13.1957  13.3704
    13.5644  14.0209  14.1792  14.6503  14.7632  14.8645  15.0379  15.2783

          k =-0.5000-0.0000 0.5000 ( 28276 PWs)   bands (ev):

   -47.1642 -46.8770 -46.7912 -46.7174 -46.7021 -46.5556 -46.3332 -46.2868
   -23.8455 -23.5118 -23.4730 -23.2438 -23.2243 -23.1954 -23.1105 -23.0134
   -23.0039 -22.9979 -22.9882 -22.9251 -22.8652 -22.8535 -22.8268 -22.8141
   -22.8120 -22.7878 -22.7648 -22.7557 -22.5725 -22.5526 -22.5389 -22.4868
   -19.7515 -19.6845 -19.6104 -19.5379 -19.5258 -19.3415 -19.3307 -19.1207
    -9.2456  -9.1000  -8.9501  -8.7905  -8.6816  -8.6648  -8.5904  -8.4875
    -8.4241  -8.3806  -8.3576  -8.3088  -8.1903  -8.1208  -8.1059  -8.0601
    -8.0367  -8.0090  -7.8942  -7.8746  -7.7096  -7.6291  -7.6210  -7.6006
    -3.3856  -3.3528  -3.3053  -3.2968  -3.2687  -3.2425  -3.2031  -3.1873
    -3.1606  -3.1361  -3.1197  -3.0808  -3.0629  -3.0418  -3.0285  -2.9420
    -2.9255  -2.9088  -2.8734  -2.8397  -2.8220  -2.7350  -2.6830  -2.6336
     2.8534   3.0353   3.1565   3.2815   3.3825   3.4441   3.4811   3.5610
     3.7641   3.7971   3.8942   3.9520   4.0383   4.0967   4.2114   4.2779
     4.3147   4.3922   4.4256   4.4605   4.5072   4.5637   4.6352   4.6701
     4.7115   4.7910   4.8303   4.8816   4.9002   5.0291   5.1131   5.1265
     5.1835   5.2371   5.3082   5.4142   5.4604   5.4823   5.6339   5.7478
     5.7925   5.8472   5.9669   6.0303   6.1978   6.2180   6.2907   6.4803
     6.5620   6.6844   6.7027   6.7155   6.7422   6.7922   6.8598   6.8939
     6.9287   6.9388   7.0310   7.0649   7.0870   7.1356   7.1566   7.2439
     7.4012   7.4349   7.5080   7.5174   7.6455   7.7036   7.7602   7.8426
    10.7349  11.0013  11.1473  11.1958  11.2425  11.3376  11.4070  11.6847
    11.7109  11.8344  11.9178  12.1418  12.3044  12.3450  12.4021  12.5281
    12.5807  12.6370  12.6654  12.7765  12.8352  13.0027  13.1393  13.2853
    13.8255  14.0575  14.1588  14.7242  15.0308  15.4252  15.4913  15.6683

          k =-0.5000 0.5000-0.0000 ( 28276 PWs)   bands (ev):

   -47.1642 -46.8770 -46.7912 -46.7174 -46.7021 -46.5556 -46.3332 -46.2868
   -23.8469 -23.5126 -23.4730 -23.2439 -23.2260 -23.1953 -23.1018 -23.0472
   -22.9906 -22.9870 -22.9715 -22.9371 -22.8581 -22.8519 -22.8294 -22.8267
   -22.8059 -22.7942 -22.7645 -22.7416 -22.5728 -22.5538 -22.5385 -22.4929
   -19.7511 -19.6851 -19.6104 -19.5376 -19.5258 -19.3414 -19.3308 -19.1207
    -9.2728  -9.1895  -8.9511  -8.7646  -8.7502  -8.6383  -8.5434  -8.4485
    -8.4256  -8.2636  -8.2031  -8.1888  -8.1817  -8.1473  -8.0846  -8.0644
    -8.0503  -8.0270  -7.9811  -7.9062  -7.8818  -7.7242  -7.6234  -7.5389
    -3.3735  -3.3412  -3.3239  -3.2928  -3.2701  -3.2565  -3.2124  -3.1744
    -3.1662  -3.1415  -3.1123  -3.0848  -3.0477  -3.0364  -3.0313  -2.9408
    -2.9242  -2.9016  -2.8857  -2.8374  -2.8215  -2.7367  -2.6839  -2.6350
     2.8393   2.9002   3.1945   3.3361   3.4323   3.5088   3.5513   3.6454
     3.7185   3.8118   3.9916   4.1117   4.1529   4.2071   4.2370   4.3206
     4.3930   4.4412   4.4725   4.5440   4.5569   4.6262   4.6434   4.6926
     4.7477   4.7747   4.8378   4.8495   4.8833   4.9450   4.9826   5.1155
     5.1672   5.1834   5.2915   5.3473   5.3748   5.4402   5.5148   5.6475
     5.6848   5.7212   5.8285   5.8951   5.9290   6.0524   6.2940   6.3653
     6.4079   6.5148   6.5508   6.6859   6.7860   6.8168   6.8910   6.9015
     6.9494   6.9929   7.0554   7.0876   7.1626   7.1899   7.2326   7.3725
     7.4044   7.4836   7.5409   7.5906   7.6396   7.7459   7.7750   7.7848
    10.8258  11.0124  11.0431  11.3203  11.4531  11.5019  11.6674  11.7756
    11.8491  11.8744  12.0979  12.1221  12.1692  12.3480  12.4125  12.4325
    12.5232  12.5540  12.5845  12.7290  12.9417  13.0046  13.2154  13.2633
    13.8700  14.1154  14.5411  14.8072  15.2732  15.3857  15.4322  15.7091

          k =-0.2500-0.2500 0.2500 ( 28324 PWs)   bands (ev):

   -47.1642 -46.8770 -46.7912 -46.7174 -46.7021 -46.5556 -46.3332 -46.2869
   -23.8462 -23.5122 -23.4745 -23.2451 -23.2248 -23.1958 -23.1069 -23.0332
   -22.9975 -22.9931 -22.9813 -22.9316 -22.8620 -22.8558 -22.8261 -22.8203
   -22.8097 -22.7907 -22.7588 -22.7484 -22.5707 -22.5497 -22.5381 -22.4892
   -19.7514 -19.6850 -19.6106 -19.5376 -19.5256 -19.3415 -19.3307 -19.1206
    -9.2894  -9.1370  -9.0208  -8.8186  -8.7260  -8.6456  -8.5737  -8.5114
    -8.4408  -8.3856  -8.3636  -8.2614  -8.2270  -8.2060  -8.1165  -8.0370
    -7.9147  -7.8197  -7.8160  -7.7897  -7.7736  -7.7192  -7.6535  -7.5258
    -3.3803  -3.3567  -3.3115  -3.3021  -3.2957  -3.2526  -3.2141  -3.1685
    -3.1668  -3.1253  -3.1049  -3.0841  -3.0542  -3.0316  -3.0192  -2.9440
    -2.9266  -2.9138  -2.8870  -2.8321  -2.8073  -2.7386  -2.6795  -2.6299
     2.9410   3.0631   3.1392   3.1841   3.4385   3.4656   3.4837   3.5539
     3.6019   3.6686   3.6913   3.7554   3.8271   3.9565   4.0406   4.1131
     4.2054   4.2492   4.3583   4.4461   4.4847   4.5579   4.6275   4.6895
     4.7700   4.8268   4.9419   5.0685   5.1490   5.1848   5.2784   5.3198
     5.3607   5.3926   5.4253   5.5061   5.5738   5.6139   5.6644   5.7520
     5.8668   5.9437   6.0013   6.0604   6.0857   6.1390   6.2615   6.3793
     6.4515   6.5187   6.5988   6.6459   6.7315   6.7816   6.8405   6.8949
     6.9582   6.9902   7.0539   7.0832   7.1107   7.1467   7.1862   7.2278
     7.3006   7.3270   7.3836   7.6102   7.6589   7.7278   7.9562   7.9984
    10.5126  10.7031  10.8387  10.9567  11.2979  11.7305  11.7968  11.9116
    11.9395  11.9792  12.0420  12.1781  12.2279  12.3614  12.4847  12.5406
    12.6578  12.6674  12.8025  12.8775  12.9730  13.0650  13.1783  13.2771
    14.0352  14.1156  14.2210  14.5955  14.7054  14.8746  15.0640  15.1553

          k =-0.2500 0.2500-0.2500 ( 28324 PWs)   bands (ev):

   -47.1642 -46.8770 -46.7912 -46.7174 -46.7021 -46.5556 -46.3332 -46.2869
   -23.8462 -23.5122 -23.4745 -23.2451 -23.2248 -23.1958 -23.1069 -23.0331
   -22.9974 -22.9932 -22.9813 -22.9316 -22.8620 -22.8558 -22.8261 -22.8203
   -22.8097 -22.7907 -22.7588 -22.7484 -22.5707 -22.5497 -22.5381 -22.4892
   -19.7514 -19.6850 -19.6106 -19.5376 -19.5256 -19.3415 -19.3307 -19.1206
    -9.2916  -9.1352  -9.0282  -8.7999  -8.7270  -8.6371  -8.5753  -8.5087
    -8.4699  -8.3833  -8.3616  -8.2568  -8.2305  -8.2127  -8.1051  -8.0425
    -7.9097  -7.8245  -7.8074  -7.7994  -7.7697  -7.7157  -7.6540  -7.5267
    -3.3945  -3.3623  -3.3063  -3.2935  -3.2701  -3.2475  -3.2170  -3.1840
    -3.1730  -3.1216  -3.1060  -3.0869  -3.0517  -3.0295  -3.0227  -2.9479
    -2.9339  -2.9093  -2.8944  -2.8241  -2.8068  -2.7301  -2.6834  -2.6297
     2.9127   3.0924   3.1448   3.2043   3.4086   3.4688   3.5009   3.5746
     3.6207   3.6563   3.6900   3.7576   3.8452   3.9282   3.9871   4.0359
     4.1844   4.2891   4.3359   4.4422   4.4807   4.5469   4.6446   4.7368
     4.8232   4.8569   4.9107   5.0855   5.1586   5.2011   5.2765   5.3050
     5.3841   5.4088   5.4588   5.5063   5.5647   5.6426   5.6844   5.7205
     5.8042   5.9117   5.9982   6.0678   6.0953   6.1381   6.1978   6.3656
     6.4650   6.5401   6.5954   6.6854   6.7389   6.8338   6.8707   6.9170
     6.9623   6.9751   7.0288   7.0659   7.0912   7.1119   7.1464   7.2317
     7.2729   7.3340   7.3917   7.5733   7.6662   7.7523   7.9570   8.0037
    10.5116  10.7587  10.8805  11.0513  11.1493  11.7197  11.8217  11.8878
    11.9409  11.9874  12.0053  12.1463  12.2508  12.4387  12.4856  12.5544
    12.6037  12.6626  12.8038  12.8918  12.9720  13.0659  13.1466  13.2794
    14.0300  14.0934  14.2161  14.6254  14.6890  14.8997  15.0962  15.1549

          k = 0.2500-0.2500-0.2500 ( 28324 PWs)   bands (ev):

   -47.1642 -46.8770 -46.7912 -46.7174 -46.7021 -46.5556 -46.3332 -46.2868
   -23.8462 -23.5122 -23.4745 -23.2451 -23.2248 -23.1958 -23.1068 -23.0334
   -22.9974 -22.9932 -22.9811 -22.9316 -22.8620 -22.8558 -22.8261 -22.8203
   -22.8097 -22.7907 -22.7588 -22.7484 -22.5707 -22.5497 -22.5381 -22.4892
   -19.7514 -19.6850 -19.6106 -19.5376 -19.5256 -19.3416 -19.3307 -19.1206
    -9.2968  -9.1242  -9.0227  -8.8296  -8.7176  -8.6440  -8.5601  -8.4962
    -8.4643  -8.3996  -8.3727  -8.2468  -8.2262  -8.2139  -8.1090  -8.0392
    -7.8962  -7.8433  -7.8176  -7.7919  -7.7706  -7.7133  -7.6496  -7.5270
    -3.3933  -3.3414  -3.3085  -3.3027  -3.2892  -3.2536  -3.2079  -3.1883
    -3.1763  -3.1257  -3.1033  -3.0909  -3.0396  -3.0292  -3.0136  -2.9610
    -2.9276  -2.9068  -2.8727  -2.8339  -2.8144  -2.7322  -2.6797  -2.6344
     2.9240   3.0124   3.2005   3.2620   3.4265   3.4403   3.5005   3.5664
     3.6049   3.6641   3.7071   3.7312   3.7933   3.9021   4.0271   4.0890
     4.1860   4.2549   4.3787   4.4147   4.4926   4.5537   4.5889   4.6981
     4.7711   4.9193   4.9556   5.0608   5.1545   5.2590   5.2809   5.3249
     5.3765   5.4089   5.4492   5.4991   5.5450   5.5963   5.7160   5.7687
     5.8204   5.8888   5.9817   6.0381   6.1112   6.2072   6.2606   6.3463
     6.4621   6.4999   6.5695   6.6205   6.7342   6.7972   6.8850   6.9113
     6.9343   7.0070   7.0173   7.0688   7.0914   7.1276   7.1833   7.2197
     7.3069   7.3609   7.3861   7.5522   7.6663   7.7389   7.9655   7.9999
    10.4805  10.7575  10.8289  11.0498  11.2944  11.7341  11.8196  11.8616
    11.9129  11.9944  12.0329  12.1808  12.2306  12.3450  12.4766  12.5757
    12.5980  12.6722  12.8172  12.8803  12.9640  13.0567  13.1484  13.2993
    14.0451  14.0843  14.1980  14.5928  14.7115  14.9448  15.0235  15.1381

          k =-0.2500 0.2500 0.5000 ( 28314 PWs)   bands (ev):

   -47.1642 -46.8770 -46.7912 -46.7175 -46.7021 -46.5556 -46.3332 -46.2868
   -23.8454 -23.5109 -23.4745 -23.2451 -23.2228 -23.1938 -23.1062 -23.0184
   -22.9985 -22.9972 -22.9932 -22.9246 -22.8655 -22.8567 -22.8260 -22.8203
   -22.8105 -22.7910 -22.7589 -22.7558 -22.5706 -22.5499 -22.5386 -22.4893
   -19.7513 -19.6849 -19.6106 -19.5376 -19.5256 -19.3416 -19.3308 -19.1206
    -9.2368  -9.0841  -8.9819  -8.7783  -8.6853  -8.6265  -8.5732  -8.5119
    -8.4489  -8.4217  -8.3136  -8.2838  -8.2243  -8.1482  -8.1034  -8.0691
    -8.0301  -7.8930  -7.8350  -7.8133  -7.7990  -7.7428  -7.7164  -7.5273
    -3.3861  -3.3487  -3.3072  -3.3009  -3.2748  -3.2511  -3.2170  -3.1839
    -3.1753  -3.1254  -3.1071  -3.0914  -3.0469  -3.0287  -3.0184  -2.9567
    -2.9374  -2.9055  -2.8890  -2.8253  -2.8096  -2.7310  -2.6820  -2.6321
     2.9989   3.0704   3.2387   3.3859   3.4889   3.5138   3.5493   3.6154
     3.6963   3.7184   3.7681   3.8932   3.9543   4.0463   4.1182   4.1699
     4.2631   4.3458   4.3989   4.4233   4.5088   4.5355   4.6032   4.7048
     4.7536   4.7808   4.8817   4.9684   5.0301   5.0664   5.1343   5.2003
     5.2769   5.3096   5.3682   5.4023   5.4818   5.5080   5.5728   5.6628
     5.7857   5.8163   5.9408   6.0203   6.1181   6.1574   6.2157   6.2768
     6.3701   6.5082   6.5966   6.6643   6.7595   6.8294   6.8827   6.9267
     6.9587   6.9962   7.0382   7.0980   7.1558   7.1819   7.2056   7.2983
     7.3398   7.4211   7.4650   7.5395   7.6099   7.6795   7.7307   7.9999
    10.7368  10.9430  11.0482  11.2003  11.3134  11.3810  11.7322  11.7660
    11.9192  11.9355  11.9927  12.0790  12.1853  12.2433  12.3713  12.4466
    12.5694  12.6646  12.7563  12.7967  12.9128  12.9967  13.0207  13.1861
    14.1622  14.2085  14.4704  14.7717  14.9549  15.0837  15.2523  15.3259

          k =-0.5000-0.2500 0.2500 ( 28314 PWs)   bands (ev):

   -47.1642 -46.8770 -46.7912 -46.7174 -46.7021 -46.5556 -46.3332 -46.2868
   -23.8462 -23.5122 -23.4730 -23.2439 -23.2248 -23.1958 -23.1071 -23.0330
   -22.9970 -22.9881 -22.9811 -22.9316 -22.8613 -22.8530 -22.8269 -22.8203
   -22.8099 -22.7909 -22.7647 -22.7485 -22.5726 -22.5532 -22.5387 -22.4898
   -19.7513 -19.6848 -19.6104 -19.5378 -19.5258 -19.3414 -19.3308 -19.1207
    -9.2634  -9.1265  -8.9556  -8.8300  -8.7100  -8.5632  -8.5433  -8.5117
    -8.4304  -8.3662  -8.3289  -8.2758  -8.2267  -8.1569  -8.0960  -8.0624
    -8.0097  -7.9308  -7.8694  -7.8121  -7.7752  -7.7271  -7.6630  -7.6081
    -3.3821  -3.3484  -3.3081  -3.3001  -3.2798  -3.2502  -3.2158  -3.1797
    -3.1672  -3.1339  -3.1112  -3.0818  -3.0570  -3.0345  -3.0243  -2.9447
    -2.9293  -2.9094  -2.8923  -2.8278  -2.8053  -2.7352  -2.6821  -2.6312
     2.9388   3.0814   3.1584   3.3598   3.4581   3.4787   3.5816   3.6469
     3.6795   3.7436   3.7831   3.7919   3.9386   4.0413   4.1148   4.2240
     4.3159   4.3431   4.4343   4.4680   4.5291   4.5773   4.6487   4.7171
     4.7785   4.8501   4.9211   4.9774   5.0074   5.0886   5.1563   5.2148
     5.2702   5.3151   5.3491   5.3968   5.4316   5.4931   5.5679   5.6245
     5.7266   5.7628   5.9699   6.0182   6.0770   6.1411   6.2076   6.2278
     6.4016   6.5326   6.5759   6.7021   6.7518   6.8305   6.9212   6.9607
     6.9977   7.0315   7.0728   7.1013   7.1148   7.1699   7.1977   7.2294
     7.3052   7.3595   7.5257   7.5589   7.5746   7.7108   7.7991   7.9705
    10.5143  10.9763  11.1328  11.2673  11.3418  11.4365  11.6626  11.7342
    11.8277  11.8982  11.9851  12.1733  12.2339  12.2980  12.3864  12.4414
    12.5495  12.6013  12.6697  12.8193  12.9228  12.9507  13.0658  13.2769
    14.0435  14.4709  14.7028  14.7741  14.8273  15.0238  15.2198  15.3789

          k = 0.5000-0.2500-0.2500 ( 28314 PWs)   bands (ev):

   -47.1642 -46.8770 -46.7912 -46.7174 -46.7021 -46.5556 -46.3332 -46.2868
   -23.8462 -23.5122 -23.4730 -23.2439 -23.2248 -23.1958 -23.1070 -23.0333
   -22.9969 -22.9881 -22.9809 -22.9316 -22.8613 -22.8530 -22.8269 -22.8203
   -22.8099 -22.7909 -22.7647 -22.7485 -22.5726 -22.5532 -22.5387 -22.4898
   -19.7513 -19.6848 -19.6104 -19.5378 -19.5258 -19.3414 -19.3308 -19.1207
    -9.2660  -9.1143  -8.9582  -8.8538  -8.7079  -8.5637  -8.5237  -8.4923
    -8.4411  -8.3667  -8.3451  -8.2657  -8.2352  -8.1535  -8.0974  -8.0659
    -8.0059  -7.9168  -7.8836  -7.8122  -7.7839  -7.7232  -7.6549  -7.6114
    -3.3841  -3.3495  -3.3085  -3.2943  -3.2782  -3.2475  -3.2081  -3.1950
    -3.1667  -3.1407  -3.1135  -3.0943  -3.0366  -3.0353  -3.0221  -2.9617
    -2.9205  -2.9026  -2.8744  -2.8356  -2.8132  -2.7326  -2.6823  -2.6341
     2.9192   3.0209   3.2378   3.3879   3.4650   3.5237   3.5845   3.6077
     3.6704   3.7124   3.7846   3.8384   3.9566   4.0013   4.1213   4.2070
     4.2981   4.3180   4.4220   4.4668   4.4932   4.5911   4.6578   4.7409
     4.7656   4.8107   4.9373   4.9979   5.0447   5.1060   5.1789   5.2184
     5.2706   5.2752   5.3534   5.3799   5.4544   5.4937   5.5780   5.6299
     5.7141   5.7929   5.9056   6.0153   6.0877   6.1323   6.2072   6.3074
     6.3796   6.4872   6.5695   6.6759   6.7661   6.8195   6.9348   6.9452
     7.0081   7.0255   7.0714   7.0981   7.1188   7.1627   7.2143   7.2570
     7.3170   7.3663   7.5105   7.5569   7.5702   7.7209   7.7983   7.9775
    10.4854  10.9753  11.1182  11.2699  11.3525  11.4530  11.6518  11.7368
    11.8420  11.8973  12.0108  12.1882  12.2390  12.2666  12.3958  12.4261
    12.5320  12.5962  12.6734  12.7857  12.9121  12.9914  13.0584  13.2997
    14.0497  14.4606  14.6852  14.7653  14.8229  15.0688  15.1926  15.3716

          k =-0.2500-0.5000 0.2500 ( 28314 PWs)   bands (ev):

   -47.1642 -46.8770 -46.7912 -46.7174 -46.7021 -46.5556 -46.3332 -46.2869
   -23.8462 -23.5113 -23.4745 -23.2451 -23.2236 -23.1939 -23.1015 -23.0387
   -22.9944 -22.9883 -22.9822 -22.9308 -22.8622 -22.8557 -22.8295 -22.8260
   -22.8063 -22.7941 -22.7587 -22.7485 -22.5708 -22.5507 -22.5384 -22.4922
   -19.7511 -19.6852 -19.6106 -19.5375 -19.5256 -19.3416 -19.3309 -19.1206
    -9.2515  -9.1165  -9.0140  -8.7396  -8.6972  -8.6456  -8.5881  -8.5154
    -8.3856  -8.3730  -8.2528  -8.2091  -8.1608  -8.1070  -8.0983  -8.0709
    -8.0478  -8.0375  -7.9081  -7.8571  -7.8098  -7.7844  -7.6599  -7.5264
    -3.3715  -3.3403  -3.3236  -3.2924  -3.2833  -3.2710  -3.2199  -3.1791
    -3.1688  -3.1286  -3.1046  -3.0859  -3.0405  -3.0300  -3.0218  -2.9584
    -2.9318  -2.9074  -2.8844  -2.8282  -2.8105  -2.7359  -2.6794  -2.6327
     3.0029   3.0422   3.1652   3.4206   3.4633   3.5279   3.5992   3.6469
     3.6851   3.7591   3.7996   3.9067   4.0450   4.0954   4.1621   4.2188
     4.3395   4.4506   4.5111   4.5344   4.5699   4.6380   4.6545   4.6686
     4.7509   4.7960   4.8606   4.8913   4.9279   4.9942   5.0030   5.0597
     5.1608   5.2395   5.3029   5.3796   5.4614   5.5102   5.5521   5.5736
     5.7061   5.7461   5.9280   6.0551   6.0836   6.1335   6.2087   6.2656
     6.3239   6.4119   6.5361   6.6188   6.7647   6.8074   6.8743   6.9572
     6.9985   7.0403   7.0643   7.0915   7.1270   7.1801   7.2185   7.2612
     7.3089   7.5234   7.5897   7.6254   7.6564   7.7288   7.7510   7.8094
    10.8135  11.0956  11.1649  11.1789  11.2200  11.3643  11.6012  11.8636
    12.0047  12.0990  12.1513  12.2026  12.2392  12.2627  12.3493  12.3981
    12.4678  12.5510  12.6179  12.7028  12.9215  12.9564  13.1571  13.2059
    14.1198  14.4575  14.5228  14.8140  14.9300  15.1058  15.2612  15.5667

          k =-0.2500 0.5000-0.2500 ( 28314 PWs)   bands (ev):

   -47.1642 -46.8770 -46.7912 -46.7174 -46.7021 -46.5556 -46.3332 -46.2869
   -23.8462 -23.5113 -23.4745 -23.2451 -23.2236 -23.1939 -23.1015 -23.0387
   -22.9944 -22.9883 -22.9823 -22.9308 -22.8621 -22.8557 -22.8295 -22.8260
   -22.8063 -22.7941 -22.7587 -22.7485 -22.5708 -22.5507 -22.5384 -22.4922
   -19.7511 -19.6852 -19.6106 -19.5375 -19.5256 -19.3416 -19.3309 -19.1206
    -9.2464  -9.1188  -9.0232  -8.7453  -8.6831  -8.6436  -8.5884  -8.5167
    -8.3905  -8.3529  -8.2743  -8.2145  -8.1486  -8.1164  -8.0920  -8.0719
    -8.0533  -8.0350  -7.9029  -7.8571  -7.8063  -7.7889  -7.6596  -7.5267
    -3.3771  -3.3519  -3.3263  -3.2831  -3.2723  -3.2548  -3.2227  -3.1794
    -3.1720  -3.1263  -3.1093  -3.0882  -3.0462  -3.0330  -3.0224  -2.9572
    -2.9329  -2.9030  -2.8911  -2.8239  -2.8116  -2.7309  -2.6837  -2.6308
     2.9543   3.0541   3.1924   3.4046   3.4821   3.5466   3.6025   3.6874
     3.7441   3.7582   3.7762   3.8566   4.0195   4.0608   4.1813   4.2548
     4.2810   4.4316   4.5015   4.5057   4.5996   4.6255   4.6753   4.7309
     4.7694   4.8216   4.8424   4.8873   4.9218   4.9805   5.0136   5.0512
     5.1693   5.2356   5.2718   5.3436   5.4906   5.5214   5.5578   5.5811
     5.6663   5.7539   5.9248   6.0456   6.0667   6.1557   6.2030   6.2667
     6.2938   6.4296   6.5173   6.6716   6.7700   6.8133   6.9115   6.9551
     6.9942   7.0122   7.0630   7.0815   7.1395   7.1759   7.2028   7.2687
     7.3005   7.5239   7.5794   7.6369   7.6731   7.7162   7.7695   7.8112
    10.8756  11.0537  11.1277  11.1624  11.2229  11.3078  11.5944  11.9427
    11.9855  12.0909  12.1591  12.1907  12.2442  12.2780  12.3419  12.4026
    12.5170  12.5643  12.6111  12.6444  12.9219  12.9907  13.1455  13.2136
    14.0864  14.4893  14.5613  14.7818  14.9194  15.0818  15.2821  15.5506

          k =-0.5000 0.2500 0.5000 ( 28280 PWs)   bands (ev):

   -47.1642 -46.8770 -46.7912 -46.7174 -46.7021 -46.5556 -46.3332 -46.2868
   -23.8455 -23.5109 -23.4730 -23.2438 -23.2228 -23.1938 -23.1064 -23.0182
   -22.9984 -22.9967 -22.9881 -22.9246 -22.8653 -22.8535 -22.8268 -22.8203
   -22.8106 -22.7912 -22.7647 -22.7559 -22.5725 -22.5533 -22.5392 -22.4899
   -19.7512 -19.6848 -19.6103 -19.5378 -19.5257 -19.3415 -19.3308 -19.1207
    -9.1957  -9.0741  -8.9395  -8.7860  -8.6093  -8.5977  -8.5681  -8.4723
    -8.4280  -8.4016  -8.3279  -8.2772  -8.2009  -8.1218  -8.1025  -8.0694
    -8.0372  -8.0068  -7.9033  -7.8857  -7.8251  -7.7465  -7.7249  -7.6160
    -3.3813  -3.3509  -3.3094  -3.2991  -3.2730  -3.2522  -3.2159  -3.1871
    -3.1651  -3.1387  -3.1193  -3.0908  -3.0492  -3.0326  -3.0261  -2.9562
    -2.9306  -2.9003  -2.8819  -2.8216  -2.8096  -2.7315  -2.6805  -2.6314
     3.0101   3.1188   3.3555   3.4677   3.5110   3.5554   3.6428   3.6572
     3.7921   3.8547   3.8965   3.9786   4.0405   4.0759   4.2147   4.2574
     4.3368   4.3834   4.4170   4.4497   4.5146   4.5948   4.6694   4.7056
     4.7498   4.8061   4.8485   4.9346   4.9521   5.0242   5.0577   5.1089
     5.1527   5.2000   5.2712   5.3638   5.4030   5.4352   5.4728   5.5156
     5.5970   5.6629   5.8113   5.8715   6.0018   6.0805   6.2001   6.2379
     6.3455   6.4167   6.6143   6.6633   6.7981   6.8380   6.9354   6.9938
     7.0227   7.0538   7.0988   7.1359   7.1605   7.2075   7.2453   7.2616
     7.4142   7.4363   7.4972   7.5141   7.6322   7.6965   7.7347   7.8236
    10.9134  11.0947  11.2389  11.2861  11.3391  11.4326  11.4683  11.6906
    11.7756  11.8979  11.9548  12.0357  12.1584  12.2939  12.3591  12.3885
    12.4222  12.5031  12.5471  12.6788  12.7346  12.9081  13.0229  13.1561
    14.4380  14.5413  14.7573  14.8161  15.2959  15.4467  15.4964  15.6837

          k =-0.5000 0.5000 0.2500 ( 28280 PWs)   bands (ev):

   -47.1642 -46.8770 -46.7912 -46.7174 -46.7021 -46.5556 -46.3332 -46.2868
   -23.8462 -23.5113 -23.4730 -23.2438 -23.2236 -23.1939 -23.1017 -23.0385
   -22.9902 -22.9869 -22.9820 -22.9308 -22.8614 -22.8530 -22.8294 -22.8268
   -22.8065 -22.7943 -22.7645 -22.7486 -22.5727 -22.5540 -22.5390 -22.4930
   -19.7510 -19.6851 -19.6103 -19.5377 -19.5257 -19.3415 -19.3309 -19.1207
    -9.2218  -9.1059  -8.9470  -8.7728  -8.6620  -8.6324  -8.5092  -8.4510
    -8.3974  -8.3246  -8.2391  -8.1914  -8.1697  -8.1433  -8.1112  -8.0733
    -8.0492  -8.0258  -7.9812  -7.9131  -7.8885  -7.8371  -7.6674  -7.6117
    -3.3738  -3.3449  -3.3248  -3.2916  -3.2738  -3.2596  -3.2204  -3.1814
    -3.1684  -3.1414  -3.1155  -3.0891  -3.0447  -3.0323  -3.0255  -2.9560
    -2.9281  -2.8997  -2.8850  -2.8224  -2.8087  -2.7323  -2.6810  -2.6321
     2.9977   3.0531   3.3508   3.4507   3.5154   3.5824   3.6640   3.7089
     3.7682   3.8649   4.0076   4.1026   4.1738   4.1864   4.2305   4.3048
     4.3469   4.4349   4.4692   4.5175   4.5558   4.5883   4.6442   4.6965
     4.7560   4.8089   4.8662   4.8875   4.9023   4.9546   4.9981   5.1189
     5.1505   5.1880   5.2254   5.2789   5.3268   5.3680   5.4438   5.4650
     5.5646   5.5874   5.7000   5.7386   5.9619   6.0554   6.1407   6.2180
     6.2796   6.3893   6.5345   6.6983   6.7501   6.8985   6.9665   6.9952
     7.0095   7.0683   7.0884   7.1286   7.1761   7.2066   7.2412   7.3888
     7.4138   7.4847   7.5299   7.5587   7.6079   7.7126   7.7442   7.7926
    10.9805  11.0968  11.2059  11.3071  11.4141  11.4933  11.6921  11.7830
    11.8485  11.8628  12.0620  12.0985  12.1698  12.2068  12.2351  12.3006
    12.3861  12.4604  12.5597  12.5827  12.8337  12.8729  13.0949  13.1160
    14.4578  14.7132  14.7459  15.1356  15.3299  15.5262  15.5804  15.7251

     the Fermi energy is     9.4372 ev

!    total energy              =   -4581.77635651 Ry
     total all-electron energy =    -74369.667279 Ry
     estimated scf accuracy    <          1.3E-09 Ry
     smearing contrib. (-TS)   =      -0.00000000 Ry
     internal energy E=F+TS    =   -4581.77635651 Ry

     The total energy is F=E-TS. E is the sum of the following terms:
     one-electron contribution =    -612.13170754 Ry
     hartree contribution      =     486.56027219 Ry
     xc contribution           =    -501.08469922 Ry
     ewald contribution        =   -1615.41381996 Ry
     one-center paw contrib.   =   -2339.70640199 Ry

     convergence has been achieved in  15 iterations

     Forces acting on atoms (cartesian axes, Ry/au):

     atom    1 type  1   force =     0.00257824   -0.02007762   -0.01216665
     atom    2 type  1   force =     0.01727686   -0.01774664   -0.00393208
     atom    3 type  1   force =     0.01842066   -0.03852962   -0.01645511
     atom    4 type  1   force =    -0.01413648    0.03645606   -0.00834417
     atom    5 type  1   force =     0.01836707    0.01555700    0.00171680
     atom    6 type  1   force =    -0.01696848    0.02298203    0.00258192
     atom    7 type  1   force =     0.01390137    0.01811765    0.03775875
     atom    8 type  1   force =    -0.01493483    0.00951963    0.01743310
     atom    9 type  2   force =     0.05139599   -0.00472692    0.18673796
     atom   10 type  2   force =    -0.02338504    0.00079843   -0.00358665
     atom   11 type  2   force =    -0.05667409    0.02971622   -0.36951833
     atom   12 type  2   force =     0.05463247   -0.02964017    0.02090608
     atom   13 type  2   force =     0.01109575   -0.21484064    0.27162423
     atom   14 type  2   force =    -0.02561006    0.01639480    0.00943433
     atom   15 type  2   force =     0.10365250   -0.23545678   -0.11056106
     atom   16 type  2   force =     0.24709489    0.00153468    0.00858930
     atom   17 type  3   force =    -0.03851387   -0.00228500   -0.02291329
     atom   18 type  3   force =     0.01992541    0.00579395   -0.00365364
     atom   19 type  3   force =     0.01730533   -0.00172559    0.02846415
     atom   20 type  3   force =    -0.01680535    0.01862733    0.00233925
     atom   21 type  3   force =     0.00588026    0.00921574   -0.01590532
     atom   22 type  3   force =     0.01659586    0.00262111   -0.05484675
     atom   23 type  3   force =    -0.08743168    0.00499635   -0.00451464
     atom   24 type  3   force =    -0.20414239    0.02370588   -0.01089642
     atom   25 type  3   force =     0.00551452    0.02952659    0.01323664
     atom   26 type  3   force =     0.00811614    0.01098928   -0.00475277
     atom   27 type  3   force =     0.00628449   -0.02770167    0.00135681
     atom   28 type  3   force =    -0.02380249    0.00011281   -0.01820710
     atom   29 type  3   force =    -0.01833966    0.19169831   -0.01650545
     atom   30 type  3   force =     0.00236495   -0.02368703   -0.00095384
     atom   31 type  3   force =     0.00972161    0.19460715   -0.02142289
     atom   32 type  3   force =    -0.01155112    0.03965750    0.00591395
     atom   33 type  3   force =     0.00366220   -0.01068957   -0.19181195
     atom   34 type  3   force =    -0.02396587   -0.03518593    0.01817018
     atom   35 type  3   force =    -0.01223471   -0.01407064    0.32456387
     atom   36 type  3   force =    -0.03614219   -0.03529608    0.01216781
     atom   37 type  3   force =    -0.00777848   -0.01277728   -0.12662799
     atom   38 type  3   force =     0.01528878    0.00291496   -0.06659134
     atom   39 type  3   force =    -0.00390769    0.02914025    0.09711684
     atom   40 type  3   force =    -0.01275089    0.00975345    0.02405544

     Total force =     0.878073     Total SCF correction =     0.000093
     Message from routine punch:
     Nothing written, as per user request (disk_io='none')

     init_run     :     72.80s CPU     76.19s WALL (       1 calls)
     electrons    :   2900.68s CPU   3056.30s WALL (       1 calls)
     forces       :     44.52s CPU     45.67s WALL (       1 calls)

     Called by init_run:
     wfcinit      :     62.36s CPU     64.91s WALL (       1 calls)
     potinit      :      5.27s CPU      5.49s WALL (       1 calls)
     hinit0       :      1.53s CPU      1.62s WALL (       1 calls)

     Called by electrons:
     c_bands      :   2508.11s CPU   2624.31s WALL (      15 calls)
     sum_band     :    296.15s CPU    317.86s WALL (      15 calls)
     v_of_rho     :     26.34s CPU     28.78s WALL (      16 calls)
     newd         :     36.05s CPU     51.67s WALL (      16 calls)
     PAW_pot      :     33.04s CPU     33.05s WALL (      16 calls)
     mix_rho      :      3.58s CPU      3.69s WALL (      15 calls)

     Called by c_bands:
     init_us_2    :     75.64s CPU     75.78s WALL (     288 calls)
     cegterg      :   2135.67s CPU   2251.66s WALL (     135 calls)

     Called by *egterg:
     cdiaghg      :     56.21s CPU     56.24s WALL (     827 calls)
     h_psi        :   1036.40s CPU   1100.97s WALL (     836 calls)
     s_psi        :    195.93s CPU    195.98s WALL (     836 calls)
     g_psi        :      8.75s CPU      8.76s WALL (     692 calls)

     Called by h_psi:
     h_psi:calbec :    238.86s CPU    239.76s WALL (     836 calls)
     vloc_psi     :    574.90s CPU    616.55s WALL (     836 calls)
                                        0.00s GPU  (     836 calls)
     add_vuspsi   :    209.77s CPU    209.81s WALL (     836 calls)

     General routines
     calbec       :    328.90s CPU    330.29s WALL (    1007 calls)
     fft          :     30.71s CPU     32.66s WALL (     217 calls)
     ffts         :      1.05s CPU      1.12s WALL (      31 calls)
     fftw         :    540.46s CPU    588.88s WALL (  157722 calls)
     interpolate  :      3.06s CPU      3.24s WALL (      16 calls)

     Parallel routines

     PWSCF        :  50m19.80s CPU  53m 0.15s WALL


   This run was terminated on:  12:56:54   4Oct2026            

=------------------------------------------------------------------------------=
   JOB DONE.
=------------------------------------------------------------------------------=
