
     Program PWSCF v.7.5 starts on  4Oct2026 at 21:46:46 

     This program is part of the open-source Quantum ESPRESSO suite
     for quantum simulation of materials; please cite
         "P. Giannozzi et al., J. Phys.:Condens. Matter 21 395502 (2009);
         "P. Giannozzi et al., J. Phys.:Condens. Matter 29 465901 (2017);
         "P. Giannozzi et al., J. Chem. Phys. 152 154105 (2020);
          URL http://www.quantum-espresso.org", 
     in publications or presentations arising from this work. More details at
     http://www.quantum-espresso.org/quote

     Parallel version (MPI & OpenMP), running on       8 processor cores
     Number of MPI processes:                 8
     Threads/MPI process:                     1

     MPI processes distributed on     1 nodes
     80438 MiB available memory on the printing compute node when the environment starts

     Reading input from pw.in

     Current dimensions of program PWSCF are:
     Max number of different atomic species (ntypx) = 10
     Max number of k-points (npk) =  40000
     Max angular momentum in pseudopotentials (lmaxx) =  4
     Message from routine setup:
     using ibrav=0 with symmetry is DISCOURAGED, use correct ibrav instead

     K-points division:     npool     =       8
     Subspace diagonalization in iterative solution of the eigenvalue problem:
     a serial algorithm will be used


     G-vector sticks info
     --------------------
     sticks:   dense  smooth     PW     G-vecs:    dense   smooth      PW
     Sum        9555    4781   1301               496805   175711   25001

     Using Slab Decomposition



     bravais-lattice index     =            0
     lattice parameter (alat)  =      11.1882  a.u.
     unit-cell volume          =    2800.9888 (a.u.)^3
     number of atoms/cell      =           10
     number of atomic types    =            3
     number of electrons       =        88.00
     number of Kohn-Sham states=           53
     kinetic-energy cutoff     =      60.0000  Ry
     charge density cutoff     =     480.0000  Ry
     scf convergence threshold =      1.0E-09
     mixing beta               =       0.4000
     number of iterations used =            8  plain     mixing
     Exchange-correlation=  SLA  PW   PBX  PBC
                           (   1   4   3   4   0   0   0)

     celldm(1)=  11.188210  celldm(2)=   0.000000  celldm(3)=   0.000000
     celldm(4)=   0.000000  celldm(5)=   0.000000  celldm(6)=   0.000000

     crystal axes: (cart. coord. in units of alat)
               a(1) = (   1.000000  -0.000000  -0.000000 )  
               a(2) = (  -0.000000   2.000001   0.000000 )  
               a(3) = (  -0.000000   0.000000   0.999999 )  

     reciprocal axes: (cart. coord. in units 2 pi/alat)
               b(1) = (  1.000000  0.000000  0.000000 )  
               b(2) = (  0.000000  0.500000 -0.000000 )  
               b(3) = (  0.000000 -0.000000  1.000001 )  


     PseudoPot. # 1 for Cs read from file:
     /root/sssp/Cs_pbe_v1.uspp.F.UPF
     MD5 check sum: 3476d69cb178dfad3ffaa59df4e07ca4
     Pseudo is Ultrasoft + core correction, Zval =  9.0
     Generated by new atomic code, or converted to UPF format
     Using radial grid of  905 points,  6 beta functions with: 
                l(1) =   0
                l(2) =   0
                l(3) =   1
                l(4) =   1
                l(5) =   2
                l(6) =   2
     Q(r) pseudized with  6 coefficients,  rinner =    1.500   1.500   1.500
                                                       1.500   1.500

     PseudoPot. # 2 for Sn read from file:
     /root/sssp/Sn_pbe_v1.uspp.F.UPF
     MD5 check sum: 4cf58ce39ec5d5d420df3dd08604eb00
     Pseudo is Ultrasoft + core correction, Zval = 14.0
     Generated by new atomic code, or converted to UPF format
     Using radial grid of  891 points,  6 beta functions with: 
                l(1) =   0
                l(2) =   0
                l(3) =   1
                l(4) =   1
                l(5) =   2
                l(6) =   2
     Q(r) pseudized with  6 coefficients,  rinner =    1.200   1.200   1.200
                                                       1.200   1.200

     PseudoPot. # 3 for Br read from file:
     /root/sssp/br_pbe_v1.4.uspp.F.UPF
     MD5 check sum: d3ffb7b29f6225aa16fe06858fb2a80b
     Pseudo is Ultrasoft + core correction, Zval =  7.0
     Generated by new atomic code, or converted to UPF format
     Using radial grid of  879 points,  6 beta functions with: 
                l(1) =   0
                l(2) =   0
                l(3) =   1
                l(4) =   1
                l(5) =   2
                l(6) =   2
     Q(r) pseudized with  8 coefficients,  rinner =    1.100   1.100   1.100
                                                       1.100   1.100

     atomic species   valence    mass     pseudopotential
     Cs                9.00   132.90550     Cs( 1.00)
     Sn               14.00   118.71000     Sn( 1.00)
     Br                7.00    79.90400     Br( 1.00)

      8 Sym. Ops., with inversion, found



   Cartesian axes

     site n.     atom                  positions (alat units)
         1        Cs     tau(   1) = (   0.0000000   1.0000005   0.0000000  )
         2        Cs     tau(   2) = (  -0.0000000   2.0000010   0.0000000  )
         3        Sn     tau(   3) = (   0.4999999   0.5000187   0.4999992  )
         4        Sn     tau(   4) = (   0.4999999   1.4999817   0.4999992  )
         5        Br     tau(   5) = (  -0.0000000   0.4766059   0.4999993  )
         6        Br     tau(   6) = (  -0.0000000   1.5233952   0.4999993  )
         7        Br     tau(   7) = (   0.5000000   0.0000003   0.4999992  )
         8        Br     tau(   8) = (   0.5000000   1.0000009   0.4999992  )
         9        Br     tau(   9) = (   0.4999999   0.5234591   0.9999985  )
        10        Br     tau(  10) = (   0.4999999   1.4765420   0.9999985  )

     number of k points=    18  Marzari-Vanderbilt smearing, width (Ry)=  0.0050
                       cart. coord. in units 2pi/alat
        k(    1) = (   0.0000000   0.0000000   0.0000000), wk =   0.0266667
        k(    2) = (   0.0000000  -0.0000000   0.2000003), wk =   0.0533333
        k(    3) = (   0.0000000  -0.0000000   0.4000006), wk =   0.0533333
        k(    4) = (   0.0000000   0.1666666  -0.0000000), wk =   0.0533333
        k(    5) = (   0.0000000   0.1666666   0.2000003), wk =   0.1066667
        k(    6) = (   0.0000000   0.1666666   0.4000006), wk =   0.1066667
        k(    7) = (   0.2000000   0.0000000   0.0000000), wk =   0.0533333
        k(    8) = (   0.2000000   0.0000000   0.2000003), wk =   0.1066667
        k(    9) = (   0.2000000   0.0000000   0.4000006), wk =   0.1066667
        k(   10) = (   0.2000000   0.1666666   0.0000000), wk =   0.1066667
        k(   11) = (   0.2000000   0.1666666   0.2000003), wk =   0.2133333
        k(   12) = (   0.2000000   0.1666666   0.4000006), wk =   0.2133333
        k(   13) = (   0.4000000   0.0000000   0.0000000), wk =   0.0533333
        k(   14) = (   0.4000000   0.0000000   0.2000003), wk =   0.1066667
        k(   15) = (   0.4000000   0.0000000   0.4000006), wk =   0.1066667
        k(   16) = (   0.4000000   0.1666666   0.0000000), wk =   0.1066667
        k(   17) = (   0.4000000   0.1666666   0.2000003), wk =   0.2133333
        k(   18) = (   0.4000000   0.1666666   0.4000006), wk =   0.2133333

     Dense  grid:   496805 G-vectors     FFT dimensions: (  80, 160,  80)

     Smooth grid:   175711 G-vectors     FFT dimensions: (  60, 120,  60)

     Estimated max dynamical RAM per process >     636.74 MB

     Estimated total dynamical RAM >       4.15 GB

     Initial potential from superposition of free atoms

     starting charge      85.9210, renormalised to      88.0000
     Starting wfcs are   68 randomized atomic wfcs

     total cpu time spent up to now is       25.7 secs

     per-process dynamical memory:   345.9 Mb

     Self-consistent Calculation

     iteration #  1     ecut=    60.00 Ry     beta= 0.40
     Davidson diagonalization with overlap
     ethr =  1.00E-02,  avg # of iterations =  2.9

     Threshold (ethr) on eigenvalues was too large:
     Diagonalizing with lowered threshold

     Davidson diagonalization with overlap
     ethr =  4.90E-04,  avg # of iterations =  3.1

     total cpu time spent up to now is      156.3 secs

     total energy              =    -734.55834074 Ry
     estimated scf accuracy    <       0.41422340 Ry

     iteration #  2     ecut=    60.00 Ry     beta= 0.40
     Davidson diagonalization with overlap
     ethr =  4.71E-04,  avg # of iterations =  2.0

     total cpu time spent up to now is      272.3 secs

     total energy              =    -734.60565206 Ry
     estimated scf accuracy    <       0.03806228 Ry

     iteration #  3     ecut=    60.00 Ry     beta= 0.40
     Davidson diagonalization with overlap
     ethr =  4.33E-05,  avg # of iterations = 10.4

     total cpu time spent up to now is      376.5 secs

     total energy              =    -734.60912072 Ry
     estimated scf accuracy    <       0.00585949 Ry

     iteration #  4     ecut=    60.00 Ry     beta= 0.40
     Davidson diagonalization with overlap
     ethr =  6.66E-06,  avg # of iterations =  8.2

     total cpu time spent up to now is      478.3 secs

     total energy              =    -734.60971442 Ry
     estimated scf accuracy    <       0.00049985 Ry

     iteration #  5     ecut=    60.00 Ry     beta= 0.40
     Davidson diagonalization with overlap
     ethr =  5.68E-07,  avg # of iterations =  3.5

     total cpu time spent up to now is      575.1 secs

     total energy              =    -734.60979026 Ry
     estimated scf accuracy    <       0.00001264 Ry

     iteration #  6     ecut=    60.00 Ry     beta= 0.40
     Davidson diagonalization with overlap
     ethr =  1.44E-08,  avg # of iterations =  5.8

     total cpu time spent up to now is      714.2 secs

     total energy              =    -734.60980395 Ry
     estimated scf accuracy    <       0.00000128 Ry

     iteration #  7     ecut=    60.00 Ry     beta= 0.40
     Davidson diagonalization with overlap
     ethr =  1.46E-09,  avg # of iterations =  3.6

     total cpu time spent up to now is      831.8 secs

     total energy              =    -734.60980655 Ry
     estimated scf accuracy    <       0.00000026 Ry

     iteration #  8     ecut=    60.00 Ry     beta= 0.40
     Davidson diagonalization with overlap
     ethr =  2.94E-10,  avg # of iterations =  2.2

     total cpu time spent up to now is      944.1 secs

     total energy              =    -734.60980732 Ry
     estimated scf accuracy    <       0.00000005 Ry

     iteration #  9     ecut=    60.00 Ry     beta= 0.40
     Davidson diagonalization with overlap
     ethr =  5.77E-11,  avg # of iterations =  2.3

     total cpu time spent up to now is     1035.3 secs

     total energy              =    -734.60980756 Ry
     estimated scf accuracy    <       0.00000001 Ry

     iteration # 10     ecut=    60.00 Ry     beta= 0.40
     Davidson diagonalization with overlap
     ethr =  1.29E-11,  avg # of iterations =  3.6

     total cpu time spent up to now is     1150.7 secs

     End of self-consistent calculation

          k = 0.0000 0.0000 0.0000 ( 21959 PWs)   bands (ev):

   -18.1235 -18.1203 -18.1203 -18.1189 -18.1073 -18.1064 -18.1044 -18.1044
   -18.1043 -18.1043 -18.1019 -18.1019 -11.3095 -11.1735 -11.0104 -10.8553
   -10.8513 -10.8455  -4.9010  -4.9008  -4.8962  -4.8879  -4.8811  -4.8809
    -3.1611  -2.1955  -0.8783  -0.8770  -0.8770  -0.7820  -0.7820   0.6266
     1.0792   1.0793   1.1283   1.2220   1.2513   1.2513   1.2549   1.2549
     1.3644   1.3756   1.3756   2.1318   5.5112   6.4092   7.4885   7.5338
     7.8721   8.0683   8.0686   8.3743   8.3746

          k = 0.0000-0.0000 0.2000 ( 21957 PWs)   bands (ev):

   -18.1232 -18.1196 -18.1190 -18.1181 -18.1072 -18.1070 -18.1044 -18.1043
   -18.1043 -18.1034 -18.1020 -18.1020 -11.2759 -11.1439 -11.0108 -10.8914
   -10.8860 -10.8463  -4.9019  -4.8975  -4.8952  -4.8921  -4.8838  -4.8779
    -3.4607  -2.6702  -0.8535  -0.8478  -0.7381  -0.1961  -0.1241   0.5221
     0.9532   1.0567   1.1444   1.1719   1.2043   1.2112   1.2599   1.3189
     1.3195   1.3357   1.4950   2.2693   5.3683   6.7706   7.2003   7.5886
     7.7708   7.8084   7.9836   8.1534   8.2526

          k = 0.0000-0.0000 0.4000 ( 21988 PWs)   bands (ev):

   -18.1230 -18.1194 -18.1167 -18.1158 -18.1079 -18.1065 -18.1044 -18.1044
   -18.1043 -18.1023 -18.1021 -18.1021 -11.1963 -11.0654 -11.0116 -10.9834
   -10.9665 -10.8454  -4.9087  -4.9056  -4.8918  -4.8868  -4.8830  -4.8729
    -3.8058  -3.0973  -0.8020  -0.7972  -0.6595   0.3611   0.5749   0.6850
     0.9614   1.0233   1.0326   1.0371   1.1044   1.1460   1.1648   1.2672
     1.2860   1.6493   1.8911   2.8094   5.1476   5.5033   5.8954   7.6109
     7.8429   8.2250   8.2827   8.3047   8.3386

          k = 0.0000 0.1667-0.0000 ( 21971 PWs)   bands (ev):

   -18.1223 -18.1203 -18.1203 -18.1201 -18.1071 -18.1066 -18.1044 -18.1044
   -18.1043 -18.1043 -18.1019 -18.1019 -11.2859 -11.2236 -10.9546 -10.8813
   -10.8508 -10.8494  -4.8999  -4.8997  -4.8940  -4.8899  -4.8823  -4.8820
    -3.0044  -2.5725  -0.8566  -0.8565  -0.8052  -0.8052  -0.2957   0.4549
     1.1253   1.1253   1.1420   1.1834   1.2088   1.2089   1.2795   1.2795
     1.3480   1.3480   1.3856   1.6791   6.3510   6.6657   7.3328   7.6712
     7.7785   7.9324   8.1193   8.1196   8.1207

          k = 0.0000 0.1667 0.2000 ( 21977 PWs)   bands (ev):

   -18.1221 -18.1201 -18.1190 -18.1187 -18.1072 -18.1070 -18.1044 -18.1043
   -18.1041 -18.1036 -18.1020 -18.1020 -11.2534 -11.1936 -10.9587 -10.9004
   -10.8866 -10.8615  -4.9046  -4.8965  -4.8951  -4.8921  -4.8809  -4.8788
    -3.3182  -2.9462  -0.8241  -0.7652  -0.5190  -0.2470   0.0234   0.4487
     0.8999   1.0524   1.1003   1.1671   1.2049   1.2234   1.2695   1.2979
     1.3344   1.3960   1.5050   1.7894   6.2133   6.9565   7.2174   7.4667
     7.6190   7.7777   8.0011   8.0269   8.2433

          k = 0.0000 0.1667 0.4000 ( 21976 PWs)   bands (ev):

   -18.1220 -18.1201 -18.1166 -18.1162 -18.1077 -18.1070 -18.1044 -18.1043
   -18.1037 -18.1027 -18.1021 -18.1021 -11.1765 -11.1177 -10.9956 -10.9843
   -10.9292 -10.8654  -4.9083  -4.9003  -4.8922  -4.8911  -4.8834  -4.8737
    -3.6711  -3.3300  -0.7678  -0.6944  -0.3823   0.3748   0.4131   0.5244
     0.8686   1.0040   1.0443   1.0858   1.0908   1.1695   1.2341   1.2462
     1.3709   1.5972   1.9519   2.3763   5.5715   5.7634   6.0959   7.5213
     7.8311   7.8708   8.1469   8.1934   8.4017

          k = 0.2000 0.0000 0.0000 ( 21957 PWs)   bands (ev):

   -18.1232 -18.1196 -18.1190 -18.1181 -18.1073 -18.1069 -18.1044 -18.1043
   -18.1043 -18.1034 -18.1020 -18.1020 -11.2759 -11.1439 -11.0108 -10.8914
   -10.8860 -10.8463  -4.9021  -4.8973  -4.8950  -4.8923  -4.8835  -4.8781
    -3.4607  -2.6703  -0.8536  -0.8478  -0.7380  -0.1961  -0.1240   0.5221
     0.9532   1.0567   1.1444   1.1719   1.2043   1.2112   1.2599   1.3188
     1.3195   1.3357   1.4950   2.2693   5.3683   6.7706   7.2004   7.5886
     7.7708   7.8084   7.9833   8.1533   8.2525

          k = 0.2000 0.0000 0.2000 ( 21957 PWs)   bands (ev):

   -18.1227 -18.1181 -18.1180 -18.1180 -18.1073 -18.1069 -18.1045 -18.1043
   -18.1043 -18.1031 -18.1020 -18.1018 -11.2437 -11.1192 -11.0106 -10.9101
   -10.9070 -10.8683  -4.9045  -4.9038  -4.9013  -4.8897  -4.8822  -4.8817
    -3.7248  -3.0258  -0.8302  -0.4347  -0.2986  -0.0375   0.1033   0.5059
     0.7494   0.9664   1.0077   1.1646   1.2238   1.2576   1.3405   1.3508
     1.3732   1.4249   1.5621   2.3752   5.2197   6.9447   7.0269   7.1191
     7.3556   7.5695   7.9788   8.0204   8.2254

          k = 0.2000 0.0000 0.4000 ( 21981 PWs)   bands (ev):

   -18.1223 -18.1181 -18.1159 -18.1155 -18.1073 -18.1068 -18.1045 -18.1044
   -18.1043 -18.1027 -18.1021 -18.1016 -11.1664 -11.0543 -11.0108 -10.9840
   -10.9741 -10.8769  -4.9155  -4.9125  -4.9034  -4.8880  -4.8844  -4.8835
    -4.0457  -3.4006  -0.7715  -0.2318  -0.1180   0.4152   0.5140   0.6418
     0.7001   0.8712   0.9433   1.0771   1.1862   1.2101   1.3860   1.3893
     1.4232   1.6616   2.0322   2.8969   4.9884   5.3528   5.7562   6.8380
     7.2279   7.8923   8.1466   8.3499   8.4147

          k = 0.2000 0.1667 0.0000 ( 21977 PWs)   bands (ev):

   -18.1221 -18.1201 -18.1190 -18.1187 -18.1073 -18.1069 -18.1044 -18.1043
   -18.1041 -18.1036 -18.1020 -18.1020 -11.2534 -11.1936 -10.9587 -10.9003
   -10.8866 -10.8616  -4.9048  -4.8963  -4.8953  -4.8919  -4.8808  -4.8791
    -3.3182  -2.9462  -0.8242  -0.7652  -0.5191  -0.2470   0.0234   0.4487
     0.9000   1.0523   1.1003   1.1672   1.2049   1.2233   1.2695   1.2979
     1.3344   1.3959   1.5050   1.7894   6.2133   6.9565   7.2175   7.4667
     7.6192   7.7775   8.0009   8.0279   8.2435

          k = 0.2000 0.1667 0.2000 ( 21966 PWs)   bands (ev):

   -18.1216 -18.1193 -18.1180 -18.1180 -18.1072 -18.1070 -18.1044 -18.1044
   -18.1040 -18.1034 -18.1020 -18.1019 -11.2228 -11.1672 -10.9608 -10.9148
   -10.9051 -10.8882  -4.9060  -4.9053  -4.8990  -4.8953  -4.8791  -4.8783
    -3.5912  -3.2561  -0.5214  -0.4135  -0.3132  -0.1254   0.1990   0.4482
     0.8133   0.9099   0.9848   1.0223   1.3015   1.3041   1.3808   1.3874
     1.3935   1.4437   1.5420   1.8501   6.0691   6.9687   7.1112   7.1217
     7.2668   7.3955   7.7835   7.8376   8.1554

          k = 0.2000 0.1667 0.4000 ( 21971 PWs)   bands (ev):

   -18.1212 -18.1190 -18.1158 -18.1157 -18.1072 -18.1070 -18.1044 -18.1044
   -18.1040 -18.1032 -18.1018 -18.1016 -11.1492 -11.0996 -10.9950 -10.9850
   -10.9445 -10.8931  -4.9140  -4.9085  -4.9029  -4.8948  -4.8866  -4.8807
    -3.9176  -3.6044  -0.4395  -0.1671  -0.1519   0.4115   0.4436   0.5062
     0.7039   0.8228   0.8463   0.9937   1.2752   1.3347   1.3810   1.4335
     1.4452   1.6042   2.0689   2.4403   5.4222   5.6187   5.9467   6.8962
     7.1059   7.3959   7.9892   8.1678   8.5256

          k = 0.4000 0.0000 0.0000 ( 21988 PWs)   bands (ev):

   -18.1230 -18.1194 -18.1167 -18.1158 -18.1080 -18.1065 -18.1044 -18.1044
   -18.1043 -18.1023 -18.1021 -18.1021 -11.1964 -11.0654 -11.0116 -10.9833
   -10.9665 -10.8455  -4.9089  -4.9055  -4.8916  -4.8868  -4.8827  -4.8731
    -3.8058  -3.0973  -0.8020  -0.7972  -0.6595   0.3611   0.5750   0.6850
     0.9614   1.0234   1.0326   1.0371   1.1044   1.1460   1.1648   1.2672
     1.2860   1.6494   1.8911   2.8094   5.1475   5.5033   5.8953   7.6109
     7.8429   8.2248   8.2827   8.3045   8.3386

          k = 0.4000 0.0000 0.2000 ( 21981 PWs)   bands (ev):

   -18.1223 -18.1181 -18.1159 -18.1155 -18.1074 -18.1067 -18.1045 -18.1044
   -18.1043 -18.1027 -18.1021 -18.1016 -11.1664 -11.0543 -11.0109 -10.9839
   -10.9741 -10.8769  -4.9156  -4.9125  -4.9031  -4.8879  -4.8845  -4.8837
    -4.0457  -3.4006  -0.7715  -0.2318  -0.1180   0.4151   0.5141   0.6418
     0.7001   0.8712   0.9433   1.0770   1.1862   1.2102   1.3860   1.3893
     1.4232   1.6617   2.0322   2.8969   4.9884   5.3528   5.7561   6.8379
     7.2278   7.8923   8.1465   8.3499   8.4147

          k = 0.4000 0.0000 0.4000 ( 21986 PWs)   bands (ev):

   -18.1215 -18.1169 -18.1142 -18.1142 -18.1072 -18.1061 -18.1046 -18.1044
   -18.1044 -18.1036 -18.1022 -18.1008 -11.0906 -11.0267 -11.0104 -10.9959
   -10.9922 -10.9469  -4.9266  -4.9243  -4.9233  -4.8988  -4.8960  -4.8801
    -4.3502  -3.7467  -0.6974   0.3971   0.5048   0.5529   0.5552   0.5664
     0.7141   0.8643   0.9299   1.0335   1.0544   1.1291   1.6162   1.6212
     1.6601   1.6793   2.5958   3.3422   4.7319   5.0236   5.2844   5.4970
     5.6111   7.9870   8.0422   8.3996   8.5566

          k = 0.4000 0.1667 0.0000 ( 21976 PWs)   bands (ev):

   -18.1220 -18.1201 -18.1166 -18.1162 -18.1078 -18.1070 -18.1044 -18.1043
   -18.1037 -18.1027 -18.1021 -18.1021 -11.1766 -11.1176 -10.9957 -10.9842
   -10.9291 -10.8655  -4.9084  -4.9002  -4.8922  -4.8908  -4.8832  -4.8739
    -3.6711  -3.3300  -0.7678  -0.6944  -0.3824   0.3749   0.4130   0.5245
     0.8687   1.0040   1.0443   1.0859   1.0908   1.1695   1.2340   1.2462
     1.3709   1.5972   1.9519   2.3764   5.5715   5.7634   6.0959   7.5211
     7.8311   7.8707   8.1467   8.1935   8.4016

          k = 0.4000 0.1667 0.2000 ( 21971 PWs)   bands (ev):

   -18.1212 -18.1190 -18.1158 -18.1157 -18.1073 -18.1069 -18.1044 -18.1044
   -18.1040 -18.1032 -18.1018 -18.1016 -11.1493 -11.0996 -10.9950 -10.9849
   -10.9444 -10.8931  -4.9142  -4.9085  -4.9027  -4.8947  -4.8866  -4.8808
    -3.9176  -3.6044  -0.4394  -0.1670  -0.1521   0.4115   0.4435   0.5064
     0.7039   0.8227   0.8463   0.9937   1.2752   1.3347   1.3810   1.4335
     1.4452   1.6042   2.0690   2.4403   5.4222   5.6187   5.9466   6.8961
     7.1058   7.3959   7.9892   8.1678   8.5258

          k = 0.4000 0.1667 0.4000 ( 22003 PWs)   bands (ev):

   -18.1203 -18.1180 -18.1142 -18.1142 -18.1069 -18.1063 -18.1045 -18.1045
   -18.1044 -18.1040 -18.1017 -18.1011 -11.0805 -11.0538 -11.0000 -10.9970
   -10.9766 -10.9549  -4.9237  -4.9231  -4.9128  -4.9011  -4.8997  -4.8890
    -4.2263  -3.9313  -0.3129   0.4044   0.4306   0.4942   0.5641   0.5774
     0.6375   0.7285   0.7663   0.8699   1.3023   1.3418   1.5678   1.5747
     1.6301   1.6395   2.6423   2.9005   5.1334   5.2493   5.3616   5.5043
     5.8381   7.1892   8.1148   8.3360   8.6570

     the Fermi energy is     4.0609 ev

!    total energy              =    -734.60980769 Ry
     estimated scf accuracy    <          1.8E-10 Ry
     smearing contrib. (-TS)   =       0.00000000 Ry
     internal energy E=F+TS    =    -734.60980769 Ry

     The total energy is F=E-TS. E is the sum of the following terms:
     one-electron contribution =    -256.12113439 Ry
     hartree contribution      =     165.19705469 Ry
     xc contribution           =    -312.36675143 Ry
     ewald contribution        =    -331.31897656 Ry

     convergence has been achieved in  10 iterations

     Forces acting on atoms (cartesian axes, Ry/au):

     atom    1 type  1   force =     0.00000000    0.00000000    0.00000000
     atom    2 type  1   force =     0.00000000    0.00000000    0.00000000
     atom    3 type  2   force =    -0.00000000   -0.00000573    0.00000000
     atom    4 type  2   force =     0.00000000    0.00000573   -0.00000000
     atom    5 type  3   force =     0.00000000    0.00232391   -0.00000000
     atom    6 type  3   force =    -0.00000000   -0.00232391    0.00000000
     atom    7 type  3   force =     0.00000000    0.00000000    0.00000000
     atom    8 type  3   force =     0.00000000    0.00000000    0.00000000
     atom    9 type  3   force =    -0.00000000   -0.00232910    0.00000000
     atom   10 type  3   force =     0.00000000    0.00232910   -0.00000000

     Total force =     0.004653     Total SCF correction =     0.000016
     Message from routine punch:
     Nothing written, as per user request (disk_io='none')

     init_run     :     20.13s CPU     22.65s WALL (       1 calls)
     electrons    :   1076.68s CPU   1125.10s WALL (       1 calls)
     forces       :     27.01s CPU     27.93s WALL (       1 calls)

     Called by init_run:
     wfcinit      :      8.94s CPU      9.55s WALL (       1 calls)
     potinit      :      3.29s CPU      3.94s WALL (       1 calls)
     hinit0       :      5.22s CPU      5.56s WALL (       1 calls)

     Called by electrons:
     c_bands      :    686.55s CPU    696.67s WALL (      11 calls)
     sum_band     :    236.13s CPU    254.11s WALL (      11 calls)
     v_of_rho     :     35.70s CPU     40.78s WALL (      11 calls)
     newd         :    106.00s CPU    122.02s WALL (      11 calls)
     mix_rho      :      8.06s CPU      8.42s WALL (      11 calls)

     Called by c_bands:
     init_us_2    :     19.19s CPU     19.51s WALL (      72 calls)
     cegterg      :    304.67s CPU    314.10s WALL (      33 calls)

     Called by *egterg:
     cdiaghg      :      0.89s CPU      0.89s WALL (     167 calls)
     h_psi        :    220.34s CPU    225.02s WALL (     173 calls)
     s_psi        :     23.06s CPU     23.08s WALL (     173 calls)
     g_psi        :      1.37s CPU      1.37s WALL (     137 calls)

     Called by h_psi:
     h_psi:calbec :     24.47s CPU     24.50s WALL (     173 calls)
     vloc_psi     :    170.10s CPU    170.56s WALL (     173 calls)
                                        0.00s GPU  (     173 calls)
     add_vuspsi   :     23.31s CPU     23.34s WALL (     173 calls)

     General routines
     calbec       :     33.09s CPU     33.13s WALL (     218 calls)
     fft          :     18.34s CPU     18.49s WALL (     153 calls)
     ffts         :      1.22s CPU      1.22s WALL (      22 calls)
     fftw         :    139.20s CPU    139.52s WALL (   11315 calls)
     interpolate  :      3.73s CPU      3.76s WALL (      11 calls)

     Parallel routines

     PWSCF        :  18m54.13s CPU  19m46.16s WALL


   This run was terminated on:  22: 6:32   4Oct2026            

=------------------------------------------------------------------------------=
   JOB DONE.
=------------------------------------------------------------------------------=
