
     Program PWSCF v.7.5 starts on  3Oct2026 at 21:18:38 

     This program is part of the open-source Quantum ESPRESSO suite
     for quantum simulation of materials; please cite
         "P. Giannozzi et al., J. Phys.:Condens. Matter 21 395502 (2009);
         "P. Giannozzi et al., J. Phys.:Condens. Matter 29 465901 (2017);
         "P. Giannozzi et al., J. Chem. Phys. 152 154105 (2020);
          URL http://www.quantum-espresso.org", 
     in publications or presentations arising from this work. More details at
     http://www.quantum-espresso.org/quote

     Parallel version (MPI & OpenMP), running on       8 processor cores
     Number of MPI processes:                 8
     Threads/MPI process:                     1

     MPI processes distributed on     1 nodes
     11887 MiB available memory on the printing compute node when the environment starts

     Reading input from pw.in

     Current dimensions of program PWSCF are:
     Max number of different atomic species (ntypx) = 10
     Max number of k-points (npk) =  40000
     Max angular momentum in pseudopotentials (lmaxx) =  4
     Message from routine setup:
     using ibrav=0 with symmetry is DISCOURAGED, use correct ibrav instead

     K-points division:     npool     =       8
     Subspace diagonalization in iterative solution of the eigenvalue problem:
     a serial algorithm will be used


     G-vector sticks info
     --------------------
     sticks:   dense  smooth     PW     G-vecs:    dense   smooth      PW
     Sum        1245     625    235                19609     6947    1605

     Using Slab Decomposition



     bravais-lattice index     =            0
     lattice parameter (alat)  =      11.7338  a.u.
     unit-cell volume          =     310.9061 (a.u.)^3
     number of atoms/cell      =            2
     number of atomic types    =            1
     number of electrons       =        24.00
     number of Kohn-Sham states=           16
     kinetic-energy cutoff     =      30.0000  Ry
     charge density cutoff     =     240.0000  Ry
     scf convergence threshold =      2.0E-10
     mixing beta               =       0.4000
     number of iterations used =            8  plain     mixing
     Exchange-correlation= SLA  PW   PBE  PBE
                           (   1   4   3   4   0   0   0)

     celldm(1)=  11.733756  celldm(2)=   0.000000  celldm(3)=   0.000000
     celldm(4)=   0.000000  celldm(5)=   0.000000  celldm(6)=   0.000000

     crystal axes: (cart. coord. in units of alat)
               a(1) = (  -0.577350   0.577350   0.577350 )  
               a(2) = (   0.288675  -0.288675   0.288675 )  
               a(3) = (   0.288675   0.288675  -0.288675 )  

     reciprocal axes: (cart. coord. in units 2 pi/alat)
               b(1) = ( -0.000000  0.866025  0.866025 )  
               b(2) = (  1.732051 -0.000000  1.732051 )  
               b(3) = (  1.732051  1.732051 -0.000000 )  


     PseudoPot. # 1 for Zr read from file:
     /root/sssp/Zr_pbe_v1.uspp.F.UPF
     MD5 check sum: 5db81b1e868ab7776c4564c113de050b
     Pseudo is Ultrasoft + core correction, Zval = 12.0
     Generated by new atomic code, or converted to UPF format
     Using radial grid of  887 points,  6 beta functions with: 
                l(1) =   0
                l(2) =   0
                l(3) =   1
                l(4) =   1
                l(5) =   2
                l(6) =   2
     Q(r) pseudized with  6 coefficients,  rinner =    1.200   1.200   1.200
                                                       1.200   1.200

     atomic species   valence    mass     pseudopotential
     Zr               12.00    91.22400     Zr( 1.00)

      8 Sym. Ops., with inversion, found ( 4 have fractional translation)



   Cartesian axes

     site n.     atom                  positions (alat units)
         1        Zr     tau(   1) = (  -0.0000000  -0.0322101   0.0322101  )
         2        Zr     tau(   2) = (  -0.2886751   0.3208852   0.2564651  )

     number of k points=   693  Marzari-Vanderbilt smearing, width (Ry)=  0.0200

     Number of k-points >= 100: set verbosity='high' to print them.

     Dense  grid:    19609 G-vectors     FFT dimensions: (  60,  30,  30)

     Smooth grid:     6947 G-vectors     FFT dimensions: (  48,  24,  24)

     Estimated max dynamical RAM per process >      39.32 MB

     Estimated total dynamical RAM >     281.02 MB

     Check: negative core charge=   -0.000004

     Initial potential from superposition of free atoms

     starting charge      23.9957, renormalised to      24.0000

     negative rho (up, down):  1.203E-01 0.000E+00
     Starting wfcs are   26 randomized atomic wfcs

     total cpu time spent up to now is        2.2 secs

     per-process dynamical memory:    43.1 Mb

     Self-consistent Calculation

     iteration #  1     ecut=    30.00 Ry     beta= 0.40
     Davidson diagonalization with overlap
     ethr =  1.00E-02,  avg # of iterations =  2.0

     Threshold (ethr) on eigenvalues was too large:
     Diagonalizing with lowered threshold

     Davidson diagonalization with overlap
     ethr =  1.02E-04,  avg # of iterations =  2.2

     negative rho (up, down):  1.211E-01 0.000E+00

     total cpu time spent up to now is        6.3 secs

     total energy              =    -198.29740912 Ry
     estimated scf accuracy    <       0.02972049 Ry

     iteration #  2     ecut=    30.00 Ry     beta= 0.40
     Davidson diagonalization with overlap
     ethr =  1.24E-04,  avg # of iterations =  1.7

     negative rho (up, down):  1.225E-01 0.000E+00

     total cpu time spent up to now is        8.2 secs

     total energy              =    -198.29743123 Ry
     estimated scf accuracy    <       0.00499512 Ry

     iteration #  3     ecut=    30.00 Ry     beta= 0.40
     Davidson diagonalization with overlap
     ethr =  2.08E-05,  avg # of iterations =  2.0

     negative rho (up, down):  1.233E-01 0.000E+00

     total cpu time spent up to now is       10.5 secs

     total energy              =    -198.29831396 Ry
     estimated scf accuracy    <       0.00023929 Ry

     iteration #  4     ecut=    30.00 Ry     beta= 0.40
     Davidson diagonalization with overlap
     ethr =  9.97E-07,  avg # of iterations =  2.3

     negative rho (up, down):  1.234E-01 0.000E+00

     total cpu time spent up to now is       13.1 secs

     total energy              =    -198.29834747 Ry
     estimated scf accuracy    <       0.00004410 Ry

     iteration #  5     ecut=    30.00 Ry     beta= 0.40
     Davidson diagonalization with overlap
     ethr =  1.84E-07,  avg # of iterations =  2.0

     negative rho (up, down):  1.233E-01 0.000E+00

     total cpu time spent up to now is       15.0 secs

     total energy              =    -198.29835171 Ry
     estimated scf accuracy    <       0.00000228 Ry

     iteration #  6     ecut=    30.00 Ry     beta= 0.40
     Davidson diagonalization with overlap
     ethr =  9.48E-09,  avg # of iterations =  3.6

     negative rho (up, down):  1.233E-01 0.000E+00

     total cpu time spent up to now is       17.7 secs

     total energy              =    -198.29835247 Ry
     estimated scf accuracy    <       0.00000035 Ry

     iteration #  7     ecut=    30.00 Ry     beta= 0.40
     Davidson diagonalization with overlap
     ethr =  1.44E-09,  avg # of iterations =  2.2

     negative rho (up, down):  1.233E-01 0.000E+00

     total cpu time spent up to now is       19.9 secs

     total energy              =    -198.29835252 Ry
     estimated scf accuracy    <       0.00000002 Ry

     iteration #  8     ecut=    30.00 Ry     beta= 0.40
     Davidson diagonalization with overlap
     ethr =  7.47E-11,  avg # of iterations =  3.6

     negative rho (up, down):  1.233E-01 0.000E+00

     total cpu time spent up to now is       22.5 secs

     total energy              =    -198.29835253 Ry
     estimated scf accuracy    <          1.7E-09 Ry

     iteration #  9     ecut=    30.00 Ry     beta= 0.40
     Davidson diagonalization with overlap
     ethr =  6.91E-12,  avg # of iterations =  2.7

     negative rho (up, down):  1.233E-01 0.000E+00

     total cpu time spent up to now is       25.1 secs

     total energy              =    -198.29835253 Ry
     estimated scf accuracy    <          3.2E-10 Ry

     iteration # 10     ecut=    30.00 Ry     beta= 0.40
     Davidson diagonalization with overlap
     ethr =  1.31E-12,  avg # of iterations =  2.1

     negative rho (up, down):  1.233E-01 0.000E+00

     total cpu time spent up to now is       27.1 secs

     End of self-consistent calculation

     Number of k-points >= 100: set verbosity='high' to print the bands.

     the Fermi energy is    14.0653 ev

!    total energy              =    -198.29835253 Ry
     estimated scf accuracy    <          3.0E-11 Ry
     smearing contrib. (-TS)   =       0.00197612 Ry
     internal energy E=F+TS    =    -198.30032865 Ry

     The total energy is F=E-TS. E is the sum of the following terms:
     one-electron contribution =     -35.29076251 Ry
     hartree contribution      =      27.13297563 Ry
     xc contribution           =     -35.57256217 Ry
     ewald contribution        =    -154.56997959 Ry

     convergence has been achieved in  10 iterations

     negative rho (up, down):  1.233E-01 0.000E+00

     Forces acting on atoms (cartesian axes, Ry/au):

     atom    1 type  1   force =     0.00000000    0.00153954   -0.00153954
     atom    2 type  1   force =    -0.00000000   -0.00153954    0.00153954

     Total force =     0.003079     Total SCF correction =     0.000001
     Message from routine punch:
     Nothing written, as per user request (disk_io='none')

     init_run     :      2.03s CPU      2.08s WALL (       1 calls)
     electrons    :     24.46s CPU     24.89s WALL (       1 calls)
     forces       :      0.15s CPU      0.15s WALL (       1 calls)

     Called by init_run:
     wfcinit      :      1.28s CPU      1.31s WALL (       1 calls)
     potinit      :      0.27s CPU      0.28s WALL (       1 calls)
     hinit0       :      0.45s CPU      0.46s WALL (       1 calls)

     Called by electrons:
     c_bands      :     20.58s CPU     20.92s WALL (      11 calls)
     sum_band     :      3.56s CPU      3.65s WALL (      11 calls)
     v_of_rho     :      0.21s CPU      0.22s WALL (      11 calls)
     newd         :      0.09s CPU      0.10s WALL (      11 calls)
     mix_rho      :      0.01s CPU      0.01s WALL (      11 calls)

     Called by c_bands:
     init_us_2    :      0.55s CPU      0.56s WALL (    2088 calls)
     cegterg      :     18.10s CPU     18.41s WALL (     957 calls)

     Called by *egterg:
     cdiaghg      :      0.83s CPU      0.86s WALL (    3194 calls)
     h_psi        :     16.28s CPU     16.54s WALL (    3368 calls)
     s_psi        :      0.41s CPU      0.42s WALL (    3368 calls)
     g_psi        :      0.14s CPU      0.15s WALL (    2324 calls)

     Called by h_psi:
     h_psi:calbec :      0.43s CPU      0.44s WALL (    3368 calls)
     vloc_psi     :     15.38s CPU     15.63s WALL (    3368 calls)
                                        0.00s GPU  (    3368 calls)
     add_vuspsi   :      0.41s CPU      0.42s WALL (    3368 calls)

     General routines
     calbec       :      0.63s CPU      0.64s WALL (    4673 calls)
     fft          :      0.29s CPU      0.29s WALL (     153 calls)
     ffts         :      0.23s CPU      0.23s WALL (      22 calls)
     fftw         :     16.01s CPU     16.28s WALL (   96038 calls)
     interpolate  :      0.23s CPU      0.23s WALL (      11 calls)

     Parallel routines

     PWSCF        :     26.80s CPU     27.28s WALL


   This run was terminated on:  21:19: 5   3Oct2026            

=------------------------------------------------------------------------------=
   JOB DONE.
=------------------------------------------------------------------------------=
