
     Program PWSCF v.7.5 starts on  4Oct2026 at 22:59: 6 

     This program is part of the open-source Quantum ESPRESSO suite
     for quantum simulation of materials; please cite
         "P. Giannozzi et al., J. Phys.:Condens. Matter 21 395502 (2009);
         "P. Giannozzi et al., J. Phys.:Condens. Matter 29 465901 (2017);
         "P. Giannozzi et al., J. Chem. Phys. 152 154105 (2020);
          URL http://www.quantum-espresso.org", 
     in publications or presentations arising from this work. More details at
     http://www.quantum-espresso.org/quote

     Parallel version (MPI & OpenMP), running on       8 processor cores
     Number of MPI processes:                 8
     Threads/MPI process:                     1

     MPI processes distributed on     1 nodes
     88631 MiB available memory on the printing compute node when the environment starts

     Reading input from pw.in

     Current dimensions of program PWSCF are:
     Max number of different atomic species (ntypx) = 10
     Max number of k-points (npk) =  40000
     Max angular momentum in pseudopotentials (lmaxx) =  4
     file Ba.pbe-spn-kjpaw_psl.1.0.0.UPF: wavefunction(s)  5S 6S renormalized
     file O.pbe-n-kjpaw_psl.0.1.UPF: wavefunction(s)  2P renormalized

     K-points division:     npool     =       8
     Subspace diagonalization in iterative solution of the eigenvalue problem:
     a serial algorithm will be used


     G-vector sticks info
     --------------------
     sticks:   dense  smooth     PW     G-vecs:    dense   smooth      PW
     Sum        3717    1855    547               120005    42425    6649

     Using Slab Decomposition



     bravais-lattice index     =            0
     lattice parameter (alat)  =       7.6272  a.u.
     unit-cell volume          =     887.4155 (a.u.)^3
     number of atoms/cell      =           10
     number of atomic types    =            3
     number of electrons       =        80.00
     number of Kohn-Sham states=           48
     kinetic-energy cutoff     =      50.0000  Ry
     charge density cutoff     =     400.0000  Ry
     scf convergence threshold =      1.0E-09
     mixing beta               =       0.4000
     number of iterations used =            8  plain     mixing
     Exchange-correlation= SLA  PW   PBX  PBC
                           (   1   4   3   4   0   0   0)

     celldm(1)=   7.627207  celldm(2)=   0.000000  celldm(3)=   0.000000
     celldm(4)=   0.000000  celldm(5)=   0.000000  celldm(6)=   0.000000

     crystal axes: (cart. coord. in units of alat)
               a(1) = (  -0.000000   0.000000   1.000000 )  
               a(2) = (   0.000000  -2.000001  -0.000000 )  
               a(3) = (   1.000000  -0.000000  -0.000000 )  

     reciprocal axes: (cart. coord. in units 2 pi/alat)
               b(1) = (  0.000000 -0.000000  1.000000 )  
               b(2) = ( -0.000000 -0.500000  0.000000 )  
               b(3) = (  1.000000  0.000000  0.000000 )  


     PseudoPot. # 1 for Ba read from file:
     /root/sssp/Ba.pbe-spn-kjpaw_psl.1.0.0.UPF
     MD5 check sum: c432291d3e53af55f19d5e8866385beb
     Pseudo is Projector augmented-wave + core cor, Zval = 10.0
     Generated using "atomic" code by A. Dal Corso  v.5.1
     Shape of augmentation charge: PSQ
     Using radial grid of 1251 points,  7 beta functions with: 
                l(1) =   0
                l(2) =   0
                l(3) =   0
                l(4) =   1
                l(5) =   1
                l(6) =   2
                l(7) =   2
     Q(r) pseudized with 0 coefficients 


     PseudoPot. # 2 for Ti read from file:
     /root/sssp/ti_pbe_v1.4.uspp.F.UPF
     MD5 check sum: 88a00a6731bd790ddea75d31a80cb452
     Pseudo is Ultrasoft + core correction, Zval = 12.0
     Generated by new atomic code, or converted to UPF format
     Using radial grid of  851 points,  6 beta functions with: 
                l(1) =   0
                l(2) =   0
                l(3) =   1
                l(4) =   1
                l(5) =   2
                l(6) =   2
     Q(r) pseudized with  6 coefficients,  rinner =    1.000   1.000   1.000
                                                       1.000   1.000

     PseudoPot. # 3 for O  read from file:
     /root/sssp/O.pbe-n-kjpaw_psl.0.1.UPF
     MD5 check sum: 0234752ac141de4415c5fc33072bef88
     Pseudo is Projector augmented-wave + core cor, Zval =  6.0
     Generated using "atomic" code by A. Dal Corso  v.5.0.99 svn rev. 10869
     Shape of augmentation charge: BESSEL
     Using radial grid of 1095 points,  4 beta functions with: 
                l(1) =   0
                l(2) =   0
                l(3) =   1
                l(4) =   1
     Q(r) pseudized with 0 coefficients 


     atomic species   valence    mass     pseudopotential
     Ba               10.00   137.32700     Ba( 1.00)
     Ti               12.00    47.86700     Ti( 1.00)
     O                 6.00    15.99900     O ( 1.00)

     No symmetry found



   Cartesian axes

     site n.     atom                  positions (alat units)
         1        Ba     tau(   1) = (   0.0000028   0.0133575   0.0006361  )
         2        Ba     tau(   2) = (  -0.0000009  -1.0133588  -0.0006338  )
         3        Ti     tau(   3) = (   0.5774264  -0.4829195   0.5880939  )
         4        Ti     tau(   4) = (   0.4225669  -1.5170815   0.4282312  )
         5        O      tau(   5) = (   0.9278982  -0.4751756   0.4760071  )
         6        O      tau(   6) = (   1.0720838  -1.5248253   0.5331258  )
         7        O      tau(   7) = (   0.4999047  -1.0144930   0.5000509  )
         8        O      tau(   8) = (   0.5000948  -1.9855052   0.4999480  )
         9        O      tau(   9) = (   0.4769655  -0.4853854   0.9124833  )
        10        O      tau(  10) = (   0.5230569  -1.5146155   1.0133503  )

     number of k points=    99  Marzari-Vanderbilt smearing, width (Ry)=  0.0050
                       cart. coord. in units 2pi/alat
        k(    1) = (   0.0000000   0.0000000   0.0000000), wk =   0.0102041
        k(    2) = (   0.1428571   0.0000000   0.0000000), wk =   0.0204082
        k(    3) = (   0.2857142   0.0000000   0.0000001), wk =   0.0204082
        k(    4) = (   0.4285713   0.0000000   0.0000001), wk =   0.0204082
        k(    5) = (  -0.0000000  -0.1249999   0.0000000), wk =   0.0204082
        k(    6) = (   0.1428571  -0.1249999   0.0000001), wk =   0.0204082
        k(    7) = (   0.2857142  -0.1249999   0.0000001), wk =   0.0204082
        k(    8) = (   0.4285712  -0.1249999   0.0000001), wk =   0.0204082
        k(    9) = (   0.0000000   0.2499999  -0.0000001), wk =   0.0102041
        k(   10) = (   0.1428571   0.2499999  -0.0000000), wk =   0.0204082
        k(   11) = (   0.2857142   0.2499999   0.0000000), wk =   0.0204082
        k(   12) = (   0.4285713   0.2499999   0.0000000), wk =   0.0204082
        k(   13) = (   0.1428571  -0.0000000   0.1428572), wk =   0.0204082
        k(   14) = (   0.2857142  -0.0000000   0.1428572), wk =   0.0204082
        k(   15) = (   0.4285713   0.0000000   0.1428572), wk =   0.0204082
        k(   16) = (   0.1428571  -0.1250000   0.1428572), wk =   0.0204082
        k(   17) = (   0.2857142  -0.1249999   0.1428572), wk =   0.0204082
        k(   18) = (   0.4285713  -0.1249999   0.1428573), wk =   0.0204082
        k(   19) = (   0.1428571   0.2499999   0.1428571), wk =   0.0204082
        k(   20) = (   0.2857142   0.2499999   0.1428571), wk =   0.0204082
        k(   21) = (   0.4285713   0.2499999   0.1428572), wk =   0.0204082
        k(   22) = (   0.2857142  -0.0000000   0.2857143), wk =   0.0204082
        k(   23) = (   0.4285713  -0.0000000   0.2857144), wk =   0.0204082
        k(   24) = (   0.2857142  -0.1250000   0.2857144), wk =   0.0204082
        k(   25) = (   0.4285713  -0.1250000   0.2857144), wk =   0.0204082
        k(   26) = (   0.2857142   0.2499998   0.2857143), wk =   0.0204082
        k(   27) = (   0.4285713   0.2499999   0.2857143), wk =   0.0204082
        k(   28) = (   0.4285713  -0.0000001   0.4285715), wk =   0.0204082
        k(   29) = (   0.4285713  -0.1250000   0.4285715), wk =   0.0204082
        k(   30) = (   0.4285714   0.2499998   0.4285715), wk =   0.0204082
        k(   31) = (   0.0000000  -0.0000000   0.1428571), wk =   0.0204082
        k(   32) = (   0.0000001  -0.0000001   0.2857143), wk =   0.0204082
        k(   33) = (   0.0000001  -0.0000001   0.4285714), wk =   0.0204082
        k(   34) = (  -0.1428571  -0.1250000  -0.0000000), wk =   0.0204082
        k(   35) = (   0.0000000   0.1249999   0.1428571), wk =   0.0204082
        k(   36) = (  -0.0000000   0.1250000  -0.1428572), wk =   0.0204082
        k(   37) = (  -0.2857142  -0.1250000  -0.0000000), wk =   0.0204082
        k(   38) = (   0.0000001   0.1249999   0.2857143), wk =   0.0204082
        k(   39) = (  -0.0000000   0.1250000  -0.2857143), wk =   0.0204082
        k(   40) = (  -0.4285713  -0.1250000  -0.0000001), wk =   0.0204082
        k(   41) = (   0.0000001   0.1249998   0.4285714), wk =   0.0204082
        k(   42) = (  -0.0000001   0.1250000  -0.4285715), wk =   0.0204082
        k(   43) = (   0.0000000  -0.2499999   0.1428572), wk =   0.0204082
        k(   44) = (   0.0000000  -0.2499999   0.2857143), wk =   0.0204082
        k(   45) = (   0.0000001  -0.2500000   0.4285715), wk =   0.0204082
        k(   46) = (  -0.1428571  -0.0000000   0.1428571), wk =   0.0204082
        k(   47) = (  -0.2857141  -0.0000001   0.1428571), wk =   0.0204082
        k(   48) = (   0.1428571  -0.0000000   0.2857143), wk =   0.0204082
        k(   49) = (   0.1428570   0.0000001  -0.2857143), wk =   0.0204082
        k(   50) = (  -0.4285712  -0.0000001   0.1428571), wk =   0.0204082
        k(   51) = (   0.1428572  -0.0000001   0.4285715), wk =   0.0204082
        k(   52) = (   0.1428570   0.0000001  -0.4285714), wk =   0.0204082
        k(   53) = (  -0.1428570   0.1249999   0.1428571), wk =   0.0204082
        k(   54) = (  -0.1428571  -0.1249999  -0.1428571), wk =   0.0204082
        k(   55) = (   0.1428571   0.1250000  -0.1428571), wk =   0.0204082
        k(   56) = (  -0.2857141   0.1249999   0.1428571), wk =   0.0204082
        k(   57) = (  -0.2857142  -0.1249999  -0.1428572), wk =   0.0204082
        k(   58) = (   0.2857142   0.1250000  -0.1428571), wk =   0.0204082
        k(   59) = (   0.1428572   0.1249999   0.2857143), wk =   0.0204082
        k(   60) = (  -0.1428571   0.1250000  -0.2857143), wk =   0.0204082
        k(   61) = (   0.1428570  -0.1249999  -0.2857142), wk =   0.0204082
        k(   62) = (  -0.1428570  -0.1250000   0.2857143), wk =   0.0204082
        k(   63) = (  -0.4285712   0.1249999   0.1428570), wk =   0.0204082
        k(   64) = (  -0.4285713  -0.1249999  -0.1428572), wk =   0.0204082
        k(   65) = (   0.4285712   0.1250000  -0.1428571), wk =   0.0204082
        k(   66) = (   0.1428572   0.1249999   0.4285714), wk =   0.0204082
        k(   67) = (  -0.1428572   0.1250000  -0.4285715), wk =   0.0204082
        k(   68) = (   0.1428570  -0.1249998  -0.4285714), wk =   0.0204082
        k(   69) = (  -0.1428570  -0.1250000   0.4285714), wk =   0.0204082
        k(   70) = (  -0.1428571  -0.2499999   0.1428572), wk =   0.0204082
        k(   71) = (  -0.2857142  -0.2499999   0.1428571), wk =   0.0204082
        k(   72) = (   0.1428571  -0.2499999   0.2857144), wk =   0.0204082
        k(   73) = (   0.1428570   0.2500000  -0.2857143), wk =   0.0204082
        k(   74) = (  -0.4285712  -0.2499999   0.1428571), wk =   0.0204082
        k(   75) = (   0.1428572  -0.2500000   0.4285715), wk =   0.0204082
        k(   76) = (   0.1428570   0.2500000  -0.4285715), wk =   0.0204082
        k(   77) = (  -0.2857141  -0.0000001   0.2857142), wk =   0.0204082
        k(   78) = (  -0.4285712  -0.0000001   0.2857142), wk =   0.0204082
        k(   79) = (   0.2857143  -0.0000001   0.4285715), wk =   0.0204082
        k(   80) = (   0.2857141   0.0000001  -0.4285714), wk =   0.0204082
        k(   81) = (  -0.2857141   0.1249999   0.2857142), wk =   0.0204082
        k(   82) = (  -0.2857142  -0.1249999  -0.2857143), wk =   0.0204082
        k(   83) = (   0.2857141   0.1250000  -0.2857143), wk =   0.0204082
        k(   84) = (  -0.4285712   0.1249998   0.2857142), wk =   0.0204082
        k(   85) = (  -0.4285713  -0.1249999  -0.2857143), wk =   0.0204082
        k(   86) = (   0.4285712   0.1250000  -0.2857142), wk =   0.0204082
        k(   87) = (   0.2857143   0.1249999   0.4285715), wk =   0.0204082
        k(   88) = (  -0.2857142   0.1250000  -0.4285715), wk =   0.0204082
        k(   89) = (   0.2857141  -0.1249998  -0.4285713), wk =   0.0204082
        k(   90) = (  -0.2857141  -0.1250001   0.4285714), wk =   0.0204082
        k(   91) = (  -0.2857141  -0.2500000   0.2857143), wk =   0.0204082
        k(   92) = (  -0.4285712  -0.2500000   0.2857143), wk =   0.0204082
        k(   93) = (   0.2857142  -0.2500000   0.4285715), wk =   0.0204082
        k(   94) = (   0.2857141   0.2500000  -0.4285714), wk =   0.0204082
        k(   95) = (  -0.4285712  -0.0000001   0.4285713), wk =   0.0204082
        k(   96) = (  -0.4285712   0.1249998   0.4285713), wk =   0.0204082
        k(   97) = (  -0.4285713  -0.1249999  -0.4285715), wk =   0.0204082
        k(   98) = (   0.4285712   0.1250001  -0.4285714), wk =   0.0204082
        k(   99) = (  -0.4285712  -0.2500000   0.4285714), wk =   0.0204082

     Dense  grid:   120005 G-vectors     FFT dimensions: (  50, 100,  50)

     Smooth grid:    42425 G-vectors     FFT dimensions: (  36,  72,  36)

     Estimated max dynamical RAM per process >     195.93 MB

     Estimated total dynamical RAM >       1.33 GB

     Check: negative core charge=   -0.000004

     Initial potential from superposition of free atoms

     starting charge      77.9659, renormalised to      80.0000

     negative rho (up, down):  2.377E-03 0.000E+00
     Starting wfcs are   54 randomized atomic wfcs
     Checking if some PAW data can be deallocated... 

     total cpu time spent up to now is       12.5 secs

     per-process dynamical memory:   136.3 Mb

     Self-consistent Calculation

     iteration #  1     ecut=    50.00 Ry     beta= 0.40
     Davidson diagonalization with overlap
     ethr =  1.00E-02,  avg # of iterations =  2.6

     negative rho (up, down):  5.591E-03 0.000E+00

     total cpu time spent up to now is       36.7 secs

     total energy              =   -1361.10602924 Ry
     estimated scf accuracy    <       1.79595673 Ry

     iteration #  2     ecut=    50.00 Ry     beta= 0.40
     Davidson diagonalization with overlap
     ethr =  2.24E-03,  avg # of iterations =  2.6

     negative rho (up, down):  2.490E-02 0.000E+00

     total cpu time spent up to now is       64.1 secs

     total energy              =   -1361.42079469 Ry
     estimated scf accuracy    <       0.36631257 Ry

     iteration #  3     ecut=    50.00 Ry     beta= 0.40
     Davidson diagonalization with overlap
     ethr =  4.58E-04,  avg # of iterations =  7.6

     negative rho (up, down):  4.189E-02 0.000E+00

     total cpu time spent up to now is       99.8 secs

     total energy              =   -1361.49646151 Ry
     estimated scf accuracy    <       0.06503511 Ry

     iteration #  4     ecut=    50.00 Ry     beta= 0.40
     Davidson diagonalization with overlap
     ethr =  8.13E-05,  avg # of iterations =  6.2

     negative rho (up, down):  3.632E-02 0.000E+00

     total cpu time spent up to now is      134.8 secs

     total energy              =   -1361.50346027 Ry
     estimated scf accuracy    <       0.01082851 Ry

     iteration #  5     ecut=    50.00 Ry     beta= 0.40
     Davidson diagonalization with overlap
     ethr =  1.35E-05,  avg # of iterations =  8.0

     negative rho (up, down):  2.477E-02 0.000E+00

     total cpu time spent up to now is      190.6 secs

     total energy              =   -1361.50501686 Ry
     estimated scf accuracy    <       0.00938388 Ry

     iteration #  6     ecut=    50.00 Ry     beta= 0.40
     Davidson diagonalization with overlap
     ethr =  1.17E-05,  avg # of iterations =  1.0

     negative rho (up, down):  1.944E-03 0.000E+00

     total cpu time spent up to now is      233.1 secs

     total energy              =   -1361.50594052 Ry
     estimated scf accuracy    <       0.00918473 Ry

     iteration #  7     ecut=    50.00 Ry     beta= 0.40
     Davidson diagonalization with overlap
     ethr =  1.15E-05,  avg # of iterations =  1.0

     negative rho (up, down):  1.936E-03 0.000E+00

     total cpu time spent up to now is      271.6 secs

     total energy              =   -1361.50583617 Ry
     estimated scf accuracy    <       0.00186419 Ry

     iteration #  8     ecut=    50.00 Ry     beta= 0.40
     Davidson diagonalization with overlap
     ethr =  2.33E-06,  avg # of iterations =  4.9

     negative rho (up, down):  1.939E-03 0.000E+00

     total cpu time spent up to now is      322.6 secs

     total energy              =   -1361.50621826 Ry
     estimated scf accuracy    <       0.00128647 Ry

     iteration #  9     ecut=    50.00 Ry     beta= 0.40
     Davidson diagonalization with overlap
     ethr =  1.61E-06,  avg # of iterations =  1.0

     negative rho (up, down):  1.938E-03 0.000E+00

     total cpu time spent up to now is      356.3 secs

     total energy              =   -1361.50624422 Ry
     estimated scf accuracy    <       0.00076931 Ry

     iteration # 10     ecut=    50.00 Ry     beta= 0.40
     Davidson diagonalization with overlap
     ethr =  9.62E-07,  avg # of iterations =  1.0

     negative rho (up, down):  1.938E-03 0.000E+00

     total cpu time spent up to now is      380.4 secs

     total energy              =   -1361.50625795 Ry
     estimated scf accuracy    <       0.00025657 Ry

     iteration # 11     ecut=    50.00 Ry     beta= 0.40
     Davidson diagonalization with overlap
     ethr =  3.21E-07,  avg # of iterations =  1.0

     negative rho (up, down):  1.938E-03 0.000E+00

     total cpu time spent up to now is      401.6 secs

     total energy              =   -1361.50626343 Ry
     estimated scf accuracy    <       0.00011029 Ry

     iteration # 12     ecut=    50.00 Ry     beta= 0.40
     Davidson diagonalization with overlap
     ethr =  1.38E-07,  avg # of iterations =  2.0

     negative rho (up, down):  1.939E-03 0.000E+00

     total cpu time spent up to now is      414.3 secs

     total energy              =   -1361.50626662 Ry
     estimated scf accuracy    <       0.00003653 Ry

     iteration # 13     ecut=    50.00 Ry     beta= 0.40
     Davidson diagonalization with overlap
     ethr =  4.57E-08,  avg # of iterations =  3.3

     negative rho (up, down):  1.939E-03 0.000E+00

     total cpu time spent up to now is      441.8 secs

     total energy              =   -1361.50626757 Ry
     estimated scf accuracy    <       0.00004747 Ry

     iteration # 14     ecut=    50.00 Ry     beta= 0.40
     Davidson diagonalization with overlap
     ethr =  4.57E-08,  avg # of iterations =  2.3

     negative rho (up, down):  1.940E-03 0.000E+00

     total cpu time spent up to now is      470.5 secs

     total energy              =   -1361.50626914 Ry
     estimated scf accuracy    <       0.00000068 Ry

     iteration # 15     ecut=    50.00 Ry     beta= 0.40
     Davidson diagonalization with overlap
     ethr =  8.53E-10,  avg # of iterations =  4.0

     negative rho (up, down):  1.940E-03 0.000E+00

     total cpu time spent up to now is      503.5 secs

     total energy              =   -1361.50626945 Ry
     estimated scf accuracy    <       0.00000177 Ry

     iteration # 16     ecut=    50.00 Ry     beta= 0.40
     Davidson diagonalization with overlap
     ethr =  8.53E-10,  avg # of iterations =  2.0

     negative rho (up, down):  1.940E-03 0.000E+00

     total cpu time spent up to now is      534.0 secs

     total energy              =   -1361.50626944 Ry
     estimated scf accuracy    <       0.00000060 Ry

     iteration # 17     ecut=    50.00 Ry     beta= 0.40
     Davidson diagonalization with overlap
     ethr =  7.56E-10,  avg # of iterations =  2.0

     negative rho (up, down):  1.940E-03 0.000E+00

     total cpu time spent up to now is      563.6 secs

     total energy              =   -1361.50626950 Ry
     estimated scf accuracy    <       0.00000254 Ry

     iteration # 18     ecut=    50.00 Ry     beta= 0.40
     Davidson diagonalization with overlap
     ethr =  7.56E-10,  avg # of iterations =  1.0

     negative rho (up, down):  1.940E-03 0.000E+00

     total cpu time spent up to now is      586.1 secs

     total energy              =   -1361.50626950 Ry
     estimated scf accuracy    <       0.00000034 Ry

     iteration # 19     ecut=    50.00 Ry     beta= 0.40
     Davidson diagonalization with overlap
     ethr =  4.25E-10,  avg # of iterations =  1.0

     negative rho (up, down):  1.940E-03 0.000E+00

     total cpu time spent up to now is      611.2 secs

     total energy              =   -1361.50626950 Ry
     estimated scf accuracy    <       0.00000043 Ry

     iteration # 20     ecut=    50.00 Ry     beta= 0.40
     Davidson diagonalization with overlap
     ethr =  4.25E-10,  avg # of iterations =  1.0

     negative rho (up, down):  1.940E-03 0.000E+00

     total cpu time spent up to now is      631.7 secs

     total energy              =   -1361.50626951 Ry
     estimated scf accuracy    <       0.00000016 Ry

     iteration # 21     ecut=    50.00 Ry     beta= 0.40
     Davidson diagonalization with overlap
     ethr =  1.98E-10,  avg # of iterations =  2.0

     negative rho (up, down):  1.940E-03 0.000E+00

     total cpu time spent up to now is      653.1 secs

     total energy              =   -1361.50626951 Ry
     estimated scf accuracy    <          2.5E-09 Ry

     iteration # 22     ecut=    50.00 Ry     beta= 0.40
     Davidson diagonalization with overlap
     ethr =  3.16E-12,  avg # of iterations =  4.0

     negative rho (up, down):  1.940E-03 0.000E+00

     total cpu time spent up to now is      674.1 secs

     End of self-consistent calculation

          k = 0.0000 0.0000 0.0000 (  5267 PWs)   bands (ev):

   -44.9356 -44.5355 -23.3830 -22.5228 -21.2497 -21.0776 -21.0445 -20.3179
   -15.2854 -15.0929  -7.0531  -6.7390  -5.6871  -5.5083  -5.0315  -4.8772
    -0.6180  -0.4619  -0.3305  -0.2330  -0.1501  -0.0877   5.4087   5.5571
     5.9491   6.2946   6.3706   6.8913   7.2998   7.4131   7.8792   8.1509
     8.6133   8.6455   8.7675   9.3351   9.5894   9.6903   9.8356   9.9579
    13.5136  14.0861  14.4097  14.8285  15.0133  15.7207  15.9114  16.3252

          k = 0.1429 0.0000 0.0000 (  5307 PWs)   bands (ev):

   -44.9354 -44.5353 -23.3851 -22.5298 -21.2500 -21.0769 -21.0502 -20.3171
   -15.2702 -15.0797  -6.9678  -6.7131  -5.7332  -5.5240  -5.0794  -4.8965
    -0.6242  -0.4642  -0.2795  -0.2357  -0.1479  -0.0988   5.2992   5.5652
     6.0192   6.1591   6.2817   6.8999   7.2799   7.3691   7.9921   8.1049
     8.4040   8.6424   8.7589   9.1674   9.5098   9.6392   9.8005   9.8598
    13.6596  14.2796  14.6241  15.1086  15.1877  15.6601  15.8037  16.3655

          k = 0.2857 0.0000 0.0000 (  5327 PWs)   bands (ev):

   -44.9349 -44.5349 -23.3896 -22.5457 -21.2507 -21.0754 -21.0627 -20.3155
   -15.2361 -15.0494  -6.7718  -6.6495  -5.8521  -5.5470  -5.1851  -4.9389
    -0.6990  -0.4698  -0.2644  -0.2199  -0.0739  -0.0298   5.0968   5.4696
     5.9539   5.9834   6.3341   6.7866   7.1789   7.2432   7.9948   8.1083
     8.2629   8.5291   8.6336   8.9156   9.3352   9.4317   9.7860   9.8198
    13.9816  14.6318  15.0909  15.3711  15.5723  15.7785  16.0794  16.5031

          k = 0.4286 0.0000 0.0000 (  5310 PWs)   bands (ev):

   -44.9346 -44.5345 -23.3933 -22.5584 -21.2512 -21.0757 -21.0711 -20.3141
   -15.2089 -15.0243  -6.7100  -6.4680  -5.9749  -5.5654  -5.2666  -4.9763
    -0.7997  -0.4649  -0.2757  -0.1871  -0.0236   0.0936   4.9439   5.3012
     5.8963   6.0124   6.2932   6.5800   7.0903   7.1295   7.8188   8.1599
     8.1939   8.4679   8.5710   8.8575   9.1541   9.3509   9.7817   9.8364
    14.2545  14.9012  15.2513  15.5650  15.7193  16.0136  16.5384  16.6628

          k =-0.0000-0.1250 0.0000 (  5290 PWs)   bands (ev):

   -44.9356 -44.5355 -23.3830 -22.5228 -21.2497 -21.0775 -21.0443 -20.3183
   -15.2793 -15.0995  -7.0132  -6.7746  -5.6850  -5.4954  -5.0575  -4.8772
    -0.6098  -0.4511  -0.3100  -0.2449  -0.1732  -0.0937   5.4212   5.5570
     6.0056   6.3171   6.3415   6.9159   7.2301   7.5634   7.9361   8.1167
     8.5012   8.6489   8.8013   9.3214   9.4304   9.6306   9.7705   9.9329
    13.7673  14.3674  14.5325  14.8977  15.2695  15.4648  15.7572  16.2774

          k = 0.1429-0.1250 0.0000 (  5297 PWs)   bands (ev):

   -44.9354 -44.5353 -23.3851 -22.5298 -21.2500 -21.0769 -21.0499 -20.3175
   -15.2648 -15.0855  -6.9365  -6.7375  -5.7298  -5.5138  -5.1051  -4.8970
    -0.6341  -0.4760  -0.2776  -0.2254  -0.1494  -0.0850   5.2934   5.5579
     6.0585   6.1882   6.2809   6.9306   7.1765   7.5281   7.9730   8.1076
     8.3803   8.6332   8.7872   9.1868   9.3667   9.5349   9.7839   9.8299
    13.8665  14.4524  14.7986  15.1494  15.2959  15.5038  15.7747  16.3525

          k = 0.2857-0.1250 0.0000 (  5313 PWs)   bands (ev):

   -44.9349 -44.5348 -23.3896 -22.5457 -21.2507 -21.0760 -21.0617 -20.3158
   -15.2325 -15.0534  -6.7605  -6.6484  -5.8502  -5.5446  -5.2080  -4.9363
    -0.7022  -0.4924  -0.2432  -0.2200  -0.0814  -0.0212   5.0907   5.4919
     5.9598   6.0290   6.3300   6.7828   7.1051   7.3824   7.9122   8.0881
     8.2876   8.5462   8.6198   9.0201   9.2338   9.4359   9.6655   9.7970
    14.1272  14.7268  15.1048  15.3307  15.5452  15.9562  16.0396  16.6164

          k = 0.4286-0.1250 0.0000 (  5301 PWs)   bands (ev):

   -44.9346 -44.5345 -23.3933 -22.5584 -21.2512 -21.0778 -21.0687 -20.3144
   -15.2065 -15.0270  -6.6800  -6.4920  -5.9675  -5.5724  -5.2836  -4.9675
    -0.7662  -0.4891  -0.2569  -0.1786  -0.0358   0.0458   4.9585   5.3631
     5.9014   6.0694   6.2800   6.5546   7.0055   7.2605   7.8268   8.0607
     8.2069   8.4042   8.5592   9.0049   9.1899   9.2912   9.6811   9.7565
    14.3493  14.9867  15.1765  15.5768  15.7005  16.2294  16.4988  16.6455

          k = 0.0000 0.2500-0.0000 (  5338 PWs)   bands (ev):

   -44.9356 -44.5355 -23.3830 -22.5228 -21.2497 -21.0774 -21.0441 -20.3187
   -15.2726 -15.1066  -6.9522  -6.8315  -5.6832  -5.4799  -5.0860  -4.8773
    -0.6015  -0.4388  -0.2795  -0.2566  -0.2077  -0.1001   5.4336   5.5566
     6.0874   6.2800   6.3446   6.9381   7.2071   7.6840   8.0154   8.1283
     8.3454   8.6537   8.8078   9.2048   9.3477   9.5810   9.7330   9.8963
    14.1931  14.6481  14.7921  14.9652  15.0426  15.2162  16.0139  16.1999

          k = 0.1429 0.2500-0.0000 (  5332 PWs)   bands (ev):

   -44.9354 -44.5353 -23.3851 -22.5298 -21.2500 -21.0769 -21.0495 -20.3179
   -15.2592 -15.0916  -6.8892  -6.7780  -5.7258  -5.5027  -5.1335  -4.8961
    -0.6442  -0.4834  -0.2688  -0.2277  -0.1464  -0.0753   5.2932   5.5476
     6.1212   6.2137   6.2767   6.9343   7.1322   7.6331   7.9741   8.1476
     8.3342   8.6083   8.8001   9.0703   9.3394   9.5006   9.7320   9.7892
    14.2301  14.6269  14.9202  15.1199  15.2194  15.3479  16.1735  16.3022

          k = 0.2857 0.2500 0.0000 (  5308 PWs)   bands (ev):

   -44.9349 -44.5348 -23.3896 -22.5457 -21.2507 -21.0767 -21.0608 -20.3161
   -15.2287 -15.0575  -6.7444  -6.6518  -5.8468  -5.5426  -5.2356  -4.9304
    -0.6968  -0.5348  -0.2214  -0.1789  -0.0857  -0.0477   5.0915   5.5076
     5.9937   6.0640   6.3457   6.7209   7.0656   7.5386   7.8239   8.1053
     8.2567   8.5499   8.6399   8.9931   9.2718   9.4338   9.6113   9.6787
    14.3456  14.7605  15.1347  15.2332  15.5530  15.8718  16.6200  16.6765

          k = 0.4286 0.2500 0.0000 (  5306 PWs)   bands (ev):

   -44.9346 -44.5345 -23.3933 -22.5584 -21.2512 -21.0792 -21.0670 -20.3147
   -15.2040 -15.0298  -6.6351  -6.5315  -5.9573  -5.5811  -5.3022  -4.9574
    -0.7125  -0.5520  -0.1949  -0.1425  -0.0782  -0.0245   4.9747   5.4341
     5.9065   6.1046   6.3366   6.4605   6.9320   7.4819   7.7409   8.0193
     8.1629   8.3335   8.5889   9.0114   9.3004   9.4141   9.5103   9.5971
    14.4587  15.0173  15.1746  15.5013  15.7936  16.2396  16.6582  16.8196

          k = 0.1429-0.0000 0.1429 (  5292 PWs)   bands (ev):

   -44.9352 -44.5351 -23.3894 -22.5302 -21.2585 -21.0762 -21.0520 -20.3164
   -15.2569 -15.0674  -6.9228  -6.6947  -5.7075  -5.5562  -5.1096  -4.8878
    -0.6119  -0.4391  -0.3671  -0.2838  -0.1551  -0.0383   5.3328   5.5451
     5.9688   6.2422   6.2581   6.7982   7.1252   7.2686   7.8874   7.9288
     8.2249   8.6365   8.7913   9.2612   9.4469   9.5744   9.7372   9.9400
    13.8355  14.3249  14.7621  15.2069  15.5355  15.6948  15.9677  16.4414

          k = 0.2857-0.0000 0.1429 (  5312 PWs)   bands (ev):

   -44.9347 -44.5347 -23.3938 -22.5458 -21.2590 -21.0749 -21.0644 -20.3148
   -15.2252 -15.0383  -6.7459  -6.6294  -5.8030  -5.5561  -5.1786  -4.9138
    -0.7190  -0.4705  -0.4115  -0.2767  -0.1400  -0.0197   5.1348   5.5534
     6.0160   6.0557   6.2003   6.6761   7.0889   7.1493   7.7904   7.9053
     8.0403   8.6405   8.7854   9.0669   9.4048   9.4853   9.7272   9.9211
    14.1484  14.5498  15.1715  15.3213  15.6463  16.1879  16.3392  16.5934

          k = 0.4286 0.0000 0.1429 (  5300 PWs)   bands (ev):

   -44.9344 -44.5343 -23.3975 -22.5585 -21.2593 -21.0764 -21.0715 -20.3135
   -15.1992 -15.0137  -6.6341  -6.4873  -5.9164  -5.5601  -5.2371  -4.9566
    -0.8587  -0.5092  -0.3707  -0.2596  -0.1461  -0.0045   4.9432   5.4630
     5.9238   6.0579   6.2003   6.4542   7.0679   7.1123   7.8143   7.9810
     8.0286   8.6310   8.7150   8.9995   9.2931   9.4094   9.7217   9.9134
    14.3805  14.8178  15.3584  15.4711  15.7878  16.3136  16.4173  16.7652

          k = 0.1429-0.1250 0.1429 (  5300 PWs)   bands (ev):

   -44.9352 -44.5351 -23.3894 -22.5302 -21.2585 -21.0763 -21.0516 -20.3168
   -15.2520 -15.0726  -6.8931  -6.7168  -5.7038  -5.5455  -5.1362  -4.8883
    -0.6202  -0.4710  -0.3665  -0.2843  -0.1248  -0.0247   5.3498   5.5338
     5.9846   6.2040   6.2864   6.7993   7.0784   7.4622   7.7781   7.9496
     8.2838   8.6439   8.8070   9.1742   9.3811   9.4823   9.7055   9.9500
    13.9651  14.5363  14.8577  15.2823  15.4561  15.5090  16.0427  16.4459

          k = 0.2857-0.1250 0.1429 (  5306 PWs)   bands (ev):

   -44.9347 -44.5347 -23.3938 -22.5458 -21.2590 -21.0759 -21.0631 -20.3152
   -15.2217 -15.0421  -6.7334  -6.6295  -5.8010  -5.5509  -5.2041  -4.9114
    -0.7095  -0.5002  -0.4222  -0.2767  -0.1386   0.0081   5.1594   5.5431
     5.9876   6.0939   6.2107   6.6145   7.0404   7.3647   7.7064   7.8608
     8.1468   8.6576   8.7795   9.0813   9.3074   9.4104   9.7148   9.9008
    14.2180  14.6702  15.1409  15.3790  15.5046  16.1749  16.4080  16.7259

          k = 0.4286-0.1250 0.1429 (  5305 PWs)   bands (ev):

   -44.9344 -44.5343 -23.3975 -22.5585 -21.2593 -21.0786 -21.0691 -20.3138
   -15.1967 -15.0164  -6.6135  -6.4938  -5.9192  -5.5617  -5.2593  -4.9461
    -0.8144  -0.5368  -0.3763  -0.2556  -0.1431  -0.0432   4.9855   5.4790
     5.9090   6.0994   6.1926   6.4088   7.0373   7.2945   7.7389   7.9417
     8.0845   8.5666   8.7511   9.0613   9.2427   9.3976   9.6511   9.8321
    14.4421  14.8920  15.2611  15.5603  15.7019  16.3363  16.6190  16.8160

          k = 0.1429 0.2500 0.1429 (  5326 PWs)   bands (ev):

   -44.9352 -44.5351 -23.3894 -22.5302 -21.2585 -21.0765 -21.0511 -20.3172
   -15.2470 -15.0781  -6.8541  -6.7474  -5.6999  -5.5357  -5.1628  -4.8888
    -0.6433  -0.4772  -0.3664  -0.2830  -0.1144  -0.0035   5.3656   5.5248
     5.9950   6.1644   6.3373   6.8016   7.0640   7.5699   7.7888   7.9846
     8.2886   8.6271   8.6819   9.1605   9.3544   9.4098   9.7065   9.9204
    14.2531  14.5891  15.0625  15.1452  15.3621  15.4117  16.4277  16.5117

          k = 0.2857 0.2500 0.1429 (  5304 PWs)   bands (ev):

   -44.9347 -44.5347 -23.3938 -22.5458 -21.2590 -21.0768 -21.0620 -20.3155
   -15.2181 -15.0461  -6.7197  -6.6302  -5.7984  -5.5471  -5.2303  -4.9081
    -0.7074  -0.5440  -0.3943  -0.2958  -0.1029   0.0030   5.1817   5.5328
     6.0114   6.0783   6.2459   6.5417   7.0246   7.5155   7.7504   7.8445
     8.1667   8.5918   8.7257   9.0721   9.2792   9.4154   9.6998   9.8418
    14.3811  14.6545  15.1843  15.3233  15.5039  16.0526  16.7929  16.8839

          k = 0.4286 0.2500 0.1429 (  5292 PWs)   bands (ev):

   -44.9344 -44.5343 -23.3975 -22.5585 -21.2594 -21.0800 -21.0675 -20.3141
   -15.1942 -15.0192  -6.5872  -6.5062  -5.9196  -5.5665  -5.2797  -4.9359
    -0.7578  -0.6117  -0.3167  -0.2159  -0.1894  -0.0979   5.0227   5.4959
     5.9358   6.0817   6.2438   6.3194   7.0294   7.4974   7.7509   7.8552
     8.1007   8.5198   8.6966   8.9850   9.3936   9.4397   9.5984   9.6548
    14.5205  14.9062  15.2306  15.5938  15.6880  16.3721  16.8679  16.9474

          k = 0.2857-0.0000 0.2857 (  5288 PWs)   bands (ev):

   -44.9343 -44.5342 -23.4038 -22.5467 -21.2773 -21.0740 -21.0677 -20.3134
   -15.1988 -15.0113  -6.6422  -6.5308  -5.7416  -5.5948  -5.1711  -4.9062
    -0.8632  -0.6826  -0.4787  -0.3268  -0.2373  -0.0880   5.0477   5.4939
     5.9633   6.0726   6.2605   6.5904   7.0355   7.1430   7.5161   7.6821
     7.9411   8.8415   8.8620   9.1734   9.4460   9.5439   9.7917  10.1105
    14.4510  14.6169  15.2670  15.3860  15.8610  16.1919  16.6287  16.7756

          k = 0.4286-0.0000 0.2857 (  5280 PWs)   bands (ev):

   -44.9340 -44.5339 -23.4073 -22.5591 -21.2774 -21.0792 -21.0712 -20.3122
   -15.1763 -14.9890  -6.4948  -6.4163  -5.8388  -5.5644  -5.1666  -4.9321
    -1.0312  -0.7429  -0.6608  -0.3397  -0.2430  -0.1700   4.8466   5.4799
     5.8971   6.1344   6.1863   6.4447   7.0511   7.1234   7.5168   7.8164
     7.8913   8.8722   8.9974   9.2821   9.5571   9.6584   9.7499  10.0913
    14.5904  14.7680  15.3521  15.5682  15.8590  16.0144  16.5789  16.9009

          k = 0.2857-0.1250 0.2857 (  5301 PWs)   bands (ev):

   -44.9343 -44.5342 -23.4038 -22.5467 -21.2774 -21.0757 -21.0657 -20.3137
   -15.1958 -15.0146  -6.6298  -6.5342  -5.7360  -5.5839  -5.1978  -4.9089
    -0.8312  -0.6400  -0.5464  -0.3678  -0.2597  -0.0385   5.0890   5.4930
     5.9151   6.0374   6.2897   6.5751   6.9849   7.3237   7.4876   7.7476
     7.9883   8.7613   8.8802   9.1393   9.4026   9.4842   9.7879  10.0925
    14.4108  14.7113  15.2425  15.4212  15.7117  16.4625  16.5746  16.9238

          k = 0.4286-0.1250 0.2857 (  5281 PWs)   bands (ev):

   -44.9340 -44.5339 -23.4073 -22.5591 -21.2774 -21.0807 -21.0694 -20.3125
   -15.1740 -14.9917  -6.4855  -6.4143  -5.8369  -5.5572  -5.1966  -4.9270
    -0.9726  -0.6905  -0.6464  -0.4361  -0.3035  -0.1658   4.9134   5.4980
     5.8539   6.0761   6.2385   6.4130   7.0574   7.3136   7.5567   7.7612
     7.9184   8.7355   9.0178   9.2961   9.5330   9.5963   9.7402  10.0326
    14.5934  14.8149  15.3338  15.5377  15.8861  16.1966  16.6667  17.0146

          k = 0.2857 0.2500 0.2857 (  5290 PWs)   bands (ev):

   -44.9343 -44.5342 -23.4038 -22.5467 -21.2774 -21.0769 -21.0642 -20.3140
   -15.1928 -15.0179  -6.6210  -6.5327  -5.7301  -5.5761  -5.2225  -4.9119
    -0.7879  -0.6486  -0.5663  -0.4379  -0.1885  -0.0618   5.1262   5.4925
     5.8791   5.9891   6.3117   6.5725   6.9869   7.3619   7.6391   7.8031
     8.0619   8.4926   8.8946   9.1720   9.3212   9.4748   9.8165  10.0466
    14.4750  14.6477  15.2784  15.4664  15.6598  16.4831  16.8787  17.1518

          k = 0.4286 0.2500 0.2857 (  5278 PWs)   bands (ev):

   -44.9340 -44.5339 -23.4073 -22.5591 -21.2775 -21.0819 -21.0680 -20.3128
   -15.1715 -14.9944  -6.4752  -6.4135  -5.8347  -5.5483  -5.2267  -4.9230
    -0.8721  -0.7692  -0.5684  -0.4314  -0.3602  -0.2402   4.9776   5.5100
     5.8160   6.0373   6.2610   6.4019   7.0718   7.4927   7.6262   7.7365
     7.9899   8.4759   9.0130   9.2892   9.4806   9.6259   9.7630   9.9385
    14.6341  14.7904  15.3511  15.5025  15.9058  16.6130  16.8318  17.0509

          k = 0.4286-0.0000 0.4286 (  5288 PWs)   bands (ev):

   -44.9336 -44.5335 -23.4152 -22.5598 -21.2917 -21.0817 -21.0705 -20.3112
   -15.1575 -14.9687  -6.4285  -6.2889  -5.7419  -5.6217  -5.1070  -4.9161
    -1.1861  -0.9417  -0.9060  -0.4192  -0.3330  -0.1810   4.7376   5.4254
     5.7046   6.1202   6.2324   6.4672   7.0711   7.1649   7.3557   7.7802
     7.8446   8.8812   9.2936   9.5605   9.6485   9.8515  10.0038  10.2699
    14.6779  14.7713  15.2767  15.4669  15.7378  16.1822  16.2177  16.9501

          k = 0.4286-0.1250 0.4286 (  5273 PWs)   bands (ev):

   -44.9336 -44.5335 -23.4152 -22.5598 -21.2917 -21.0828 -21.0691 -20.3115
   -15.1552 -14.9712  -6.4124  -6.3028  -5.7357  -5.6001  -5.1395  -4.9217
    -1.1033  -0.8869  -0.8459  -0.5024  -0.4181  -0.2545   4.8219   5.4590
     5.6676   6.0928   6.2763   6.4895   7.0994   7.2363   7.4857   7.6838
     7.8357   8.6856   9.2990   9.5746   9.6454   9.8603   9.9244  10.2165
    14.7271  14.8122  15.3041  15.6561  15.7178  16.1338  16.4381  17.0654

          k = 0.4286 0.2500 0.4286 (  5276 PWs)   bands (ev):

   -44.9336 -44.5335 -23.4152 -22.5598 -21.2918 -21.0837 -21.0680 -20.3117
   -15.1529 -14.9737  -6.3926  -6.3202  -5.7301  -5.5755  -5.1743  -4.9277
    -0.9580  -0.9025  -0.7247  -0.5628  -0.5152  -0.3912   4.9058   5.4915
     5.6393   6.0590   6.3109   6.5167   7.1110   7.3769   7.5018   7.7015
     7.9072   8.3579   9.2991   9.5719   9.6392   9.8517   9.9044  10.1504
    14.7704  14.8615  15.3053  15.4977  16.0745  16.5223  16.6713  16.8319

          k = 0.0000-0.0000 0.1429 (  5307 PWs)   bands (ev):

   -44.9354 -44.5353 -23.3877 -22.5235 -21.2580 -21.0768 -21.0462 -20.3171
   -15.2704 -15.0795  -6.9704  -6.7264  -5.6933  -5.5445  -5.0802  -4.8941
    -0.6159  -0.4627  -0.2790  -0.2535  -0.1396  -0.0942   5.3378   5.5034
     5.9926   6.2551   6.3274   6.7941   7.2378   7.3994   7.9703   8.0888
     8.4433   8.5851   8.7441   9.1566   9.6110   9.6448   9.7659   9.8538
    13.6756  14.2804  14.6159  15.1013  15.2045  15.6778  15.8326  16.3350

          k = 0.0000-0.0000 0.2857 (  5327 PWs)   bands (ev):

   -44.9349 -44.5348 -23.3983 -22.5251 -21.2766 -21.0752 -21.0501 -20.3155
   -15.2367 -15.0487  -6.7911  -6.6908  -5.7385  -5.5895  -5.1899  -4.9282
    -0.6683  -0.4787  -0.2864  -0.2047  -0.0551  -0.0461   5.2269   5.3367
     5.8823   6.0979   6.3275   6.7102   7.1542   7.3516   7.7600   8.0906
     8.3351   8.4665   8.6433   8.8720   9.3425   9.4256   9.7324   9.9766
    14.0622  14.6946  14.9826  15.3729  15.6262  15.7957  16.1239  16.4989

          k = 0.0000-0.0000 0.4286 (  5310 PWs)   bands (ev):

   -44.9346 -44.5345 -23.4068 -22.5265 -21.2914 -21.0739 -21.0531 -20.3141
   -15.2099 -15.0231  -6.7708  -6.5216  -5.8136  -5.5976  -5.2756  -4.9553
    -0.7557  -0.4786  -0.2977  -0.1662  -0.0018   0.0689   5.1764   5.1914
     5.6513   6.0291   6.2484   6.6915   7.0714   7.2275   7.7568   7.9089
     8.2194   8.4280   8.5579   8.8817   9.1050   9.2916   9.7322  10.0687
    14.4403  15.0484  15.1422  15.4912  15.6916  15.9460  16.6451  16.7786

          k =-0.1429-0.1250-0.0000 (  5297 PWs)   bands (ev):

   -44.9354 -44.5353 -23.3851 -22.5298 -21.2500 -21.0769 -21.0498 -20.3175
   -15.2649 -15.0855  -6.9346  -6.7393  -5.7292  -5.5151  -5.1060  -4.8953
    -0.6347  -0.4722  -0.2775  -0.2256  -0.1505  -0.0880   5.2988   5.5545
     6.0679   6.2037   6.2692   6.9209   7.1741   7.5155   7.9701   8.1040
     8.4200   8.6036   8.7846   9.1418   9.4026   9.6379   9.6949   9.8317
    13.8669  14.5459  14.6917  15.2154  15.2820  15.5167  15.7043  16.3554

          k = 0.0000 0.1250 0.1429 (  5297 PWs)   bands (ev):

   -44.9354 -44.5353 -23.3877 -22.5235 -21.2581 -21.0768 -21.0460 -20.3175
   -15.2651 -15.0852  -6.9412  -6.7477  -5.6921  -5.5334  -5.1054  -4.8950
    -0.6308  -0.4688  -0.2655  -0.2484  -0.1344  -0.0948   5.3438   5.5172
     5.9938   6.2210   6.3456   6.8389   7.2730   7.5064   7.8952   8.1117
     8.4467   8.5239   8.7376   9.1594   9.5059   9.6056   9.7174   9.8108
    13.8698  14.5061  14.7231  15.1995  15.3190  15.5517  15.7208  16.3407

          k =-0.0000 0.1250-0.1429 (  5297 PWs)   bands (ev):

   -44.9354 -44.5353 -23.3877 -22.5235 -21.2580 -21.0768 -21.0460 -20.3175
   -15.2650 -15.0853  -6.9380  -6.7515  -5.6929  -5.5319  -5.1056  -4.8950
    -0.6212  -0.4809  -0.2670  -0.2301  -0.1551  -0.0885   5.3429   5.5155
     6.0272   6.1906   6.3451   6.8250   7.2691   7.5211   7.9016   8.1168
     8.4145   8.5479   8.7823   9.1275   9.4803   9.5695   9.7203   9.8554
    13.8754  14.5508  14.7033  15.1840  15.3116  15.5026  15.7601  16.3106

          k =-0.2857-0.1250-0.0000 (  5313 PWs)   bands (ev):

   -44.9349 -44.5348 -23.3896 -22.5457 -21.2507 -21.0761 -21.0617 -20.3158
   -15.2325 -15.0534  -6.7572  -6.6515  -5.8491  -5.5450  -5.2133  -4.9319
    -0.6976  -0.5067  -0.2501  -0.1711  -0.0970  -0.0391   5.0964   5.4887
     5.9841   6.0113   6.3463   6.7697   7.0826   7.3647   7.9377   8.0664
     8.3319   8.5360   8.6255   8.9977   9.2427   9.4781   9.6333   9.7793
    14.1221  14.7906  15.0890  15.3310  15.5396  15.9030  16.0240  16.6710

          k = 0.0000 0.1250 0.2857 (  5313 PWs)   bands (ev):

   -44.9349 -44.5348 -23.3983 -22.5251 -21.2767 -21.0754 -21.0496 -20.3158
   -15.2331 -15.0526  -6.7855  -6.6839  -5.7354  -5.5850  -5.2158  -4.9262
    -0.6709  -0.5139  -0.2528  -0.1742  -0.0828  -0.0492   5.2454   5.3614
     5.8842   6.0538   6.3458   6.7265   7.2244   7.4191   7.6835   8.0995
     8.2730   8.4583   8.6784   8.9284   9.2770   9.3989   9.6459   9.9352
    14.1875  14.8517  14.9709  15.4401  15.5870  15.8672  16.0344  16.6723

          k =-0.0000 0.1250-0.2857 (  5313 PWs)   bands (ev):

   -44.9349 -44.5348 -23.3983 -22.5251 -21.2767 -21.0754 -21.0496 -20.3158
   -15.2330 -15.0528  -6.7863  -6.6824  -5.7418  -5.5797  -5.2136  -4.9281
    -0.6703  -0.5009  -0.2659  -0.2004  -0.0604  -0.0454   5.2437   5.3653
     5.8893   6.0419   6.3458   6.7192   7.2468   7.4285   7.6510   8.0870
     8.2915   8.4593   8.7021   8.9245   9.2577   9.3918   9.6450   9.9522
    14.1902  14.8565  14.9683  15.4638  15.5223  15.8973  16.0536  16.6258

          k =-0.4286-0.1250-0.0000 (  5301 PWs)   bands (ev):

   -44.9346 -44.5345 -23.3933 -22.5584 -21.2512 -21.0779 -21.0686 -20.3144
   -15.2065 -15.0270  -6.6791  -6.4932  -5.9658  -5.5724  -5.2877  -4.9646
    -0.7651  -0.4966  -0.2468  -0.1693  -0.0450   0.0416   4.9601   5.3624
     5.9069   6.0590   6.3065   6.5364   6.9963   7.2554   7.8186   8.0706
     8.2364   8.3810   8.5656   9.0278   9.1645   9.3046   9.6621   9.7570
    14.3447  14.9973  15.1927  15.6053  15.6779  16.1592  16.5419  16.6557

          k = 0.0000 0.1250 0.4286 (  5301 PWs)   bands (ev):

   -44.9346 -44.5345 -23.4068 -22.5265 -21.2914 -21.0743 -21.0524 -20.3144
   -15.2074 -15.0259  -6.7443  -6.5447  -5.7994  -5.5989  -5.2983  -4.9507
    -0.7246  -0.5059  -0.2722  -0.1501  -0.0287   0.0274   5.1935   5.2504
     5.6801   5.9945   6.2901   6.6940   7.0668   7.2717   7.6719   7.9216
     8.2249   8.4233   8.5171   8.9868   9.1112   9.1990   9.6552  10.0181
    14.5254  15.0083  15.2633  15.5215  15.6796  16.0722  16.6058  16.7802

          k =-0.0000 0.1250-0.4286 (  5301 PWs)   bands (ev):

   -44.9346 -44.5345 -23.4068 -22.5265 -21.2914 -21.0743 -21.0524 -20.3144
   -15.2073 -15.0259  -6.7473  -6.5398  -5.8063  -5.5940  -5.2970  -4.9521
    -0.7239  -0.4987  -0.2855  -0.1560  -0.0188   0.0294   5.1934   5.2505
     5.6824   5.9912   6.2851   6.6933   7.0761   7.2794   7.6494   7.9180
     8.2576   8.3703   8.5607   8.9855   9.0978   9.2013   9.6596  10.0212
    14.5282  15.0004  15.2591  15.5099  15.6770  16.1173  16.5826  16.7842

          k = 0.0000-0.2500 0.1429 (  5332 PWs)   bands (ev):

   -44.9354 -44.5353 -23.3877 -22.5235 -21.2581 -21.0768 -21.0457 -20.3179
   -15.2593 -15.0914  -6.8960  -6.7856  -5.6921  -5.5182  -5.1329  -4.8960
    -0.6356  -0.4860  -0.2458  -0.2358  -0.1501  -0.0874   5.3491   5.5283
     6.0520   6.1333   6.3639   6.8740   7.3040   7.6332   7.9187   8.0569
     8.3959   8.5353   8.7245   9.0879   9.4299   9.5157   9.6820   9.8178
    14.2037  14.6978  14.9743  15.1104  15.1631  15.3500  16.1983  16.3473

          k = 0.0000-0.2500 0.2857 (  5308 PWs)   bands (ev):

   -44.9349 -44.5348 -23.3983 -22.5251 -21.2767 -21.0755 -21.0492 -20.3161
   -15.2292 -15.0569  -6.7807  -6.6754  -5.7392  -5.5734  -5.2403  -4.9267
    -0.6684  -0.5410  -0.2191  -0.1783  -0.0776  -0.0633   5.2638   5.3911
     5.9243   5.9602   6.3607   6.7452   7.3108   7.4685   7.6957   8.0187
     8.1809   8.5828   8.6876   8.8483   9.2349   9.4574   9.5154   9.9085
    14.3750  14.8306  15.1354  15.3410  15.5441  15.7947  16.6619  16.7330

          k = 0.0000-0.2500 0.4286 (  5306 PWs)   bands (ev):

   -44.9346 -44.5345 -23.4068 -22.5265 -21.2914 -21.0746 -21.0518 -20.3147
   -15.2048 -15.0288  -6.7133  -6.5705  -5.7909  -5.5961  -5.3192  -4.9484
    -0.6711  -0.5593  -0.2281  -0.1299  -0.0766  -0.0111   5.2203   5.3037
     5.7301   5.9315   6.3223   6.6899   7.1085   7.2753   7.6758   7.8964
     8.1499   8.4506   8.5814   8.7915   9.1682   9.3353   9.5128   9.9662
    14.6202  14.9906  15.3500  15.4478  15.7468  16.1779  16.7917  16.9186

          k =-0.1429-0.0000 0.1429 (  5292 PWs)   bands (ev):

   -44.9352 -44.5351 -23.3900 -22.5307 -21.2582 -21.0762 -21.0517 -20.3164
   -15.2555 -15.0662  -6.8577  -6.6888  -5.7584  -5.5515  -5.1121  -4.9324
    -0.6832  -0.5224  -0.3495  -0.2009  -0.1364  -0.0387   5.1606   5.4677
     5.9548   6.2321   6.3121   6.8580   7.2806   7.4268   7.9469   8.2128
     8.3183   8.6989   8.7691   8.9109   9.4451   9.5841   9.7674   9.9737
    13.7839  14.4917  14.8498  15.1694  15.4095  15.6046  15.6881  16.2854

          k =-0.2857-0.0000 0.1429 (  5312 PWs)   bands (ev):

   -44.9347 -44.5347 -23.3945 -22.5465 -21.2587 -21.0748 -21.0641 -20.3148
   -15.2235 -15.0367  -6.6832  -6.5692  -5.8832  -5.5656  -5.1850  -4.9701
    -0.8092  -0.5738  -0.3635  -0.2383  -0.1101   0.0260   4.9434   5.3934
     5.9057   6.1250   6.3788   6.7933   7.1761   7.2397   7.9652   8.0995
     8.2618   8.6877   8.7429   8.8840   9.2299   9.4802   9.8092   9.9533
    14.0723  14.7478  15.2547  15.4174  15.5637  15.6328  16.2822  16.3636

          k = 0.1429-0.0000 0.2857 (  5312 PWs)   bands (ev):

   -44.9347 -44.5346 -23.3998 -22.5316 -21.2770 -21.0747 -21.0558 -20.3148
   -15.2256 -15.0378  -6.7645  -6.6534  -5.7024  -5.6060  -5.1831  -4.9059
    -0.6984  -0.4857  -0.4110  -0.2604  -0.1427  -0.0266   5.2434   5.4443
     5.9337   6.0549   6.3051   6.6001   7.0398   7.2693   7.7007   7.9120
     8.0821   8.5495   8.7466   9.0558   9.3963   9.4787   9.7048  10.0306
    14.2092  14.5965  15.0651  15.3310  15.7191  16.1744  16.4302  16.5985

          k = 0.1429 0.0000-0.2857 (  5312 PWs)   bands (ev):

   -44.9347 -44.5346 -23.4004 -22.5323 -21.2766 -21.0746 -21.0554 -20.3148
   -15.2239 -15.0362  -6.7045  -6.5984  -5.7990  -5.5921  -5.1868  -4.9638
    -0.7929  -0.5800  -0.3644  -0.2334  -0.1077   0.0214   5.0175   5.3289
     5.8302   6.2098   6.3270   6.7802   7.2246   7.3731   7.7263   7.9559
     8.4107   8.6400   8.7515   8.8220   9.2394   9.4951   9.8757   9.9781
    14.1311  14.8311  15.1621  15.3635  15.5245  15.6629  16.2737  16.4062

          k =-0.4286-0.0000 0.1429 (  5300 PWs)   bands (ev):

   -44.9344 -44.5343 -23.3978 -22.5588 -21.2592 -21.0762 -21.0715 -20.3135
   -15.1984 -15.0130  -6.6323  -6.4023  -5.9790  -5.5686  -5.2415  -4.9820
    -0.8964  -0.5611  -0.3201  -0.2629  -0.1591   0.0416   4.8504   5.3725
     5.9864   6.0206   6.2442   6.5536   7.0653   7.1332   7.9116   8.0596
     8.1048   8.6541   8.7130   9.0003   9.1396   9.4088   9.8346   9.8628
    14.3348  14.9087  15.3788  15.5064  15.7849  16.0342  16.3789  16.7377

          k = 0.1429-0.0000 0.4286 (  5300 PWs)   bands (ev):

   -44.9344 -44.5343 -23.4083 -22.5330 -21.2916 -21.0735 -21.0586 -20.3135
   -15.2000 -15.0128  -6.7010  -6.5117  -5.7683  -5.6038  -5.2449  -4.9408
    -0.8279  -0.5317  -0.3691  -0.2305  -0.1302  -0.0369   5.1394   5.3345
     5.7086   5.9953   6.2068   6.5836   7.1063   7.2299   7.6693   7.8668
     8.1093   8.5299   8.6851   8.9920   9.2410   9.3532   9.7131  10.1034
    14.5389  14.9821  15.1537  15.4182  15.7969  16.1551  16.5873  16.8634

          k = 0.1429 0.0000-0.4286 (  5300 PWs)   bands (ev):

   -44.9344 -44.5343 -23.4086 -22.5333 -21.2914 -21.0735 -21.0585 -20.3135
   -15.1992 -15.0120  -6.6944  -6.4482  -5.8266  -5.6010  -5.2466  -4.9674
    -0.8673  -0.5754  -0.3275  -0.2405  -0.1478   0.0225   5.0092   5.2774
     5.7215   6.0489   6.2321   6.6693   7.1602   7.2436   7.6979   7.8617
     8.2432   8.5407   8.7032   8.9869   9.1153   9.3806   9.8049  10.0647
    14.4797  15.1215  15.2192  15.4275  15.7226  15.8378  16.4887  16.8335

          k =-0.1429 0.1250 0.1429 (  5300 PWs)   bands (ev):

   -44.9352 -44.5351 -23.3900 -22.5307 -21.2582 -21.0762 -21.0514 -20.3168
   -15.2509 -15.0711  -6.8400  -6.6976  -5.7547  -5.5413  -5.1350  -4.9366
    -0.7009  -0.5490  -0.3565  -0.2327  -0.0775  -0.0060   5.1409   5.4666
     5.9359   6.1843   6.3904   6.9303   7.2756   7.4926   7.9288   8.2058
     8.3188   8.6223   8.7906   8.9677   9.4193   9.5538   9.6499   9.9233
    13.9417  14.6108  14.9635  15.2666  15.4289  15.6062  15.6681  16.3363

          k =-0.1429-0.1250-0.1429 (  5300 PWs)   bands (ev):

   -44.9352 -44.5351 -23.3894 -22.5302 -21.2585 -21.0764 -21.0516 -20.3168
   -15.2522 -15.0725  -6.8951  -6.7138  -5.7033  -5.5489  -5.1341  -4.8883
    -0.6355  -0.4475  -0.3669  -0.2825  -0.1433  -0.0160   5.3481   5.5358
     5.9716   6.2140   6.3047   6.8017   7.0802   7.4361   7.7637   7.9654
     8.3252   8.6214   8.7074   9.2683   9.4139   9.4484   9.7356   9.9126
    13.9727  14.5871  14.7894  15.2388  15.5052  15.5545  15.9658  16.4923

          k = 0.1429 0.1250-0.1429 (  5300 PWs)   bands (ev):

   -44.9352 -44.5351 -23.3900 -22.5307 -21.2582 -21.0762 -21.0514 -20.3168
   -15.2508 -15.0711  -6.8362  -6.7014  -5.7550  -5.5416  -5.1358  -4.9352
    -0.6966  -0.5521  -0.3551  -0.2335  -0.0723  -0.0134   5.1432   5.4689
     5.9408   6.1715   6.4002   6.9157   7.2778   7.5108   7.9000   8.2499
     8.2757   8.6557   8.7981   8.9475   9.4343   9.5088   9.6644   9.9310
    13.9514  14.6953  14.8934  15.2644  15.4537  15.5844  15.6417  16.2842

          k =-0.2857 0.1250 0.1429 (  5306 PWs)   bands (ev):

   -44.9347 -44.5347 -23.3945 -22.5465 -21.2587 -21.0755 -21.0631 -20.3151
   -15.2202 -15.0402  -6.6741  -6.5701  -5.8768  -5.5607  -5.2044  -4.9725
    -0.8069  -0.5935  -0.3825  -0.2821  -0.0578   0.0550   4.9464   5.3710
     5.9173   6.0828   6.4248   6.8341   7.1614   7.3261   7.9420   8.1010
     8.2837   8.5983   8.7232   8.9732   9.2658   9.4510   9.6784   9.9167
    14.1769  14.8110  15.1504  15.4122  15.5448  15.9253  16.2347  16.4365

          k =-0.2857-0.1250-0.1429 (  5306 PWs)   bands (ev):

   -44.9347 -44.5347 -23.3938 -22.5458 -21.2590 -21.0760 -21.0631 -20.3151
   -15.2217 -15.0421  -6.7335  -6.6288  -5.8008  -5.5529  -5.2045  -4.9098
    -0.7229  -0.4907  -0.4115  -0.2869  -0.1061  -0.0216   5.1560   5.5436
     5.9892   6.1090   6.2175   6.6047   7.0350   7.3124   7.7390   7.8939
     8.1800   8.6161   8.7095   9.0955   9.3208   9.4826   9.7063   9.8656
    14.2279  14.6889  15.1539  15.3421  15.5127  16.2029  16.3039  16.8184

          k = 0.2857 0.1250-0.1429 (  5306 PWs)   bands (ev):

   -44.9347 -44.5347 -23.3945 -22.5465 -21.2587 -21.0755 -21.0631 -20.3151
   -15.2202 -15.0402  -6.6701  -6.5741  -5.8769  -5.5569  -5.2142  -4.9665
    -0.7962  -0.6082  -0.3963  -0.2462  -0.0745   0.0527   4.9456   5.3828
     5.8994   6.0806   6.4522   6.8347   7.1199   7.3601   7.8760   8.1588
     8.2751   8.5908   8.7410   9.0069   9.2877   9.3794   9.7029   9.8970
    14.1796  14.8546  15.1542  15.4370  15.5116  15.8758  16.2289  16.4457

          k = 0.1429 0.1250 0.2857 (  5306 PWs)   bands (ev):

   -44.9347 -44.5346 -23.3998 -22.5316 -21.2770 -21.0751 -21.0551 -20.3151
   -15.2222 -15.0416  -6.7579  -6.6472  -5.7015  -5.6003  -5.2072  -4.9047
    -0.7048  -0.5032  -0.4113  -0.2711  -0.1190  -0.0172   5.2712   5.4457
     5.9136   6.0296   6.3176   6.5961   7.0915   7.4134   7.5349   7.9588
     8.1810   8.5245   8.6904   9.0668   9.2685   9.5043   9.6846   9.9881
    14.2821  14.7592  15.0209  15.4208  15.5650  16.1164  16.3752  16.8200

          k =-0.1429 0.1250-0.2857 (  5306 PWs)   bands (ev):

   -44.9347 -44.5346 -23.3998 -22.5316 -21.2770 -21.0751 -21.0551 -20.3152
   -15.2220 -15.0417  -6.7538  -6.6522  -5.7050  -5.5934  -5.2093  -4.9054
    -0.6900  -0.5064  -0.4289  -0.2695  -0.1320   0.0008   5.2750   5.4493
     5.9164   6.0173   6.3249   6.5980   7.0647   7.3972   7.5532   7.9633
     8.1522   8.5668   8.7573   9.0199   9.2772   9.4551   9.6868  10.0103
    14.2543  14.7506  15.0692  15.4201  15.5308  16.1275  16.4095  16.7861

          k = 0.1429-0.1250-0.2857 (  5306 PWs)   bands (ev):

   -44.9347 -44.5346 -23.4004 -22.5323 -21.2766 -21.0749 -21.0549 -20.3151
   -15.2207 -15.0396  -6.6969  -6.5981  -5.7932  -5.5811  -5.2131  -4.9646
    -0.7842  -0.6124  -0.3980  -0.2402  -0.0741   0.0527   5.0305   5.2985
     5.8560   6.1213   6.3991   6.8121   7.2716   7.4192   7.7088   7.9831
     8.3616   8.5632   8.7673   8.9384   9.2395   9.4049   9.7883   9.9460
    14.2201  14.9018  15.0893  15.4531  15.5184  15.8322  16.2391  16.4847

          k =-0.1429-0.1250 0.2857 (  5306 PWs)   bands (ev):

   -44.9347 -44.5346 -23.4004 -22.5323 -21.2766 -21.0749 -21.0549 -20.3151
   -15.2206 -15.0397  -6.6995  -6.5943  -5.7957  -5.5831  -5.2064  -4.9682
    -0.7891  -0.6002  -0.3854  -0.2764  -0.0563   0.0520   5.0254   5.3078
     5.8477   6.1146   6.4004   6.8087   7.2824   7.4639   7.6686   7.9883
     8.3162   8.6548   8.7061   8.9245   9.2439   9.4384   9.7430   9.9772
    14.2341  14.9227  15.0373  15.4635  15.5236  15.8480  16.2245  16.5075

          k =-0.4286 0.1250 0.1429 (  5305 PWs)   bands (ev):

   -44.9344 -44.5343 -23.3978 -22.5588 -21.2592 -21.0782 -21.0693 -20.3138
   -15.1961 -15.0156  -6.6040  -6.4269  -5.9696  -5.5740  -5.2583  -4.9738
    -0.8645  -0.5770  -0.3347  -0.2724  -0.1413   0.0118   4.8860   5.3749
     5.9678   6.0245   6.2910   6.5261   7.0626   7.2465   7.9307   8.0129
     8.1330   8.5387   8.6952   9.0920   9.1677   9.3794   9.7363   9.7925
    14.4077  14.9589  15.2490  15.6312  15.7043  16.2264  16.5035  16.6998

          k =-0.4286-0.1250-0.1429 (  5305 PWs)   bands (ev):

   -44.9344 -44.5343 -23.3975 -22.5585 -21.2593 -21.0786 -21.0691 -20.3138
   -15.1967 -15.0164  -6.6132  -6.4945  -5.9170  -5.5641  -5.2599  -4.9446
    -0.8287  -0.5243  -0.3801  -0.2230  -0.1514  -0.0617   4.9795   5.4787
     5.9244   6.0974   6.2097   6.3837   7.0328   7.2525   7.8522   7.8997
     8.1012   8.5729   8.6712   9.0429   9.2707   9.4404   9.6495   9.8133
    14.4429  14.8879  15.2683  15.5601  15.7107  16.4199  16.5731  16.7534

          k = 0.4286 0.1250-0.1429 (  5305 PWs)   bands (ev):

   -44.9344 -44.5343 -23.3978 -22.5588 -21.2592 -21.0783 -21.0692 -20.3138
   -15.1961 -15.0155  -6.6015  -6.4298  -5.9707  -5.5665  -5.2687  -4.9697
    -0.8523  -0.5866  -0.3725  -0.2040  -0.1718   0.0083   4.8881   5.3803
     5.9460   6.0242   6.3141   6.5343   7.0382   7.2814   7.8144   8.0867
     8.1389   8.5050   8.7615   9.1001   9.2157   9.3099   9.7304   9.7841
    14.4075  14.9726  15.2751  15.6145  15.7015  16.1416  16.5530  16.7379

          k = 0.1429 0.1250 0.4286 (  5305 PWs)   bands (ev):

   -44.9344 -44.5343 -23.4083 -22.5330 -21.2916 -21.0741 -21.0577 -20.3138
   -15.1975 -15.0155  -6.6808  -6.5233  -5.7632  -5.6024  -5.2683  -4.9339
    -0.8011  -0.5373  -0.3913  -0.1956  -0.1426  -0.0774   5.1840   5.3206
     5.7524   5.9642   6.2418   6.5718   7.0994   7.3449   7.5914   7.8903
     8.1370   8.4924   8.6485   8.9926   9.2433   9.3384   9.6550  10.0432
    14.6013  15.0214  15.1431  15.5058  15.7122  16.2289  16.7375  16.9153

          k =-0.1429 0.1250-0.4286 (  5305 PWs)   bands (ev):

   -44.9344 -44.5343 -23.4083 -22.5330 -21.2916 -21.0741 -21.0577 -20.3138
   -15.1974 -15.0156  -6.6838  -6.5189  -5.7715  -5.5925  -5.2709  -4.9345
    -0.7894  -0.5451  -0.3967  -0.2263  -0.1285  -0.0589   5.1814   5.3383
     5.7305   5.9729   6.2448   6.5824   7.0966   7.3033   7.5664   7.9195
     8.1359   8.4890   8.7245   9.0091   9.1936   9.3174   9.6590  10.0490
    14.5791  15.0629  15.1495  15.4958  15.6867  16.2042  16.6929  16.9368

          k = 0.1429-0.1250-0.4286 (  5305 PWs)   bands (ev):

   -44.9344 -44.5343 -23.4086 -22.5333 -21.2914 -21.0740 -21.0576 -20.3138
   -15.1968 -15.0146  -6.6691  -6.4717  -5.8180  -5.5909  -5.2747  -4.9607
    -0.8305  -0.5944  -0.3824  -0.1823  -0.1701   0.0045   5.0537   5.2544
     5.7631   6.0181   6.2773   6.6780   7.1599   7.3019   7.6320   7.9013
     8.2821   8.4310   8.7221   9.0596   9.1387   9.2879   9.7270  10.0141
    14.5432  15.1160  15.2009  15.5580  15.6553  15.9707  16.6519  16.7895

          k =-0.1429-0.1250 0.4286 (  5305 PWs)   bands (ev):

   -44.9344 -44.5343 -23.4086 -22.5333 -21.2914 -21.0740 -21.0577 -20.3138
   -15.1968 -15.0147  -6.6692  -6.4717  -5.8158  -5.5981  -5.2664  -4.9639
    -0.8375  -0.5871  -0.3556  -0.2516  -0.1259   0.0032   5.0526   5.2490
     5.7779   6.0002   6.2751   6.6755   7.1362   7.3773   7.6324   7.8938
     8.2081   8.5264   8.6359   9.0517   9.1433   9.3234   9.7256  10.0205
    14.5522  15.0789  15.1863  15.5409  15.6806  16.0425  16.6831  16.7641

          k =-0.1429-0.2500 0.1429 (  5326 PWs)   bands (ev):

   -44.9352 -44.5351 -23.3900 -22.5307 -21.2582 -21.0762 -21.0511 -20.3172
   -15.2460 -15.0763  -6.8137  -6.7151  -5.7514  -5.5295  -5.1606  -4.9394
    -0.7143  -0.5759  -0.3591  -0.2485  -0.0329   0.0161   5.1245   5.4666
     5.9239   6.1498   6.4505   6.9820   7.2870   7.5797   7.9575   8.1349
     8.2828   8.6382   8.7749   9.0002   9.3616   9.4480   9.6515   9.8635
    14.2237  14.7065  15.0030  15.1758  15.4394  15.4856  16.1882  16.3698

          k =-0.2857-0.2500 0.1429 (  5304 PWs)   bands (ev):

   -44.9347 -44.5347 -23.3944 -22.5465 -21.2587 -21.0761 -21.0622 -20.3155
   -15.2169 -15.0438  -6.6596  -6.5764  -5.8701  -5.5514  -5.2340  -4.9696
    -0.7820  -0.6517  -0.3975  -0.2831  -0.0196   0.0662   4.9497   5.3610
     5.9092   6.0463   6.4931   6.8595   7.1161   7.5139   7.8281   8.1560
     8.2276   8.5769   8.7156   9.0525   9.2965   9.3504   9.6515   9.8217
    14.3520  14.7891  15.0509  15.3921  15.5943  16.0574  16.6485  16.6966

          k = 0.1429-0.2500 0.2857 (  5304 PWs)   bands (ev):

   -44.9347 -44.5346 -23.3998 -22.5316 -21.2770 -21.0755 -21.0544 -20.3155
   -15.2184 -15.0457  -6.7469  -6.6460  -5.7050  -5.5851  -5.2349  -4.9045
    -0.6900  -0.5502  -0.3979  -0.2878  -0.1083   0.0065   5.3086   5.4468
     5.9038   5.9827   6.3341   6.5951   7.1326   7.4011   7.6419   7.9321
     8.2127   8.5786   8.6236   8.9996   9.1923   9.5062   9.6670   9.9634
    14.4007  14.7195  15.1924  15.4021  15.4884  15.9644  16.7907  16.9030

          k = 0.1429 0.2500-0.2857 (  5304 PWs)   bands (ev):

   -44.9347 -44.5346 -23.4004 -22.5323 -21.2766 -21.0751 -21.0544 -20.3155
   -15.2172 -15.0434  -6.6918  -6.5941  -5.7897  -5.5708  -5.2338  -4.9694
    -0.7682  -0.6558  -0.3996  -0.2786  -0.0234   0.0710   5.0412   5.2756
     5.8912   6.0312   6.4482   6.8340   7.3334   7.4891   7.7888   7.9859
     8.1340   8.6524   8.7661   8.9596   9.1694   9.4542   9.6477   9.9390
    14.3873  14.8153  15.0487  15.4185  15.5888  16.0390  16.6425  16.7444

          k =-0.4286-0.2500 0.1429 (  5292 PWs)   bands (ev):

   -44.9344 -44.5343 -23.3978 -22.5588 -21.2592 -21.0795 -21.0677 -20.3141
   -15.1936 -15.0182  -6.5578  -6.4698  -5.9607  -5.5727  -5.2835  -4.9632
    -0.7890  -0.6589  -0.3411  -0.2437  -0.1284  -0.0378   4.9250   5.3842
     5.9380   6.0111   6.3813   6.4840   7.0396   7.4890   7.7495   8.0430
     8.1409   8.4758   8.6878   9.0189   9.3621   9.4240   9.5771   9.6683
    14.5035  14.9692  15.1735  15.6114  15.7580  16.3048  16.8290  16.8673

          k = 0.1429-0.2500 0.4286 (  5292 PWs)   bands (ev):

   -44.9344 -44.5343 -23.4083 -22.5330 -21.2916 -21.0748 -21.0569 -20.3141
   -15.1948 -15.0184  -6.6601  -6.5340  -5.7667  -5.5897  -5.2943  -4.9287
    -0.7359  -0.6140  -0.3466  -0.2151  -0.1745  -0.0774   5.2430   5.3049
     5.8017   5.9172   6.2807   6.5580   7.1203   7.3464   7.6383   7.8840
     8.1319   8.5036   8.6386   8.8653   9.2594   9.4242   9.5672   9.9767
    14.6447  15.0047  15.2525  15.5234  15.6589  16.2713  16.9512  17.0355

          k = 0.1429 0.2500-0.4286 (  5292 PWs)   bands (ev):

   -44.9344 -44.5343 -23.4086 -22.5333 -21.2914 -21.0745 -21.0569 -20.3141
   -15.1943 -15.0174  -6.6353  -6.5038  -5.8067  -5.5876  -5.2943  -4.9583
    -0.7696  -0.6617  -0.3599  -0.2408  -0.1205  -0.0211   5.1111   5.2134
     5.8633   5.9231   6.3215   6.6713   7.1643   7.3887   7.6900   7.9138
     8.1299   8.4725   8.6878   8.9126   9.1986   9.4836   9.5335   9.9711
    14.6393  14.9945  15.2327  15.5144  15.7157  16.3129  16.8536  16.9343

          k =-0.2857-0.0000 0.2857 (  5288 PWs)   bands (ev):

   -44.9343 -44.5342 -23.4046 -22.5476 -21.2769 -21.0738 -21.0674 -20.3133
   -15.1967 -15.0092  -6.5516  -6.4384  -5.8809  -5.5943  -5.1818  -4.9783
    -0.9772  -0.7595  -0.3970  -0.3031  -0.2643  -0.0092   4.8018   5.4094
     5.8400   6.1861   6.2814   6.6680   7.1832   7.2349   7.7827   7.9070
     8.2043   8.7724   8.9088   8.9970   9.2373   9.6607   9.8949  10.0699
    14.3395  14.8755  15.3393  15.4525  15.7239  15.7647  16.0997  16.6273

          k =-0.4286-0.0000 0.2857 (  5280 PWs)   bands (ev):

   -44.9340 -44.5339 -23.4076 -22.5595 -21.2772 -21.0789 -21.0713 -20.3122
   -15.1754 -14.9881  -6.4450  -6.3627  -5.9147  -5.5694  -5.1738  -4.9657
    -1.0796  -0.8092  -0.5714  -0.3891  -0.2284  -0.1223   4.7426   5.4664
     5.8718   6.1202   6.1953   6.4572   7.0820   7.1863   7.7025   7.8857
     7.9932   8.8372   9.0063   9.2664   9.3667   9.7415   9.9069   9.9952
    14.5278  14.9139  15.3737  15.5951  15.6974  15.9541  16.3829  16.6848

          k = 0.2857-0.0000 0.4286 (  5280 PWs)   bands (ev):

   -44.9340 -44.5338 -23.4121 -22.5478 -21.2917 -21.0739 -21.0694 -20.3122
   -15.1767 -14.9886  -6.5510  -6.4097  -5.7308  -5.6168  -5.1706  -4.9249
    -1.0210  -0.7643  -0.6385  -0.3012  -0.2676  -0.1837   4.9173   5.4475
     5.7795   6.0144   6.2127   6.5015   7.2031   7.2563   7.4718   7.6232
     7.9218   8.8254   8.9706   9.2502   9.5556   9.6464   9.7423  10.1876
    14.6608  14.8324  15.3080  15.4724  15.8220  16.0041  16.5673  16.9137

          k = 0.2857 0.0000-0.4286 (  5280 PWs)   bands (ev):

   -44.9340 -44.5338 -23.4124 -22.5482 -21.2915 -21.0737 -21.0694 -20.3122
   -15.1758 -14.9876  -6.5107  -6.3553  -5.8216  -5.5985  -5.1751  -4.9605
    -1.0702  -0.8180  -0.5612  -0.3756  -0.2299  -0.1343   4.8029   5.4350
     5.7546   6.0717   6.1616   6.5339   7.2460   7.2677   7.6414   7.6983
     8.0370   8.7815   9.0149   9.2370   9.3443   9.7099   9.9022  10.1189
    14.5904  14.9859  15.3219  15.5151  15.6491  15.9268  16.3353  16.7879

          k =-0.2857 0.1250 0.2857 (  5301 PWs)   bands (ev):

   -44.9343 -44.5342 -23.4046 -22.5476 -21.2769 -21.0749 -21.0660 -20.3137
   -15.1940 -15.0121  -6.5410  -6.4437  -5.8770  -5.5801  -5.2074  -4.9774
    -0.9499  -0.7565  -0.4618  -0.3619  -0.2090   0.0192   4.8491   5.3337
     5.8711   6.1053   6.3526   6.6795   7.1934   7.3452   7.7906   7.9430
     8.2159   8.6010   8.9193   9.0730   9.2756   9.5782   9.8236  10.0383
    14.3913  14.9088  15.2121  15.5360  15.6680  15.9705  16.2363  16.7168

          k =-0.2857-0.1250-0.2857 (  5301 PWs)   bands (ev):

   -44.9343 -44.5342 -23.4038 -22.5467 -21.2774 -21.0757 -21.0657 -20.3137
   -15.1959 -15.0145  -6.6342  -6.5285  -5.7357  -5.5888  -5.1940  -4.9091
    -0.8466  -0.6383  -0.5422  -0.3709  -0.1920  -0.0939   5.0810   5.4939
     5.9304   6.0188   6.2844   6.5948   6.9968   7.3194   7.4714   7.7428
     8.0547   8.6572   8.8683   9.1888   9.4097   9.4757   9.8156  10.0696
    14.4585  14.6725  15.2642  15.4156  15.7118  16.4242  16.6877  16.8797

          k = 0.2857 0.1250-0.2857 (  5301 PWs)   bands (ev):

   -44.9343 -44.5342 -23.4046 -22.5476 -21.2769 -21.0750 -21.0659 -20.3137
   -15.1940 -15.0121  -6.5382  -6.4466  -5.8778  -5.5786  -5.2079  -4.9779
    -0.9471  -0.7549  -0.4640  -0.3597  -0.2129   0.0187   4.8450   5.3501
     5.8503   6.1039   6.3632   6.6780   7.1951   7.3773   7.7210   7.9758
     8.2160   8.5952   8.9238   9.0796   9.2902   9.5747   9.8068  10.0407
    14.4005  14.9165  15.1968  15.5253  15.6856  15.9489  16.2793  16.6443

          k =-0.4286 0.1250 0.2857 (  5281 PWs)   bands (ev):

   -44.9340 -44.5339 -23.4077 -22.5595 -21.2773 -21.0803 -21.0696 -20.3125
   -15.1731 -14.9905  -6.4325  -6.3645  -5.9145  -5.5634  -5.2040  -4.9548
    -1.0293  -0.8000  -0.5254  -0.4008  -0.3399  -0.1347   4.8152   5.4346
     5.8680   6.0713   6.2464   6.4455   7.1130   7.3187   7.7421   7.8838
     8.0016   8.6560   9.0067   9.2948   9.3924   9.7071   9.8249   9.9495
    14.5762  14.9343  15.3724  15.5386  15.8700  16.0069  16.4997  16.7908

          k =-0.4286-0.1250-0.2857 (  5281 PWs)   bands (ev):

   -44.9340 -44.5339 -23.4073 -22.5591 -21.2774 -21.0807 -21.0694 -20.3125
   -15.1739 -14.9917  -6.4850  -6.4152  -5.8367  -5.5567  -5.1968  -4.9266
    -0.9848  -0.6892  -0.6711  -0.3471  -0.2796  -0.2426   4.9049   5.4956
     5.8627   6.0719   6.2286   6.4340   7.0451   7.2847   7.5905   7.7460
     7.9855   8.6837   8.9965   9.2796   9.5222   9.6509   9.7478  10.0176
    14.6091  14.7895  15.4174  15.4740  15.9128  16.2484  16.6611  16.9748

          k = 0.4286 0.1250-0.2857 (  5281 PWs)   bands (ev):

   -44.9340 -44.5339 -23.4077 -22.5595 -21.2773 -21.0803 -21.0696 -20.3125
   -15.1732 -14.9905  -6.4284  -6.3681  -5.9165  -5.5595  -5.2079  -4.9535
    -1.0230  -0.7867  -0.5102  -0.4811  -0.2936  -0.1365   4.8185   5.4466
     5.8540   6.0608   6.2661   6.4368   7.1336   7.3292   7.6737   7.9251
     7.9748   8.6649   9.0172   9.3183   9.4163   9.6639   9.8539   9.9167
    14.5786  14.9412  15.3472  15.5689  15.8355  15.9771  16.5131  16.8419

          k = 0.2857 0.1250 0.4286 (  5281 PWs)   bands (ev):

   -44.9340 -44.5338 -23.4121 -22.5478 -21.2917 -21.0760 -21.0671 -20.3125
   -15.1743 -14.9912  -6.5382  -6.4144  -5.7306  -5.6035  -5.1981  -4.9226
    -0.9772  -0.7159  -0.6424  -0.3533  -0.2761  -0.2377   4.9734   5.4285
     5.7878   5.9968   6.2426   6.5058   7.1614   7.4056   7.4692   7.6356
     7.9919   8.6323   8.9994   9.2305   9.5010   9.6614   9.7321  10.1244
    14.6779  14.8584  15.3373  15.4589  15.8810  16.1251  16.7140  17.0957

          k =-0.2857 0.1250-0.4286 (  5281 PWs)   bands (ev):

   -44.9340 -44.5338 -23.4121 -22.5478 -21.2917 -21.0760 -21.0671 -20.3125
   -15.1743 -14.9913  -6.5361  -6.4173  -5.7315  -5.5990  -5.2006  -4.9231
    -0.9675  -0.7189  -0.6257  -0.4117  -0.3219  -0.1561   4.9780   5.4326
     5.7660   6.0049   6.2564   6.5128   7.1299   7.3972   7.4738   7.6751
     7.9264   8.6845   8.9959   9.2583   9.5160   9.6026   9.7412  10.1324
    14.6504  14.8972  15.2795  15.5106  15.8619  16.0798  16.6862  17.0301

          k = 0.2857-0.1250-0.4286 (  5281 PWs)   bands (ev):

   -44.9340 -44.5338 -23.4124 -22.5482 -21.2915 -21.0755 -21.0673 -20.3125
   -15.1735 -14.9901  -6.4943  -6.3657  -5.8215  -5.5821  -5.2097  -4.9506
    -1.0198  -0.7977  -0.5213  -0.4520  -0.2983  -0.1290   4.8762   5.3716
     5.7860   6.0512   6.2109   6.5453   7.1949   7.4131   7.6268   7.7492
     8.0402   8.6036   9.0248   9.2694   9.3973   9.6328   9.8519  10.0630
    14.6390  15.0186  15.2863  15.5521  15.8042  15.8771  16.4752  16.9792

          k =-0.2857-0.1250 0.4286 (  5281 PWs)   bands (ev):

   -44.9340 -44.5338 -23.4124 -22.5482 -21.2915 -21.0755 -21.0673 -20.3125
   -15.1735 -14.9901  -6.4927  -6.3676  -5.8209  -5.5849  -5.2046  -4.9532
    -1.0219  -0.8028  -0.5169  -0.4076  -0.3350  -0.1344   4.8744   5.3766
     5.7914   6.0372   6.2173   6.5362   7.2011   7.4356   7.6035   7.7433
     8.0641   8.5910   9.0322   9.2429   9.3971   9.6557   9.8369  10.0719
    14.6436  15.0139  15.2772  15.5177  15.8196  15.9318  16.5043  16.9734

          k =-0.2857-0.2500 0.2857 (  5290 PWs)   bands (ev):

   -44.9343 -44.5342 -23.4046 -22.5476 -21.2769 -21.0758 -21.0648 -20.3140
   -15.1913 -15.0150  -6.5254  -6.4540  -5.8739  -5.5621  -5.2353  -4.9775
    -0.8853  -0.7924  -0.5265  -0.4064  -0.1154  -0.0038   4.9108   5.2567
     5.8943   6.0362   6.4096   6.6811   7.2039   7.5449   7.7942   7.9647
     8.1440   8.4578   8.9384   9.1899   9.2802   9.4512   9.7804  10.0040
    14.5018  14.8581  15.0493  15.5530  15.6714  16.3506  16.6393  16.9077

          k =-0.4286-0.2500 0.2857 (  5278 PWs)   bands (ev):

   -44.9340 -44.5339 -23.4076 -22.5595 -21.2773 -21.0813 -21.0683 -20.3128
   -15.1708 -14.9931  -6.4124  -6.3732  -5.9166  -5.5520  -5.2373  -4.9450
    -0.9157  -0.8370  -0.5302  -0.4568  -0.2951  -0.2261   4.9068   5.3898
     5.8623   6.0297   6.3059   6.4149   7.1638   7.5346   7.6980   7.8752
     8.0267   8.4401   9.0074   9.3017   9.5050   9.6482   9.7270   9.8868
    14.6553  14.9271  15.2330  15.5381  15.8866  16.4629  16.6999  16.9939

          k = 0.2857-0.2500 0.4286 (  5278 PWs)   bands (ev):

   -44.9340 -44.5338 -23.4121 -22.5478 -21.2917 -21.0773 -21.0656 -20.3128
   -15.1718 -14.9940  -6.5211  -6.4241  -5.7315  -5.5831  -5.2298  -4.9216
    -0.8743  -0.7600  -0.5887  -0.4419  -0.3430  -0.2198   5.0430   5.3976
     5.7886   5.9843   6.2876   6.5072   7.1177   7.3943   7.6399   7.7314
     7.9923   8.3986   9.0147   9.2347   9.4489   9.6632   9.7441  10.0532
    14.6878  14.8724  15.2982  15.5071  15.8166  16.5236  16.8321  17.2017

          k = 0.2857 0.2500-0.4286 (  5278 PWs)   bands (ev):

   -44.9340 -44.5338 -23.4124 -22.5482 -21.2915 -21.0767 -21.0659 -20.3128
   -15.1711 -14.9927  -6.4716  -6.3826  -5.8209  -5.5658  -5.2402  -4.9450
    -0.9199  -0.8329  -0.5439  -0.4563  -0.2878  -0.2067   4.9711   5.2892
     5.8345   6.0096   6.2670   6.5405   7.1670   7.5473   7.7171   7.7894
     8.0320   8.3444   9.0427   9.2420   9.4565   9.6737   9.7179  10.0218
    14.7250  15.0352  15.1288  15.5221  15.7932  16.4608  16.6916  17.0083

          k =-0.4286-0.0000 0.4286 (  5288 PWs)   bands (ev):

   -44.9336 -44.5335 -23.4154 -22.5600 -21.2917 -21.0815 -21.0705 -20.3112
   -15.1571 -14.9682  -6.3832  -6.2866  -5.8062  -5.5917  -5.1094  -4.9353
    -1.2078  -0.9824  -0.8585  -0.4543  -0.2818  -0.1880   4.6963   5.4373
     5.7062   6.1109   6.1907   6.4448   7.1650   7.1831   7.3989   7.8054
     7.8891   8.8624   9.3024   9.4996   9.6783   9.8621  10.0967  10.1850
    14.6509  14.8344  15.2567  15.4296  15.7630  16.1152  16.1765  16.8043

          k =-0.4286 0.1250 0.4286 (  5273 PWs)   bands (ev):

   -44.9336 -44.5335 -23.4154 -22.5600 -21.2917 -21.0826 -21.0692 -20.3114
   -15.1549 -14.9707  -6.3707  -6.2947  -5.7992  -5.5756  -5.1478  -4.9313
    -1.1280  -0.9522  -0.7807  -0.4957  -0.4001  -0.2625   4.7874   5.4410
     5.6925   6.0965   6.2260   6.4642   7.1614   7.3077   7.4947   7.7490
     7.8649   8.6503   9.2980   9.5203   9.7065   9.8247  10.0332  10.1320
    14.7159  14.8865  15.3667  15.5240  15.7436  16.0775  16.3714  16.8919

          k =-0.4286-0.1250-0.4286 (  5273 PWs)   bands (ev):

   -44.9336 -44.5335 -23.4152 -22.5598 -21.2917 -21.0828 -21.0691 -20.3115
   -15.1552 -14.9712  -6.4140  -6.3009  -5.7358  -5.6014  -5.1380  -4.9220
    -1.1070  -0.9020  -0.8458  -0.4481  -0.4001  -0.3083   4.8177   5.4597
     5.6751   6.0839   6.2680   6.4995   7.0950   7.2499   7.4717   7.6491
     7.9062   8.6629   9.2953   9.5552   9.6447   9.8657   9.9374  10.2137
    14.6843  14.8452  15.3678  15.5866  15.7900  16.1446  16.4134  16.9811

          k = 0.4286 0.1250-0.4286 (  5273 PWs)   bands (ev):

   -44.9336 -44.5335 -23.4154 -22.5600 -21.2917 -21.0826 -21.0692 -20.3114
   -15.1549 -14.9706  -6.3735  -6.2907  -5.8011  -5.5756  -5.1473  -4.9313
    -1.1278  -0.9477  -0.7762  -0.5138  -0.3851  -0.2695   4.7890   5.4479
     5.6917   6.0933   6.2311   6.4550   7.1696   7.3057   7.4686   7.7584
     7.8755   8.6521   9.2987   9.5199   9.7071   9.8317  10.0265  10.1286
    14.7199  14.8787  15.3571  15.5310  15.7307  16.1122  16.3410  16.9694

          k =-0.4286-0.2500 0.4286 (  5276 PWs)   bands (ev):

   -44.9336 -44.5335 -23.4154 -22.5600 -21.2917 -21.0835 -21.0681 -20.3117
   -15.1526 -14.9731  -6.3582  -6.3018  -5.7943  -5.5553  -5.1878  -4.9291
    -0.9855  -0.9391  -0.6714  -0.6029  -0.4472  -0.4194   4.8897   5.4290
     5.6934   6.0790   6.2639   6.4733   7.1770   7.4764   7.5207   7.7364
     7.9093   8.3309   9.2937   9.5399   9.7427   9.7971   9.9626  10.0775
    14.8159  14.9406  15.2747  15.4118  16.0516  16.4835  16.5840  16.7903

     the Fermi energy is    11.9291 ev

!    total energy              =   -1361.50626951 Ry
     estimated scf accuracy    <          3.0E-10 Ry
     smearing contrib. (-TS)   =       0.00000000 Ry
     internal energy E=F+TS    =   -1361.50626951 Ry

     The total energy is F=E-TS. E is the sum of the following terms:
     one-electron contribution =    -185.73024832 Ry
     hartree contribution      =     143.32861813 Ry
     xc contribution           =    -123.04161418 Ry
     ewald contribution        =    -389.04274894 Ry
     one-center paw contrib.   =    -807.02027620 Ry

     convergence has been achieved in  22 iterations

     negative rho (up, down):  1.940E-03 0.000E+00

     Forces acting on atoms (cartesian axes, Ry/au):

     atom    1 type  1   force =    -0.00446737   -0.01052141    0.00036199
     atom    2 type  1   force =    -0.00348799    0.00477272   -0.00057163
     atom    3 type  2   force =    -0.49057357   -0.03036642   -1.05580258
     atom    4 type  2   force =     0.63604346    0.04521951    0.08684093
     atom    5 type  3   force =     0.70943945   -0.00301266   -0.12297343
     atom    6 type  3   force =    -0.60785904    0.00979898    0.09931072
     atom    7 type  3   force =     0.00263084    0.01329209   -0.00390454
     atom    8 type  3   force =     0.00657193   -0.02576025   -0.00396087
     atom    9 type  3   force =    -0.24445834   -0.01418458    1.14086843
     atom   10 type  3   force =    -0.00383937    0.01076202   -0.14016900

     Total force =     2.012644     Total SCF correction =     0.000012
     Message from routine punch:
     Nothing written, as per user request (disk_io='none')

     init_run     :     11.21s CPU     11.86s WALL (       1 calls)
     electrons    :    641.27s CPU    661.59s WALL (       1 calls)
     forces       :      5.18s CPU      5.60s WALL (       1 calls)

     Called by init_run:
     wfcinit      :      2.98s CPU      3.07s WALL (       1 calls)
     potinit      :      2.84s CPU      3.03s WALL (       1 calls)
     hinit0       :      1.96s CPU      2.01s WALL (       1 calls)

     Called by electrons:
     c_bands      :    489.59s CPU    492.21s WALL (      22 calls)
     sum_band     :     87.91s CPU     95.12s WALL (      22 calls)
     v_of_rho     :     11.18s CPU     12.25s WALL (      23 calls)
     newd         :     16.42s CPU     21.49s WALL (      23 calls)
     PAW_pot      :     34.77s CPU     39.51s WALL (      23 calls)
     mix_rho      :      1.92s CPU      1.92s WALL (      22 calls)

     Called by c_bands:
     init_us_2    :     19.33s CPU     19.41s WALL (     598 calls)
     cegterg      :    251.92s CPU    254.15s WALL (     286 calls)

     Called by *egterg:
     cdiaghg      :      4.92s CPU      4.94s WALL (    1080 calls)
     h_psi        :    153.47s CPU    154.86s WALL (    1093 calls)
     s_psi        :     21.04s CPU     21.10s WALL (    1093 calls)
     g_psi        :      1.32s CPU      1.33s WALL (     794 calls)

     Called by h_psi:
     h_psi:calbec :     24.67s CPU     24.71s WALL (    1093 calls)
     vloc_psi     :    103.08s CPU    103.80s WALL (    1093 calls)
                                        0.00s GPU  (    1093 calls)
     add_vuspsi   :     21.78s CPU     21.83s WALL (    1093 calls)

     General routines
     calbec       :     36.00s CPU     36.06s WALL (    1431 calls)
     fft          :      4.07s CPU      4.08s WALL (     308 calls)
     ffts         :      0.44s CPU      0.44s WALL (      45 calls)
     fftw         :     96.00s CPU     96.61s WALL (   77136 calls)
     interpolate  :      0.92s CPU      0.93s WALL (      23 calls)

     Parallel routines

     PWSCF        :  10m58.31s CPU  11m19.77s WALL


   This run was terminated on:  23:10:26   4Oct2026            

=------------------------------------------------------------------------------=
   JOB DONE.
=------------------------------------------------------------------------------=
