
     Program PWSCF v.7.5 starts on  5Oct2026 at  0:53:42 

     This program is part of the open-source Quantum ESPRESSO suite
     for quantum simulation of materials; please cite
         "P. Giannozzi et al., J. Phys.:Condens. Matter 21 395502 (2009);
         "P. Giannozzi et al., J. Phys.:Condens. Matter 29 465901 (2017);
         "P. Giannozzi et al., J. Chem. Phys. 152 154105 (2020);
          URL http://www.quantum-espresso.org", 
     in publications or presentations arising from this work. More details at
     http://www.quantum-espresso.org/quote

     Parallel version (MPI & OpenMP), running on       8 processor cores
     Number of MPI processes:                 8
     Threads/MPI process:                     1

     MPI processes distributed on     1 nodes
     100746 MiB available memory on the printing compute node when the environment starts

     Reading input from pw.in

     Current dimensions of program PWSCF are:
     Max number of different atomic species (ntypx) = 10
     Max number of k-points (npk) =  40000
     Max angular momentum in pseudopotentials (lmaxx) =  4
     file K.pbe-spn-kjpaw_psl.1.0.0.UPF: wavefunction(s)  3S renormalized
     file Nb.pbe-spn-kjpaw_psl.0.3.0.UPF: wavefunction(s)  4S 4P renormalized
     file O.pbe-n-kjpaw_psl.0.1.UPF: wavefunction(s)  2P renormalized

     K-points division:     npool     =       8
     Subspace diagonalization in iterative solution of the eigenvalue problem:
     a serial algorithm will be used


     G-vector sticks info
     --------------------
     sticks:   dense  smooth     PW     G-vecs:    dense   smooth      PW
     Sum        4491    2243    645               160281    56679    8681

     Using Slab Decomposition



     bravais-lattice index     =            0
     lattice parameter (alat)  =       7.6684  a.u.
     unit-cell volume          =     902.1575 (a.u.)^3
     number of atoms/cell      =           10
     number of atomic types    =            3
     number of electrons       =        80.00
     number of Kohn-Sham states=           48
     kinetic-energy cutoff     =      60.0000  Ry
     charge density cutoff     =     480.0000  Ry
     scf convergence threshold =      1.0E-09
     mixing beta               =       0.4000
     number of iterations used =            8  plain     mixing
     Exchange-correlation= SLA  PW   PBX  PBC
                           (   1   4   3   4   0   0   0)

     celldm(1)=   7.668434  celldm(2)=   0.000000  celldm(3)=   0.000000
     celldm(4)=   0.000000  celldm(5)=   0.000000  celldm(6)=   0.000000

     crystal axes: (cart. coord. in units of alat)
               a(1) = (  -0.000001  -1.000000  -0.000002 )  
               a(2) = (  -2.000074  -0.000001  -0.000004 )  
               a(3) = (  -0.000002  -0.000002  -1.000267 )  

     reciprocal axes: (cart. coord. in units 2 pi/alat)
               b(1) = (  0.000001 -1.000000  0.000002 )  
               b(2) = ( -0.499981  0.000000  0.000001 )  
               b(3) = (  0.000002  0.000002 -0.999733 )  


     PseudoPot. # 1 for K  read from file:
     /root/sssp/K.pbe-spn-kjpaw_psl.1.0.0.UPF
     MD5 check sum: 7d58810084cac21f60fbe77ea2b688fd
     Pseudo is Projector augmented-wave + core cor, Zval =  9.0
     Generated using "atomic" code by A. Dal Corso  v.5.1
     Shape of augmentation charge: PSQ
     Using radial grid of 1165 points,  6 beta functions with: 
                l(1) =   0
                l(2) =   0
                l(3) =   1
                l(4) =   1
                l(5) =   2
                l(6) =   2
     Q(r) pseudized with 0 coefficients 


     PseudoPot. # 2 for Nb read from file:
     /root/sssp/Nb.pbe-spn-kjpaw_psl.0.3.0.UPF
     MD5 check sum: 411d72ad547312f8017e2943ceca08cc
     Pseudo is Projector augmented-wave + core cor, Zval = 13.0
     Generated using "atomic" code by A. Dal Corso  v.5.0.99 svn rev. 10869
     Shape of augmentation charge: PSQ
     Using radial grid of 1227 points,  6 beta functions with: 
                l(1) =   0
                l(2) =   0
                l(3) =   1
                l(4) =   1
                l(5) =   2
                l(6) =   2
     Q(r) pseudized with 0 coefficients 


     PseudoPot. # 3 for O  read from file:
     /root/sssp/O.pbe-n-kjpaw_psl.0.1.UPF
     MD5 check sum: 0234752ac141de4415c5fc33072bef88
     Pseudo is Projector augmented-wave + core cor, Zval =  6.0
     Generated using "atomic" code by A. Dal Corso  v.5.0.99 svn rev. 10869
     Shape of augmentation charge: BESSEL
     Using radial grid of 1095 points,  4 beta functions with: 
                l(1) =   0
                l(2) =   0
                l(3) =   1
                l(4) =   1
     Q(r) pseudized with 0 coefficients 


     atomic species   valence    mass     pseudopotential
     K                 9.00    39.09830     K ( 1.00)
     Nb               13.00    92.90640     Nb( 1.00)
     O                 6.00    15.99900     O ( 1.00)

     No symmetry found



   Cartesian axes

     site n.     atom                  positions (alat units)
         1        K      tau(   1) = (  -0.0000279  -1.0000104  -0.0000228  )
         2        K      tau(   2) = (  -1.0000150  -0.9999792   0.0000147  )
         3        Nb     tau(   3) = (  -0.5000951  -0.5324988  -0.5494240  )
         4        Nb     tau(   4) = (  -1.4999869  -0.4675089  -0.4508543  )
         5        O      tau(   5) = (  -1.0000371  -0.5000376  -0.5001757  )
         6        O      tau(   6) = (  -2.0000708  -0.4999642  -0.5001014  )
         7        O      tau(   7) = (  -0.4998763   0.0004728  -0.5000146  )
         8        O      tau(   8) = (  -1.5001972  -0.0004802  -0.5002403  )
         9        O      tau(   9) = (  -0.4998554  -0.4999023   0.0008393  )
        10        O      tau(  10) = (  -1.5002196  -0.5001019  -0.0008520  )

     number of k points=    99  Marzari-Vanderbilt smearing, width (Ry)=  0.0050
                       cart. coord. in units 2pi/alat
        k(    1) = (   0.0000000   0.0000000   0.0000000), wk =   0.0102041
        k(    2) = (   0.0000003   0.0000002  -0.1428190), wk =   0.0204082
        k(    3) = (   0.0000006   0.0000005  -0.2856379), wk =   0.0204082
        k(    4) = (   0.0000009   0.0000007  -0.4284569), wk =   0.0204082
        k(    5) = (  -0.1249953   0.0000001   0.0000003), wk =   0.0204082
        k(    6) = (  -0.1249951   0.0000003  -0.1428187), wk =   0.0204082
        k(    7) = (  -0.1249948   0.0000006  -0.2856377), wk =   0.0204082
        k(    8) = (  -0.1249945   0.0000008  -0.4284566), wk =   0.0204082
        k(    9) = (  -0.1249962  -0.0000007   0.4284571), wk =   0.0204082
        k(   10) = (  -0.1249959  -0.0000004   0.2856382), wk =   0.0204082
        k(   11) = (  -0.1249956  -0.0000002   0.1428192), wk =   0.0204082
        k(   12) = (   0.2499907  -0.0000001  -0.0000005), wk =   0.0102041
        k(   13) = (   0.2499910   0.0000001  -0.1428195), wk =   0.0204082
        k(   14) = (   0.2499913   0.0000004  -0.2856384), wk =   0.0204082
        k(   15) = (   0.2499916   0.0000006  -0.4284574), wk =   0.0204082
        k(   16) = (   0.0000001  -0.1428571   0.0000002), wk =   0.0204082
        k(   17) = (   0.0000004  -0.1428569  -0.1428187), wk =   0.0204082
        k(   18) = (   0.0000007  -0.1428567  -0.2856377), wk =   0.0204082
        k(   19) = (   0.0000009  -0.1428564  -0.4284566), wk =   0.0204082
        k(   20) = (  -0.0000008  -0.1428579   0.4284571), wk =   0.0204082
        k(   21) = (  -0.0000005  -0.1428576   0.2856382), wk =   0.0204082
        k(   22) = (  -0.0000002  -0.1428574   0.1428192), wk =   0.0204082
        k(   23) = (  -0.1249953  -0.1428571   0.0000005), wk =   0.0204082
        k(   24) = (  -0.1249950  -0.1428568  -0.1428185), wk =   0.0204082
        k(   25) = (  -0.1249947  -0.1428566  -0.2856374), wk =   0.0204082
        k(   26) = (  -0.1249944  -0.1428563  -0.4284564), wk =   0.0204082
        k(   27) = (  -0.1249961  -0.1428578   0.4284574), wk =   0.0204082
        k(   28) = (  -0.1249958  -0.1428576   0.2856384), wk =   0.0204082
        k(   29) = (  -0.1249956  -0.1428573   0.1428195), wk =   0.0204082
        k(   30) = (   0.2499908  -0.1428573  -0.0000003), wk =   0.0204082
        k(   31) = (   0.2499911  -0.1428570  -0.1428192), wk =   0.0204082
        k(   32) = (   0.2499914  -0.1428568  -0.2856382), wk =   0.0204082
        k(   33) = (   0.2499916  -0.1428565  -0.4284571), wk =   0.0204082
        k(   34) = (   0.2499899  -0.1428580   0.4284566), wk =   0.0204082
        k(   35) = (   0.2499902  -0.1428578   0.2856376), wk =   0.0204082
        k(   36) = (   0.2499905  -0.1428575   0.1428187), wk =   0.0204082
        k(   37) = (   0.1249954  -0.1428572  -0.0000000), wk =   0.0204082
        k(   38) = (   0.1249957  -0.1428570  -0.1428190), wk =   0.0204082
        k(   39) = (   0.1249960  -0.1428567  -0.2856379), wk =   0.0204082
        k(   40) = (   0.1249963  -0.1428565  -0.4284569), wk =   0.0204082
        k(   41) = (   0.1249946  -0.1428579   0.4284569), wk =   0.0204082
        k(   42) = (   0.1249948  -0.1428577   0.2856379), wk =   0.0204082
        k(   43) = (   0.1249951  -0.1428575   0.1428189), wk =   0.0204082
        k(   44) = (   0.0000002  -0.2857143   0.0000005), wk =   0.0204082
        k(   45) = (   0.0000004  -0.2857140  -0.1428185), wk =   0.0204082
        k(   46) = (   0.0000007  -0.2857138  -0.2856374), wk =   0.0204082
        k(   47) = (   0.0000010  -0.2857135  -0.4284564), wk =   0.0204082
        k(   48) = (  -0.0000007  -0.2857150   0.4284574), wk =   0.0204082
        k(   49) = (  -0.0000004  -0.2857148   0.2856384), wk =   0.0204082
        k(   50) = (  -0.0000001  -0.2857145   0.1428194), wk =   0.0204082
        k(   51) = (  -0.1249952  -0.2857142   0.0000007), wk =   0.0204082
        k(   52) = (  -0.1249949  -0.2857140  -0.1428182), wk =   0.0204082
        k(   53) = (  -0.1249946  -0.2857137  -0.2856372), wk =   0.0204082
        k(   54) = (  -0.1249943  -0.2857135  -0.4284561), wk =   0.0204082
        k(   55) = (  -0.1249961  -0.2857150   0.4284576), wk =   0.0204082
        k(   56) = (  -0.1249958  -0.2857147   0.2856387), wk =   0.0204082
        k(   57) = (  -0.1249955  -0.2857145   0.1428197), wk =   0.0204082
        k(   58) = (   0.2499909  -0.2857144  -0.0000000), wk =   0.0204082
        k(   59) = (   0.2499911  -0.2857142  -0.1428190), wk =   0.0204082
        k(   60) = (   0.2499914  -0.2857139  -0.2856379), wk =   0.0204082
        k(   61) = (   0.2499917  -0.2857137  -0.4284569), wk =   0.0204082
        k(   62) = (   0.2499900  -0.2857152   0.4284568), wk =   0.0204082
        k(   63) = (   0.2499903  -0.2857149   0.2856379), wk =   0.0204082
        k(   64) = (   0.2499906  -0.2857147   0.1428189), wk =   0.0204082
        k(   65) = (   0.1249955  -0.2857144   0.0000002), wk =   0.0204082
        k(   66) = (   0.1249958  -0.2857141  -0.1428187), wk =   0.0204082
        k(   67) = (   0.1249961  -0.2857139  -0.2856377), wk =   0.0204082
        k(   68) = (   0.1249964  -0.2857136  -0.4284566), wk =   0.0204082
        k(   69) = (   0.1249946  -0.2857151   0.4284571), wk =   0.0204082
        k(   70) = (   0.1249949  -0.2857148   0.2856381), wk =   0.0204082
        k(   71) = (   0.1249952  -0.2857146   0.1428192), wk =   0.0204082
        k(   72) = (   0.0000002  -0.4285714   0.0000007), wk =   0.0204082
        k(   73) = (   0.0000005  -0.4285712  -0.1428182), wk =   0.0204082
        k(   74) = (   0.0000008  -0.4285709  -0.2856372), wk =   0.0204082
        k(   75) = (   0.0000011  -0.4285707  -0.4284561), wk =   0.0204082
        k(   76) = (  -0.0000006  -0.4285722   0.4284576), wk =   0.0204082
        k(   77) = (  -0.0000003  -0.4285719   0.2856386), wk =   0.0204082
        k(   78) = (  -0.0000001  -0.4285717   0.1428197), wk =   0.0204082
        k(   79) = (  -0.1249951  -0.4285714   0.0000010), wk =   0.0204082
        k(   80) = (  -0.1249948  -0.4285711  -0.1428180), wk =   0.0204082
        k(   81) = (  -0.1249945  -0.4285709  -0.2856369), wk =   0.0204082
        k(   82) = (  -0.1249942  -0.4285706  -0.4284559), wk =   0.0204082
        k(   83) = (  -0.1249960  -0.4285721   0.4284579), wk =   0.0204082
        k(   84) = (  -0.1249957  -0.4285719   0.2856389), wk =   0.0204082
        k(   85) = (  -0.1249954  -0.4285716   0.1428199), wk =   0.0204082
        k(   86) = (   0.2499909  -0.4285716   0.0000002), wk =   0.0204082
        k(   87) = (   0.2499912  -0.4285713  -0.1428187), wk =   0.0204082
        k(   88) = (   0.2499915  -0.4285711  -0.2856377), wk =   0.0204082
        k(   89) = (   0.2499918  -0.4285708  -0.4284566), wk =   0.0204082
        k(   90) = (   0.2499901  -0.4285723   0.4284571), wk =   0.0204082
        k(   91) = (   0.2499903  -0.4285721   0.2856381), wk =   0.0204082
        k(   92) = (   0.2499906  -0.4285718   0.1428192), wk =   0.0204082
        k(   93) = (   0.1249956  -0.4285715   0.0000005), wk =   0.0204082
        k(   94) = (   0.1249959  -0.4285713  -0.1428185), wk =   0.0204082
        k(   95) = (   0.1249962  -0.4285710  -0.2856374), wk =   0.0204082
        k(   96) = (   0.1249965  -0.4285708  -0.4284564), wk =   0.0204082
        k(   97) = (   0.1249947  -0.4285722   0.4284573), wk =   0.0204082
        k(   98) = (   0.1249950  -0.4285720   0.2856384), wk =   0.0204082
        k(   99) = (   0.1249953  -0.4285717   0.1428194), wk =   0.0204082

     Dense  grid:   160281 G-vectors     FFT dimensions: (  54, 108,  54)

     Smooth grid:    56679 G-vectors     FFT dimensions: (  40,  75,  40)

     Estimated max dynamical RAM per process >     251.10 MB

     Estimated total dynamical RAM >       1.69 GB

     Check: negative core charge=   -0.000003

     Initial potential from superposition of free atoms

     starting charge      79.9581, renormalised to      80.0000
     Starting wfcs are   60 randomized atomic wfcs
     Checking if some PAW data can be deallocated... 

     total cpu time spent up to now is       30.7 secs

     per-process dynamical memory:   173.5 Mb

     Self-consistent Calculation

     iteration #  1     ecut=    60.00 Ry     beta= 0.40
     Davidson diagonalization with overlap
     ethr =  1.00E-02,  avg # of iterations =  2.4

     total cpu time spent up to now is       81.8 secs

     total energy              =   -1143.95874790 Ry
     estimated scf accuracy    <       5.01282203 Ry

     iteration #  2     ecut=    60.00 Ry     beta= 0.40
     Davidson diagonalization with overlap
     ethr =  6.27E-03,  avg # of iterations =  4.0

     total cpu time spent up to now is      147.4 secs

     total energy              =   -1145.22063768 Ry
     estimated scf accuracy    <       1.46974598 Ry

     iteration #  3     ecut=    60.00 Ry     beta= 0.40
     Davidson diagonalization with overlap
     ethr =  1.84E-03,  avg # of iterations =  2.2

     total cpu time spent up to now is      201.3 secs

     total energy              =   -1145.53040757 Ry
     estimated scf accuracy    <       0.07391113 Ry

     iteration #  4     ecut=    60.00 Ry     beta= 0.40
     Davidson diagonalization with overlap
     ethr =  9.24E-05,  avg # of iterations = 10.6

     total cpu time spent up to now is      285.4 secs

     total energy              =   -1145.53332542 Ry
     estimated scf accuracy    <       0.02205946 Ry

     iteration #  5     ecut=    60.00 Ry     beta= 0.40
     Davidson diagonalization with overlap
     ethr =  2.76E-05,  avg # of iterations =  5.0

     total cpu time spent up to now is      351.2 secs

     total energy              =   -1145.53814766 Ry
     estimated scf accuracy    <       0.01267055 Ry

     iteration #  6     ecut=    60.00 Ry     beta= 0.40
     Davidson diagonalization with overlap
     ethr =  1.58E-05,  avg # of iterations =  1.4

     total cpu time spent up to now is      397.7 secs

     total energy              =   -1145.53700091 Ry
     estimated scf accuracy    <       0.00334425 Ry

     iteration #  7     ecut=    60.00 Ry     beta= 0.40
     Davidson diagonalization with overlap
     ethr =  4.18E-06,  avg # of iterations =  5.1

     total cpu time spent up to now is      460.9 secs

     total energy              =   -1145.53798378 Ry
     estimated scf accuracy    <       0.00024427 Ry

     iteration #  8     ecut=    60.00 Ry     beta= 0.40
     Davidson diagonalization with overlap
     ethr =  3.05E-07,  avg # of iterations =  2.3

     total cpu time spent up to now is      512.0 secs

     total energy              =   -1145.53798077 Ry
     estimated scf accuracy    <       0.00010654 Ry

     iteration #  9     ecut=    60.00 Ry     beta= 0.40
     Davidson diagonalization with overlap
     ethr =  1.33E-07,  avg # of iterations =  1.2

     total cpu time spent up to now is      553.1 secs

     total energy              =   -1145.53797970 Ry
     estimated scf accuracy    <       0.00002422 Ry

     iteration # 10     ecut=    60.00 Ry     beta= 0.40
     Davidson diagonalization with overlap
     ethr =  3.03E-08,  avg # of iterations =  2.9

     total cpu time spent up to now is      607.5 secs

     total energy              =   -1145.53798527 Ry
     estimated scf accuracy    <       0.00000157 Ry

     iteration # 11     ecut=    60.00 Ry     beta= 0.40
     Davidson diagonalization with overlap
     ethr =  1.97E-09,  avg # of iterations =  4.1

     total cpu time spent up to now is      665.1 secs

     total energy              =   -1145.53798579 Ry
     estimated scf accuracy    <       0.00000007 Ry

     iteration # 12     ecut=    60.00 Ry     beta= 0.40
     Davidson diagonalization with overlap
     ethr =  8.92E-11,  avg # of iterations =  4.9

     total cpu time spent up to now is      744.0 secs

     total energy              =   -1145.53798580 Ry
     estimated scf accuracy    <       0.00000008 Ry

     iteration # 13     ecut=    60.00 Ry     beta= 0.40
     Davidson diagonalization with overlap
     ethr =  8.92E-11,  avg # of iterations =  2.0

     total cpu time spent up to now is      800.4 secs

     total energy              =   -1145.53798581 Ry
     estimated scf accuracy    <          1.9E-09 Ry

     iteration # 14     ecut=    60.00 Ry     beta= 0.40
     Davidson diagonalization with overlap
     ethr =  2.32E-12,  avg # of iterations =  4.2

     total cpu time spent up to now is      869.9 secs

     End of self-consistent calculation

          k = 0.0000 0.0000 0.0000 (  7121 PWs)   bands (ev):

   -46.8768 -46.8751 -23.1168 -23.1144 -22.9999 -22.9755 -22.9730 -22.8947
   -19.5093 -19.4864  -9.1438  -9.1344  -8.6776  -8.6518  -8.4686  -7.6880
    -3.0896  -3.0651  -3.0289  -3.0015  -2.9737  -2.9280   3.2491   5.4743
     5.5874   5.5939   5.6906   5.7183   5.7444   5.7970   5.8144   6.1236
     6.1433   6.1720   6.6154   6.6732   6.7936   7.1723   7.1820   7.2616
     9.7593  10.0919  10.7068  10.8415  12.1579  12.3856  12.9526  13.6091

          k = 0.0000 0.0000-0.1428 (  7083 PWs)   bands (ev):

   -46.8764 -46.8748 -23.1379 -23.1350 -22.9986 -22.9754 -22.9728 -22.8941
   -19.5053 -19.4847  -9.0414  -9.0201  -8.6334  -8.6071  -8.4647  -7.6978
    -3.0865  -3.0601  -3.0149  -2.9942  -2.9770  -2.9442   3.2407   4.7019
     5.0410   5.1606   5.4993   5.5324   5.6295   5.7386   6.0699   6.0825
     6.1761   6.3211   6.5671   6.6252   6.9507   7.0058   7.1625   7.2538
     9.8054  10.4967  10.9345  11.0433  12.1596  12.4808  13.0376  14.1028

          k = 0.0000 0.0000-0.2856 (  7083 PWs)   bands (ev):

   -46.8756 -46.8740 -23.1850 -23.1810 -22.9958 -22.9747 -22.9720 -22.8925
   -19.4966 -19.4808  -8.9464  -8.8251  -8.4821  -8.4016  -8.3712  -7.7199
    -3.0819  -3.0656  -3.0034  -2.9897  -2.9690  -2.9421   3.1994   3.8816
     4.0173   4.0289   5.0415   5.2542   5.3829   5.5699   5.9799   6.0865
     6.2625   6.3061   6.5023   6.5308   6.7788   7.1009   7.2373   7.4825
     9.8660  11.3719  11.6143  11.6923  12.1630  12.7790  13.0859  14.3819

          k = 0.0000 0.0000-0.4285 (  7081 PWs)   bands (ev):

   -46.8750 -46.8733 -23.2225 -23.2177 -22.9935 -22.9739 -22.9711 -22.8913
   -19.4898 -19.4776  -8.9410  -8.7519  -8.4671  -8.1285  -8.0888  -7.7378
    -3.0920  -3.0790  -3.0032  -2.9901  -2.9545  -2.9092   2.9155   3.0740
     3.3854   3.6420   4.7647   5.0028   5.2185   5.4604   5.8825   6.0591
     6.0885   6.4162   6.4808   6.5468   6.6352   7.0706   7.2225   7.7895
     9.9099  12.0610  12.1652  12.2474  12.3000  13.1011  13.1121  14.4358

          k =-0.1250 0.0000 0.0000 (  7086 PWs)   bands (ev):

   -46.8766 -46.8754 -23.1165 -23.1148 -22.9855 -22.9744 -22.9734 -22.9102
   -19.5063 -19.4893  -9.1362  -9.1256  -8.6699  -8.6540  -8.3799  -7.8234
    -3.0809  -3.0635  -3.0248  -3.0048  -2.9732  -2.9398   3.6109   5.3120
     5.5394   5.6071   5.7006   5.7077   5.7774   5.8231   5.9207   6.1123
     6.1801   6.2039   6.6218   6.6550   6.6645   6.8786   6.9534   7.0264
    10.1857  10.4664  10.7304  10.8248  11.8330  12.0475  13.5379  13.6515

          k =-0.1250 0.0000-0.1428 (  7112 PWs)   bands (ev):

   -46.8762 -46.8750 -23.1375 -23.1354 -22.9843 -22.9742 -22.9733 -22.9095
   -19.5027 -19.4873  -9.0242  -9.0142  -8.6286  -8.6106  -8.3793  -7.8323
    -3.0832  -3.0638  -3.0176  -2.9999  -2.9665  -2.9460   3.5999   4.7745
     5.0252   5.1974   5.3358   5.5268   5.5909   5.7751   5.8729   6.0262
     6.2501   6.3478   6.5704   6.6329   6.8380   6.9124   7.0259   7.0460
    10.2141  10.7706  10.9596  11.0299  11.8410  12.1637  13.5460  14.0570

          k =-0.1250 0.0000-0.2856 (  7094 PWs)   bands (ev):

   -46.8754 -46.8742 -23.1845 -23.1816 -22.9818 -22.9733 -22.9725 -22.9077
   -19.4949 -19.4826  -8.9087  -8.8305  -8.4324  -8.4006  -8.3461  -7.8519
    -3.0866  -3.0687  -3.0088  -2.9812  -2.9683  -2.9394   3.5209   3.8777
     3.9877   4.2344   5.0484   5.0975   5.2193   5.6201   5.6718   6.0206
     6.3159   6.3712   6.4963   6.5645   6.8272   6.9857   7.0326   7.4426
    10.2617  11.5178  11.6308  11.6746  11.8670  12.5151  13.5508  14.3282

          k =-0.1250 0.0000-0.4285 (  7064 PWs)   bands (ev):

   -46.8748 -46.8736 -23.2218 -23.2184 -22.9799 -22.9723 -22.9716 -22.9064
   -19.4888 -19.4786  -8.8938  -8.7673  -8.3921  -8.1223  -8.0957  -7.8675
    -3.0916  -3.0728  -2.9983  -2.9834  -2.9622  -2.9227   2.9752   3.0577
     3.6818   3.8071   4.7926   4.8387   4.9593   5.5342   5.6022   5.9969
     6.2108   6.4235   6.4658   6.5727   6.8000   6.9198   7.0306   7.6975
    10.2989  11.8534  12.1638  12.2654  12.2998  12.8932  13.5445  14.3742

          k =-0.1250-0.0000 0.4285 (  7064 PWs)   bands (ev):

   -46.8748 -46.8736 -23.2218 -23.2184 -22.9799 -22.9723 -22.9716 -22.9064
   -19.4888 -19.4786  -8.8938  -8.7673  -8.3921  -8.1224  -8.0956  -7.8675
    -3.0882  -3.0770  -2.9976  -2.9833  -2.9613  -2.9235   2.9751   3.0579
     3.6827   3.8056   4.7926   4.8391   4.9594   5.5342   5.6023   5.9970
     6.2108   6.4229   6.4663   6.5728   6.7999   6.9195   7.0307   7.6976
    10.2988  11.8535  12.1638  12.2656  12.2999  12.8928  13.5445  14.3743

          k =-0.1250-0.0000 0.2856 (  7094 PWs)   bands (ev):

   -46.8754 -46.8742 -23.1845 -23.1816 -22.9818 -22.9733 -22.9725 -22.9077
   -19.4949 -19.4825  -8.9086  -8.8306  -8.4324  -8.4006  -8.3461  -7.8519
    -3.0832  -3.0731  -3.0072  -2.9844  -2.9638  -2.9414   3.5213   3.8772
     3.9905   4.2305   5.0485   5.0981   5.2199   5.6200   5.6722   6.0209
     6.3156   6.3710   6.4965   6.5645   6.8272   6.9842   7.0334   7.4431
    10.2615  11.5179  11.6314  11.6750  11.8668  12.5145  13.5507  14.3284

          k =-0.1250-0.0000 0.1428 (  7112 PWs)   bands (ev):

   -46.8762 -46.8750 -23.1375 -23.1354 -22.9843 -22.9742 -22.9733 -22.9095
   -19.5028 -19.4873  -9.0241  -9.0143  -8.6286  -8.6106  -8.3793  -7.8323
    -3.0848  -3.0619  -3.0162  -3.0001  -2.9704  -2.9437   3.6001   4.7753
     5.0242   5.1955   5.3362   5.5263   5.5914   5.7746   5.8759   6.0264
     6.2496   6.3483   6.5699   6.6330   6.8367   6.9085   7.0278   7.0483
    10.2138  10.7707  10.9598  11.0301  11.8409  12.1635  13.5459  14.0571

          k = 0.2500-0.0000-0.0000 (  7078 PWs)   bands (ev):

   -46.8761 -46.8758 -23.1159 -23.1155 -22.9750 -22.9747 -22.9473 -22.9470
   -19.5015 -19.4941  -9.1238  -9.1233  -8.6603  -8.6599  -8.1276  -8.1187
    -3.0702  -3.0628  -3.0181  -3.0106  -2.9663  -2.9590   4.4963   4.5021
     5.5916   5.5924   5.6725   5.6730   5.9184   5.9224   6.0330   6.0352
     6.2610   6.2646   6.4985   6.5082   6.6300   6.6307   6.8099   6.8169
    10.7726  10.7734  11.0539  11.0558  11.2731  11.2753  13.6764  13.6767

          k = 0.2500 0.0000-0.1428 (  7106 PWs)   bands (ev):

   -46.8758 -46.8755 -23.1367 -23.1364 -22.9748 -22.9745 -22.9463 -22.9460
   -19.4987 -19.4913  -9.0091  -9.0086  -8.6193  -8.6189  -8.1331  -8.1242
    -3.0772  -3.0709  -3.0146  -3.0084  -2.9558  -2.9505   4.4557   4.4608
     5.0028   5.0056   5.3917   5.3940   5.5647   5.5666   5.9357   5.9382
     6.3970   6.3994   6.5337   6.5365   6.7101   6.7138   6.9894   6.9954
    10.9520  10.9537  11.0913  11.0927  11.4685  11.4706  13.9671  13.9675

          k = 0.2500 0.0000-0.2856 (  7098 PWs)   bands (ev):

   -46.8750 -46.8747 -23.1833 -23.1830 -22.9740 -22.9737 -22.9442 -22.9439
   -19.4924 -19.4850  -8.8550  -8.8545  -8.4038  -8.4035  -8.1428  -8.1342
    -3.0852  -3.0795  -3.0004  -2.9945  -2.9496  -2.9451   3.8507   3.8523
     4.4003   4.4044   4.8353   4.8372   5.1394   5.1399   5.8506   5.8538
     6.4032   6.4041   6.5103   6.5122   6.7456   6.7508   7.2870   7.2940
    11.0782  11.0804  11.6562  11.6566  11.9858  11.9885  14.1103  14.1110

          k = 0.2500 0.0000-0.4285 (  7090 PWs)   bands (ev):

   -46.8743 -46.8740 -23.2203 -23.2200 -22.9732 -22.9728 -22.9424 -22.9421
   -19.4874 -19.4800  -8.8158  -8.8153  -8.1738  -8.1673  -8.0959  -8.0938
    -3.0834  -3.0765  -2.9852  -2.9786  -2.9582  -2.9518   3.0240   3.0246
     4.1747   4.1785   4.6598   4.6650   4.8836   4.8841   5.7975   5.8013
     6.3412   6.3417   6.5243   6.5264   6.7455   6.7511   7.3950   7.4025
    11.1085  11.1106  12.2766  12.2770  12.4887  12.4918  14.1226  14.1234

          k = 0.0000-0.1429 0.0000 (  7087 PWs)   bands (ev):

   -46.8764 -46.8748 -23.1170 -23.1146 -22.9987 -22.9961 -22.9930 -22.8940
   -19.5053 -19.4847  -9.1052  -9.0845  -8.5954  -8.5470  -8.4404  -7.6975
    -3.0859  -3.0585  -3.0164  -3.0064  -2.9657  -2.9449   3.2429   4.8945
     5.1093   5.2351   5.4444   5.5827   5.6724   5.6828   5.7879   5.9699
     6.1213   6.4160   6.6511   6.7826   6.9033   7.0263   7.1424   7.1663
    10.0214  10.3299  10.8108  10.9139  12.2629  12.3889  13.0727  14.1626

          k = 0.0000-0.1429-0.1428 (  7099 PWs)   bands (ev):

   -46.8761 -46.8744 -23.1375 -23.1347 -22.9974 -22.9964 -22.9931 -22.8934
   -19.5018 -19.4830  -8.9929  -8.9472  -8.5677  -8.5171  -8.4363  -7.7026
    -3.0755  -3.0460  -3.0418  -3.0320  -2.9553  -2.9459   3.2320   4.6865
     4.9981   5.0334   5.1751   5.2376   5.2747   5.6410   5.6791   5.7971
     5.9819   6.5667   6.5915   6.7047   6.9771   7.0251   7.0732   7.1142
    10.2212  10.5736  11.1050  11.2052  12.2693  12.4909  13.3490  14.5419

          k = 0.0000-0.1429-0.2856 (  7073 PWs)   bands (ev):

   -46.8753 -46.8736 -23.1842 -23.1804 -22.9957 -22.9947 -22.9925 -22.8919
   -19.4940 -19.4789  -8.8471  -8.6937  -8.4307  -8.3743  -8.3671  -7.7151
    -3.0819  -3.0774  -3.0536  -3.0283  -2.9573  -2.9410   3.1960   3.9423
     4.0844   4.0879   4.7293   4.8151   5.0423   5.3961   5.5989   5.7656
     5.8551   6.6154   6.6851   6.7192   6.8594   7.0361   7.0743   7.4930
    10.3183  11.3976  11.7094  11.7851  12.2829  12.7948  13.5231  15.0998

          k = 0.0000-0.1429-0.4285 (  7069 PWs)   bands (ev):

   -46.8747 -46.8730 -23.2215 -23.2170 -22.9946 -22.9926 -22.9917 -22.8906
   -19.4879 -19.4755  -8.8254  -8.5990  -8.4201  -8.1157  -8.0959  -7.7257
    -3.1214  -3.0914  -3.0401  -3.0164  -2.9730  -2.9303   2.9359   3.0911
     3.3896   3.7392   4.4495   4.5488   5.0598   5.1917   5.6189   5.7762
     5.8337   6.4864   6.6944   6.7904   6.8013   6.9977   7.0732   7.7966
    10.3641  12.0695  12.2650  12.2937  12.3130  13.1314  13.5648  15.2065

          k =-0.0000-0.1429 0.4285 (  7069 PWs)   bands (ev):

   -46.8747 -46.8730 -23.2216 -23.2171 -22.9944 -22.9927 -22.9917 -22.8906
   -19.4879 -19.4755  -8.8235  -8.5947  -8.4206  -8.1184  -8.0968  -7.7261
    -3.1261  -3.1079  -3.0176  -3.0055  -2.9890  -2.9279   2.9100   3.0571
     3.3748   3.7340   4.4458   4.5409   5.0269   5.2275   5.6810   5.7886
     5.9233   6.4685   6.6839   6.7984   6.8098   6.9957   7.0799   7.7899
    10.3690  12.0527  12.2163  12.2654  12.2994  13.1327  13.5440  15.2435

          k =-0.0000-0.1429 0.2856 (  7073 PWs)   bands (ev):

   -46.8753 -46.8736 -23.1846 -23.1807 -22.9952 -22.9949 -22.9925 -22.8918
   -19.4940 -19.4788  -8.8408  -8.6813  -8.4370  -8.3822  -8.3670  -7.7159
    -3.1142  -3.0969  -3.0162  -3.0023  -2.9710  -2.9422   3.2042   3.7793
     3.9202   4.0707   4.7312   4.8096   5.0136   5.4280   5.8043   5.8992
     6.0476   6.5919   6.6600   6.7745   6.8700   7.0193   7.0824   7.4771
    10.3358  11.3699  11.5768  11.6449  12.2852  12.7925  13.4611  15.2165

          k =-0.0000-0.1429 0.1428 (  7099 PWs)   bands (ev):

   -46.8761 -46.8744 -23.1379 -23.1350 -22.9975 -22.9958 -22.9930 -22.8933
   -19.5018 -19.4829  -8.9875  -8.9406  -8.5739  -8.5217  -8.4339  -7.7033
    -3.1004  -3.0774  -3.0078  -2.9899  -2.9655  -2.9583   3.2406   4.6574
     4.7345   4.7515   5.0363   5.2548   5.2938   5.6440   5.9697   6.0391
     6.1936   6.5990   6.7540   6.8180   6.8998   6.9222   7.0630   7.1723
    10.2744  10.5162  10.9268  11.0120  12.2687  12.4883  13.2834  14.6972

          k =-0.1250-0.1429 0.0000 (  7112 PWs)   bands (ev):

   -46.8762 -46.8750 -23.1167 -23.1150 -22.9963 -22.9935 -22.9828 -22.9095
   -19.5027 -19.4873  -9.0913  -9.0808  -8.5713  -8.5481  -8.3709  -7.8322
    -3.0838  -3.0653  -3.0152  -3.0017  -2.9650  -2.9469   3.6040   4.9549
     5.1029   5.2869   5.3309   5.5560   5.6090   5.7117   5.7506   6.0299
     6.0972   6.1925   6.6290   6.6780   6.7791   6.9294   7.0485   7.1578
    10.3997  10.5994  10.8400  10.9036  11.9571  12.0611  13.6042  14.1343

          k =-0.1250-0.1429-0.1428 (  7105 PWs)   bands (ev):

   -46.8759 -46.8747 -23.1372 -23.1352 -22.9965 -22.9937 -22.9817 -22.9087
   -19.4995 -19.4852  -8.9701  -8.9442  -8.5492  -8.5203  -8.3676  -7.8367
    -3.0797  -3.0612  -3.0402  -3.0322  -2.9438  -2.9395   3.5908   4.7518
     5.0079   5.0931   5.1788   5.2388   5.3058   5.4050   5.6346   5.7933
     5.8168   6.3144   6.6215   6.6929   6.8174   6.9763   7.0842   7.1642
    10.5274  10.8378  11.1250  11.1998  11.9654  12.1804  13.9736  14.5712

          k =-0.1250-0.1429-0.2856 (  7094 PWs)   bands (ev):

   -46.8751 -46.8739 -23.1837 -23.1810 -22.9958 -22.9931 -22.9793 -22.9070
   -19.4924 -19.4805  -8.7960  -8.6988  -8.3958  -8.3749  -8.3393  -7.8473
    -3.0950  -3.0808  -3.0550  -3.0303  -2.9491  -2.9298   3.5221   3.9388
     4.0484   4.2754   4.7319   4.7888   5.1171   5.1493   5.5629   5.5808
     5.7968   6.3156   6.7043   6.7203   6.9326   7.0255   7.1103   7.4543
    10.6092  11.5534  11.7226  11.7832  11.9944  12.5353  14.0891  15.0786

          k =-0.1250-0.1429-0.4285 (  7064 PWs)   bands (ev):

   -46.8744 -46.8732 -23.2209 -23.2177 -22.9947 -22.9922 -22.9774 -22.9057
   -19.4869 -19.4766  -8.7639  -8.6145  -8.3590  -8.1125  -8.0996  -7.8560
    -3.1227  -3.0918  -3.0390  -3.0085  -2.9719  -2.9406   2.9999   3.0781
     3.6812   3.8772   4.4536   4.5348   4.8640   5.1641   5.5168   5.5836
     5.8688   6.3322   6.6446   6.7716   6.9343   7.0177   7.0388   7.7046
    10.6521  11.9972  12.1723  12.2906  12.3178  12.9189  14.0946  15.1604

          k =-0.1250-0.1429 0.4285 (  7064 PWs)   bands (ev):

   -46.8744 -46.8732 -23.2210 -23.2178 -22.9945 -22.9922 -22.9774 -22.9056
   -19.4868 -19.4766  -8.7616  -8.6106  -8.3597  -8.1155  -8.1001  -7.8561
    -3.1261  -3.1063  -3.0281  -2.9939  -2.9833  -2.9381   2.9637   3.0434
     3.6762   3.8736   4.4488   4.5282   4.8348   5.1941   5.5347   5.6440
     5.9454   6.3279   6.6458   6.7848   6.9584   6.9937   7.0342   7.6983
    10.6527  11.9831  12.1565  12.2572  12.2689  12.9203  14.0843  15.1937

          k =-0.1250-0.1429 0.2856 (  7094 PWs)   bands (ev):

   -46.8751 -46.8739 -23.1841 -23.1813 -22.9953 -22.9929 -22.9794 -22.9070
   -19.4924 -19.4804  -8.7883  -8.6869  -8.4076  -8.3841  -8.3337  -7.8476
    -3.1133  -3.1064  -3.0302  -3.0130  -2.9496  -2.9304   3.5178   3.7779
     3.9103   4.2432   4.7237   4.7879   4.9931   5.2859   5.6213   5.7670
     6.0433   6.3184   6.7212   6.7743   6.9661   6.9954   7.0914   7.4312
    10.6134  11.5044  11.5985  11.6342  12.0100  12.5340  14.0490  15.1727

          k =-0.1250-0.1429 0.1428 (  7105 PWs)   bands (ev):

   -46.8759 -46.8747 -23.1376 -23.1355 -22.9960 -22.9935 -22.9819 -22.9087
   -19.4995 -19.4852  -8.9641  -8.9378  -8.5555  -8.5253  -8.3654  -7.8370
    -3.1016  -3.0842  -3.0180  -3.0027  -2.9550  -2.9376   3.5986   4.6622
     4.7140   4.8448   5.0487   5.2824   5.3104   5.4712   5.8172   5.9439
     6.1766   6.3091   6.7635   6.8062   6.8575   6.9638   7.0348   7.1459
    10.5529  10.7623  10.9673  11.0023  11.9735  12.1793  13.9154  14.7171

          k = 0.2500-0.1429-0.0000 (  7106 PWs)   bands (ev):

   -46.8758 -46.8755 -23.1160 -23.1157 -22.9951 -22.9947 -22.9465 -22.9462
   -19.4987 -19.4912  -9.0784  -9.0779  -8.5530  -8.5527  -8.1328  -8.1240
    -3.0793  -3.0738  -3.0092  -3.0045  -2.9583  -2.9529   4.4778   4.4832
     5.0954   5.0970   5.5168   5.5173   5.6404   5.6434   5.7572   5.7591
     6.1414   6.1430   6.5157   6.5227   6.7800   6.7817   7.1161   7.1208
    10.8414  10.8420  11.1922  11.1933  11.3605  11.3619  14.0563  14.0567

          k = 0.2500-0.1429-0.1428 (  7102 PWs)   bands (ev):

   -46.8754 -46.8751 -23.1364 -23.1361 -22.9953 -22.9949 -22.9456 -22.9453
   -19.4961 -19.4886  -8.9460  -8.9455  -8.5303  -8.5299  -8.1346  -8.1259
    -3.0810  -3.0759  -3.0394  -3.0322  -2.9368  -2.9314   4.4353   4.4402
     5.0395   5.0419   5.1484   5.1504   5.3804   5.3826   5.5116   5.5164
     5.9095   5.9119   6.6587   6.6594   6.8619   6.8679   7.1466   7.1519
    11.1251  11.1261  11.2863  11.2880  11.4945  11.4965  14.6144  14.6150

          k = 0.2500-0.1429-0.2856 (  7084 PWs)   bands (ev):

   -46.8746 -46.8743 -23.1826 -23.1823 -22.9946 -22.9943 -22.9435 -22.9432
   -19.4902 -19.4827  -8.7260  -8.7253  -8.3806  -8.3802  -8.1360  -8.1275
    -3.0994  -3.0944  -3.0470  -3.0395  -2.9328  -2.9275   3.9073   3.9088
     4.3816   4.3856   4.8170   4.8184   4.8367   4.8385   5.3901   5.3919
     5.9087   5.9124   6.7191   6.7198   7.0041   7.0086   7.3125   7.3194
    11.2883  11.2902  11.7626  11.7629  12.0060  12.0085  14.8624  14.8630

          k = 0.2500-0.1429-0.4285 (  7070 PWs)   bands (ev):

   -46.8740 -46.8737 -23.2195 -23.2192 -22.9936 -22.9933 -22.9418 -22.9415
   -19.4855 -19.4780  -8.6671  -8.6664  -8.1598  -8.1538  -8.0921  -8.0897
    -3.1133  -3.1084  -3.0197  -3.0129  -2.9639  -2.9580   3.0486   3.0492
     4.1652   4.1686   4.5385   4.5393   4.6860   4.6911   5.4022   5.4042
     5.9661   5.9699   6.7232   6.7237   6.9874   6.9917   7.4102   7.4177
    11.3246  11.3264  12.2957  12.2962  12.5105  12.5135  14.8721  14.8728

          k = 0.2500-0.1429 0.4285 (  7070 PWs)   bands (ev):

   -46.8740 -46.8737 -23.2196 -23.2193 -22.9935 -22.9932 -22.9418 -22.9415
   -19.4854 -19.4780  -8.6640  -8.6633  -8.1626  -8.1569  -8.0914  -8.0887
    -3.1196  -3.1143  -3.0147  -3.0107  -2.9609  -2.9572   3.0100   3.0106
     4.1737   4.1771   4.5032   4.5036   4.6932   4.6978   5.4538   5.4563
     6.0037   6.0070   6.7382   6.7387   6.9807   6.9851   7.4041   7.4115
    11.3190  11.3208  12.2426  12.2432  12.5097  12.5128  14.8929  14.8935

          k = 0.2500-0.1429 0.2856 (  7084 PWs)   bands (ev):

   -46.8746 -46.8743 -23.1829 -23.1826 -22.9943 -22.9940 -22.9436 -22.9432
   -19.4901 -19.4827  -8.7157  -8.7151  -8.3903  -8.3899  -8.1345  -8.1261
    -3.1171  -3.1112  -3.0323  -3.0275  -2.9295  -2.9256   3.7650   3.7663
     4.3788   4.3823   4.7021   4.7039   4.8946   4.8957   5.5276   5.5311
     6.0557   6.0576   6.7678   6.7682   6.9981   7.0018   7.2887   7.2949
    11.2645  11.2661  11.6186  11.6193  12.0128  12.0156  14.9123  14.9130

          k = 0.2500-0.1429 0.1428 (  7102 PWs)   bands (ev):

   -46.8754 -46.8751 -23.1367 -23.1364 -22.9949 -22.9946 -22.9457 -22.9453
   -19.4960 -19.4886  -8.9397  -8.9392  -8.5357  -8.5354  -8.1339  -8.1252
    -3.1001  -3.0940  -3.0198  -3.0164  -2.9357  -2.9328   4.4333   4.4376
     4.7184   4.7190   5.1003   5.1029   5.4355   5.4395   5.6138   5.6187
     6.1512   6.1516   6.7938   6.7943   6.8650   6.8694   7.1188   7.1216
    10.9311  10.9314  11.2388  11.2403  11.5293  11.5307  14.7390  14.7393

          k = 0.1250-0.1429-0.0000 (  7112 PWs)   bands (ev):

   -46.8762 -46.8750 -23.1167 -23.1150 -22.9963 -22.9935 -22.9828 -22.9095
   -19.5027 -19.4873  -9.0913  -9.0809  -8.5713  -8.5481  -8.3709  -7.8322
    -3.0857  -3.0625  -3.0117  -3.0071  -2.9642  -2.9467   3.6041   4.9555
     5.1023   5.2859   5.3307   5.5568   5.6087   5.7103   5.7516   6.0300
     6.0983   6.1939   6.6260   6.6801   6.7793   6.9288   7.0440   7.1620
    10.3995  10.5991  10.8405  10.9038  11.9569  12.0611  13.6042  14.1342

          k = 0.1250-0.1429-0.1428 (  7105 PWs)   bands (ev):

   -46.8759 -46.8747 -23.1372 -23.1352 -22.9965 -22.9937 -22.9817 -22.9087
   -19.4995 -19.4852  -8.9700  -8.9443  -8.5492  -8.5203  -8.3676  -7.8367
    -3.0821  -3.0578  -3.0405  -3.0318  -2.9503  -2.9340   3.5911   4.7518
     5.0079   5.0945   5.1774   5.2390   5.3037   5.4044   5.6344   5.7954
     5.8162   6.3184   6.6213   6.6929   6.8114   6.9800   7.0784   7.1694
    10.5274  10.8377  11.1251  11.2000  11.9652  12.1803  13.9736  14.5709

          k = 0.1250-0.1429-0.2856 (  7094 PWs)   bands (ev):

   -46.8751 -46.8739 -23.1837 -23.1810 -22.9958 -22.9931 -22.9793 -22.9070
   -19.4924 -19.4805  -8.7959  -8.6988  -8.3958  -8.3749  -8.3394  -7.8472
    -3.0904  -3.0853  -3.0563  -3.0299  -2.9444  -2.9337   3.5226   3.9382
     4.0512   4.2718   4.7317   4.7888   5.1184   5.1491   5.5621   5.5818
     5.7954   6.3185   6.7045   6.7202   6.9283   7.0278   7.1101   7.4549
    10.6091  11.5537  11.7227  11.7833  11.9942  12.5348  14.0890  15.0789

          k = 0.1250-0.1429-0.4285 (  7064 PWs)   bands (ev):

   -46.8744 -46.8732 -23.2209 -23.2177 -22.9947 -22.9922 -22.9774 -22.9057
   -19.4869 -19.4766  -8.7639  -8.6145  -8.3590  -8.1126  -8.0995  -7.8560
    -3.1207  -3.0940  -3.0422  -3.0048  -2.9701  -2.9426   2.9999   3.0783
     3.6819   3.8763   4.4534   4.5346   4.8646   5.1640   5.5173   5.5828
     5.8674   6.3348   6.6445   6.7718   6.9318   7.0166   7.0412   7.7047
    10.6521  11.9971  12.1727  12.2903  12.3179  12.9188  14.0945  15.1607

          k = 0.1250-0.1429 0.4285 (  7064 PWs)   bands (ev):

   -46.8744 -46.8732 -23.2210 -23.2178 -22.9945 -22.9922 -22.9774 -22.9056
   -19.4868 -19.4766  -8.7616  -8.6106  -8.3598  -8.1154  -8.1002  -7.8561
    -3.1261  -3.1066  -3.0260  -2.9951  -2.9847  -2.9372   2.9637   3.0432
     3.6758   3.8748   4.4485   4.5280   4.8347   5.1939   5.5355   5.6428
     5.9442   6.3303   6.6458   6.7848   6.9569   6.9909   7.0380   7.6981
    10.6528  11.9830  12.1573  12.2566  12.2683  12.9208  14.0842  15.1937

          k = 0.1250-0.1429 0.2856 (  7094 PWs)   bands (ev):

   -46.8751 -46.8739 -23.1841 -23.1813 -22.9953 -22.9929 -22.9795 -22.9070
   -19.4924 -19.4804  -8.7883  -8.6869  -8.4076  -8.3841  -8.3336  -7.8476
    -3.1175  -3.1017  -3.0263  -3.0181  -2.9498  -2.9297   3.5175   3.7784
     3.9085   4.2462   4.7236   4.7880   4.9917   5.2859   5.6218   5.7656
     6.0425   6.3208   6.7211   6.7740   6.9662   6.9917   7.0956   7.4305
    10.6136  11.5048  11.5976  11.6343  12.0095  12.5347  14.0490  15.1727

          k = 0.1250-0.1429 0.1428 (  7105 PWs)   bands (ev):

   -46.8759 -46.8747 -23.1376 -23.1355 -22.9960 -22.9935 -22.9819 -22.9087
   -19.4995 -19.4852  -8.9642  -8.9378  -8.5555  -8.5252  -8.3654  -7.8370
    -3.1018  -3.0837  -3.0167  -3.0055  -2.9513  -2.9399   3.5985   4.6611
     4.7145   4.8460   5.0485   5.2822   5.3106   5.4716   5.8162   5.9430
     6.1765   6.3101   6.7639   6.8067   6.8614   6.9598   7.0308   7.1490
    10.5531  10.7623  10.9672  11.0023  11.9732  12.1796  13.9154  14.7235

          k = 0.0000-0.2857 0.0000 (  7083 PWs)   bands (ev):

   -46.8757 -46.8740 -23.1192 -23.1164 -23.0398 -23.0359 -22.9959 -22.8925
   -19.4964 -19.4809  -9.0875  -8.9987  -8.5227  -8.2418  -8.1960  -7.7190
    -3.0810  -3.0672  -3.0167  -2.9789  -2.9645  -2.9458   3.2195   4.0329
     4.1226   4.2054   5.2480   5.3707   5.4359   5.6119   5.8897   5.9944
     6.0501   6.0653   6.4441   6.5870   6.7343   6.9290   7.1286   7.6308
    10.0976  11.2324  11.4427  11.5163  12.3951  12.5855  13.1249  14.4518

          k = 0.0000-0.2857-0.1428 (  7073 PWs)   bands (ev):

   -46.8753 -46.8736 -23.1381 -23.1353 -23.0413 -23.0372 -22.9948 -22.8919
   -19.4939 -19.4789  -8.9530  -8.8459  -8.5015  -8.2285  -8.1988  -7.7145
    -3.0829  -3.0786  -3.0616  -3.0168  -2.9541  -2.9470   3.2123   4.0773
     4.1754   4.2647   4.8684   4.8716   4.9646   5.4487   5.5762   5.5955
     5.7304   6.5027   6.6383   6.6777   6.7962   6.9689   7.0078   7.6385
    10.4960  11.2646  11.6343  11.7258  12.4965  12.6093  13.5250  15.1354

          k = 0.0000-0.2857-0.2856 (  7091 PWs)   bands (ev):

   -46.8745 -46.8729 -23.1830 -23.1798 -23.0415 -23.0377 -22.9925 -22.8903
   -19.4883 -19.4744  -8.7173  -8.4834  -8.3669  -8.2070  -8.1866  -7.7053
    -3.1411  -3.1400  -3.0838  -3.0406  -2.9733  -2.9580   3.1884   3.9347
     3.9591   4.0650   4.2107   4.2142   4.5101   4.6554   4.8324   5.3130
     5.5965   6.5916   6.7008   6.8320   7.0792   7.1965   7.4150   7.6615
    11.1530  11.4968  12.0565  12.1446  12.6165  12.8375  13.8729  16.1139

          k = 0.0000-0.2857-0.4285 (  7076 PWs)   bands (ev):

   -46.8739 -46.8722 -23.2196 -23.2159 -23.0404 -23.0372 -22.9907 -22.8890
   -19.4838 -19.4707  -8.6455  -8.2451  -8.2113  -8.1076  -8.0794  -7.6984
    -3.1964  -3.1582  -3.1405  -3.0398  -2.9811  -2.9766   2.9661   3.1009
     3.3557   3.8247   3.9528   4.0071   4.5376   4.5821   4.7065   5.0891
     5.5296   6.5723   6.6950   6.8171   7.3006   7.3205   7.6004   7.8135
    11.2511  12.0843  12.5124  12.5880  12.6485  13.1778  13.9530  16.3064

          k =-0.0000-0.2857 0.4285 (  7076 PWs)   bands (ev):

   -46.8739 -46.8722 -23.2198 -23.2160 -23.0401 -23.0372 -22.9908 -22.8889
   -19.4837 -19.4707  -8.6426  -8.2316  -8.2064  -8.1129  -8.0925  -7.6989
    -3.2016  -3.1860  -3.1061  -3.0423  -2.9854  -2.9730   2.9192   3.0400
     3.3112   3.8210   3.9421   4.0005   4.5797   4.6323   4.8320   5.0944
     5.5465   6.5671   6.6725   6.8356   7.2978   7.3172   7.6090   7.8020
    11.2594  12.0648  12.4938  12.5692  12.6528  13.1753  13.9089  16.3514

          k =-0.0000-0.2857 0.2856 (  7091 PWs)   bands (ev):

   -46.8745 -46.8729 -23.1837 -23.1802 -23.0407 -23.0375 -22.9927 -22.8902
   -19.4882 -19.4743  -8.7093  -8.4652  -8.3688  -8.2131  -8.1986  -7.7063
    -3.1711  -3.1541  -3.0391  -3.0298  -2.9933  -2.9536   3.2035   3.5424
     3.6527   4.1521   4.1723   4.2845   4.5281   4.9756   5.1965   5.3026
     5.6602   6.5698   6.6554   6.8765   7.0915   7.1688   7.4331   7.6372
    11.2242  11.4101  11.9788  12.0631  12.6297  12.8220  13.7727  16.2799

          k =-0.0000-0.2857 0.1428 (  7073 PWs)   bands (ev):

   -46.8753 -46.8736 -23.1388 -23.1358 -23.0405 -23.0369 -22.9950 -22.8917
   -19.4939 -19.4789  -8.9488  -8.8386  -8.5035  -8.2316  -8.2006  -7.7153
    -3.1162  -3.0979  -3.0149  -3.0028  -2.9608  -2.9516   3.2227   3.9040
     3.9812   4.2418   4.8266   4.8723   4.9439   5.5330   5.6962   5.8455
     5.9255   6.4569   6.5890   6.7636   6.8422   6.9600   6.9754   7.6293
    10.5168  11.2346  11.5026  11.5743  12.5034  12.6003  13.4664  15.2497

          k =-0.1250-0.2857 0.0000 (  7092 PWs)   bands (ev):

   -46.8754 -46.8742 -23.1188 -23.1169 -23.0395 -23.0365 -22.9807 -22.9078
   -19.4947 -19.4826  -9.0632  -9.0047  -8.4340  -8.2397  -8.1967  -7.8515
    -3.0878  -3.0710  -3.0114  -2.9757  -2.9651  -2.9443   3.5663   4.0306
     4.0970   4.3925   5.1763   5.3082   5.4031   5.5032   5.6652   5.8038
     6.0935   6.1340   6.4405   6.6012   6.6114   6.9416   7.0655   7.5921
    10.4701  11.3593  11.4629  11.5079  12.0777  12.3392  13.5912  14.3964

          k =-0.1250-0.2857-0.1428 (  7093 PWs)   bands (ev):

   -46.8751 -46.8739 -23.1377 -23.1357 -23.0409 -23.0379 -22.9797 -22.9070
   -19.4923 -19.4805  -8.9205  -8.8518  -8.4214  -8.2296  -8.1960  -7.8470
    -3.0973  -3.0776  -3.0629  -3.0244  -2.9469  -2.9324   3.5581   4.0762
     4.1531   4.4274   4.8455   4.9464   4.9703   5.2934   5.3970   5.4957
     5.6403   6.1447   6.6651   6.7158   6.8470   6.9199   7.1136   7.5966
    10.7876  11.4070  11.6505  11.7205  12.1922  12.3640  14.0960  15.1152

          k =-0.1250-0.2857-0.2856 (  7083 PWs)   bands (ev):

   -46.8743 -46.8731 -23.1826 -23.1803 -23.0411 -23.0383 -22.9775 -22.9054
   -19.4869 -19.4758  -8.6383  -8.4903  -8.3339  -8.2025  -8.1885  -7.8372
    -3.1494  -3.1251  -3.0914  -3.0541  -2.9806  -2.9364   3.5093   3.9335
     3.9607   4.0459   4.1988   4.3605   4.6060   4.6480   4.8449   5.1196
     5.3291   6.0396   6.9203   7.0005   7.0793   7.2391   7.3605   7.6137
    11.3298  11.6469  12.0645  12.1391  12.3768  12.5875  14.5244  16.1791

          k =-0.1250-0.2857-0.4285 (  7073 PWs)   bands (ev):

   -46.8736 -46.8725 -23.2191 -23.2165 -23.0400 -23.0377 -22.9758 -22.9040
   -19.4826 -19.4719  -8.5411  -8.2579  -8.1950  -8.1042  -8.0835  -7.8302
    -3.1955  -3.1405  -3.1187  -3.0572  -3.0112  -2.9706   3.0314   3.0938
     3.6003   3.8445   4.0148   4.0764   4.5101   4.6185   4.7668   4.8960
     5.3005   6.0282   6.9422   7.0249   7.2915   7.3342   7.5320   7.7211
    11.4174  12.1961  12.3849  12.5454  12.5839  12.9671  14.5954  16.3910

          k =-0.1250-0.2857 0.4285 (  7073 PWs)   bands (ev):

   -46.8737 -46.8725 -23.2193 -23.2166 -23.0398 -23.0376 -22.9759 -22.9040
   -19.4825 -19.4719  -8.5374  -8.2436  -8.1929  -8.1102  -8.0953  -7.8300
    -3.1999  -3.1673  -3.0776  -3.0662  -3.0143  -2.9699   2.9637   3.0325
     3.5744   3.8479   3.9597   4.1040   4.5865   4.6839   4.8165   4.9218
     5.3264   6.0257   6.9261   7.0456   7.2970   7.3196   7.5393   7.7068
    11.4221  12.1731  12.3885  12.5289  12.5605  12.9625  14.5538  16.3960

          k =-0.1250-0.2857 0.2856 (  7082 PWs)   bands (ev):

   -46.8743 -46.8731 -23.1832 -23.1808 -23.0404 -23.0380 -22.9777 -22.9053
   -19.4869 -19.4757  -8.6276  -8.4726  -8.3401  -8.2141  -8.1936  -7.8374
    -3.1646  -3.1557  -3.0544  -3.0450  -2.9859  -2.9350   3.4981   3.5523
     3.6753   4.1400   4.1597   4.4342   4.6185   4.9551   5.0886   5.1895
     5.4260   6.0275   6.9033   7.0521   7.0991   7.1790   7.3836   7.5785
    11.3804  11.5649  11.9877  12.0472  12.3940  12.5691  14.4289  16.3140

          k =-0.1250-0.2857 0.1428 (  7093 PWs)   bands (ev):

   -46.8751 -46.8739 -23.1384 -23.1363 -23.0401 -23.0375 -22.9798 -22.9070
   -19.4923 -19.4804  -8.9158  -8.8449  -8.4242  -8.2329  -8.1971  -7.8473
    -3.1194  -3.1015  -3.0292  -3.0156  -2.9433  -2.9355   3.5639   3.9023
     3.9684   4.3991   4.8069   4.8473   5.0237   5.3105   5.5921   5.6343
     5.9057   6.1442   6.7049   6.7699   6.8560   6.9175   7.0757   7.5829
    10.7945  11.3648  11.5220  11.5639  12.2071  12.3560  14.0585  15.2159

          k = 0.2500-0.2857-0.0000 (  7098 PWs)   bands (ev):

   -46.8750 -46.8747 -23.1180 -23.1177 -23.0383 -23.0380 -22.9445 -22.9442
   -19.4924 -19.4849  -9.0259  -9.0254  -8.2568  -8.2551  -8.1288  -8.1217
    -3.0877  -3.0826  -2.9941  -2.9911  -2.9525  -2.9482   4.0091   4.0104
     4.4794   4.4835   4.9073   4.9087   5.3390   5.3392   5.6501   5.6517
     6.1917   6.1935   6.3899   6.3939   6.6926   6.6975   7.4228   7.4288
    11.2495  11.2515  11.4909  11.4917  11.8387  11.8416  14.1713  14.1720

          k = 0.2500-0.2857-0.1428 (  7090 PWs)   bands (ev):

   -46.8746 -46.8743 -23.1369 -23.1366 -23.0397 -23.0393 -22.9436 -22.9433
   -19.4901 -19.4827  -8.8745  -8.8741  -8.2530  -8.2513  -8.1221  -8.1150
    -3.1001  -3.0954  -3.0470  -3.0398  -2.9325  -2.9271   4.0512   4.0525
     4.4555   4.4592   4.8758   4.8784   4.9836   4.9852   5.2014   5.2041
     5.7442   5.7475   6.6859   6.6871   6.8707   6.8763   7.4287   7.4348
    11.4610  11.4626  11.6796  11.6804  11.8704  11.8731  14.8936  14.8943

          k = 0.2500-0.2857-0.2856 (  7088 PWs)   bands (ev):

   -46.8738 -46.8735 -23.1816 -23.1813 -23.0399 -23.0396 -22.9417 -22.9414
   -19.4851 -19.4776  -8.5269  -8.5260  -8.2297  -8.2284  -8.1052  -8.0983
    -3.1352  -3.1309  -3.0920  -3.0848  -2.9495  -2.9446   3.9137   3.9148
     4.0060   4.0068   4.4871   4.4893   4.6089   4.6116   4.8816   4.8844
     5.2125   5.2131   7.0676   7.0689   7.2045   7.2106   7.4477   7.4538
    11.7891  11.7903  12.0606  12.0627  12.1465  12.1475  15.8455  15.8463

          k = 0.2500-0.2857-0.4285 (  7070 PWs)   bands (ev):

   -46.8732 -46.8729 -23.2180 -23.2177 -23.0391 -23.0388 -22.9402 -22.9399
   -19.4810 -19.4735  -8.3381  -8.3357  -8.1053  -8.1032  -8.0793  -8.0746
    -3.1649  -3.1613  -3.0854  -3.0792  -3.0045  -2.9994   3.0740   3.0745
     3.8439   3.8448   4.3306   4.3335   4.4849   4.4873   4.7813   4.7843
     5.1928   5.1940   7.2424   7.2443   7.3172   7.3232   7.4725   7.4781
    11.8646  11.8664  12.4927  12.4939  12.6092  12.6110  15.8665  15.8671

          k = 0.2500-0.2857 0.4285 (  7070 PWs)   bands (ev):

   -46.8732 -46.8729 -23.2182 -23.2179 -23.0389 -23.0386 -22.9402 -22.9399
   -19.4810 -19.4735  -8.3284  -8.3258  -8.1206  -8.1191  -8.0723  -8.0674
    -3.1742  -3.1696  -3.0738  -3.0716  -3.0046  -3.0025   3.0047   3.0052
     3.8303   3.8314   4.2954   4.2982   4.5619   4.5634   4.8434   4.8468
     5.2029   5.2041   7.2555   7.2575   7.3200   7.3253   7.4518   7.4571
    11.8634  11.8652  12.4685  12.4696  12.5996  12.6017  15.8349  15.8354

          k = 0.2500-0.2857 0.2856 (  7088 PWs)   bands (ev):

   -46.8738 -46.8735 -23.1822 -23.1819 -23.0394 -23.0391 -22.9418 -22.9414
   -19.4850 -19.4775  -8.5107  -8.5098  -8.2470  -8.2458  -8.1014  -8.0945
    -3.1577  -3.1519  -3.0724  -3.0678  -2.9471  -2.9434   3.5714   3.5720
     4.0946   4.0968   4.3806   4.3829   4.8447   4.8460   5.0067   5.0108
     5.2963   5.2969   7.1039   7.1049   7.1993   7.2050   7.4099   7.4155
    11.7939  11.7948  11.9499  11.9508  12.1411  12.1426  15.7607  15.7615

          k = 0.2500-0.2857 0.1428 (  7090 PWs)   bands (ev):

   -46.8746 -46.8743 -23.1376 -23.1372 -23.0391 -23.0388 -22.9437 -22.9434
   -19.4901 -19.4826  -8.8689  -8.8684  -8.2584  -8.2567  -8.1203  -8.1133
    -3.1177  -3.1119  -3.0325  -3.0279  -2.9292  -2.9253   3.8908   3.8918
     4.4447   4.4485   4.7312   4.7338   5.0424   5.0452   5.3640   5.3674
     5.9127   5.9140   6.7569   6.7574   6.8459   6.8521   7.4110   7.4169
    11.4077  11.4086  11.5607  11.5619  11.8776  11.8802  14.9523  14.9530

          k = 0.1250-0.2857 0.0000 (  7092 PWs)   bands (ev):

   -46.8754 -46.8742 -23.1188 -23.1169 -23.0395 -23.0365 -22.9808 -22.9078
   -19.4948 -19.4825  -9.0632  -9.0047  -8.4340  -8.2398  -8.1966  -7.8515
    -3.0837  -3.0765  -3.0082  -2.9800  -2.9614  -2.9456   3.5665   4.0302
     4.0983   4.3904   5.1762   5.3087   5.4043   5.5026   5.6647   5.8044
     6.0937   6.1342   6.4392   6.6014   6.6121   6.9416   7.0649   7.5924
    10.4698  11.3588  11.4636  11.5084  12.0777  12.3387  13.5912  14.3965

          k = 0.1250-0.2857-0.1428 (  7093 PWs)   bands (ev):

   -46.8751 -46.8739 -23.1377 -23.1357 -23.0409 -23.0379 -22.9797 -22.9070
   -19.4924 -19.4805  -8.9205  -8.8518  -8.4215  -8.2296  -8.1960  -7.8470
    -3.0945  -3.0822  -3.0609  -3.0253  -2.9405  -2.9380   3.5585   4.0757
     4.1544   4.4260   4.8457   4.9465   4.9700   5.2932   5.3956   5.4975
     5.6386   6.1480   6.6645   6.7164   6.8413   6.9238   7.1137   7.5967
    10.7876  11.4071  11.6506  11.7207  12.1918  12.3638  14.0960  15.1158

          k = 0.1250-0.2857-0.2856 (  7082 PWs)   bands (ev):

   -46.8743 -46.8731 -23.1826 -23.1803 -23.0411 -23.0383 -22.9775 -22.9054
   -19.4869 -19.4758  -8.6382  -8.4904  -8.3340  -8.2022  -8.1887  -7.8372
    -3.1471  -3.1246  -3.0967  -3.0541  -2.9743  -2.9402   3.5099   3.9334
     3.9606   4.0458   4.2002   4.3593   4.6058   4.6472   4.8427   5.1209
     5.3301   6.0406   6.9201   7.0005   7.0791   7.2384   7.3608   7.6140
    11.3302  11.6470  12.0646  12.1389  12.3764  12.5873  14.5244  16.1789

          k = 0.1250-0.2857-0.4285 (  7073 PWs)   bands (ev):

   -46.8736 -46.8725 -23.2191 -23.2165 -23.0400 -23.0377 -22.9758 -22.9040
   -19.4826 -19.4719  -8.5411  -8.2578  -8.1953  -8.1041  -8.0835  -7.8301
    -3.1934  -3.1406  -3.1244  -3.0544  -3.0067  -2.9742   3.0314   3.0939
     3.6006   3.8449   4.0140   4.0764   4.5099   4.6204   4.7637   4.8961
     5.3015   6.0287   6.9421   7.0248   7.2915   7.3341   7.5320   7.7212
    11.4178  12.1962  12.3847  12.5448  12.5841  12.9670  14.5952  16.3914

          k = 0.1250-0.2857 0.4285 (  7073 PWs)   bands (ev):

   -46.8737 -46.8725 -23.2193 -23.2166 -23.0398 -23.0376 -22.9759 -22.9040
   -19.4825 -19.4719  -8.5374  -8.2435  -8.1932  -8.1103  -8.0952  -7.8300
    -3.1975  -3.1711  -3.0795  -3.0594  -3.0190  -2.9688   2.9638   3.0323
     3.5744   3.8484   3.9593   4.1047   4.5864   4.6851   4.8138   4.9218
     5.3273   6.0260   6.9261   7.0454   7.2972   7.3195   7.5393   7.7066
    11.4224  12.1729  12.3887  12.5288  12.5596  12.9630  14.5538  16.3963

          k = 0.1250-0.2857 0.2856 (  7082 PWs)   bands (ev):

   -46.8743 -46.8731 -23.1832 -23.1808 -23.0404 -23.0380 -22.9777 -22.9053
   -19.4869 -19.4757  -8.6276  -8.4726  -8.3400  -8.2140  -8.1938  -7.8374
    -3.1618  -3.1591  -3.0537  -3.0433  -2.9889  -2.9339   3.4979   3.5525
     3.6749   4.1410   4.1583   4.4362   4.6176   4.9549   5.0886   5.1890
     5.4263   6.0274   6.9034   7.0522   7.0990   7.1792   7.3830   7.5788
    11.3806  11.5645  11.9877  12.0472  12.3932  12.5699  14.4289  16.3129

          k = 0.1250-0.2857 0.1428 (  7093 PWs)   bands (ev):

   -46.8751 -46.8739 -23.1384 -23.1363 -23.0401 -23.0375 -22.9799 -22.9070
   -19.4923 -19.4804  -8.9159  -8.8449  -8.4241  -8.2330  -8.1971  -7.8473
    -3.1150  -3.1070  -3.0299  -3.0124  -2.9476  -2.9326   3.5640   3.9019
     3.9691   4.3975   4.8067   4.8471   5.0260   5.3097   5.5926   5.6352
     5.9060   6.1418   6.7052   6.7719   6.8588   6.9143   7.0741   7.5834
    10.7945  11.3645  11.5226  11.5639  12.2076  12.3554  14.0584  15.2159

          k = 0.0000-0.4286 0.0000 (  7081 PWs)   bands (ev):

   -46.8750 -46.8734 -23.1257 -23.1221 -23.0696 -23.0656 -22.9937 -22.8913
   -19.4896 -19.4776  -9.0948  -8.9554  -8.5140  -7.9465  -7.9016  -7.7363
    -3.0939  -3.0795  -3.0180  -2.9754  -2.9342  -2.9305   3.0848   3.2569
     3.4052   3.8242   4.9934   5.2504   5.3200   5.5100   5.8073   5.9129
     6.0039   6.0408   6.2576   6.4654   6.5922   6.8923   7.1015   7.9427
    10.1355  11.9403  12.1174  12.1745  12.3973  12.9370  13.1219  14.4421

          k = 0.0000-0.4286-0.1428 (  7069 PWs)   bands (ev):

   -46.8747 -46.8730 -23.1413 -23.1382 -23.0740 -23.0696 -22.9928 -22.8906
   -19.4878 -19.4755  -8.9541  -8.7985  -8.4886  -7.9343  -7.9100  -7.7245
    -3.1226  -3.0974  -3.0494  -2.9910  -2.9611  -2.9533   3.0969   3.2730
     3.4141   3.9230   4.5627   4.7424   4.9006   5.4396   5.4811   5.5555
     5.6568   6.4545   6.4645   6.7118   6.7521   6.9433   6.9508   7.9504
    10.5433  11.9489  12.2087  12.2763  12.5139  12.9583  13.5586  15.1966

          k = 0.0000-0.4286-0.2856 (  7076 PWs)   bands (ev):

   -46.8739 -46.8722 -23.1831 -23.1801 -23.0765 -23.0726 -22.9908 -22.8890
   -19.4837 -19.4708  -8.6832  -8.4254  -8.3596  -7.9292  -7.9063  -7.6979
    -3.1963  -3.1707  -3.1307  -3.0231  -2.9937  -2.9784   3.1092   3.2681
     3.3678   3.8484   4.0785   4.1387   4.3308   4.4002   4.5858   5.2310
     5.4003   6.5241   6.6744   6.8241   7.2678   7.3169   7.4378   7.9636
    11.3792  11.9700  12.5057  12.5926  12.8300  13.0166  13.9499  16.2824

          k = 0.0000-0.4286-0.4285 (  7070 PWs)   bands (ev):

   -46.8733 -46.8716 -23.2186 -23.2153 -23.0760 -23.0728 -22.9892 -22.8877
   -19.4804 -19.4669  -8.5777  -8.1346  -8.0808  -7.9432  -7.8839  -7.6762
    -3.2593  -3.2304  -3.2129  -3.0512  -3.0181  -2.9710   2.9860   3.0510
     3.1338   3.3505   3.6561   3.7835   4.1238   4.2159   4.3157   5.0045
     5.3264   6.5048   6.7833   6.8087   7.5905   7.6074   7.8071   7.9711
    11.8596  12.1447  12.8643  12.9718  13.0212  13.2218  14.0464  16.3605

          k =-0.0000-0.4286 0.4285 (  7070 PWs)   bands (ev):

   -46.8733 -46.8716 -23.2187 -23.2154 -23.0759 -23.0728 -22.9892 -22.8876
   -19.4804 -19.4669  -8.5766  -8.1328  -8.0759  -7.9452  -7.8882  -7.6764
    -3.2616  -3.2455  -3.1960  -3.0537  -3.0147  -2.9721   2.9471   3.0033
     3.1006   3.3546   3.6886   3.8398   4.1114   4.2632   4.3235   5.0043
     5.3341   6.5037   6.7598   6.8303   7.5884   7.6065   7.8095   7.9676
    11.8704  12.1273  12.8636  12.9710  13.0321  13.2121  14.0265  16.3868

          k =-0.0000-0.4286 0.2856 (  7076 PWs)   bands (ev):

   -46.8739 -46.8722 -23.1835 -23.1803 -23.0761 -23.0725 -22.9908 -22.8889
   -19.4837 -19.4707  -8.6804  -8.4202  -8.3602  -7.9310  -7.9091  -7.6983
    -3.2015  -3.1911  -3.1039  -3.0285  -2.9864  -2.9834   3.0804   3.1888
     3.2869   3.8227   4.0887   4.1164   4.4134   4.4472   4.7317   5.2165
     5.4338   6.5176   6.6537   6.8403   7.2695   7.3099   7.4405   7.9587
    11.3907  11.9481  12.4862  12.5722  12.8421  13.0054  13.9057  16.3228

          k =-0.0000-0.4286 0.1428 (  7069 PWs)   bands (ev):

   -46.8747 -46.8730 -23.1418 -23.1385 -23.0734 -23.0694 -22.9928 -22.8905
   -19.4877 -19.4755  -8.9527  -8.7958  -8.4888  -7.9355  -7.9104  -7.7249
    -3.1272  -3.1132  -3.0259  -2.9935  -2.9669  -2.9496   3.0796   3.2322
     3.3841   3.9158   4.5516   4.7300   4.8976   5.4438   5.5112   5.6192
     5.7647   6.4341   6.4370   6.7333   6.7681   6.9378   6.9503   7.9465
    10.5476  11.9372  12.1615  12.2190  12.5152  12.9590  13.5407  15.2382

          k =-0.1250-0.4286 0.0000 (  7064 PWs)   bands (ev):

   -46.8748 -46.8736 -23.1252 -23.1226 -23.0692 -23.0663 -22.9787 -22.9064
   -19.4886 -19.4786  -9.0631  -8.9686  -8.4230  -7.9417  -7.9118  -7.8641
    -3.0933  -3.0723  -3.0142  -2.9687  -2.9507  -2.9352   3.1819   3.2485
     3.6737   3.9818   4.9871   5.0775   5.1926   5.4266   5.5268   5.8329
     6.0682   6.1415   6.2583   6.4833   6.5774   6.9138   6.9860   7.8447
    10.5057  12.0174  12.0703  12.1337  12.1878  12.7378  13.5502  14.3769

          k =-0.1250-0.4286-0.1428 (  7065 PWs)   bands (ev):

   -46.8744 -46.8732 -23.1409 -23.1387 -23.0735 -23.0703 -22.9778 -22.9057
   -19.4867 -19.4766  -8.9151  -8.8115  -8.4046  -7.9328  -7.9159  -7.8539
    -3.1231  -3.0896  -3.0553  -2.9926  -2.9681  -2.9481   3.2041   3.2667
     3.6685   4.0567   4.5707   4.7211   4.9627   5.1081   5.3679   5.4115
     5.6901   6.1326   6.6154   6.6989   6.8312   6.8873   7.0298   7.8502
    10.8334  12.0418  12.1928  12.2353  12.2819  12.7602  14.0889  15.1497

          k =-0.1250-0.4286-0.2856 (  7073 PWs)   bands (ev):

   -46.8737 -46.8725 -23.1827 -23.1805 -23.0761 -23.0732 -22.9759 -22.9040
   -19.4825 -19.4719  -8.6004  -8.4358  -8.3210  -7.9281  -7.9110  -7.8299
    -3.1931  -3.1495  -3.1165  -3.0439  -3.0240  -2.9671   3.2235   3.2659
     3.5625   3.8672   4.0972   4.2264   4.3306   4.4706   4.6247   5.0520
     5.1316   5.9935   6.9555   6.9938   7.2633   7.3280   7.3783   7.8582
    11.5553  12.0766  12.4985  12.5681  12.6078  12.8180  14.5946  16.3950

          k =-0.1250-0.4286-0.4285 (  7061 PWs)   bands (ev):

   -46.8730 -46.8718 -23.2181 -23.2158 -23.0756 -23.0733 -22.9744 -22.9027
   -19.4791 -19.4682  -8.4621  -8.1284  -8.0885  -7.9356  -7.8960  -7.8113
    -3.2406  -3.1983  -3.1851  -3.0770  -3.0476  -2.9965   3.0306   3.0497
     3.2453   3.3565   3.7791   3.9090   4.1167   4.2364   4.4237   4.8367
     5.1072   5.9637   7.0156   7.0527   7.5933   7.5997   7.7050   7.8559
    11.9862  12.2610  12.7810  12.8940  12.9603  13.0124  14.6966  16.5658

          k =-0.1250-0.4286 0.4285 (  7061 PWs)   bands (ev):

   -46.8730 -46.8718 -23.2183 -23.2159 -23.0755 -23.0733 -22.9744 -22.9027
   -19.4791 -19.4682  -8.4607  -8.1260  -8.0843  -7.9379  -7.9016  -7.8103
    -3.2389  -3.2209  -3.1640  -3.0780  -3.0457  -2.9983   2.9699   3.0002
     3.2445   3.3603   3.8483   3.9005   4.1893   4.2257   4.4184   4.8352
     5.1214   5.9635   7.0009   7.0669   7.5919   7.6003   7.7048   7.8514
    11.9963  12.2435  12.7940  12.8926  12.9460  13.0090  14.6773  16.5642

          k =-0.1250-0.4286 0.2856 (  7073 PWs)   bands (ev):

   -46.8737 -46.8725 -23.1831 -23.1808 -23.0757 -23.0731 -22.9760 -22.9040
   -19.4825 -19.4719  -8.5969  -8.4307  -8.3223  -7.9304  -7.9141  -7.8293
    -3.1945  -3.1755  -3.0880  -3.0405  -3.0295  -2.9677   3.1385   3.1877
     3.5382   3.8390   4.0506   4.2745   4.4576   4.5010   4.7147   5.0196
     5.1949   5.9912   6.9305   7.0217   7.2731   7.3133   7.3752   7.8519
    11.5639  12.0537  12.4863  12.5496  12.5998  12.8092  14.5528  16.4068

          k =-0.1250-0.4286 0.1428 (  7065 PWs)   bands (ev):

   -46.8744 -46.8732 -23.1414 -23.1390 -23.0730 -23.0701 -22.9779 -22.9056
   -19.4867 -19.4766  -8.9136  -8.8091  -8.4050  -7.9347  -7.9157  -7.8539
    -3.1265  -3.1069  -3.0375  -2.9926  -2.9663  -2.9482   3.1635   3.2255
     3.6600   4.0529   4.5563   4.7031   4.9307   5.1482   5.4085   5.4703
     5.7710   6.1317   6.6106   6.7218   6.8263   6.8971   7.0158   7.8460
    10.8335  12.0238  12.1523  12.1977  12.2591  12.7609  14.0815  15.1892

          k = 0.2500-0.4286 0.0000 (  7086 PWs)   bands (ev):

   -46.8744 -46.8740 -23.1241 -23.1238 -23.0680 -23.0677 -22.9428 -22.9425
   -19.4873 -19.4799  -9.0075  -9.0071  -8.1734  -8.1648  -7.9217  -7.9212
    -3.0843  -3.0776  -2.9892  -2.9827  -2.9550  -2.9483   3.2272   3.2277
     4.3539   4.3579   4.6319   4.6367   5.1235   5.1237   5.6302   5.6323
     6.1740   6.1748   6.2844   6.2872   6.6335   6.6402   7.5171   7.5238
    11.3046  11.3067  12.1383  12.1391  12.3538  12.3572  14.1221  14.1229

          k = 0.2500-0.4286-0.1428 (  7072 PWs)   bands (ev):

   -46.8740 -46.8737 -23.1400 -23.1397 -23.0722 -23.0719 -22.9420 -22.9417
   -19.4854 -19.4779  -8.8518  -8.8513  -8.1621  -8.1536  -7.9196  -7.9191
    -3.1115  -3.1060  -3.0299  -3.0223  -2.9572  -2.9514   3.2497   3.2501
     4.3274   4.3310   4.6041   4.6068   4.7550   4.7558   5.2121   5.2148
     5.7726   5.7762   6.6602   6.6611   6.8310   6.8368   7.5237   7.5305
    11.5132  11.5149  12.2242  12.2250  12.3831  12.3865  14.8611  14.8619

          k = 0.2500-0.4286-0.2856 (  7068 PWs)   bands (ev):

   -46.8732 -46.8729 -23.1818 -23.1815 -23.0749 -23.0746 -22.9402 -22.9399
   -19.4810 -19.4735  -8.4817  -8.4809  -8.1334  -8.1254  -7.9147  -7.9142
    -3.1605  -3.1558  -3.0976  -3.0900  -2.9981  -2.9931   3.2583   3.2587
     3.8690   3.8700   4.3056   4.3069   4.5162   4.5205   4.6837   4.6868
     5.1072   5.1086   7.1804   7.1862   7.2713   7.2734   7.5447   7.5510
    12.0201  12.0219  12.3783  12.3800  12.5821  12.5834  15.8749  15.8757

          k = 0.2500-0.4286-0.4285 (  7068 PWs)   bands (ev):

   -46.8726 -46.8723 -23.2172 -23.2169 -23.0747 -23.0744 -22.9388 -22.9385
   -19.4774 -19.4699  -8.1936  -8.1881  -8.0747  -8.0714  -7.9101  -7.9096
    -3.1885  -3.1826  -3.1354  -3.1280  -3.0595  -3.0534   3.0449   3.0453
     3.3444   3.3451   3.9512   3.9520   4.3908   4.3951   4.6306   4.6340
     4.9903   4.9944   7.3947   7.4023   7.4956   7.5018   7.6197   7.6209
    12.3403  12.3424  12.5874  12.5900  12.9296  12.9302  16.0277  16.0285

          k = 0.2500-0.4286 0.4285 (  7068 PWs)   bands (ev):

   -46.8726 -46.8723 -23.2173 -23.2170 -23.0746 -23.0743 -22.9388 -22.9385
   -19.4774 -19.4699  -8.1886  -8.1829  -8.0775  -8.0746  -7.9116  -7.9111
    -3.1956  -3.1897  -3.1232  -3.1197  -3.0621  -3.0578   2.9884   2.9888
     3.3508   3.3517   4.0083   4.0090   4.3744   4.3783   4.6466   4.6499
     4.9951   4.9995   7.3933   7.4008   7.5057   7.5119   7.6084   7.6091
    12.3487  12.3508  12.5725  12.5750  12.9269  12.9275  16.0096  16.0102

          k = 0.2500-0.4286 0.2856 (  7068 PWs)   bands (ev):

   -46.8732 -46.8729 -23.1821 -23.1818 -23.0746 -23.0743 -22.9403 -22.9399
   -19.4809 -19.4735  -8.4772  -8.4764  -8.1354  -8.1275  -7.9160  -7.9154
    -3.1710  -3.1657  -3.0859  -3.0808  -2.9983  -2.9950   3.1691   3.1695
     3.8453   3.8468   4.3374   4.3385   4.5718   4.5739   4.7265   4.7284
     5.1222   5.1240   7.1950   7.2021   7.2619   7.2626   7.5346   7.5409
    12.0228  12.0246  12.3568  12.3584  12.5648  12.5662  15.8439  15.8446

          k = 0.2500-0.4286 0.1428 (  7072 PWs)   bands (ev):

   -46.8740 -46.8737 -23.1404 -23.1401 -23.0718 -23.0715 -22.9420 -22.9417
   -19.4854 -19.4779  -8.8498  -8.8494  -8.1626  -8.1541  -7.9201  -7.9196
    -3.1181  -3.1123  -3.0249  -3.0190  -2.9548  -2.9503   3.2042   3.2046
     4.3462   4.3498   4.5392   4.5413   4.7698   4.7717   5.2775   5.2802
     5.8129   5.8157   6.6821   6.6827   6.8186   6.8248   7.5193   7.5260
    11.5061  11.5078  12.1741  12.1751  12.3774  12.3808  14.8874  14.8881

          k = 0.1250-0.4286 0.0000 (  7064 PWs)   bands (ev):

   -46.8748 -46.8736 -23.1252 -23.1226 -23.0692 -23.0663 -22.9787 -22.9064
   -19.4886 -19.4786  -9.0631  -8.9686  -8.4230  -7.9419  -7.9115  -7.8642
    -3.0905  -3.0764  -3.0123  -2.9688  -2.9510  -2.9353   3.1819   3.2486
     3.6738   3.9812   4.9871   5.0777   5.1930   5.4265   5.5266   5.8328
     6.0687   6.1415   6.2576   6.4835   6.5775   6.9136   6.9860   7.8447
    10.5056  12.0175  12.0702  12.1340  12.1877  12.7375  13.5502  14.3770

          k = 0.1250-0.4286-0.1428 (  7065 PWs)   bands (ev):

   -46.8744 -46.8732 -23.1409 -23.1387 -23.0735 -23.0703 -22.9778 -22.9057
   -19.4867 -19.4766  -8.9151  -8.8115  -8.4047  -7.9330  -7.9156  -7.8539
    -3.1210  -3.0924  -3.0561  -2.9917  -2.9621  -2.9533   3.2041   3.2668
     3.6688   4.0564   4.5704   4.7209   4.9630   5.1085   5.3665   5.4120
     5.6881   6.1359   6.6150   6.6994   6.8263   6.8911   7.0298   7.8502
    10.8334  12.0421  12.1928  12.2348  12.2820  12.7601  14.0889  15.1500

          k = 0.1250-0.4286-0.2856 (  7073 PWs)   bands (ev):

   -46.8737 -46.8725 -23.1827 -23.1805 -23.0761 -23.0732 -22.9759 -22.9040
   -19.4825 -19.4719  -8.6003  -8.4357  -8.3212  -7.9279  -7.9112  -7.8298
    -3.1906  -3.1500  -3.1222  -3.0434  -3.0172  -2.9707   3.2235   3.2659
     3.5630   3.8670   4.0972   4.2270   4.3308   4.4713   4.6209   5.0525
     5.1327   5.9941   6.9555   6.9937   7.2631   7.3279   7.3784   7.8582
    11.5558  12.0768  12.4985  12.5665  12.6084  12.8182  14.5945  16.3956

          k = 0.1250-0.4286-0.4285 (  7061 PWs)   bands (ev):

   -46.8730 -46.8718 -23.2181 -23.2158 -23.0756 -23.0733 -22.9744 -22.9027
   -19.4791 -19.4682  -8.4621  -8.1283  -8.0888  -7.9355  -7.8962  -7.8112
    -3.2379  -3.2004  -3.1877  -3.0761  -3.0443  -2.9988   3.0306   3.0497
     3.2454   3.3566   3.7789   3.9091   4.1180   4.2352   4.4228   4.8370
     5.1076   5.9638   7.0156   7.0527   7.5931   7.5999   7.7050   7.8559
    11.9866  12.2611  12.7803  12.8935  12.9607  13.0126  14.6964  16.5658

          k = 0.1250-0.4286 0.4285 (  7061 PWs)   bands (ev):

   -46.8730 -46.8718 -23.2183 -23.2159 -23.0755 -23.0733 -22.9744 -22.9027
   -19.4791 -19.4682  -8.4607  -8.1262  -8.0841  -7.9377  -7.9020  -7.8102
    -3.2380  -3.2227  -3.1628  -3.0763  -3.0488  -2.9972   2.9700   3.0002
     3.2443   3.3605   3.8480   3.9005   4.1908   4.2248   4.4181   4.8350
     5.1216   5.9634   7.0009   7.0669   7.5919   7.6003   7.7048   7.8514
    11.9964  12.2434  12.7941  12.8927  12.9450  13.0098  14.6774  16.5640

          k = 0.1250-0.4286 0.2856 (  7073 PWs)   bands (ev):

   -46.8737 -46.8725 -23.1831 -23.1808 -23.0757 -23.0731 -22.9760 -22.9040
   -19.4825 -19.4719  -8.5969  -8.4308  -8.3221  -7.9302  -7.9144  -7.8292
    -3.1968  -3.1733  -3.0851  -3.0388  -3.0358  -2.9660   3.1385   3.1879
     3.5378   3.8391   4.0501   4.2743   4.4579   4.5007   4.7170   5.0193
     5.1943   5.9906   6.9306   7.0219   7.2729   7.3133   7.3752   7.8521
    11.5636  12.0536  12.4862  12.5491  12.6015  12.8086  14.5529  16.4062

          k = 0.1250-0.4286 0.1428 (  7065 PWs)   bands (ev):

   -46.8744 -46.8732 -23.1414 -23.1390 -23.0730 -23.0701 -22.9779 -22.9056
   -19.4867 -19.4766  -8.9136  -8.8091  -8.4049  -7.9350  -7.9155  -7.8539
    -3.1260  -3.1078  -3.0370  -2.9892  -2.9725  -2.9456   3.1635   3.2257
     3.6598   4.0522   4.5568   4.7028   4.9314   5.1477   5.4085   5.4715
     5.7724   6.1286   6.6109   6.7219   6.8293   6.8946   7.0154   7.8462
    10.8335  12.0236  12.1519  12.1976  12.2602  12.7605  14.0815  15.1891

     the Fermi energy is     9.1457 ev

!    total energy              =   -1145.53798581 Ry
     total all-electron energy =    -18592.510716 Ry
     estimated scf accuracy    <          3.7E-10 Ry
     smearing contrib. (-TS)   =      -0.00000000 Ry
     internal energy E=F+TS    =   -1145.53798581 Ry

     The total energy is F=E-TS. E is the sum of the following terms:
     one-electron contribution =    -148.43701321 Ry
     hartree contribution      =     119.15660856 Ry
     xc contribution           =    -125.08272002 Ry
     ewald contribution        =    -406.25859905 Ry
     one-center paw contrib.   =    -584.91626209 Ry

     convergence has been achieved in  14 iterations

     Forces acting on atoms (cartesian axes, Ry/au):

     atom    1 type  1   force =     0.00001881    0.00000507    0.00000899
     atom    2 type  1   force =    -0.00002328   -0.00001682   -0.00001550
     atom    3 type  2   force =     0.00073803    0.00543094    0.04270770
     atom    4 type  2   force =    -0.00075789   -0.00541527   -0.04268877
     atom    5 type  3   force =     0.00002177    0.00003195    0.00002994
     atom    6 type  3   force =    -0.00002457   -0.00003850   -0.00003992
     atom    7 type  3   force =    -0.00025104    0.00845843   -0.00722772
     atom    8 type  3   force =     0.00026282   -0.00845299    0.00720873
     atom    9 type  3   force =    -0.00024309   -0.00216139   -0.01389121
     atom   10 type  3   force =     0.00025843    0.00215858    0.01390776

     Total force =     0.065950     Total SCF correction =     0.000006
     Message from routine punch:
     Nothing written, as per user request (disk_io='none')

     init_run     :     29.15s CPU     29.78s WALL (       1 calls)
     electrons    :    829.40s CPU    839.26s WALL (       1 calls)
     forces       :      9.86s CPU     10.26s WALL (       1 calls)

     Called by init_run:
     wfcinit      :      4.87s CPU      5.00s WALL (       1 calls)
     potinit      :      7.97s CPU      8.18s WALL (       1 calls)
     hinit0       :      2.39s CPU      2.44s WALL (       1 calls)

     Called by electrons:
     c_bands      :    664.04s CPU    665.78s WALL (      14 calls)
     sum_band     :    104.05s CPU    107.75s WALL (      14 calls)
     v_of_rho     :      6.78s CPU      7.33s WALL (      15 calls)
     newd         :     21.71s CPU     25.34s WALL (      15 calls)
     PAW_pot      :     35.86s CPU     36.45s WALL (      15 calls)
     mix_rho      :      1.09s CPU      1.10s WALL (      14 calls)

     Called by c_bands:
     init_us_2    :     13.41s CPU     13.46s WALL (     390 calls)
     cegterg      :    208.80s CPU    210.12s WALL (     182 calls)

     Called by *egterg:
     cdiaghg      :      3.43s CPU      3.44s WALL (     846 calls)
     h_psi        :    123.44s CPU    124.23s WALL (     859 calls)
     s_psi        :     16.97s CPU     16.99s WALL (     859 calls)
     g_psi        :      1.15s CPU      1.15s WALL (     664 calls)

     Called by h_psi:
     h_psi:calbec :     20.41s CPU     20.44s WALL (     859 calls)
     vloc_psi     :     82.34s CPU     82.76s WALL (     859 calls)
                                        0.00s GPU  (     859 calls)
     add_vuspsi   :     17.55s CPU     17.57s WALL (     859 calls)

     General routines
     calbec       :     27.95s CPU     27.99s WALL (    1093 calls)
     fft          :      2.41s CPU      2.42s WALL (     204 calls)
     ffts         :      0.34s CPU      0.34s WALL (      29 calls)
     fftw         :     75.53s CPU     75.88s WALL (   54178 calls)
     interpolate  :      0.68s CPU      0.68s WALL (      15 calls)

     Parallel routines

     PWSCF        :  14m30.67s CPU  14m41.74s WALL


   This run was terminated on:   1: 8:24   5Oct2026            

=------------------------------------------------------------------------------=
   JOB DONE.
=------------------------------------------------------------------------------=
