
     Program PWSCF v.7.5 starts on  5Oct2026 at  1:21:59 

     This program is part of the open-source Quantum ESPRESSO suite
     for quantum simulation of materials; please cite
         "P. Giannozzi et al., J. Phys.:Condens. Matter 21 395502 (2009);
         "P. Giannozzi et al., J. Phys.:Condens. Matter 29 465901 (2017);
         "P. Giannozzi et al., J. Chem. Phys. 152 154105 (2020);
          URL http://www.quantum-espresso.org", 
     in publications or presentations arising from this work. More details at
     http://www.quantum-espresso.org/quote

     Parallel version (MPI & OpenMP), running on       8 processor cores
     Number of MPI processes:                 8
     Threads/MPI process:                     1

     MPI processes distributed on     1 nodes
     99047 MiB available memory on the printing compute node when the environment starts

     Reading input from pw.in

     Current dimensions of program PWSCF are:
     Max number of different atomic species (ntypx) = 10
     Max number of k-points (npk) =  40000
     Max angular momentum in pseudopotentials (lmaxx) =  4
     file K.pbe-spn-kjpaw_psl.1.0.0.UPF: wavefunction(s)  3S renormalized
     file Nb.pbe-spn-kjpaw_psl.0.3.0.UPF: wavefunction(s)  4S 4P renormalized
     file O.pbe-n-kjpaw_psl.0.1.UPF: wavefunction(s)  2P renormalized
     Found identity + (  0.0000  0.0000 -0.5000) symmetry
     This is a supercell, fractional translations are disabled
     Message from routine setup:
     using ibrav=0 with symmetry is DISCOURAGED, use correct ibrav instead

     K-points division:     npool     =       8
     Subspace diagonalization in iterative solution of the eigenvalue problem:
     a serial algorithm will be used


     G-vector sticks info
     --------------------
     sticks:   dense  smooth     PW     G-vecs:    dense   smooth      PW
     Sum        2241    1117    325               160147    56679    8677

     Using Slab Decomposition



     bravais-lattice index     =            0
     lattice parameter (alat)  =       7.6682  a.u.
     unit-cell volume          =     901.7885 (a.u.)^3
     number of atoms/cell      =           10
     number of atomic types    =            3
     number of electrons       =        80.00
     number of Kohn-Sham states=           48
     kinetic-energy cutoff     =      60.0000  Ry
     charge density cutoff     =     480.0000  Ry
     scf convergence threshold =      1.0E-09
     mixing beta               =       0.4000
     number of iterations used =            8  plain     mixing
     Exchange-correlation= SLA  PW   PBX  PBC
                           (   1   4   3   4   0   0   0)

     celldm(1)=   7.668167  celldm(2)=   0.000000  celldm(3)=   0.000000
     celldm(4)=   0.000000  celldm(5)=   0.000000  celldm(6)=   0.000000

     crystal axes: (cart. coord. in units of alat)
               a(1) = (   1.000000  -0.000000  -0.000000 )  
               a(2) = (  -0.000000   1.000000  -0.000000 )  
               a(3) = (  -0.000000  -0.000000   2.000000 )  

     reciprocal axes: (cart. coord. in units 2 pi/alat)
               b(1) = (  1.000000  0.000000  0.000000 )  
               b(2) = (  0.000000  1.000000  0.000000 )  
               b(3) = (  0.000000  0.000000  0.500000 )  


     PseudoPot. # 1 for K  read from file:
     /root/sssp/K.pbe-spn-kjpaw_psl.1.0.0.UPF
     MD5 check sum: 7d58810084cac21f60fbe77ea2b688fd
     Pseudo is Projector augmented-wave + core cor, Zval =  9.0
     Generated using "atomic" code by A. Dal Corso  v.5.1
     Shape of augmentation charge: PSQ
     Using radial grid of 1165 points,  6 beta functions with: 
                l(1) =   0
                l(2) =   0
                l(3) =   1
                l(4) =   1
                l(5) =   2
                l(6) =   2
     Q(r) pseudized with 0 coefficients 


     PseudoPot. # 2 for Nb read from file:
     /root/sssp/Nb.pbe-spn-kjpaw_psl.0.3.0.UPF
     MD5 check sum: 411d72ad547312f8017e2943ceca08cc
     Pseudo is Projector augmented-wave + core cor, Zval = 13.0
     Generated using "atomic" code by A. Dal Corso  v.5.0.99 svn rev. 10869
     Shape of augmentation charge: PSQ
     Using radial grid of 1227 points,  6 beta functions with: 
                l(1) =   0
                l(2) =   0
                l(3) =   1
                l(4) =   1
                l(5) =   2
                l(6) =   2
     Q(r) pseudized with 0 coefficients 


     PseudoPot. # 3 for O  read from file:
     /root/sssp/O.pbe-n-kjpaw_psl.0.1.UPF
     MD5 check sum: 0234752ac141de4415c5fc33072bef88
     Pseudo is Projector augmented-wave + core cor, Zval =  6.0
     Generated using "atomic" code by A. Dal Corso  v.5.0.99 svn rev. 10869
     Shape of augmentation charge: BESSEL
     Using radial grid of 1095 points,  4 beta functions with: 
                l(1) =   0
                l(2) =   0
                l(3) =   1
                l(4) =   1
     Q(r) pseudized with 0 coefficients 


     atomic species   valence    mass     pseudopotential
     K                 9.00    39.09830     K ( 1.00)
     Nb               13.00    92.90640     Nb( 1.00)
     O                 6.00    15.99900     O ( 1.00)

     16 Sym. Ops., with inversion, found



   Cartesian axes

     site n.     atom                  positions (alat units)
         1        K      tau(   1) = (   0.0000000   0.0000000   0.0000000  )
         2        K      tau(   2) = (  -0.0000000   0.0000000   1.0000000  )
         3        Nb     tau(   3) = (   0.5000000   0.5000000   0.5000000  )
         4        Nb     tau(   4) = (   0.5000000   0.5000000   1.5000000  )
         5        O      tau(   5) = (   0.0000000   0.5000000   0.5000000  )
         6        O      tau(   6) = (   0.0000000   0.5000000   1.5000000  )
         7        O      tau(   7) = (   0.5000000   1.0000000   0.5000000  )
         8        O      tau(   8) = (   0.5000000   1.0000000   1.5000000  )
         9        O      tau(   9) = (   0.5000000   0.5000000   0.0000000  )
        10        O      tau(  10) = (   0.5000000   0.5000000   1.0000000  )

     number of k points=    30  Marzari-Vanderbilt smearing, width (Ry)=  0.0050
                       cart. coord. in units 2pi/alat
        k(    1) = (   0.0000000   0.0000000   0.0000000), wk =   0.0102041
        k(    2) = (   0.0000000   0.0000000   0.1250000), wk =   0.0204082
        k(    3) = (  -0.0000000  -0.0000000  -0.2500000), wk =   0.0102041
        k(    4) = (   0.0000000   0.1428571   0.0000000), wk =   0.0408163
        k(    5) = (   0.0000000   0.1428571   0.1250000), wk =   0.0816327
        k(    6) = (   0.0000000   0.1428571  -0.2500000), wk =   0.0408163
        k(    7) = (   0.0000000   0.2857143   0.0000000), wk =   0.0408163
        k(    8) = (   0.0000000   0.2857143   0.1250000), wk =   0.0816327
        k(    9) = (   0.0000000   0.2857143  -0.2500000), wk =   0.0408163
        k(   10) = (   0.0000000   0.4285714   0.0000000), wk =   0.0408163
        k(   11) = (   0.0000000   0.4285714   0.1250000), wk =   0.0816327
        k(   12) = (   0.0000000   0.4285714  -0.2500000), wk =   0.0408163
        k(   13) = (   0.1428571   0.1428571   0.0000000), wk =   0.0408163
        k(   14) = (   0.1428571   0.1428571   0.1250000), wk =   0.0816327
        k(   15) = (   0.1428571   0.1428571  -0.2500000), wk =   0.0408163
        k(   16) = (   0.1428571   0.2857143   0.0000000), wk =   0.0816327
        k(   17) = (   0.1428571   0.2857143   0.1250000), wk =   0.1632653
        k(   18) = (   0.1428571   0.2857143  -0.2500000), wk =   0.0816327
        k(   19) = (   0.1428571   0.4285714   0.0000000), wk =   0.0816327
        k(   20) = (   0.1428571   0.4285714   0.1250000), wk =   0.1632653
        k(   21) = (   0.1428571   0.4285714  -0.2500000), wk =   0.0816327
        k(   22) = (   0.2857143   0.2857143   0.0000000), wk =   0.0408163
        k(   23) = (   0.2857143   0.2857143   0.1250000), wk =   0.0816327
        k(   24) = (   0.2857143   0.2857143  -0.2500000), wk =   0.0408163
        k(   25) = (   0.2857143   0.4285714   0.0000000), wk =   0.0816327
        k(   26) = (   0.2857143   0.4285714   0.1250000), wk =   0.1632653
        k(   27) = (   0.2857143   0.4285714  -0.2500000), wk =   0.0816327
        k(   28) = (   0.4285714   0.4285714   0.0000000), wk =   0.0408163
        k(   29) = (   0.4285714   0.4285714   0.1250000), wk =   0.0816327
        k(   30) = (   0.4285714   0.4285714  -0.2500000), wk =   0.0408163

     Dense  grid:   160147 G-vectors     FFT dimensions: (  54,  54, 108)

     Smooth grid:    56679 G-vectors     FFT dimensions: (  40,  40,  75)

     Estimated max dynamical RAM per process >     204.30 MB

     Estimated total dynamical RAM >       1.33 GB

     Check: negative core charge=   -0.000003

     Initial potential from superposition of free atoms

     starting charge      79.9581, renormalised to      80.0000
     Starting wfcs are   60 randomized atomic wfcs
     Checking if some PAW data can be deallocated... 

     total cpu time spent up to now is       16.9 secs

     per-process dynamical memory:   135.7 Mb

     Self-consistent Calculation

     iteration #  1     ecut=    60.00 Ry     beta= 0.40
     Davidson diagonalization with overlap
     ethr =  1.00E-02,  avg # of iterations =  2.0

     total cpu time spent up to now is       36.2 secs

     total energy              =   -1143.92819573 Ry
     estimated scf accuracy    <       5.17657561 Ry

     iteration #  2     ecut=    60.00 Ry     beta= 0.40
     Davidson diagonalization with overlap
     ethr =  6.47E-03,  avg # of iterations =  4.1

     total cpu time spent up to now is       59.7 secs

     total energy              =   -1145.14582101 Ry
     estimated scf accuracy    <       1.70540168 Ry

     iteration #  3     ecut=    60.00 Ry     beta= 0.40
     Davidson diagonalization with overlap
     ethr =  2.13E-03,  avg # of iterations =  2.4

     total cpu time spent up to now is       78.6 secs

     total energy              =   -1145.53516832 Ry
     estimated scf accuracy    <       0.11829995 Ry

     iteration #  4     ecut=    60.00 Ry     beta= 0.40
     Davidson diagonalization with overlap
     ethr =  1.48E-04,  avg # of iterations =  7.6

     total cpu time spent up to now is      102.4 secs

     total energy              =   -1145.52415102 Ry
     estimated scf accuracy    <       0.04527542 Ry

     iteration #  5     ecut=    60.00 Ry     beta= 0.40
     Davidson diagonalization with overlap
     ethr =  5.66E-05,  avg # of iterations =  5.1

     total cpu time spent up to now is      130.6 secs

     total energy              =   -1145.54079223 Ry
     estimated scf accuracy    <       0.03493640 Ry

     iteration #  6     ecut=    60.00 Ry     beta= 0.40
     Davidson diagonalization with overlap
     ethr =  4.37E-05,  avg # of iterations =  1.0

     total cpu time spent up to now is      147.5 secs

     total energy              =   -1145.53642412 Ry
     estimated scf accuracy    <       0.01723001 Ry

     iteration #  7     ecut=    60.00 Ry     beta= 0.40
     Davidson diagonalization with overlap
     ethr =  2.15E-05,  avg # of iterations =  1.9

     total cpu time spent up to now is      164.0 secs

     total energy              =   -1145.53658982 Ry
     estimated scf accuracy    <       0.00229838 Ry

     iteration #  8     ecut=    60.00 Ry     beta= 0.40
     Davidson diagonalization with overlap
     ethr =  2.87E-06,  avg # of iterations =  6.8

     total cpu time spent up to now is      190.3 secs

     total energy              =   -1145.53744117 Ry
     estimated scf accuracy    <       0.00037831 Ry

     iteration #  9     ecut=    60.00 Ry     beta= 0.40
     Davidson diagonalization with overlap
     ethr =  4.73E-07,  avg # of iterations =  1.7

     total cpu time spent up to now is      206.9 secs

     total energy              =   -1145.53739742 Ry
     estimated scf accuracy    <       0.00032575 Ry

     iteration # 10     ecut=    60.00 Ry     beta= 0.40
     Davidson diagonalization with overlap
     ethr =  4.07E-07,  avg # of iterations =  1.0

     total cpu time spent up to now is      226.1 secs

     total energy              =   -1145.53733851 Ry
     estimated scf accuracy    <       0.00016819 Ry

     iteration # 11     ecut=    60.00 Ry     beta= 0.40
     Davidson diagonalization with overlap
     ethr =  2.10E-07,  avg # of iterations =  2.3

     total cpu time spent up to now is      249.0 secs

     total energy              =   -1145.53736559 Ry
     estimated scf accuracy    <       0.00000148 Ry

     iteration # 12     ecut=    60.00 Ry     beta= 0.40
     Davidson diagonalization with overlap
     ethr =  1.84E-09,  avg # of iterations =  6.0

     total cpu time spent up to now is      280.5 secs

     total energy              =   -1145.53736683 Ry
     estimated scf accuracy    <       0.00000077 Ry

     iteration # 13     ecut=    60.00 Ry     beta= 0.40
     Davidson diagonalization with overlap
     ethr =  9.62E-10,  avg # of iterations =  1.4

     total cpu time spent up to now is      300.1 secs

     total energy              =   -1145.53736666 Ry
     estimated scf accuracy    <       0.00000035 Ry

     iteration # 14     ecut=    60.00 Ry     beta= 0.40
     Davidson diagonalization with overlap
     ethr =  4.34E-10,  avg # of iterations =  4.4

     total cpu time spent up to now is      322.1 secs

     total energy              =   -1145.53736675 Ry
     estimated scf accuracy    <       0.00000004 Ry

     iteration # 15     ecut=    60.00 Ry     beta= 0.40
     Davidson diagonalization with overlap
     ethr =  4.93E-11,  avg # of iterations =  3.2

     total cpu time spent up to now is      340.9 secs

     total energy              =   -1145.53736676 Ry
     estimated scf accuracy    <          6.0E-09 Ry

     iteration # 16     ecut=    60.00 Ry     beta= 0.40
     Davidson diagonalization with overlap
     ethr =  7.45E-12,  avg # of iterations =  2.9

     total cpu time spent up to now is      359.3 secs

     End of self-consistent calculation

          k = 0.0000 0.0000 0.0000 (  7121 PWs)   bands (ev):

   -47.1626 -47.1608 -23.3021 -23.1896 -23.1896 -23.1896 -23.1859 -23.1859
   -19.4228 -19.4013  -9.1063  -9.0598  -8.6661  -8.6660  -8.6465  -7.8420
    -2.9560  -2.9560  -2.9560  -2.9250  -2.9250  -2.8438   2.9802   5.4985
     5.4985   5.7009   5.7010   5.7010   5.8146   5.8146   5.9456   6.5467
     6.9509   6.9509   6.9510   7.1113   7.1113   7.2986   7.2987   7.2987
     9.4135   9.4135   9.4135   9.5152  11.8716  11.8716  12.9018  12.9019

          k = 0.0000 0.0000 0.1250 (  7078 PWs)   bands (ev):

   -47.1623 -47.1610 -23.2859 -23.2064 -23.1890 -23.1890 -23.1864 -23.1864
   -19.4196 -19.4044  -9.0715  -9.0522  -8.6631  -8.6493  -8.5872  -7.9934
    -2.9515  -2.9515  -2.9397  -2.9296  -2.9296  -2.8604   3.3767   5.3474
     5.5468   5.5468   5.6813   5.6813   5.9133   5.9133   6.0493   6.6023
     6.7081   6.7081   6.8872   6.8878   7.1251   7.1251   7.2242   7.2242
     9.4281   9.5000   9.8656   9.8656  11.5484  11.5484  12.9044  12.9155

          k =-0.0000-0.0000-0.2500 (  7078 PWs)   bands (ev):

   -47.1617 -47.1617 -23.2464 -23.2464 -23.1877 -23.1877 -23.1877 -23.1877
   -19.4120 -19.4120  -9.0440  -9.0440  -8.6562  -8.6562  -8.3230  -8.3229
    -2.9406  -2.9406  -2.9406  -2.9406  -2.9003  -2.9002   4.3624   4.3624
     5.6260   5.6260   5.6260   5.6260   6.2393   6.2393   6.2393   6.2393
     6.3554   6.3554   6.7413   6.7413   7.1631   7.1631   7.1631   7.1631
     9.4637   9.4637  10.7545  10.7545  10.7545  10.7545  12.9102  12.9102

          k = 0.0000 0.1429 0.0000 (  7083 PWs)   bands (ev):

   -47.1623 -47.1604 -23.3010 -23.2111 -23.2070 -23.1889 -23.1889 -23.1852
   -19.4187 -19.3995  -9.0648  -8.9702  -8.6624  -8.5615  -8.5605  -7.8510
    -2.9502  -2.9502  -2.9351  -2.9327  -2.9155  -2.8670   2.9749   4.8178
     5.2372   5.3470   5.4547   5.6753   5.6754   5.7390   6.2777   6.6431
     6.6431   6.7884   6.7989   6.8338   6.8699   6.9584   7.2131   7.2131
     9.4323   9.9814   9.9814  10.0546  11.8759  11.9960  12.9051  13.4313

          k = 0.0000 0.1429 0.1250 (  7108 PWs)   bands (ev):

   -47.1620 -47.1607 -23.2848 -23.2105 -23.2076 -23.2056 -23.1883 -23.1857
   -19.4159 -19.4023  -9.0170  -8.9662  -8.6077  -8.5639  -8.5442  -8.0014
    -2.9593  -2.9452  -2.9416  -2.9206  -2.9137  -2.8709   3.3710   4.9232
     5.2150   5.3186   5.3899   5.5068   5.6534   5.8309   6.1890   6.3399
     6.5053   6.8016   6.8073   6.8490   6.8989   6.9986   7.0430   7.0578
     9.8607  10.0095  10.0422  10.2681  11.5550  11.6891  13.2353  13.4244

          k = 0.0000 0.1429-0.2500 (  7094 PWs)   bands (ev):

   -47.1614 -47.1614 -23.2455 -23.2455 -23.2090 -23.2090 -23.1870 -23.1870
   -19.4091 -19.4091  -8.9690  -8.9690  -8.5705  -8.5705  -8.3253  -8.3253
    -2.9561  -2.9561  -2.9329  -2.9329  -2.8869  -2.8869   4.3523   4.3524
     5.1235   5.1235   5.5928   5.5928   5.6213   5.6213   6.1306   6.1306
     6.5264   6.5264   6.8291   6.8291   6.9019   6.9019   7.0736   7.0736
    10.0116  10.0116  10.7678  10.7678  10.9720  10.9720  13.3905  13.3905

          k = 0.0000 0.2857 0.0000 (  7075 PWs)   bands (ev):

   -47.1615 -47.1597 -23.2985 -23.2589 -23.2538 -23.1873 -23.1873 -23.1836
   -19.4096 -19.3956  -9.0445  -8.8547  -8.6542  -8.2596  -8.2247  -7.8714
    -2.9486  -2.9371  -2.9371  -2.9177  -2.8940  -2.8878   2.9516   4.0481
     4.1137   4.1156   5.3575   5.5118   5.6050   5.6050   6.1235   6.1235
     6.2468   6.4568   6.5159   6.6104   6.6966   7.1500   7.1501   7.5748
     9.4750  11.0091  11.0091  11.0540  11.8856  12.3812  12.9119  13.9626

          k = 0.0000 0.2857 0.1250 (  7090 PWs)   bands (ev):

   -47.1612 -47.1600 -23.2825 -23.2581 -23.2546 -23.2039 -23.1868 -23.1842
   -19.4075 -19.3976  -8.9803  -8.8621  -8.5905  -8.2581  -8.2287  -8.0186
    -2.9604  -2.9499  -2.9308  -2.9006  -2.9003  -2.8817   3.3372   4.0424
     4.0850   4.3099   5.1721   5.4150   5.5778   5.5870   5.6369   6.0495
     6.4474   6.4548   6.5431   6.6279   6.8673   6.9289   6.9928   7.5365
     9.9093  11.0174  11.0435  11.1505  11.5708  12.1252  13.3213  13.9232

          k = 0.0000 0.2857-0.2500 (  7098 PWs)   bands (ev):

   -47.1606 -47.1606 -23.2564 -23.2564 -23.2434 -23.2434 -23.1855 -23.1855
   -19.4026 -19.4026  -8.8950  -8.8949  -8.3574  -8.3574  -8.2312  -8.2312
    -2.9639  -2.9639  -2.9157  -2.9157  -2.8831  -2.8831   3.9954   3.9954
     4.3759   4.3759   4.7991   4.7991   5.5071   5.5071   5.8214   5.8214
     6.4726   6.4726   6.6558   6.6558   6.6696   6.6696   7.3670   7.3670
    10.7683  10.7683  11.0465  11.0465  11.5831  11.5831  13.7622  13.7622

          k = 0.0000 0.4286 0.0000 (  7081 PWs)   bands (ev):

   -47.1609 -47.1591 -23.2966 -23.2965 -23.2908 -23.1860 -23.1860 -23.1824
   -19.4024 -19.3924  -9.0572  -8.8074  -8.6476  -7.9409  -7.8939  -7.8879
    -2.9599  -2.9561  -2.9266  -2.9266  -2.8765  -2.8494   2.8367   3.1137
     3.2709   3.7255   5.2806   5.3008   5.5164   5.5164   5.8454   5.8454
     5.9795   6.4018   6.5654   6.5690   6.5860   7.1157   7.1157   7.8756
     9.5100  11.7622  11.7622  11.7885  11.8935  12.8084  12.9168  14.1352

          k = 0.0000 0.4286 0.1250 (  7062 PWs)   bands (ev):

   -47.1606 -47.1593 -23.2958 -23.2917 -23.2806 -23.2025 -23.1855 -23.1829
   -19.4009 -19.3938  -8.9860  -8.8232  -8.5843  -8.0364  -7.9331  -7.9007
    -2.9616  -2.9355  -2.9339  -2.9193  -2.8839  -2.8640   3.0122   3.1097
     3.4969   3.8805   4.9554   5.3243   5.3830   5.4761   5.4834   5.7864
     6.2701   6.4375   6.5232   6.5967   6.8391   6.8892   6.8901   7.7757
     9.9390  11.5771  11.7662  11.7861  11.8601  12.5963  13.3374  14.0809

          k = 0.0000 0.4286-0.2500 (  7086 PWs)   bands (ev):

   -47.1600 -47.1600 -23.2937 -23.2937 -23.2418 -23.2418 -23.1842 -23.1842
   -19.3974 -19.3974  -8.8777  -8.8777  -8.3513  -8.3513  -7.9170  -7.9170
    -2.9499  -2.9499  -2.9017  -2.9017  -2.8992  -2.8992   3.0932   3.0932
     4.2916   4.2916   4.4579   4.4579   5.4040   5.4040   5.6019   5.6019
     6.4219   6.4219   6.5812   6.5812   6.6362   6.6362   7.4411   7.4411
    10.8019  10.8019  11.7758  11.7758  12.1716  12.1716  13.8628  13.8628

          k = 0.1429 0.1429 0.0000 (  7099 PWs)   bands (ev):

   -47.1620 -47.1601 -23.2999 -23.2108 -23.2099 -23.2064 -23.2061 -23.1882
   -19.4151 -19.3977  -9.0071  -8.8511  -8.5954  -8.5318  -8.5052  -7.8559
    -2.9696  -2.9599  -2.9437  -2.9096  -2.8946  -2.8927   2.9707   4.6969
     5.0307   5.2004   5.2181   5.3068   5.3092   5.6469   6.0974   6.1985
     6.4608   6.7584   6.7822   6.8659   6.9237   7.0136   7.0684   7.0700
     9.9410  10.0468  10.3510  10.4358  11.9869  12.0247  13.2772  14.0887

          k = 0.1429 0.1429 0.1250 (  7102 PWs)   bands (ev):

   -47.1617 -47.1604 -23.2838 -23.2102 -23.2094 -23.2071 -23.2066 -23.2048
   -19.4125 -19.4002  -8.9390  -8.8488  -8.5459  -8.5279  -8.5091  -8.0053
    -2.9680  -2.9612  -2.9597  -2.9338  -2.8841  -2.8634   3.3667   4.7992
     5.1036   5.1518   5.2124   5.3020   5.3556   5.3676   6.0537   6.0924
     6.1831   6.3564   6.8136   6.9360   6.9935   7.0023   7.1038   7.1086
    10.2179  10.3279  10.3834  10.4214  11.6841  11.7192  13.9292  14.0927

          k = 0.1429 0.1429-0.2500 (  7100 PWs)   bands (ev):

   -47.1610 -47.1610 -23.2446 -23.2446 -23.2086 -23.2086 -23.2080 -23.2080
   -19.4063 -19.4063  -8.8605  -8.8605  -8.5185  -8.5185  -8.3235  -8.3235
    -2.9645  -2.9645  -2.9606  -2.9606  -2.8602  -2.8602   4.3441   4.3441
     5.0196   5.0196   5.1878   5.1878   5.6149   5.6149   5.6184   5.6184
     6.1691   6.1691   6.9257   6.9257   6.9717   6.9717   7.1551   7.1551
    10.3841  10.3841  10.9692  10.9692  11.0131  11.0131  14.0943  14.0943

          k = 0.1429 0.2857 0.0000 (  7073 PWs)   bands (ev):

   -47.1612 -47.1593 -23.2976 -23.2579 -23.2531 -23.2086 -23.2046 -23.1866
   -19.4070 -19.3935  -8.9656  -8.6932  -8.5681  -8.2437  -8.2297  -7.8671
    -2.9998  -2.9525  -2.9494  -2.9290  -2.8992  -2.8809   2.9504   4.0404
     4.1112   4.1635   4.9439   5.0732   5.1512   5.5209   5.5698   5.7533
     6.0258   6.4598   6.8211   6.8813   6.9247   6.9558   7.0549   7.5816
    10.0215  11.0199  11.1954  11.2705  12.0258  12.3986  13.4050  14.8130

          k = 0.1429 0.2857 0.1250 (  7091 PWs)   bands (ev):

   -47.1609 -47.1596 -23.2816 -23.2572 -23.2538 -23.2080 -23.2052 -23.2031
   -19.4050 -19.3955  -8.8754  -8.7012  -8.5304  -8.2455  -8.2305  -8.0136
    -2.9930  -2.9692  -2.9624  -2.9521  -2.8740  -2.8609   3.3368   4.0360
     4.0845   4.3398   4.9997   5.0055   5.2083   5.2311   5.5201   5.6145
     5.7522   6.2585   6.8564   6.9139   6.9571   6.9882   7.1166   7.5422
    10.3134  11.1599  11.2150  11.2556  11.7288  12.1437  13.9671  14.7848

          k = 0.1429 0.2857-0.2500 (  7080 PWs)   bands (ev):

   -47.1603 -47.1603 -23.2555 -23.2555 -23.2426 -23.2426 -23.2066 -23.2066
   -19.4002 -19.4002  -8.7439  -8.7439  -8.3438  -8.3438  -8.2250  -8.2250
    -2.9817  -2.9817  -2.9718  -2.9718  -2.8527  -2.8527   3.9955   3.9955
     4.3627   4.3627   4.7767   4.7767   5.1125   5.1125   5.4062   5.4062
     5.8189   5.8189   6.9285   6.9285   7.0031   7.0031   7.3796   7.3796
    11.0037  11.0037  11.2463  11.2463  11.6045  11.6045  14.6222  14.6222

          k = 0.1429 0.4286 0.0000 (  7069 PWs)   bands (ev):

   -47.1605 -47.1587 -23.2957 -23.2955 -23.2900 -23.2072 -23.2034 -23.1853
   -19.4005 -19.3901  -8.9688  -8.6403  -8.5624  -7.9285  -7.9026  -7.8764
    -3.0014  -2.9929  -2.9359  -2.9248  -2.9172  -2.8681   2.8389   3.1084
     3.2674   3.8214   4.8540   4.9423   4.9702   5.3595   5.4739   5.6440
     5.7676   6.2979   6.7928   6.8385   6.9720   6.9724   6.9759   7.8815
    10.0504  11.7673  11.8914  11.9458  12.0443  12.8263  13.4292  15.0020

          k = 0.1429 0.4286 0.1250 (  7064 PWs)   bands (ev):

   -47.1603 -47.1590 -23.2947 -23.2908 -23.2798 -23.2066 -23.2039 -23.2018
   -19.3990 -19.3917  -8.8744  -8.6569  -8.5217  -8.0251  -7.9236  -7.9062
    -2.9996  -2.9851  -2.9640  -2.9143  -2.9067  -2.8729   3.0139   3.1052
     3.4931   3.9592   4.7750   4.9598   5.0388   5.1041   5.3335   5.4297
     5.6708   6.2822   6.7205   6.9225   6.9430   6.9838   7.0444   7.7801
    10.3471  11.7454  11.8626  11.9069  11.9392  12.6139  13.9650  14.9520

          k = 0.1429 0.4286-0.2500 (  7070 PWs)   bands (ev):

   -47.1596 -47.1596 -23.2928 -23.2928 -23.2410 -23.2410 -23.2053 -23.2053
   -19.3953 -19.3953  -8.7218  -8.7218  -8.3315  -8.3315  -7.9149  -7.9149
    -2.9930  -2.9930  -2.9468  -2.9468  -2.8825  -2.8825   3.0913   3.0913
     4.3101   4.3101   4.4567   4.4567   4.9721   4.9722   5.2199   5.2199
     5.8160   5.8160   6.9056   6.9056   6.9607   6.9607   7.4523   7.4523
    11.0472  11.0472  11.9175  11.9175  12.1892  12.1892  14.6925  14.6925

          k = 0.2857 0.2857 0.0000 (  7089 PWs)   bands (ev):

   -47.1604 -47.1586 -23.2955 -23.2564 -23.2552 -23.2516 -23.2511 -23.1850
   -19.4010 -19.3888  -8.8816  -8.3457  -8.2852  -8.2118  -8.1661  -7.8576
    -3.0700  -3.0201  -2.9649  -2.9546  -2.9108  -2.8868   2.9387   3.8979
     3.9209   4.1788   4.2034   4.3731   4.5041   4.6212   4.8774   5.4820
     5.7441   6.4651   6.6100   6.6527   7.3401   7.4353   7.4690   7.6534
    10.9739  11.0971  11.7423  11.8366  12.3954  12.4680  13.8275  16.2299

          k = 0.2857 0.2857 0.1250 (  7079 PWs)   bands (ev):

   -47.1601 -47.1589 -23.2796 -23.2557 -23.2546 -23.2523 -23.2517 -23.2015
   -19.3992 -19.3906  -8.7599  -8.3589  -8.2791  -8.2052  -8.1729  -8.0013
    -3.0543  -3.0340  -2.9800  -2.9661  -2.9153  -2.8578   3.3219   3.9003
     3.9160   4.1704   4.2041   4.5167   4.6181   4.6268   4.8522   5.1522
     5.4129   5.9210   6.8644   6.9478   7.3306   7.4153   7.4404   7.6131
    11.1337  11.2501  11.7583  11.8179  12.1499  12.2135  14.5160  16.2460

          k = 0.2857 0.2857-0.2500 (  7068 PWs)   bands (ev):

   -47.1595 -47.1595 -23.2540 -23.2540 -23.2531 -23.2531 -23.2408 -23.2408
   -19.3949 -19.3949  -8.4837  -8.4837  -8.2303  -8.2303  -8.1892  -8.1892
    -3.0199  -3.0199  -3.0169  -3.0169  -2.8670  -2.8670   3.9071   3.9071
     4.0783   4.0783   4.3427   4.3427   4.8183   4.8183   4.9426   4.9426
     4.9861   4.9861   7.2218   7.2218   7.2579   7.2579   7.4974   7.4974
    11.5849  11.5849  11.6826  11.6826  11.8041  11.8041  15.8920  15.8920

          k = 0.2857 0.4286 0.0000 (  7068 PWs)   bands (ev):

   -47.1598 -47.1580 -23.2938 -23.2931 -23.2882 -23.2541 -23.2500 -23.1838
   -19.3963 -19.3851  -8.8572  -8.2589  -8.2386  -7.9221  -7.8998  -7.8501
    -3.0906  -3.0760  -3.0334  -2.9542  -2.9103  -2.8961   2.8433   3.0826
     3.2165   4.0341   4.0860   4.1967   4.2707   4.4839   4.5413   5.3790
     5.5349   6.4550   6.5241   6.6167   7.5362   7.5560   7.5636   7.8952
    11.0507  11.7789  12.2925  12.3759  12.4580  12.8662  13.9503  16.5364

          k = 0.2857 0.4286 0.1250 (  7068 PWs)   bands (ev):

   -47.1595 -47.1583 -23.2924 -23.2889 -23.2780 -23.2535 -23.2506 -23.2002
   -19.3946 -19.3867  -8.7319  -8.2595  -8.2476  -7.9974  -7.9187  -7.9016
    -3.0842  -3.0650  -2.9886  -2.9874  -2.9511  -2.8861   3.0149   3.0819
     3.4261   4.0911   4.1139   4.2245   4.2799   4.5171   4.6220   5.0387
     5.2409   5.8957   6.8411   6.9109   7.4786   7.5287   7.5680   7.7947
    11.2158  11.8902  12.2061  12.3063  12.3630  12.6540  14.6277  16.5370

          k = 0.2857 0.4286-0.2500 (  7066 PWs)   bands (ev):

   -47.1589 -47.1589 -23.2907 -23.2907 -23.2520 -23.2520 -23.2393 -23.2393
   -19.3907 -19.3907  -8.4298  -8.4298  -8.2030  -8.2030  -7.9103  -7.9103
    -3.0507  -3.0507  -3.0102  -3.0102  -2.9210  -2.9210   3.0752   3.0752
     4.0356   4.0356   4.2402   4.2402   4.5547   4.5547   4.6291   4.6291
     5.0132   5.0132   7.2569   7.2569   7.3643   7.3643   7.6035   7.6035
    11.6714  11.6714  12.2122  12.2122  12.3448  12.3448  15.9366  15.9366

          k = 0.4286 0.4286 0.0000 (  7062 PWs)   bands (ev):

   -47.1592 -47.1574 -23.2923 -23.2912 -23.2910 -23.2868 -23.2867 -23.1826
   -19.3929 -19.3811  -8.8127  -7.9444  -7.9328  -7.8923  -7.8676  -7.8285
    -3.1506  -3.1427  -3.1283  -2.9625  -2.9472  -2.8790   2.8310   2.9165
     2.9295   3.3264   3.6101   3.7764   4.1896   4.2392   4.2730   5.2999
     5.3243   6.4126   6.5512   6.5912   7.8441   7.8599   7.8840   7.9157
    11.7764  11.7980  12.7342  12.8240  12.8855  12.9063  14.1183  16.8553

          k = 0.4286 0.4286 0.1250 (  7058 PWs)   bands (ev):

   -47.1589 -47.1576 -23.2906 -23.2904 -23.2875 -23.2873 -23.2765 -23.1989
   -19.3911 -19.3828  -8.6834  -7.9972  -7.9360  -7.9235  -7.8920  -7.8774
    -3.1293  -3.1229  -3.0783  -2.9899  -2.9842  -2.9089   2.9184   2.9275
     3.0846   3.3238   3.7585   3.8468   4.1779   4.3241   4.3401   5.0181
     5.0496   5.8073   6.8828   6.9095   7.7596   7.7744   7.8481   7.8735
    11.8959  11.9176  12.6672  12.6890  12.7480  12.8146  14.8055  16.9385

          k = 0.4286 0.4286-0.2500 (  7068 PWs)   bands (ev):

   -47.1583 -47.1583 -23.2890 -23.2890 -23.2889 -23.2889 -23.2380 -23.2380
   -19.3870 -19.3870  -8.3542  -8.3541  -7.9153  -7.9153  -7.9007  -7.9007
    -3.0643  -3.0643  -3.0563  -3.0563  -2.9878  -2.9878   2.9229   2.9229
     3.2936   3.2936   4.0138   4.0138   4.5194   4.5194   4.6307   4.6307
     4.6943   4.6943   7.3968   7.3968   7.4188   7.4189   7.8585   7.8585
    12.2369  12.2369  12.2567  12.2567  12.7811  12.7811  16.1922  16.1922

     the Fermi energy is     8.4133 ev

!    total energy              =   -1145.53736676 Ry
     total all-electron energy =    -18592.510097 Ry
     estimated scf accuracy    <          4.6E-10 Ry
     smearing contrib. (-TS)   =       0.00000000 Ry
     internal energy E=F+TS    =   -1145.53736676 Ry

     The total energy is F=E-TS. E is the sum of the following terms:
     one-electron contribution =    -145.76105725 Ry
     hartree contribution      =     117.69827000 Ry
     xc contribution           =    -124.94237016 Ry
     ewald contribution        =    -407.62373222 Ry
     one-center paw contrib.   =    -584.90847713 Ry

     convergence has been achieved in  16 iterations

     Forces acting on atoms (cartesian axes, Ry/au):

     atom    1 type  1   force =     0.00000000    0.00000000    0.00000000
     atom    2 type  1   force =     0.00000000    0.00000000    0.00000000
     atom    3 type  2   force =     0.00000000    0.00000000    0.00000027
     atom    4 type  2   force =    -0.00000000   -0.00000000   -0.00000027
     atom    5 type  3   force =    -0.00000000   -0.00000000   -0.00000005
     atom    6 type  3   force =     0.00000000    0.00000000    0.00000005
     atom    7 type  3   force =    -0.00000000   -0.00000000   -0.00000005
     atom    8 type  3   force =     0.00000000    0.00000000    0.00000005
     atom    9 type  3   force =     0.00000000    0.00000000    0.00000000
     atom   10 type  3   force =     0.00000000    0.00000000    0.00000000

     Total force =     0.000000     Total SCF correction =     0.000006
     SCF correction compared to forces is large: reduce conv_thr to get better values
     Message from routine punch:
     Nothing written, as per user request (disk_io='none')

     init_run     :     15.58s CPU     16.05s WALL (       1 calls)
     electrons    :    328.18s CPU    342.48s WALL (       1 calls)
     forces       :      4.53s CPU      4.84s WALL (       1 calls)

     Called by init_run:
     wfcinit      :      1.31s CPU      1.36s WALL (       1 calls)
     potinit      :      5.22s CPU      5.42s WALL (       1 calls)
     hinit0       :      2.53s CPU      2.56s WALL (       1 calls)

     Called by electrons:
     c_bands      :    204.62s CPU    205.83s WALL (      16 calls)
     sum_band     :     51.57s CPU     57.49s WALL (      16 calls)
     v_of_rho     :     11.82s CPU     12.63s WALL (      17 calls)
     newd         :     20.23s CPU     26.11s WALL (      17 calls)
     PAW_pot      :     39.31s CPU     40.07s WALL (      17 calls)
     mix_rho      :      2.16s CPU      2.17s WALL (      16 calls)

     Called by c_bands:
     init_us_2    :      6.18s CPU      6.21s WALL (     136 calls)
     cegterg      :    102.74s CPU    103.76s WALL (      64 calls)

     Called by *egterg:
     cdiaghg      :      1.63s CPU      1.64s WALL (     319 calls)
     h_psi        :     60.90s CPU     61.28s WALL (     323 calls)
     s_psi        :      8.33s CPU      8.36s WALL (     323 calls)
     g_psi        :      0.55s CPU      0.55s WALL (     255 calls)

     Called by h_psi:
     h_psi:calbec :      9.02s CPU      9.03s WALL (     323 calls)
     vloc_psi     :     41.85s CPU     42.12s WALL (     323 calls)
                                        0.00s GPU  (     323 calls)
     add_vuspsi   :      8.33s CPU      8.35s WALL (     323 calls)

     General routines
     calbec       :     12.39s CPU     12.41s WALL (     403 calls)
     fft          :      4.46s CPU      4.47s WALL (     230 calls)
     ffts         :      0.40s CPU      0.40s WALL (      33 calls)
     fftw         :     37.29s CPU     37.48s WALL (   18080 calls)
     interpolate  :      1.03s CPU      1.03s WALL (      17 calls)

     Parallel routines

     PWSCF        :   5m50.43s CPU   6m 5.58s WALL


   This run was terminated on:   1:28: 4   5Oct2026            

=------------------------------------------------------------------------------=
   JOB DONE.
=------------------------------------------------------------------------------=
