
     Program PWSCF v.7.5 starts on  4Oct2026 at  2:32:15 

     This program is part of the open-source Quantum ESPRESSO suite
     for quantum simulation of materials; please cite
         "P. Giannozzi et al., J. Phys.:Condens. Matter 21 395502 (2009);
         "P. Giannozzi et al., J. Phys.:Condens. Matter 29 465901 (2017);
         "P. Giannozzi et al., J. Chem. Phys. 152 154105 (2020);
          URL http://www.quantum-espresso.org", 
     in publications or presentations arising from this work. More details at
     http://www.quantum-espresso.org/quote

     Parallel version (MPI & OpenMP), running on       8 processor cores
     Number of MPI processes:                 8
     Threads/MPI process:                     1

     MPI processes distributed on     1 nodes
     89752 MiB available memory on the printing compute node when the environment starts

     Reading input from pw.in

     Current dimensions of program PWSCF are:
     Max number of different atomic species (ntypx) = 10
     Max number of k-points (npk) =  40000
     Max angular momentum in pseudopotentials (lmaxx) =  4
     file Ba.pbe-spn-kjpaw_psl.1.0.0.UPF: wavefunction(s)  5S 6S renormalized
     file O.pbe-n-kjpaw_psl.0.1.UPF: wavefunction(s)  2P renormalized

     K-points division:     npool     =       4
     R & G space division:  proc/nbgrp/npool/nimage =       2
     Subspace diagonalization in iterative solution of the eigenvalue problem:
     a serial algorithm will be used


     Parallelization info
     --------------------
     sticks:   dense  smooth     PW     G-vecs:    dense   smooth      PW
     Min        3707    1852    516               239884    84716   12286
     Max        3710    1853    517               239885    84721   12287
     Sum        7417    3705   1033               479769   169437   24573

     Using Slab Decomposition



     bravais-lattice index     =            0
     lattice parameter (alat)  =      15.2544  a.u.
     unit-cell volume          =    3549.6625 (a.u.)^3
     number of atoms/cell      =           40
     number of atomic types    =            3
     number of electrons       =       320.00
     number of Kohn-Sham states=          192
     kinetic-energy cutoff     =      50.0000  Ry
     charge density cutoff     =     400.0000  Ry
     scf convergence threshold =      4.0E-09
     mixing beta               =       0.4000
     number of iterations used =            8  plain     mixing
     Exchange-correlation= SLA  PW   PBX  PBC
                           (   1   4   3   4   0   0   0)

     celldm(1)=  15.254424  celldm(2)=   0.000000  celldm(3)=   0.000000
     celldm(4)=   0.000000  celldm(5)=   0.000000  celldm(6)=   0.000000

     crystal axes: (cart. coord. in units of alat)
               a(1) = (   1.000000   0.000000   0.000000 )  
               a(2) = (   0.000000   0.999999  -0.000000 )  
               a(3) = (   0.000000  -0.000000   1.000000 )  

     reciprocal axes: (cart. coord. in units 2 pi/alat)
               b(1) = (  1.000000 -0.000000 -0.000000 )  
               b(2) = ( -0.000000  1.000001  0.000000 )  
               b(3) = ( -0.000000  0.000000  1.000000 )  


     PseudoPot. # 1 for Ba read from file:
     /root/sssp/Ba.pbe-spn-kjpaw_psl.1.0.0.UPF
     MD5 check sum: c432291d3e53af55f19d5e8866385beb
     Pseudo is Projector augmented-wave + core cor, Zval = 10.0
     Generated using "atomic" code by A. Dal Corso  v.5.1
     Shape of augmentation charge: PSQ
     Using radial grid of 1251 points,  7 beta functions with: 
                l(1) =   0
                l(2) =   0
                l(3) =   0
                l(4) =   1
                l(5) =   1
                l(6) =   2
                l(7) =   2
     Q(r) pseudized with 0 coefficients 


     PseudoPot. # 2 for Ti read from file:
     /root/sssp/ti_pbe_v1.4.uspp.F.UPF
     MD5 check sum: 88a00a6731bd790ddea75d31a80cb452
     Pseudo is Ultrasoft + core correction, Zval = 12.0
     Generated by new atomic code, or converted to UPF format
     Using radial grid of  851 points,  6 beta functions with: 
                l(1) =   0
                l(2) =   0
                l(3) =   1
                l(4) =   1
                l(5) =   2
                l(6) =   2
     Q(r) pseudized with  6 coefficients,  rinner =    1.000   1.000   1.000
                                                       1.000   1.000

     PseudoPot. # 3 for O  read from file:
     /root/sssp/O.pbe-n-kjpaw_psl.0.1.UPF
     MD5 check sum: 0234752ac141de4415c5fc33072bef88
     Pseudo is Projector augmented-wave + core cor, Zval =  6.0
     Generated using "atomic" code by A. Dal Corso  v.5.0.99 svn rev. 10869
     Shape of augmentation charge: BESSEL
     Using radial grid of 1095 points,  4 beta functions with: 
                l(1) =   0
                l(2) =   0
                l(3) =   1
                l(4) =   1
     Q(r) pseudized with 0 coefficients 


     atomic species   valence    mass     pseudopotential
     Ba               10.00   137.32700     Ba( 1.00)
     Ti               12.00    47.86700     Ti( 1.00)
     O                 6.00    15.99900     O ( 1.00)

     No symmetry found



   Cartesian axes

     site n.     atom                  positions (alat units)
         1        Ba     tau(   1) = (  -0.0073134   0.4923485   0.4861923  )
         2        Ba     tau(   2) = (   0.5155545   0.4755531   0.4940965  )
         3        Ba     tau(   3) = (   0.0052038   1.0215597   0.5256248  )
         4        Ba     tau(   4) = (   0.4775554   0.9882320   0.4958191  )
         5        Ba     tau(   5) = (  -0.0080659   0.5004633   0.9957621  )
         6        Ba     tau(   6) = (   0.4982468   0.4990938   0.9880420  )
         7        Ba     tau(   7) = (   0.0127426   1.0030489   1.0161967  )
         8        Ba     tau(   8) = (   0.4845856   0.9940517   0.9902708  )
         9        Ti     tau(   9) = (   0.2462400   0.2521608   0.2455073  )
        10        Ti     tau(  10) = (   0.7417671   0.2679990   0.2602753  )
        11        Ti     tau(  11) = (   0.2686914   0.7397238   0.2653410  )
        12        Ti     tau(  12) = (   0.7503295   0.7708988   0.2472434  )
        13        Ti     tau(  13) = (   0.2559571   0.2632645   0.7524955  )
        14        Ti     tau(  14) = (   0.7707338   0.2500207   0.7629546  )
        15        Ti     tau(  15) = (   0.2499119   0.7464210   0.7486103  )
        16        Ti     tau(  16) = (   0.7561562   0.7564561   0.7466995  )
        17        O      tau(  17) = (   0.5082760   0.2591130   0.2544113  )
        18        O      tau(  18) = (   1.0076603   0.2589902   0.2375717  )
        19        O      tau(  19) = (   0.4986400   0.7490196   0.2604586  )
        20        O      tau(  20) = (   1.0155881   0.7604352   0.2527204  )
        21        O      tau(  21) = (   0.4784713   0.2877088   0.7556695  )
        22        O      tau(  22) = (   0.9975611   0.2602420   0.7625216  )
        23        O      tau(  23) = (   0.5324167   0.7511360   0.7251194  )
        24        O      tau(  24) = (   1.0163117   0.7603412   0.7516870  )
        25        O      tau(  25) = (   0.2460923   0.5033977   0.2591887  )
        26        O      tau(  26) = (   0.7552291   0.4916443   0.2443959  )
        27        O      tau(  27) = (   0.2465237   1.0109702   0.2403787  )
        28        O      tau(  28) = (   0.7447739   0.9727892   0.2409417  )
        29        O      tau(  29) = (   0.2637229   0.5012529   0.7476334  )
        30        O      tau(  30) = (   0.7473503   0.5098577   0.7423086  )
        31        O      tau(  31) = (   0.2671260   0.9977059   0.7592560  )
        32        O      tau(  32) = (   0.7622535   1.0203147   0.7695897  )
        33        O      tau(  33) = (   0.2317817   0.2489171  -0.0036279  )
        34        O      tau(  34) = (   0.7353779   0.2429780   0.0058883  )
        35        O      tau(  35) = (   0.2546081   0.7382904  -0.0130854  )
        36        O      tau(  36) = (   0.7567871   0.7437820  -0.0025028  )
        37        O      tau(  37) = (   0.2614244   0.2511904   0.5096252  )
        38        O      tau(  38) = (   0.7396471   0.2397727   0.4893608  )
        39        O      tau(  39) = (   0.2491585   0.7505589   0.4933225  )
        40        O      tau(  40) = (   0.7486636   0.7692270   0.4986163  )

     number of k points=    36  Marzari-Vanderbilt smearing, width (Ry)=  0.0050
                       cart. coord. in units 2pi/alat
        k(    1) = (   0.0000000   0.0000000   0.0000000), wk =   0.0312500
        k(    2) = (  -0.0000000   0.0000000   0.2500001), wk =   0.0625000
        k(    3) = (   0.0000000  -0.0000001  -0.5000002), wk =   0.0312500
        k(    4) = (  -0.0000000   0.2500002   0.2500001), wk =   0.0625000
        k(    5) = (   0.0000000   0.2500000  -0.5000001), wk =   0.0625000
        k(    6) = (   0.0000000  -0.5000004  -0.5000003), wk =   0.0312500
        k(    7) = (   0.2500000   0.2500002   0.2500001), wk =   0.0625000
        k(    8) = (   0.2500000   0.2500000  -0.5000001), wk =   0.0625000
        k(    9) = (   0.2500000  -0.5000004  -0.5000003), wk =   0.0625000
        k(   10) = (  -0.5000000  -0.5000004  -0.5000002), wk =   0.0312500
        k(   11) = (   0.2500000  -0.0000000  -0.0000000), wk =   0.0625000
        k(   12) = (  -0.0000000   0.2500001   0.0000000), wk =   0.0625000
        k(   13) = (  -0.5000000   0.0000000   0.0000000), wk =   0.0312500
        k(   14) = (   0.0000000  -0.5000003  -0.0000001), wk =   0.0312500
        k(   15) = (  -0.0000000  -0.2500001   0.2500000), wk =   0.0625000
        k(   16) = (   0.2500000  -0.0000001  -0.2500001), wk =   0.0625000
        k(   17) = (  -0.2500000  -0.0000000  -0.2500001), wk =   0.0625000
        k(   18) = (   0.2500000  -0.2500002  -0.0000001), wk =   0.0625000
        k(   19) = (  -0.2500000  -0.2500001  -0.0000000), wk =   0.0625000
        k(   20) = (   0.2500000   0.0000001   0.5000001), wk =   0.0625000
        k(   21) = (  -0.5000000  -0.2500001  -0.0000000), wk =   0.0625000
        k(   22) = (   0.0000000  -0.5000002   0.2500000), wk =   0.0625000
        k(   23) = (   0.2500000  -0.5000003  -0.0000001), wk =   0.0625000
        k(   24) = (  -0.5000000   0.0000001   0.2500001), wk =   0.0625000
        k(   25) = (  -0.5000000   0.0000001   0.5000002), wk =   0.0312500
        k(   26) = (  -0.5000000   0.5000003   0.0000001), wk =   0.0312500
        k(   27) = (  -0.2500000  -0.2500001   0.2500000), wk =   0.0625000
        k(   28) = (  -0.2500000   0.2500001  -0.2500000), wk =   0.0625000
        k(   29) = (   0.2500000  -0.2500002  -0.2500001), wk =   0.0625000
        k(   30) = (  -0.2500000   0.2500003   0.5000002), wk =   0.0625000
        k(   31) = (  -0.5000000  -0.2500001   0.2500001), wk =   0.0625000
        k(   32) = (   0.5000000  -0.2500002  -0.2500002), wk =   0.0625000
        k(   33) = (  -0.2500000  -0.5000002   0.2500000), wk =   0.0625000
        k(   34) = (  -0.2500000   0.5000003  -0.2500000), wk =   0.0625000
        k(   35) = (  -0.5000000   0.2500003   0.5000002), wk =   0.0625000
        k(   36) = (  -0.5000000   0.5000004   0.2500002), wk =   0.0625000

     Dense  grid:   479769 G-vectors     FFT dimensions: ( 100, 100, 100)

     Smooth grid:   169437 G-vectors     FFT dimensions: (  72,  72,  72)

     Estimated max dynamical RAM per process >     796.87 MB

     Estimated total dynamical RAM >       5.88 GB

     Check: negative core charge=   -0.000004

     Initial potential from superposition of free atoms

     starting charge     311.8636, renormalised to     320.0000

     negative rho (up, down):  1.034E-02 0.000E+00
     Starting wfcs are  216 randomized atomic wfcs
     Checking if some PAW data can be deallocated... 

     total cpu time spent up to now is       49.3 secs

     per-process dynamical memory:   538.2 Mb

     Self-consistent Calculation

     iteration #  1     ecut=    50.00 Ry     beta= 0.40
     Davidson diagonalization with overlap
     ethr =  1.00E-02,  avg # of iterations =  2.0

     negative rho (up, down):  9.884E-02 0.000E+00

     total cpu time spent up to now is      184.4 secs

     total energy              =   -5446.37851051 Ry
     estimated scf accuracy    <       7.74976558 Ry

     iteration #  2     ecut=    50.00 Ry     beta= 0.40
     Davidson diagonalization with overlap
     ethr =  2.42E-03,  avg # of iterations =  4.0

     negative rho (up, down):  1.518E-01 0.000E+00

     total cpu time spent up to now is      338.6 secs

     total energy              =   -5446.74322763 Ry
     estimated scf accuracy    <      10.62086978 Ry

     iteration #  3     ecut=    50.00 Ry     beta= 0.40
     Davidson diagonalization with overlap
     ethr =  2.42E-03,  avg # of iterations =  2.7

     negative rho (up, down):  2.492E-01 0.000E+00

     total cpu time spent up to now is      461.1 secs

     total energy              =   -5448.74096321 Ry
     estimated scf accuracy    <       0.75169880 Ry

     iteration #  4     ecut=    50.00 Ry     beta= 0.40
     Davidson diagonalization with overlap
     ethr =  2.35E-04,  avg # of iterations =  3.7

     negative rho (up, down):  2.766E-01 0.000E+00

     total cpu time spent up to now is      597.4 secs

     total energy              =   -5448.78746225 Ry
     estimated scf accuracy    <       0.23049773 Ry

     iteration #  5     ecut=    50.00 Ry     beta= 0.40
     Davidson diagonalization with overlap
     ethr =  7.20E-05,  avg # of iterations =  3.2

     negative rho (up, down):  2.227E-01 0.000E+00

     total cpu time spent up to now is      730.7 secs

     total energy              =   -5448.80729428 Ry
     estimated scf accuracy    <       0.09282007 Ry

     iteration #  6     ecut=    50.00 Ry     beta= 0.40
     Davidson diagonalization with overlap
     ethr =  2.90E-05,  avg # of iterations =  2.8

     negative rho (up, down):  1.550E-01 0.000E+00

     total cpu time spent up to now is      860.9 secs

     total energy              =   -5448.81531469 Ry
     estimated scf accuracy    <       0.04098905 Ry

     iteration #  7     ecut=    50.00 Ry     beta= 0.40
     Davidson diagonalization with overlap
     ethr =  1.28E-05,  avg # of iterations =  4.4

     negative rho (up, down):  3.597E-02 0.000E+00

     total cpu time spent up to now is      991.5 secs

     total energy              =   -5448.81854861 Ry
     estimated scf accuracy    <       0.03200928 Ry

     iteration #  8     ecut=    50.00 Ry     beta= 0.40
     Davidson diagonalization with overlap
     ethr =  1.00E-05,  avg # of iterations =  2.3

     negative rho (up, down):  1.161E-02 0.000E+00

     total cpu time spent up to now is     1112.7 secs

     total energy              =   -5448.81923571 Ry
     estimated scf accuracy    <       0.01140302 Ry

     iteration #  9     ecut=    50.00 Ry     beta= 0.40
     Davidson diagonalization with overlap
     ethr =  3.56E-06,  avg # of iterations =  8.6

     negative rho (up, down):  9.733E-03 0.000E+00

     total cpu time spent up to now is     1292.7 secs

     total energy              =   -5448.82106410 Ry
     estimated scf accuracy    <       0.00629503 Ry

     iteration # 10     ecut=    50.00 Ry     beta= 0.40
     Davidson diagonalization with overlap
     ethr =  1.97E-06,  avg # of iterations =  2.9

     negative rho (up, down):  9.736E-03 0.000E+00

     total cpu time spent up to now is     1420.7 secs

     total energy              =   -5448.82126137 Ry
     estimated scf accuracy    <       0.00066614 Ry

     iteration # 11     ecut=    50.00 Ry     beta= 0.40
     Davidson diagonalization with overlap
     ethr =  2.08E-07,  avg # of iterations =  4.2

     negative rho (up, down):  9.728E-03 0.000E+00

     total cpu time spent up to now is     1564.9 secs

     total energy              =   -5448.82141826 Ry
     estimated scf accuracy    <       0.00201510 Ry

     iteration # 12     ecut=    50.00 Ry     beta= 0.40
     Davidson diagonalization with overlap
     ethr =  2.08E-07,  avg # of iterations =  2.2

     negative rho (up, down):  9.733E-03 0.000E+00

     total cpu time spent up to now is     1689.4 secs

     total energy              =   -5448.82142494 Ry
     estimated scf accuracy    <       0.00021360 Ry

     iteration # 13     ecut=    50.00 Ry     beta= 0.40
     Davidson diagonalization with overlap
     ethr =  6.68E-08,  avg # of iterations =  2.0

     negative rho (up, down):  9.724E-03 0.000E+00

     total cpu time spent up to now is     1813.0 secs

     total energy              =   -5448.82146100 Ry
     estimated scf accuracy    <       0.00138255 Ry

     iteration # 14     ecut=    50.00 Ry     beta= 0.40
     Davidson diagonalization with overlap
     ethr =  6.68E-08,  avg # of iterations =  2.3

     negative rho (up, down):  9.723E-03 0.000E+00

     total cpu time spent up to now is     1941.1 secs

     total energy              =   -5448.82147290 Ry
     estimated scf accuracy    <       0.00024041 Ry

     iteration # 15     ecut=    50.00 Ry     beta= 0.40
     Davidson diagonalization with overlap
     ethr =  6.68E-08,  avg # of iterations =  1.6

     negative rho (up, down):  9.722E-03 0.000E+00

     total cpu time spent up to now is     2055.2 secs

     total energy              =   -5448.82147664 Ry
     estimated scf accuracy    <       0.00014118 Ry

     iteration # 16     ecut=    50.00 Ry     beta= 0.40
     Davidson diagonalization with overlap
     ethr =  4.41E-08,  avg # of iterations =  1.9

     negative rho (up, down):  9.719E-03 0.000E+00

     total cpu time spent up to now is     2175.3 secs

     total energy              =   -5448.82147631 Ry
     estimated scf accuracy    <       0.00003347 Ry

     iteration # 17     ecut=    50.00 Ry     beta= 0.40
     Davidson diagonalization with overlap
     ethr =  1.05E-08,  avg # of iterations =  4.0

     negative rho (up, down):  9.720E-03 0.000E+00

     total cpu time spent up to now is     2315.1 secs

     total energy              =   -5448.82148031 Ry
     estimated scf accuracy    <       0.00000190 Ry

     iteration # 18     ecut=    50.00 Ry     beta= 0.40
     Davidson diagonalization with overlap
     ethr =  5.94E-10,  avg # of iterations =  2.2

     negative rho (up, down):  9.721E-03 0.000E+00

     total cpu time spent up to now is     2437.0 secs

     total energy              =   -5448.82148048 Ry
     estimated scf accuracy    <       0.00000075 Ry

     iteration # 19     ecut=    50.00 Ry     beta= 0.40
     Davidson diagonalization with overlap
     ethr =  2.34E-10,  avg # of iterations =  3.3

     negative rho (up, down):  9.721E-03 0.000E+00

     total cpu time spent up to now is     2562.5 secs

     total energy              =   -5448.82148053 Ry
     estimated scf accuracy    <       0.00000077 Ry

     iteration # 20     ecut=    50.00 Ry     beta= 0.40
     Davidson diagonalization with overlap
     ethr =  2.34E-10,  avg # of iterations =  1.8

     negative rho (up, down):  9.722E-03 0.000E+00

     total cpu time spent up to now is     2682.2 secs

     total energy              =   -5448.82148052 Ry
     estimated scf accuracy    <       0.00000035 Ry

     iteration # 21     ecut=    50.00 Ry     beta= 0.40
     Davidson diagonalization with overlap
     ethr =  1.09E-10,  avg # of iterations =  3.7

     negative rho (up, down):  9.722E-03 0.000E+00

     total cpu time spent up to now is     2815.9 secs

     total energy              =   -5448.82148056 Ry
     estimated scf accuracy    <       0.00000055 Ry

     iteration # 22     ecut=    50.00 Ry     beta= 0.40
     Davidson diagonalization with overlap
     ethr =  1.09E-10,  avg # of iterations =  1.0

     negative rho (up, down):  9.722E-03 0.000E+00

     total cpu time spent up to now is     2914.7 secs

     total energy              =   -5448.82148055 Ry
     estimated scf accuracy    <       0.00000014 Ry

     iteration # 23     ecut=    50.00 Ry     beta= 0.40
     Davidson diagonalization with overlap
     ethr =  4.52E-11,  avg # of iterations =  1.0

     negative rho (up, down):  9.722E-03 0.000E+00

     total cpu time spent up to now is     3012.6 secs

     total energy              =   -5448.82148056 Ry
     estimated scf accuracy    <       0.00000019 Ry

     iteration # 24     ecut=    50.00 Ry     beta= 0.40
     Davidson diagonalization with overlap
     ethr =  4.52E-11,  avg # of iterations =  1.0

     negative rho (up, down):  9.721E-03 0.000E+00

     total cpu time spent up to now is     3108.9 secs

     total energy              =   -5448.82148056 Ry
     estimated scf accuracy    <       0.00000005 Ry

     iteration # 25     ecut=    50.00 Ry     beta= 0.40
     Davidson diagonalization with overlap
     ethr =  1.50E-11,  avg # of iterations =  2.0

     negative rho (up, down):  9.722E-03 0.000E+00

     total cpu time spent up to now is     3212.7 secs

     End of self-consistent calculation

          k = 0.0000 0.0000 0.0000 ( 21247 PWs)   bands (ev):

   -46.6663 -46.6088 -46.4380 -46.3281 -46.3017 -46.2976 -46.2650 -45.9763
   -22.9657 -22.9280 -22.9025 -22.8966 -22.8722 -22.8405 -22.7294 -22.7046
   -22.6986 -22.6857 -22.6578 -22.6393 -22.6331 -22.6257 -22.6201 -22.6195
   -22.5985 -22.5555 -22.5487 -22.5485 -22.5267 -22.5091 -22.1868 -22.1681
   -15.0432 -14.9482 -14.8049 -14.6896 -14.6220 -14.5564 -14.4604 -14.4165
    -7.2411  -7.0908  -6.9922  -6.8493  -6.6878  -6.5542  -6.4884  -6.4035
    -6.3097  -6.2496  -6.2447  -6.2001  -6.1841  -6.1160  -6.0419  -6.0017
    -5.9539  -5.9332  -5.8966  -5.8225  -5.7811  -5.7537  -5.5130  -5.2017
    -0.7344  -0.7183  -0.6840  -0.2481  -0.2351  -0.2061  -0.1458  -0.1069
    -0.0596   0.0215   0.0654   0.0976   0.1349   0.1619   0.2017   0.2116
     0.2290   0.2677   0.3774   0.3855   0.4300   0.4595   0.5046   0.5149
     5.5957   5.7915   5.8304   5.9068   5.9660   6.0421   6.0777   6.0942
     6.1095   6.1746   6.2110   6.2635   6.2905   6.3192   6.5814   6.9762
     7.0339   7.0662   7.1652   7.1782   7.2207   7.2846   7.2890   7.3294
     7.4144   7.4410   7.4453   7.5049   7.5799   7.6653   7.7295   7.7910
     7.8031   7.8380   7.8498   7.9215   7.9453   8.0501   8.1034   8.1562
     8.2200   8.2694   8.2928   8.3341   8.3908   8.4346   8.4819   8.5339
     8.7756   8.8456   8.9247   8.9596   8.9873   9.0450   9.0949   9.1256
     9.2053   9.2797   9.3270   9.3727   9.4245   9.4400   9.4625   9.7317
     9.7622   9.8227   9.8754   9.9255   9.9924  10.0455  10.0961  10.3585
    12.0373  12.0700  12.2865  12.3613  12.3715  12.4270  13.2824  13.4670
    13.5601  13.6726  13.6908  13.6973  13.7150  13.7656  13.7920  13.8065
    13.8221  13.8946  13.9789  14.0063  14.0809  14.1513  14.1592  14.1673
    14.2482  14.2801  14.3992  14.5667  14.5798  14.7955  14.9383  15.0552

          k =-0.0000 0.0000 0.2500 ( 21174 PWs)   bands (ev):

   -46.6663 -46.6088 -46.4380 -46.3281 -46.3017 -46.2976 -46.2650 -45.9763
   -22.9657 -22.9278 -22.9020 -22.8965 -22.8721 -22.8396 -22.7294 -22.7046
   -22.6959 -22.6848 -22.6579 -22.6393 -22.6339 -22.6260 -22.6232 -22.6198
   -22.5986 -22.5555 -22.5488 -22.5485 -22.5274 -22.5084 -22.1868 -22.1689
   -15.0409 -14.9471 -14.7988 -14.6968 -14.6210 -14.5535 -14.4670 -14.4178
    -7.2156  -7.0434  -6.9389  -6.8463  -6.6960  -6.6147  -6.4889  -6.4207
    -6.3122  -6.2482  -6.2386  -6.1972  -6.1557  -6.1073  -6.0551  -6.0025
    -5.9649  -5.9431  -5.8981  -5.8230  -5.7875  -5.7780  -5.5649  -5.2017
    -0.6742  -0.6572  -0.5677  -0.2738  -0.2397  -0.1935  -0.1700  -0.1128
    -0.0823   0.0194   0.0669   0.1034   0.1224   0.1650   0.1709   0.1954
     0.2138   0.2783   0.3009   0.3686   0.4055   0.4328   0.4705   0.4810
     5.6591   5.7921   5.9146   5.9639   6.0542   6.0928   6.1686   6.1967
     6.2203   6.2515   6.3082   6.3571   6.4117   6.4214   6.7492   6.9431
     6.9836   7.0713   7.1088   7.1861   7.2443   7.2881   7.3214   7.3384
     7.3870   7.4173   7.4495   7.4792   7.5309   7.5787   7.6086   7.6315
     7.6854   7.7165   7.8139   7.8744   7.8834   7.9453   8.0807   8.1579
     8.2029   8.2529   8.3107   8.3704   8.4251   8.5088   8.6830   8.7257
     8.7405   8.8112   8.8357   8.9077   8.9310   8.9890   9.0581   9.0950
     9.1434   9.1934   9.2172   9.3236   9.3817   9.4344   9.4869   9.5527
     9.6793   9.7134   9.7943   9.8488   9.9061  10.0010  10.0785  10.2422
    12.2079  12.2855  12.3465  12.3695  12.5480  12.5927  13.1733  13.3332
    13.5563  13.5794  13.6137  13.6598  13.6712  13.7169  13.7677  13.7831
    13.8075  13.8758  13.9685  14.0222  14.1395  14.1591  14.1908  14.2795
    14.3294  14.4108  14.5065  14.5548  14.5906  14.8265  15.0533  15.2943

          k = 0.0000-0.0000-0.5000 ( 21178 PWs)   bands (ev):

   -46.6663 -46.6088 -46.4380 -46.3281 -46.3017 -46.2976 -46.2650 -45.9763
   -22.9657 -22.9277 -22.9014 -22.8965 -22.8719 -22.8386 -22.7294 -22.7046
   -22.6936 -22.6833 -22.6579 -22.6394 -22.6348 -22.6271 -22.6263 -22.6199
   -22.5987 -22.5555 -22.5489 -22.5485 -22.5280 -22.5076 -22.1869 -22.1696
   -15.0386 -14.9460 -14.7915 -14.7050 -14.6203 -14.5495 -14.4745 -14.4191
    -7.1874  -6.9787  -6.8813  -6.7950  -6.7420  -6.7229  -6.4849  -6.4292
    -6.3137  -6.2409  -6.2333  -6.1895  -6.1096  -6.0974  -6.0902  -6.0052
    -5.9758  -5.9568  -5.9044  -5.8287  -5.8155  -5.7543  -5.6356  -5.2019
    -0.5769  -0.5543  -0.3938  -0.3452  -0.3007  -0.2319  -0.1705  -0.1124
    -0.0819  -0.0387   0.0327   0.0846   0.1156   0.1609   0.1671   0.1781
     0.2405   0.2733   0.3001   0.3476   0.3658   0.3765   0.4394   0.4478
     5.7035   5.7943   5.9779   5.9948   6.0662   6.0964   6.2444   6.2621
     6.4751   6.4982   6.5370   6.6184   6.6581   6.7092   6.7529   6.7955
     6.8629   6.9839   7.0537   7.1211   7.1750   7.2599   7.2695   7.3212
     7.3363   7.3894   7.3919   7.4303   7.4611   7.5464   7.5700   7.5910
     7.6504   7.6622   7.6815   7.7322   7.8147   7.8679   8.0231   8.1589
     8.3076   8.3243   8.4042   8.4165   8.4550   8.5821   8.6379   8.7012
     8.7259   8.7818   8.8073   8.8176   8.8630   8.8988   8.9259   9.0171
     9.0642   9.0988   9.2577   9.3529   9.3973   9.4535   9.5141   9.5348
     9.5872   9.6177   9.6994   9.7452   9.8379   9.9886  10.0093  10.0810
    12.2620  12.3459  12.6936  12.7373  12.7666  12.8443  12.9594  13.0408
    13.1834  13.3864  13.5672  13.6628  13.6876  13.7382  13.7603  13.7816
    13.8056  13.8386  13.9316  13.9990  14.1245  14.1546  14.1754  14.2105
    14.3664  14.5516  14.6570  14.6834  14.7325  14.9362  15.1849  15.3284

          k =-0.0000 0.2500 0.2500 ( 21200 PWs)   bands (ev):

   -46.6663 -46.6088 -46.4380 -46.3281 -46.3017 -46.2976 -46.2650 -45.9763
   -22.9657 -22.9278 -22.9019 -22.8958 -22.8715 -22.8394 -22.7294 -22.6982
   -22.6954 -22.6833 -22.6641 -22.6395 -22.6341 -22.6261 -22.6232 -22.6198
   -22.5993 -22.5563 -22.5505 -22.5486 -22.5276 -22.5084 -22.1868 -22.1689
   -15.0336 -14.9545 -14.7948 -14.6940 -14.6227 -14.5523 -14.4699 -14.4224
    -7.1987  -6.9942  -6.8937  -6.8241  -6.7022  -6.5652  -6.5323  -6.4457
    -6.3170  -6.2677  -6.2375  -6.2064  -6.1405  -6.1309  -6.0840  -6.0113
    -6.0023  -5.9525  -5.8845  -5.8329  -5.7937  -5.7828  -5.5704  -5.2010
    -0.6391  -0.5832  -0.4943  -0.2963  -0.2564  -0.1992  -0.1442  -0.1216
    -0.0718   0.0015   0.0341   0.0777   0.1048   0.1479   0.1703   0.1949
     0.2209   0.2708   0.3040   0.3474   0.3724   0.4000   0.4487   0.4615
     5.6893   5.8619   5.9919   6.0650   6.1387   6.2354   6.2527   6.3093
     6.3297   6.3646   6.3918   6.4231   6.4655   6.4905   6.7532   6.8945
     6.9571   7.0594   7.1250   7.1786   7.1977   7.2508   7.2800   7.3348
     7.3521   7.3733   7.4108   7.4551   7.4784   7.5078   7.5353   7.6156
     7.6411   7.6842   7.7805   7.8203   7.8665   7.9623   7.9899   8.0997
     8.1441   8.2025   8.3025   8.3429   8.4197   8.5693   8.6232   8.7000
     8.7689   8.8042   8.8744   8.9072   8.9577   9.0032   9.0595   9.0799
     9.1431   9.1880   9.2288   9.2687   9.3034   9.3618   9.4561   9.4862
     9.5658   9.6713   9.7239   9.7918   9.8168   9.8919  10.0027  10.2440
    12.2506  12.4529  12.5069  12.5503  12.6002  12.7214  13.1688  13.3062
    13.4250  13.5156  13.5561  13.5850  13.6293  13.6607  13.6859  13.7453
    13.8032  13.8746  13.9321  13.9926  14.0552  14.2581  14.2740  14.3446
    14.4190  14.4670  14.5357  14.6322  14.7237  14.9390  15.2800  15.4185

          k = 0.0000 0.2500-0.5000 ( 21174 PWs)   bands (ev):

   -46.6663 -46.6088 -46.4380 -46.3281 -46.3017 -46.2976 -46.2650 -45.9763
   -22.9657 -22.9277 -22.9014 -22.8957 -22.8713 -22.8384 -22.7294 -22.6982
   -22.6928 -22.6821 -22.6641 -22.6395 -22.6350 -22.6272 -22.6264 -22.6199
   -22.5993 -22.5563 -22.5506 -22.5487 -22.5283 -22.5076 -22.1869 -22.1696
   -15.0316 -14.9532 -14.7878 -14.7020 -14.6214 -14.5483 -14.4779 -14.4237
    -7.1791  -6.9403  -6.8470  -6.7591  -6.7070  -6.6796  -6.5111  -6.4366
    -6.3285  -6.2935  -6.2280  -6.2128  -6.1431  -6.1063  -6.0878  -6.0353
    -6.0195  -5.9570  -5.8885  -5.8413  -5.8093  -5.7564  -5.6333  -5.1994
    -0.5710  -0.4974  -0.4261  -0.3028  -0.2576  -0.2127  -0.1791  -0.1511
    -0.0979  -0.0428   0.0136   0.0612   0.0928   0.1304   0.1609   0.2102
     0.2343   0.2761   0.2937   0.3449   0.3631   0.3796   0.4225   0.4373
     5.7258   5.8733   6.0487   6.1180   6.2048   6.2236   6.3313   6.3813
     6.4993   6.5593   6.6000   6.6413   6.6764   6.7072   6.7561   6.7978
     6.9216   6.9690   7.0325   7.0992   7.1586   7.2157   7.2349   7.2693
     7.3269   7.3446   7.3936   7.4457   7.4509   7.5115   7.5693   7.5868
     7.6185   7.6621   7.7120   7.7339   7.7868   7.8205   7.9057   8.0637
     8.0950   8.1820   8.2802   8.3711   8.4020   8.4817   8.5793   8.6923
     8.7442   8.8098   8.8399   8.8989   8.9221   8.9641   9.0110   9.0443
     9.0936   9.1500   9.2359   9.3167   9.3781   9.3950   9.4489   9.4904
     9.5298   9.5725   9.6205   9.6873   9.8195   9.8805   9.9870  10.0498
    12.4496  12.5292  12.7054  12.8165  12.8545  12.8738  13.0156  13.0747
    13.1810  13.4039  13.4536  13.5486  13.6032  13.6299  13.6661  13.7287
    13.7928  13.8131  13.8633  13.9837  14.0559  14.1322  14.2502  14.3659
    14.4448  14.4934  14.7091  14.7652  15.0701  15.1222  15.3987  15.5724

          k = 0.0000-0.5000-0.5000 ( 21216 PWs)   bands (ev):

   -46.6663 -46.6088 -46.4380 -46.3281 -46.3017 -46.2976 -46.2650 -45.9763
   -22.9657 -22.9277 -22.9014 -22.8950 -22.8707 -22.8383 -22.7294 -22.6921
   -22.6868 -22.6806 -22.6754 -22.6397 -22.6352 -22.6272 -22.6264 -22.6199
   -22.6000 -22.5572 -22.5524 -22.5488 -22.5285 -22.5077 -22.1869 -22.1696
   -15.0229 -14.9621 -14.7839 -14.6988 -14.6229 -14.5466 -14.4815 -14.4286
    -7.1709  -6.8956  -6.8101  -6.7097  -6.6737  -6.5875  -6.5564  -6.4730
    -6.4034  -6.3010  -6.2372  -6.2208  -6.1722  -6.1484  -6.0887  -6.0486
    -6.0320  -5.9654  -5.8801  -5.8543  -5.8137  -5.7535  -5.6317  -5.1970
    -0.5470  -0.4180  -0.3973  -0.3445  -0.2951  -0.2319  -0.1668  -0.1310
    -0.0994  -0.0522   0.0091   0.0309   0.0751   0.1454   0.1627   0.1990
     0.2374   0.2851   0.2994   0.3170   0.3517   0.3726   0.4110   0.4265
     5.7370   5.9128   6.0913   6.1577   6.4208   6.4974   6.5211   6.5304
     6.5444   6.6288   6.6868   6.7164   6.7359   6.7634   6.8028   6.8184
     6.8731   6.9174   7.0272   7.0638   7.1164   7.1599   7.1909   7.2524
     7.2830   7.2958   7.3329   7.3680   7.4077   7.4458   7.4718   7.5266
     7.6153   7.6385   7.6810   7.7721   7.7932   7.8085   7.8931   7.9410
     8.0041   8.0626   8.1174   8.1740   8.2562   8.5022   8.5433   8.5520
     8.7981   8.8250   8.8977   8.9399   8.9507   9.0339   9.0484   9.0885
     9.1564   9.2029   9.2621   9.3067   9.3404   9.3897   9.4029   9.4369
     9.5187   9.5427   9.5787   9.6540   9.6846   9.8438   9.9072  10.0444
    12.6469  12.7822  12.8357  12.9431  12.9786  13.0266  13.0355  13.0681
    13.1751  13.2241  13.3204  13.3638  13.4498  13.5012  13.5516  13.6740
    13.7982  13.8335  13.9003  13.9017  13.9600  14.1033  14.1475  14.3562
    14.5326  14.6395  14.7005  14.8302  15.5938  15.6383  15.7755  15.8792

          k = 0.2500 0.2500 0.2500 ( 21239 PWs)   bands (ev):

   -46.6663 -46.6088 -46.4380 -46.3281 -46.3017 -46.2976 -46.2650 -45.9763
   -22.9649 -22.9272 -22.9017 -22.8958 -22.8714 -22.8394 -22.7270 -22.6982
   -22.6954 -22.6833 -22.6641 -22.6403 -22.6344 -22.6267 -22.6233 -22.6222
   -22.5992 -22.5563 -22.5505 -22.5481 -22.5276 -22.5084 -22.1875 -22.1689
   -15.0313 -14.9533 -14.7934 -14.6957 -14.6129 -14.5629 -14.4715 -14.4247
    -7.1613  -6.9502  -6.8614  -6.7985  -6.7114  -6.5780  -6.5462  -6.4552
    -6.3169  -6.2868  -6.2382  -6.2068  -6.1543  -6.1365  -6.0816  -6.0497
    -6.0094  -5.9550  -5.8831  -5.8461  -5.8019  -5.7808  -5.5730  -5.2157
    -0.6120  -0.5409  -0.4242  -0.3034  -0.2777  -0.2236  -0.1498  -0.1300
    -0.0612  -0.0210   0.0260   0.0534   0.0603   0.1055   0.1294   0.1750
     0.2454   0.2935   0.3057   0.3495   0.3817   0.4039   0.4451   0.4805
     5.8338   5.9860   6.0451   6.1185   6.2248   6.2710   6.3065   6.3578
     6.4011   6.4279   6.4582   6.4788   6.5235   6.5844   6.7402   6.8682
     6.9263   7.0479   7.0581   7.1628   7.1691   7.2315   7.2429   7.3047
     7.3271   7.3792   7.4296   7.4587   7.4949   7.5124   7.5694   7.5967
     7.6465   7.6654   7.7099   7.7412   7.7976   7.8375   7.9171   7.9899
     8.1086   8.1655   8.2667   8.3382   8.4525   8.4965   8.6177   8.6721
     8.7597   8.7827   8.8619   8.9117   8.9530   9.0184   9.0242   9.0918
     9.1152   9.1797   9.2113   9.2690   9.3087   9.3623   9.4205   9.4819
     9.5264   9.5818   9.6428   9.7256   9.8131   9.8632   9.9451  10.2061
    12.4213  12.4749  12.6362  12.6912  12.7357  12.7633  13.1403  13.3061
    13.3767  13.5119  13.5362  13.5624  13.5884  13.6294  13.6558  13.6844
    13.7178  13.7723  13.8689  13.9363  13.9814  14.1581  14.3493  14.3672
    14.5611  14.6384  14.7160  14.7978  14.8607  15.1916  15.3239  15.4550

          k = 0.2500 0.2500-0.5000 ( 21192 PWs)   bands (ev):

   -46.6663 -46.6088 -46.4380 -46.3281 -46.3017 -46.2976 -46.2650 -45.9763
   -22.9649 -22.9271 -22.9012 -22.8957 -22.8713 -22.8384 -22.7270 -22.6982
   -22.6928 -22.6821 -22.6641 -22.6404 -22.6352 -22.6272 -22.6270 -22.6223
   -22.5992 -22.5563 -22.5506 -22.5481 -22.5283 -22.5077 -22.1876 -22.1697
   -15.0295 -14.9520 -14.7856 -14.7042 -14.6113 -14.5592 -14.4796 -14.4259
    -7.1443  -6.9085  -6.8207  -6.7375  -6.7013  -6.6402  -6.5255  -6.4688
    -6.3454  -6.3086  -6.2312  -6.2130  -6.1450  -6.1212  -6.1026  -6.0524
    -6.0361  -5.9489  -5.8959  -5.8557  -5.8135  -5.7565  -5.6375  -5.2133
    -0.5469  -0.4761  -0.4182  -0.2999  -0.2885  -0.2272  -0.1881  -0.1570
    -0.0855  -0.0468  -0.0032   0.0239   0.0683   0.0885   0.1211   0.1643
     0.2205   0.2549   0.3274   0.3791   0.3813   0.4414   0.4564   0.4851
     5.8798   5.9975   6.1648   6.1787   6.2250   6.2717   6.3929   6.4291
     6.5311   6.5577   6.5975   6.6311   6.6796   6.7386   6.8048   6.8187
     6.8828   6.9482   6.9935   7.1039   7.1467   7.1872   7.2601   7.2906
     7.3606   7.3668   7.4049   7.4255   7.4647   7.5031   7.5424   7.5861
     7.5947   7.6451   7.6904   7.7139   7.7540   7.7857   7.8266   7.9762
     8.0365   8.1191   8.1628   8.2225   8.3337   8.3868   8.5456   8.6278
     8.7302   8.7615   8.7949   8.8849   8.9856   9.0416   9.0664   9.1151
     9.1540   9.1884   9.2256   9.3009   9.3309   9.3899   9.4054   9.4593
     9.4876   9.5532   9.6340   9.6682   9.7766   9.8294   9.9502  10.0414
    12.5796  12.6877  12.7992  12.8329  12.8855  12.9365  13.0426  13.1163
    13.2728  13.3802  13.4318  13.5157  13.5567  13.5988  13.6272  13.6465
    13.6943  13.7312  13.7968  13.8594  13.9695  13.9885  14.2630  14.3647
    14.7291  14.7474  14.9789  15.0194  15.1096  15.3171  15.4819  15.5968

          k = 0.2500-0.5000-0.5000 ( 21208 PWs)   bands (ev):

   -46.6663 -46.6088 -46.4380 -46.3281 -46.3017 -46.2976 -46.2650 -45.9763
   -22.9649 -22.9271 -22.9012 -22.8950 -22.8707 -22.8383 -22.7270 -22.6921
   -22.6869 -22.6806 -22.6754 -22.6405 -22.6354 -22.6272 -22.6271 -22.6223
   -22.5999 -22.5572 -22.5524 -22.5483 -22.5285 -22.5077 -22.1876 -22.1697
   -15.0210 -14.9607 -14.7820 -14.7009 -14.6120 -14.5577 -14.4832 -14.4309
    -7.1362  -6.8554  -6.7878  -6.6913  -6.6604  -6.5996  -6.5458  -6.4783
    -6.4117  -6.3024  -6.2544  -6.2254  -6.1761  -6.1535  -6.1087  -6.0600
    -6.0406  -5.9833  -5.8884  -5.8652  -5.8155  -5.7575  -5.6372  -5.2125
    -0.5414  -0.4171  -0.3951  -0.3552  -0.3039  -0.2203  -0.1961  -0.1693
    -0.1165  -0.0676  -0.0342   0.0137   0.0248   0.0562   0.1037   0.1687
     0.2601   0.2895   0.3393   0.3875   0.4117   0.4518   0.4690   0.5079
     5.8950   6.0767   6.2342   6.2718   6.3939   6.4560   6.4861   6.4953
     6.5514   6.5915   6.6240   6.6702   6.7451   6.8078   6.8365   6.8751
     6.8850   6.9448   7.0114   7.0809   7.1276   7.1770   7.1998   7.2443
     7.2779   7.2979   7.3448   7.3621   7.4335   7.4630   7.5027   7.5413
     7.5796   7.6427   7.7002   7.7282   7.7635   7.7907   7.8406   7.8927
     7.9445   7.9865   8.0377   8.0746   8.1101   8.2787   8.3551   8.4664
     8.7858   8.8585   8.8987   8.9694   9.0287   9.0768   9.1182   9.1355
     9.2182   9.2425   9.2710   9.3096   9.3523   9.3887   9.3969   9.4424
     9.5009   9.5502   9.5550   9.6322   9.6584   9.7963   9.8931  10.0483
    12.7629  12.8638  12.9289  12.9969  13.0174  13.0650  13.0847  13.1094
    13.1867  13.2950  13.3297  13.4067  13.4637  13.5010  13.5377  13.5431
    13.6849  13.7125  13.7566  13.7962  13.8321  13.9747  14.1360  14.2454
    14.9099  14.9574  15.0969  15.2569  15.6160  15.6721  15.7946  15.8903

          k =-0.5000-0.5000-0.5000 ( 21008 PWs)   bands (ev):

   -46.6663 -46.6088 -46.4380 -46.3281 -46.3017 -46.2976 -46.2650 -45.9763
   -22.9641 -22.9264 -22.9009 -22.8950 -22.8706 -22.8383 -22.7246 -22.6921
   -22.6869 -22.6806 -22.6754 -22.6414 -22.6357 -22.6277 -22.6272 -22.6248
   -22.5998 -22.5572 -22.5524 -22.5477 -22.5285 -22.5077 -22.1883 -22.1697
   -15.0191 -14.9593 -14.7801 -14.7031 -14.5891 -14.5810 -14.4850 -14.4333
    -7.0958  -6.8073  -6.7629  -6.6752  -6.6693  -6.6009  -6.5131  -6.4960
    -6.4230  -6.3100  -6.2718  -6.2376  -6.1801  -6.1535  -6.1268  -6.0757
    -6.0566  -5.9903  -5.8967  -5.8768  -5.8163  -5.7625  -5.6426  -5.2278
    -0.5380  -0.4095  -0.3934  -0.3814  -0.2999  -0.2204  -0.2088  -0.1818
    -0.1235  -0.0887  -0.0802  -0.0313  -0.0176   0.0158   0.0355   0.1083
     0.3403   0.3713   0.3808   0.4192   0.4677   0.4851   0.5057   0.5392
     6.0951   6.2558   6.3009   6.3429   6.3719   6.3993   6.4299   6.4588
     6.5126   6.6649   6.6953   6.7231   6.8005   6.8382   6.8718   6.8944
     6.9616   7.0057   7.0307   7.0673   7.1474   7.1586   7.1877   7.2013
     7.2922   7.3166   7.3665   7.3995   7.4600   7.4810   7.5103   7.5658
     7.6061   7.6557   7.6728   7.6925   7.7125   7.7311   7.7427   7.7749
     7.8314   7.8849   7.9119   7.9479   8.0017   8.0520   8.1172   8.1934
     8.8320   8.8934   8.9706   8.9911   9.1199   9.1508   9.1625   9.2006
     9.2519   9.2745   9.3093   9.3441   9.3575   9.3970   9.4128   9.4656
     9.5220   9.5561   9.5703   9.5866   9.6058   9.7427   9.8893  10.0453
    12.9337  12.9804  13.0137  13.0883  13.1147  13.1304  13.1779  13.1928
    13.2490  13.2812  13.3395  13.4227  13.4584  13.4646  13.5007  13.5167
    13.5345  13.5704  13.6025  13.6264  13.6825  13.7535  14.0860  14.1393
    15.2536  15.4761  15.6733  15.7228  15.7885  15.8233  15.9043  15.9078

          k = 0.2500-0.0000-0.0000 ( 21174 PWs)   bands (ev):

   -46.6663 -46.6088 -46.4380 -46.3281 -46.3017 -46.2976 -46.2650 -45.9763
   -22.9649 -22.9273 -22.9022 -22.8965 -22.8722 -22.8405 -22.7271 -22.7046
   -22.6986 -22.6857 -22.6579 -22.6402 -22.6335 -22.6262 -22.6223 -22.6197
   -22.5984 -22.5555 -22.5487 -22.5479 -22.5267 -22.5091 -22.1875 -22.1681
   -15.0403 -14.9472 -14.8040 -14.6910 -14.6133 -14.5665 -14.4616 -14.4188
    -7.1955  -7.0414  -6.9437  -6.8442  -6.7353  -6.5777  -6.5309  -6.4015
    -6.2930  -6.2627  -6.2318  -6.2136  -6.1522  -6.1239  -6.0435  -6.0154
    -5.9776  -5.9311  -5.8913  -5.8365  -5.7950  -5.7648  -5.5232  -5.2170
    -0.6670  -0.6266  -0.6025  -0.2653  -0.2461  -0.2073  -0.1693  -0.1067
    -0.0655   0.0094   0.0618   0.0972   0.1187   0.1666   0.1936   0.2177
     0.2357   0.2583   0.3084   0.3651   0.3891   0.4197   0.4633   0.4733
     5.7080   5.8348   5.9004   5.9662   6.0716   6.1036   6.1772   6.1913
     6.2341   6.2767   6.3030   6.3463   6.3622   6.4675   6.6071   6.9359
     7.0460   7.0685   7.1251   7.1571   7.2070   7.2481   7.2701   7.3302
     7.3489   7.3981   7.4219   7.4906   7.5136   7.5480   7.6436   7.6746
     7.7099   7.7713   7.7871   7.8845   7.9145   8.0121   8.0832   8.1578
     8.2226   8.2877   8.3291   8.3782   8.4083   8.5003   8.5665   8.7003
     8.7307   8.7904   8.8487   8.9201   8.9496   9.0193   9.0316   9.1005
     9.1241   9.2018   9.2937   9.3209   9.3505   9.4113   9.4777   9.5781
     9.6970   9.7203   9.7402   9.8624   9.9581  10.0017  10.0460  10.2625
    12.0506  12.2529  12.4267  12.4768  12.5742  12.5904  13.2007  13.4262
    13.4815  13.5469  13.5629  13.6617  13.6907  13.7117  13.7533  13.8175
    13.8403  13.9067  13.9435  14.0307  14.0832  14.1574  14.1760  14.2926
    14.3590  14.4436  14.4649  14.5729  14.5925  14.8222  15.0473  15.2462

          k =-0.0000 0.2500 0.0000 ( 21174 PWs)   bands (ev):

   -46.6663 -46.6088 -46.4380 -46.3281 -46.3017 -46.2976 -46.2650 -45.9763
   -22.9657 -22.9280 -22.9025 -22.8958 -22.8716 -22.8403 -22.7294 -22.6983
   -22.6982 -22.6840 -22.6641 -22.6395 -22.6333 -22.6257 -22.6201 -22.6195
   -22.5992 -22.5563 -22.5504 -22.5486 -22.5269 -22.5091 -22.1868 -22.1681
   -15.0356 -14.9559 -14.8009 -14.6870 -14.6242 -14.5550 -14.4629 -14.4211
    -7.2182  -7.0356  -6.9409  -6.8387  -6.7118  -6.5740  -6.4876  -6.4263
    -6.3125  -6.2668  -6.2339  -6.2005  -6.1674  -6.1252  -6.0585  -5.9969
    -5.9904  -5.9451  -5.8897  -5.8289  -5.8044  -5.7656  -5.5214  -5.2028
    -0.6513  -0.6368  -0.6099  -0.2929  -0.2642  -0.2034  -0.1326  -0.0999
    -0.0277   0.0168   0.0687   0.0886   0.1180   0.1495   0.1679   0.2105
     0.2240   0.2603   0.3233   0.3637   0.3857   0.4228   0.4683   0.4737
     5.6310   5.8442   5.8979   5.9737   6.0771   6.1396   6.1668   6.1882
     6.2305   6.2977   6.3368   6.3847   6.3990   6.4482   6.5910   6.9169
     6.9859   7.0702   7.1429   7.1597   7.2104   7.2516   7.2969   7.3192
     7.3676   7.3982   7.4213   7.4596   7.5039   7.5433   7.5799   7.6453
     7.7059   7.7837   7.8224   7.8682   7.9087   8.0066   8.1028   8.1353
     8.2044   8.3006   8.3627   8.4038   8.4455   8.5234   8.5812   8.6352
     8.7514   8.7764   8.8749   8.9025   8.9685   8.9994   9.0433   9.1152
     9.1659   9.2291   9.2811   9.3306   9.3714   9.3893   9.4368   9.5216
     9.7323   9.7550   9.8096   9.8549   9.8990   9.9018  10.0017  10.3554
    12.0726  12.2843  12.3650  12.4758  12.5583  12.6127  13.2751  13.3429
    13.4315  13.5348  13.6051  13.6431  13.7026  13.7151  13.7595  13.8155
    13.8357  13.8986  13.9846  14.0322  14.0684  14.0939  14.2435  14.3263
    14.3820  14.4124  14.4660  14.5033  14.5734  14.9137  14.9325  15.3539

          k =-0.5000 0.0000 0.0000 ( 21178 PWs)   bands (ev):

   -46.6663 -46.6088 -46.4380 -46.3281 -46.3017 -46.2976 -46.2650 -45.9763
   -22.9641 -22.9267 -22.9020 -22.8965 -22.8722 -22.8405 -22.7246 -22.7046
   -22.6986 -22.6857 -22.6579 -22.6410 -22.6339 -22.6268 -22.6248 -22.6197
   -22.5983 -22.5555 -22.5487 -22.5474 -22.5267 -22.5091 -22.1882 -22.1681
   -15.0374 -14.9462 -14.8031 -14.6923 -14.5952 -14.5860 -14.4629 -14.4211
    -7.1369  -6.9667  -6.8771  -6.8596  -6.7848  -6.6853  -6.5324  -6.3796
    -6.2893  -6.2372  -6.2188  -6.2007  -6.1773  -6.1444  -6.0451  -6.0335
    -5.9892  -5.9320  -5.8865  -5.8465  -5.8098  -5.7767  -5.5335  -5.2322
    -0.5698  -0.5112  -0.4273  -0.3362  -0.3022  -0.2653  -0.1874  -0.1104
    -0.0827   0.0247   0.0465   0.0743   0.1082   0.1334   0.2067   0.2145
     0.2371   0.2661   0.2949   0.3421   0.3564   0.3869   0.4056   0.4147
     5.8004   5.8297   5.9930   6.0243   6.0648   6.1483   6.2772   6.3261
     6.4363   6.4772   6.5271   6.6125   6.6585   6.7039   6.7133   6.7939
     6.8580   6.8693   6.9310   7.0385   7.1320   7.1626   7.1797   7.2561
     7.2778   7.3418   7.3939   7.5080   7.5472   7.5767   7.6211   7.6224
     7.6944   7.7519   7.7795   7.8054   7.8220   7.8377   7.9685   8.1588
     8.2856   8.3397   8.3830   8.4521   8.4637   8.5834   8.6098   8.6517
     8.7253   8.7344   8.7711   8.8061   8.8702   8.9185   8.9658   9.0340
     9.0645   9.2112   9.2819   9.3292   9.3889   9.4216   9.4770   9.5090
     9.5639   9.6238   9.7163   9.7232   9.9195   9.9780   9.9981  10.1173
    12.0531  12.3666  12.7100  12.7751  12.9033  12.9396  13.0660  13.1241
    13.1696  13.2195  13.4783  13.6457  13.6833  13.7225  13.7466  13.8163
    13.8364  13.8597  13.9963  14.0299  14.0704  14.1087  14.1832  14.2014
    14.3699  14.5403  14.6474  14.6530  14.7611  15.0453  15.1775  15.2259

          k = 0.0000-0.5000-0.0000 ( 21178 PWs)   bands (ev):

   -46.6663 -46.6088 -46.4380 -46.3281 -46.3017 -46.2976 -46.2650 -45.9763
   -22.9657 -22.9279 -22.9025 -22.8950 -22.8711 -22.8401 -22.7294 -22.6980
   -22.6868 -22.6822 -22.6754 -22.6396 -22.6335 -22.6257 -22.6201 -22.6196
   -22.5999 -22.5572 -22.5522 -22.5488 -22.5271 -22.5091 -22.1868 -22.1681
   -15.0261 -14.9655 -14.7966 -14.6844 -14.6269 -14.5531 -14.4654 -14.4261
    -7.1939  -6.9462  -6.8757  -6.8131  -6.7860  -6.6490  -6.4898  -6.3780
    -6.3126  -6.2901  -6.2185  -6.1981  -6.1589  -6.1414  -6.0990  -6.0186
    -5.9834  -5.9715  -5.8753  -5.8485  -5.8176  -5.7765  -5.5299  -5.2039
    -0.5332  -0.5001  -0.4675  -0.4119  -0.3592  -0.1928  -0.1182  -0.0846
    -0.0308   0.0107   0.0503   0.0840   0.0921   0.1140   0.1503   0.2062
     0.2192   0.2556   0.3092   0.3440   0.3588   0.3859   0.4142   0.4267
     5.6519   5.8738   5.9348   6.0245   6.1356   6.1815   6.2137   6.4203
     6.4938   6.5524   6.5651   6.6000   6.6536   6.7145   6.7572   6.8001
     6.8088   6.8966   7.0191   7.0741   7.0883   7.1334   7.1749   7.1950
     7.2342   7.3012   7.3196   7.4371   7.4755   7.5216   7.5715   7.5949
     7.6323   7.7077   7.7693   7.7957   7.8735   8.0192   8.1240   8.1794
     8.2569   8.2864   8.3963   8.4433   8.5455   8.5710   8.5878   8.7002
     8.7431   8.7600   8.7769   8.8267   8.8736   8.9144   8.9569   9.0073
     9.0771   9.1791   9.3126   9.3283   9.4428   9.4708   9.5015   9.5247
     9.5597   9.6273   9.6797   9.7414   9.7793   9.8360   9.8813  10.3519
    12.0860  12.3387  12.7169  12.8211  12.9109  12.9522  13.0031  13.0086
    13.2068  13.3059  13.3643  13.6422  13.7058  13.7191  13.7913  13.8672
    13.8728  13.8925  13.9037  13.9481  14.0308  14.0959  14.2496  14.3617
    14.3849  14.4068  14.4989  14.7219  14.8076  14.9403  15.2102  15.3740

          k =-0.0000-0.2500 0.2500 ( 21200 PWs)   bands (ev):

   -46.6663 -46.6088 -46.4380 -46.3281 -46.3017 -46.2976 -46.2650 -45.9763
   -22.9657 -22.9278 -22.9019 -22.8958 -22.8715 -22.8394 -22.7294 -22.6982
   -22.6954 -22.6833 -22.6641 -22.6395 -22.6341 -22.6260 -22.6232 -22.6198
   -22.5993 -22.5563 -22.5505 -22.5486 -22.5276 -22.5084 -22.1868 -22.1689
   -15.0335 -14.9547 -14.7948 -14.6940 -14.6226 -14.5523 -14.4699 -14.4224
    -7.1997  -6.9927  -6.8922  -6.8223  -6.7066  -6.5905  -6.5124  -6.4253
    -6.3199  -6.2929  -6.2221  -6.2161  -6.1583  -6.1126  -6.0583  -6.0233
    -5.9991  -5.9493  -5.8948  -5.8353  -5.7954  -5.7837  -5.5678  -5.2009
    -0.6434  -0.5818  -0.4840  -0.2814  -0.2508  -0.2323  -0.1643  -0.1219
    -0.0784   0.0010   0.0545   0.0663   0.0802   0.1584   0.1945   0.2071
     0.2342   0.2795   0.3104   0.3290   0.3699   0.4081   0.4380   0.4607
     5.6882   5.8591   5.9865   6.0751   6.1281   6.1968   6.2567   6.3003
     6.3447   6.3601   6.4108   6.4314   6.4765   6.5235   6.7333   6.8485
     6.9894   7.0538   7.0883   7.1422   7.2225   7.2621   7.3003   7.3197
     7.3490   7.3693   7.4046   7.4533   7.4869   7.5400   7.5818   7.6255
     7.6370   7.6938   7.7361   7.8067   7.8302   7.9629   8.0008   8.0995
     8.1550   8.2248   8.2729   8.3563   8.4741   8.5815   8.6578   8.7253
     8.7460   8.7731   8.8235   8.9057   8.9567   8.9968   9.0419   9.0885
     9.1211   9.1730   9.2212   9.2806   9.3137   9.3904   9.4357   9.4998
     9.6208   9.6921   9.7367   9.7428   9.8219   9.8678   9.9954  10.2546
    12.2725  12.4695  12.4799  12.5243  12.6161  12.6989  13.1726  13.3131
    13.4286  13.5300  13.5598  13.5915  13.6280  13.6580  13.6743  13.7327
    13.8064  13.8786  13.9291  13.9885  14.0519  14.2469  14.2732  14.3683
    14.4260  14.4783  14.5273  14.6251  14.7252  14.9465  15.2672  15.4303

          k = 0.2500-0.0000-0.2500 ( 21200 PWs)   bands (ev):

   -46.6663 -46.6088 -46.4380 -46.3281 -46.3017 -46.2976 -46.2650 -45.9763
   -22.9649 -22.9272 -22.9017 -22.8965 -22.8720 -22.8396 -22.7271 -22.7046
   -22.6959 -22.6848 -22.6579 -22.6402 -22.6342 -22.6267 -22.6232 -22.6223
   -22.5985 -22.5555 -22.5488 -22.5480 -22.5274 -22.5084 -22.1875 -22.1689
   -15.0383 -14.9461 -14.7972 -14.6985 -14.6120 -14.5638 -14.4683 -14.4200
    -7.1738  -7.0021  -6.9039  -6.8202  -6.7260  -6.6190  -6.5085  -6.4306
    -6.3120  -6.2740  -6.2315  -6.1996  -6.1411  -6.1278  -6.0711  -6.0145
    -5.9879  -5.9379  -5.8947  -5.8293  -5.7967  -5.7799  -5.5741  -5.2153
    -0.6347  -0.6074  -0.4572  -0.2657  -0.2568  -0.2191  -0.1812  -0.1133
    -0.0865  -0.0147   0.0309   0.0742   0.1197   0.1512   0.1702   0.1871
     0.2306   0.2766   0.3004   0.3458   0.3814   0.3992   0.4387   0.4828
     5.7842   5.8855   5.9519   6.0344   6.0715   6.1902   6.2702   6.3010
     6.3242   6.3615   6.4108   6.4209   6.4448   6.5195   6.7462   6.8728
     6.9884   7.0394   7.0895   7.1568   7.2015   7.2279   7.2998   7.3167
     7.3572   7.4244   7.4373   7.4709   7.4766   7.5335   7.5930   7.6301
     7.6719   7.7094   7.7711   7.8090   7.8478   7.9004   7.9629   8.1257
     8.1918   8.2378   8.2671   8.3601   8.4485   8.5315   8.6564   8.6809
     8.7564   8.8371   8.8482   8.8707   8.9439   8.9941   9.0353   9.0818
     9.1216   9.1548   9.1858   9.2365   9.2869   9.3446   9.4141   9.5605
     9.6137   9.6688   9.7484   9.8395   9.8883   9.9172  10.0130  10.1462
    12.2864  12.3989  12.4709  12.5405  12.6000  12.7773  13.1598  13.3294
    13.4416  13.4930  13.5404  13.6155  13.6341  13.6665  13.7127  13.7534
    13.8058  13.8386  13.8922  14.0214  14.0832  14.1728  14.2966  14.3729
    14.4388  14.4648  14.5368  14.5863  14.8242  14.9563  15.1974  15.3729

          k =-0.2500-0.0000-0.2500 ( 21200 PWs)   bands (ev):

   -46.6663 -46.6088 -46.4380 -46.3281 -46.3017 -46.2976 -46.2650 -45.9763
   -22.9649 -22.9272 -22.9017 -22.8965 -22.8720 -22.8396 -22.7271 -22.7046
   -22.6959 -22.6848 -22.6579 -22.6402 -22.6342 -22.6267 -22.6233 -22.6222
   -22.5985 -22.5555 -22.5488 -22.5480 -22.5274 -22.5084 -22.1875 -22.1689
   -15.0383 -14.9462 -14.7971 -14.6985 -14.6121 -14.5637 -14.4684 -14.4200
    -7.1751  -6.9990  -6.8979  -6.8304  -6.7247  -6.6143  -6.5181  -6.4276
    -6.3140  -6.2583  -6.2341  -6.2013  -6.1628  -6.1192  -6.0601  -6.0241
    -5.9772  -5.9333  -5.8998  -5.8387  -5.7948  -5.7807  -5.5704  -5.2157
    -0.6228  -0.6014  -0.4983  -0.2776  -0.2576  -0.2235  -0.1530  -0.1129
    -0.0730   0.0017   0.0304   0.0725   0.0924   0.1574   0.1828   0.2123
     0.2310   0.2638   0.2951   0.3438   0.3828   0.4116   0.4308   0.4642
     5.7958   5.8785   5.9349   6.0420   6.0803   6.1719   6.2529   6.2968
     6.3420   6.3658   6.3865   6.4255   6.4688   6.5129   6.7383   6.8675
     6.9873   7.0644   7.1003   7.1714   7.1949   7.2366   7.3004   7.3386
     7.3512   7.3787   7.4444   7.4707   7.4916   7.5569   7.6064   7.6226
     7.6790   7.6934   7.7611   7.7863   7.8357   7.8792   7.9380   8.1135
     8.1977   8.2675   8.3089   8.3866   8.4611   8.5382   8.6253   8.6812
     8.7378   8.7806   8.8317   8.8723   8.9748   9.0041   9.0362   9.0914
     9.1241   9.1810   9.2111   9.2573   9.3314   9.3733   9.4273   9.4997
     9.5942   9.6104   9.6957   9.7974   9.8804   9.9573  10.0114  10.2030
    12.2899  12.3896  12.5004  12.5188  12.6181  12.7447  13.1377  13.3317
    13.4503  13.5250  13.5745  13.6274  13.6423  13.6690  13.7113  13.7372
    13.7794  13.8338  13.8711  14.0226  14.0825  14.1598  14.3059  14.3672
    14.4447  14.4644  14.5336  14.5905  14.8288  14.9707  15.2248  15.3327

          k = 0.2500-0.2500-0.0000 ( 21200 PWs)   bands (ev):

   -46.6663 -46.6088 -46.4380 -46.3281 -46.3017 -46.2976 -46.2650 -45.9763
   -22.9649 -22.9273 -22.9022 -22.8958 -22.8716 -22.8403 -22.7271 -22.6983
   -22.6982 -22.6840 -22.6641 -22.6403 -22.6337 -22.6262 -22.6223 -22.6197
   -22.5991 -22.5563 -22.5504 -22.5481 -22.5269 -22.5091 -22.1875 -22.1681
   -15.0329 -14.9548 -14.8000 -14.6884 -14.6152 -14.5651 -14.4644 -14.4234
    -7.1757  -6.9936  -6.9008  -6.8294  -6.7157  -6.5677  -6.5457  -6.4324
    -6.3124  -6.2730  -6.2352  -6.2138  -6.1654  -6.1413  -6.0640  -6.0130
    -5.9764  -5.9623  -5.8835  -5.8420  -5.8155  -5.7692  -5.5267  -5.2168
    -0.6417  -0.5499  -0.5271  -0.2964  -0.2573  -0.2101  -0.1631  -0.1185
    -0.0695   0.0202   0.0699   0.0885   0.1115   0.1349   0.1525   0.2053
     0.2212   0.2573   0.3146   0.3514   0.3721   0.3861   0.4218   0.4784
     5.7661   5.9157   6.0006   6.0177   6.1645   6.2189   6.2465   6.3014
     6.3386   6.3732   6.3905   6.4171   6.4415   6.5295   6.6110   6.9252
     6.9637   7.0693   7.0918   7.1684   7.1880   7.2477   7.2720   7.2834
     7.3222   7.3561   7.3952   7.4561   7.5097   7.5230   7.5706   7.5907
     7.6063   7.7100   7.7534   7.7843   7.8418   7.9379   8.0298   8.1299
     8.2178   8.2538   8.3453   8.3999   8.4270   8.5341   8.5875   8.6669
     8.7660   8.7988   8.8490   8.9121   8.9716   8.9927   9.0633   9.0875
     9.1667   9.1959   9.2511   9.2738   9.3175   9.3718   9.4144   9.4517
     9.5813   9.6845   9.7236   9.7614   9.8495   9.9022   9.9731  10.2623
    12.2369  12.3349  12.5723  12.5982  12.6357  12.7150  13.1935  13.3415
    13.4264  13.5049  13.5400  13.5690  13.6153  13.6589  13.7148  13.7465
    13.8383  13.9100  13.9407  13.9772  14.0644  14.2102  14.2762  14.3000
    14.3622  14.4598  14.5455  14.6662  14.7580  14.9621  15.2585  15.4067

          k =-0.2500-0.2500-0.0000 ( 21200 PWs)   bands (ev):

   -46.6663 -46.6088 -46.4380 -46.3281 -46.3017 -46.2976 -46.2650 -45.9763
   -22.9649 -22.9273 -22.9022 -22.8958 -22.8716 -22.8403 -22.7271 -22.6983
   -22.6982 -22.6840 -22.6641 -22.6403 -22.6337 -22.6262 -22.6223 -22.6197
   -22.5991 -22.5563 -22.5504 -22.5481 -22.5269 -22.5091 -22.1875 -22.1681
   -15.0331 -14.9546 -14.8001 -14.6884 -14.6149 -14.5653 -14.4644 -14.4234
    -7.1781  -6.9872  -6.8991  -6.8234  -6.7355  -6.5771  -6.5229  -6.4432
    -6.3060  -6.2820  -6.2272  -6.2058  -6.1607  -6.1314  -6.0568  -6.0408
    -6.0051  -5.9498  -5.8812  -5.8401  -5.8031  -5.7711  -5.5267  -5.2175
    -0.6548  -0.5569  -0.4893  -0.3115  -0.2422  -0.2184  -0.1635  -0.1221
    -0.0608   0.0346   0.0584   0.0718   0.1144   0.1324   0.1416   0.1940
     0.2407   0.2742   0.2944   0.3499   0.3683   0.3971   0.4368   0.4612
     5.7499   5.9278   5.9767   6.0153   6.1496   6.2093   6.2626   6.3167
     6.3658   6.3727   6.4050   6.4277   6.4696   6.5144   6.6183   6.9047
     6.9652   7.0684   7.1049   7.1510   7.2014   7.2161   7.2678   7.2975
     7.3411   7.3869   7.4067   7.4618   7.4881   7.5048   7.5548   7.5909
     7.6295   7.7142   7.7447   7.7721   7.8262   7.9053   8.0331   8.1051
     8.1772   8.3030   8.3617   8.4369   8.4630   8.5004   8.5991   8.6947
     8.7198   8.8001   8.8669   8.9092   8.9358   8.9615   9.0269   9.0868
     9.1363   9.1641   9.2380   9.2735   9.3401   9.3949   9.4432   9.4922
     9.6384   9.6581   9.7054   9.7801   9.8507   9.9196   9.9492  10.2640
    12.2703  12.3135  12.5582  12.5856  12.6392  12.7328  13.2019  13.3390
    13.3721  13.5197  13.5558  13.5742  13.6064  13.6772  13.7139  13.7308
    13.8382  13.9100  13.9430  13.9830  14.0605  14.2000  14.2738  14.3285
    14.3743  14.4540  14.5327  14.6517  14.7665  14.9616  15.2298  15.4345

          k = 0.2500 0.0000 0.5000 ( 21174 PWs)   bands (ev):

   -46.6663 -46.6088 -46.4380 -46.3281 -46.3017 -46.2976 -46.2650 -45.9763
   -22.9649 -22.9271 -22.9012 -22.8965 -22.8719 -22.8386 -22.7271 -22.7046
   -22.6936 -22.6833 -22.6579 -22.6402 -22.6350 -22.6272 -22.6270 -22.6223
   -22.5985 -22.5555 -22.5489 -22.5480 -22.5280 -22.5077 -22.1876 -22.1697
   -15.0363 -14.9450 -14.7890 -14.7073 -14.6114 -14.5596 -14.4760 -14.4212
    -7.1520  -6.9503  -6.8533  -6.7771  -6.7297  -6.6845  -6.4995  -6.4558
    -6.3278  -6.2721  -6.2263  -6.1911  -6.1565  -6.1215  -6.0876  -6.0140
    -6.0004  -5.9420  -5.8991  -5.8367  -5.8140  -5.7556  -5.6387  -5.2144
    -0.5431  -0.5280  -0.4387  -0.3143  -0.2483  -0.2016  -0.1975  -0.1028
    -0.0720  -0.0467  -0.0093   0.0464   0.0801   0.1485   0.1634   0.1972
     0.2076   0.2521   0.2851   0.3599   0.3647   0.4038   0.4307   0.4470
     5.8518   5.8806   6.0084   6.0626   6.0819   6.2224   6.3643   6.3890
     6.4893   6.5361   6.5843   6.6523   6.6645   6.7266   6.7742   6.8161
     6.8787   6.9455   6.9955   7.0944   7.1419   7.2005   7.2891   7.3090
     7.3525   7.3834   7.4027   7.4463   7.4809   7.5257   7.5922   7.5979
     7.6310   7.6719   7.6862   7.7249   7.7711   7.8330   7.9544   7.9942
     8.0984   8.2171   8.2993   8.3798   8.4487   8.4942   8.5842   8.6713
     8.7340   8.7527   8.8343   8.8751   8.9187   8.9429   8.9936   9.0462
     9.0680   9.1193   9.2232   9.3225   9.3538   9.3830   9.4258   9.4968
     9.5506   9.5813   9.6762   9.7080   9.7985   9.9099   9.9940  10.0368
    12.4323  12.5378  12.7451  12.7660  12.7968  12.9031  12.9674  13.1142
    13.2759  13.3868  13.4471  13.5173  13.6213  13.6702  13.7068  13.7428
    13.7665  13.8329  13.8730  13.9227  13.9879  14.0820  14.3663  14.4038
    14.4188  14.4642  14.6906  14.8598  14.9840  15.1925  15.3690  15.4676

          k =-0.5000-0.2500-0.0000 ( 21174 PWs)   bands (ev):

   -46.6663 -46.6088 -46.4380 -46.3281 -46.3017 -46.2976 -46.2650 -45.9763
   -22.9641 -22.9267 -22.9020 -22.8958 -22.8716 -22.8403 -22.7246 -22.6983
   -22.6982 -22.6840 -22.6641 -22.6412 -22.6341 -22.6268 -22.6248 -22.6197
   -22.5990 -22.5563 -22.5505 -22.5475 -22.5269 -22.5091 -22.1882 -22.1681
   -15.0304 -14.9534 -14.7993 -14.6897 -14.5974 -14.5838 -14.4658 -14.4257
    -7.1265  -6.9267  -6.8468  -6.8267  -6.7474  -6.6465  -6.5339  -6.4246
    -6.3213  -6.2598  -6.2293  -6.2202  -6.2031  -6.1415  -6.0620  -6.0348
    -6.0078  -5.9598  -5.8769  -5.8527  -5.8128  -5.7756  -5.5321  -5.2313
    -0.5729  -0.4756  -0.4352  -0.3296  -0.2431  -0.2276  -0.1951  -0.1356
    -0.0814   0.0005   0.0422   0.0691   0.0864   0.1393   0.1737   0.1887
     0.2056   0.2516   0.2757   0.3330   0.3625   0.3853   0.4224   0.4400
     5.8724   5.9238   6.0352   6.1401   6.2122   6.2550   6.3556   6.4057
     6.4681   6.5699   6.5843   6.6492   6.6888   6.6955   6.7360   6.7899
     6.8402   6.8728   6.9372   7.0134   7.1219   7.1957   7.2143   7.2405
     7.2798   7.3328   7.3850   7.4171   7.4771   7.5259   7.5906   7.6165
     7.6386   7.6988   7.7168   7.7465   7.7796   7.8403   7.8958   7.9467
     8.1807   8.2076   8.3054   8.3335   8.4838   8.5153   8.6202   8.6837
     8.7595   8.8114   8.8258   8.8607   8.9093   8.9726   9.0256   9.0829
     9.0910   9.1233   9.2777   9.3149   9.3383   9.3934   9.4382   9.4871
     9.5330   9.5682   9.6393   9.6827   9.8327   9.9033   9.9258  10.1098
    12.2892  12.5496  12.7161  12.8568  12.9196  13.0023  13.0650  13.1185
    13.2129  13.3000  13.3593  13.5188  13.5697  13.6752  13.6893  13.7440
    13.8229  13.8688  13.8911  14.0202  14.0638  14.1076  14.2229  14.3203
    14.3401  14.4840  14.6887  14.7538  15.1436  15.2971  15.3537  15.4240

          k = 0.0000-0.5000 0.2500 ( 21174 PWs)   bands (ev):

   -46.6663 -46.6088 -46.4380 -46.3281 -46.3017 -46.2976 -46.2650 -45.9763
   -22.9657 -22.9278 -22.9019 -22.8950 -22.8709 -22.8392 -22.7294 -22.6950
   -22.6868 -22.6816 -22.6754 -22.6397 -22.6343 -22.6261 -22.6233 -22.6198
   -22.6000 -22.5572 -22.5523 -22.5488 -22.5278 -22.5084 -22.1868 -22.1689
   -15.0245 -14.9638 -14.7907 -14.6912 -14.6248 -14.5506 -14.4728 -14.4273
    -7.1825  -6.9214  -6.8399  -6.7753  -6.7462  -6.6248  -6.4863  -6.4187
    -6.3748  -6.2905  -6.2251  -6.2096  -6.1675  -6.1405  -6.0989  -6.0310
    -6.0071  -5.9686  -5.8784  -5.8514  -5.8074  -5.7803  -5.5736  -5.2002
    -0.5513  -0.4636  -0.4437  -0.3692  -0.3271  -0.1740  -0.1360  -0.1143
    -0.0561  -0.0183   0.0203   0.0358   0.0693   0.1167   0.1497   0.2118
     0.2468   0.2703   0.2952   0.3374   0.3649   0.3747   0.4136   0.4287
     5.7038   5.8964   6.0319   6.1452   6.1797   6.2987   6.3388   6.5031
     6.5409   6.5653   6.6199   6.6758   6.7084   6.7371   6.7739   6.7930
     6.8394   6.8819   6.9875   7.0552   7.0814   7.1420   7.1768   7.1994
     7.2446   7.3301   7.3563   7.3842   7.4368   7.5404   7.5456   7.5884
     7.6421   7.6850   7.7269   7.7974   7.8405   7.9422   7.9711   7.9998
     8.1099   8.2294   8.2714   8.3316   8.4366   8.4928   8.5976   8.6359
     8.7514   8.8125   8.8275   8.8659   8.9360   8.9809   9.0217   9.0620
     9.1625   9.1856   9.2479   9.3049   9.3884   9.4257   9.4512   9.4859
     9.5223   9.5882   9.6306   9.6882   9.7074   9.7534   9.8948  10.2524
    12.2766  12.5656  12.8105  12.8282  12.9141  12.9900  13.0155  13.0546
    13.1973  13.2654  13.3648  13.5621  13.5814  13.6623  13.7117  13.7386
    13.8037  13.8621  13.8781  13.9185  14.0071  14.2323  14.2651  14.2973
    14.4063  14.5194  14.6369  14.8089  15.0538  15.2064  15.3878  15.5560

          k = 0.2500-0.5000-0.0000 ( 21174 PWs)   bands (ev):

   -46.6663 -46.6088 -46.4380 -46.3281 -46.3017 -46.2976 -46.2650 -45.9763
   -22.9649 -22.9273 -22.9022 -22.8950 -22.8710 -22.8401 -22.7270 -22.6980
   -22.6868 -22.6822 -22.6754 -22.6405 -22.6339 -22.6263 -22.6223 -22.6198
   -22.5997 -22.5572 -22.5523 -22.5482 -22.5271 -22.5091 -22.1875 -22.1681
   -15.0239 -14.9639 -14.7959 -14.6857 -14.6174 -14.5632 -14.4671 -14.4283
    -7.1579  -6.9124  -6.8488  -6.8042  -6.7444  -6.6114  -6.5301  -6.4133
    -6.3532  -6.2876  -6.2301  -6.2069  -6.1944  -6.1388  -6.0912  -6.0296
    -6.0023  -5.9781  -5.8697  -5.8552  -5.8178  -5.7752  -5.5304  -5.2173
    -0.5630  -0.4748  -0.4337  -0.3725  -0.3104  -0.1798  -0.1354  -0.1129
    -0.0349  -0.0248   0.0245   0.0652   0.0985   0.1199   0.1473   0.1713
     0.2062   0.2429   0.2929   0.3426   0.3660   0.3916   0.4107   0.4441
     5.7846   5.9749   6.0200   6.0634   6.2149   6.3057   6.3114   6.5008
     6.5463   6.5898   6.6130   6.6452   6.6803   6.7279   6.7678   6.7844
     6.8206   6.9195   7.0051   7.0452   7.0885   7.1330   7.1683   7.1856
     7.2076   7.3169   7.3514   7.4126   7.4489   7.4669   7.5251   7.5810
     7.6345   7.6758   7.6980   7.7740   7.8094   7.8668   7.9881   8.0407
     8.1539   8.2375   8.3220   8.3485   8.4685   8.5419   8.6424   8.6771
     8.7477   8.7774   8.8163   8.8782   8.9173   8.9546   8.9885   9.0079
     9.1470   9.2089   9.2755   9.3321   9.4005   9.4303   9.4478   9.4907
     9.5303   9.5962   9.6181   9.6671   9.7256   9.7788   9.8700  10.2611
    12.2957  12.5596  12.7205  12.8983  12.9363  12.9879  13.0175  13.0504
    13.2039  13.2395  13.4312  13.5487  13.5731  13.6864  13.7250  13.7689
    13.7820  13.8730  13.9104  13.9370  13.9988  14.2047  14.2555  14.2737
    14.3876  14.4961  14.5637  14.8138  15.1238  15.2231  15.3829  15.5612

          k =-0.5000 0.0000 0.2500 ( 21174 PWs)   bands (ev):

   -46.6663 -46.6088 -46.4380 -46.3281 -46.3017 -46.2976 -46.2650 -45.9763
   -22.9641 -22.9266 -22.9014 -22.8965 -22.8720 -22.8396 -22.7246 -22.7047
   -22.6959 -22.6848 -22.6579 -22.6410 -22.6345 -22.6273 -22.6248 -22.6232
   -22.5984 -22.5555 -22.5488 -22.5474 -22.5274 -22.5084 -22.1883 -22.1689
   -15.0357 -14.9452 -14.7955 -14.7002 -14.5941 -14.5830 -14.4698 -14.4223
    -7.1238  -6.9440  -6.8480  -6.8253  -6.7447  -6.6652  -6.5358  -6.4036
    -6.3299  -6.2621  -6.2317  -6.2007  -6.1769  -6.1460  -6.0697  -6.0344
    -5.9892  -5.9333  -5.8944  -5.8427  -5.8102  -5.7803  -5.5796  -5.2293
    -0.5342  -0.4994  -0.4667  -0.3042  -0.2550  -0.2313  -0.1986  -0.0993
    -0.0704  -0.0350   0.0185   0.0415   0.0811   0.1379   0.1737   0.1984
     0.2168   0.2523   0.2901   0.3503   0.3637   0.3917   0.4204   0.4397
     5.8823   5.9156   6.0149   6.0568   6.1556   6.2481   6.3482   6.4092
     6.4688   6.5258   6.5825   6.6399   6.6856   6.7693   6.7903   6.8199
     6.8454   6.8815   6.9261   6.9840   7.1249   7.1775   7.2158   7.2918
     7.3137   7.3293   7.4106   7.4458   7.5251   7.5469   7.5648   7.6396
     7.6668   7.6934   7.7210   7.7569   7.8268   7.8615   7.9628   7.9891
     8.0853   8.2077   8.2683   8.4175   8.4549   8.4900   8.5931   8.6452
     8.6973   8.7425   8.8115   8.8831   8.9331   9.0043   9.0235   9.0581
     9.0908   9.1520   9.2258   9.2652   9.3221   9.3600   9.3865   9.4611
     9.5485   9.5979   9.6909   9.7478   9.8562   9.9049   9.9300  10.0731
    12.2934  12.5093  12.7598  12.8013  12.9156  12.9558  13.1265  13.1723
    13.2165  13.2345  13.3521  13.5370  13.6225  13.6676  13.7213  13.7407
    13.7576  13.8603  13.8843  13.9651  14.0020  14.0492  14.3169  14.3779
    14.4134  14.4975  14.6945  14.8847  15.0734  15.1000  15.3542  15.4769

          k =-0.5000 0.0000 0.5000 ( 21216 PWs)   bands (ev):

   -46.6663 -46.6088 -46.4380 -46.3281 -46.3017 -46.2976 -46.2650 -45.9763
   -22.9641 -22.9264 -22.9009 -22.8965 -22.8719 -22.8386 -22.7246 -22.7047
   -22.6936 -22.6832 -22.6580 -22.6411 -22.6353 -22.6277 -22.6272 -22.6248
   -22.5984 -22.5555 -22.5489 -22.5474 -22.5280 -22.5077 -22.1883 -22.1697
   -15.0339 -14.9441 -14.7864 -14.7097 -14.5953 -14.5770 -14.4776 -14.4234
    -7.1107  -6.9203  -6.8179  -6.7785  -6.6944  -6.6458  -6.5315  -6.4444
    -6.3895  -6.2926  -6.2327  -6.2057  -6.1685  -6.1588  -6.0890  -6.0199
    -6.0061  -5.9348  -5.8985  -5.8445  -5.8171  -5.7560  -5.6416  -5.2270
    -0.5037  -0.4682  -0.4449  -0.3121  -0.2685  -0.2658  -0.1600  -0.1166
    -0.0868  -0.0258   0.0137   0.0540   0.0866   0.1366   0.1452   0.1525
     0.2046   0.2470   0.2581   0.3402   0.3719   0.3858   0.4352   0.4649
     5.9205   5.9929   6.0247   6.0579   6.2297   6.4297   6.4758   6.5384
     6.5558   6.5870   6.6389   6.6840   6.7119   6.7442   6.8046   6.8483
     6.9341   6.9697   6.9908   7.0662   7.1026   7.1406   7.2016   7.2101
     7.3216   7.3530   7.3746   7.4611   7.5121   7.5243   7.5366   7.5907
     7.6326   7.6598   7.6845   7.7293   7.7640   7.7966   7.8448   7.9223
     7.9543   8.0853   8.1202   8.2195   8.3748   8.3926   8.5653   8.6206
     8.7038   8.7927   8.8288   8.8893   8.9614   9.0194   9.0477   9.0902
     9.1338   9.1781   9.2098   9.2678   9.2796   9.3392   9.4065   9.4975
     9.5165   9.6004   9.6380   9.6817   9.7728   9.7892   9.9085  10.0391
    12.6561  12.7202  12.8254  12.9117  12.9627  12.9835  13.0102  13.1472
    13.2075  13.2452  13.3643  13.3881  13.5038  13.5697  13.6359  13.7192
    13.7335  13.7797  13.7870  13.8522  13.9176  13.9917  14.3660  14.3857
    14.5241  14.5971  14.6839  15.0507  15.2398  15.4920  15.8016  15.9362

          k =-0.5000 0.5000 0.0000 ( 21216 PWs)   bands (ev):

   -46.6663 -46.6088 -46.4380 -46.3281 -46.3017 -46.2976 -46.2650 -45.9763
   -22.9641 -22.9267 -22.9019 -22.8950 -22.8710 -22.8401 -22.7246 -22.6980
   -22.6869 -22.6821 -22.6754 -22.6413 -22.6343 -22.6268 -22.6248 -22.6198
   -22.5996 -22.5572 -22.5523 -22.5477 -22.5271 -22.5091 -22.1882 -22.1681
   -15.0217 -14.9623 -14.7953 -14.6870 -14.6011 -14.5801 -14.4688 -14.4306
    -7.1161  -6.8838  -6.8144  -6.7734  -6.7049  -6.6029  -6.5207  -6.4938
    -6.3875  -6.2835  -6.2580  -6.2263  -6.2108  -6.1452  -6.0660  -6.0556
    -6.0199  -5.9801  -5.8674  -5.8610  -5.8180  -5.7746  -5.5307  -5.2306
    -0.5649  -0.4312  -0.4009  -0.3491  -0.2727  -0.2336  -0.1564  -0.1281
    -0.0579  -0.0130   0.0116   0.0612   0.1031   0.1140   0.1374   0.1653
     0.2202   0.2457   0.2532   0.3140   0.3522   0.3796   0.4352   0.4556
     5.9107   5.9722   6.0483   6.2668   6.3052   6.4938   6.5100   6.5715
     6.6160   6.6368   6.6609   6.6920   6.6986   6.7367   6.7930   6.8368
     6.9109   6.9248   6.9724   7.0269   7.0513   7.1008   7.1143   7.1628
     7.2004   7.2284   7.3379   7.3668   7.4058   7.4711   7.4899   7.5476
     7.6034   7.6396   7.6766   7.7264   7.7520   7.8201   7.9066   7.9357
     7.9916   8.0613   8.0941   8.2559   8.4043   8.4859   8.6180   8.6806
     8.7422   8.7751   8.8681   8.9413   8.9730   8.9919   9.0167   9.0834
     9.1695   9.2285   9.2741   9.3051   9.3627   9.3869   9.4263   9.4911
     9.5236   9.5637   9.6053   9.6266   9.6741   9.7854   9.8714  10.1014
    12.6541  12.7386  12.8184  12.9352  13.0227  13.0486  13.0950  13.1163
    13.1544  13.1743  13.2540  13.4098  13.4622  13.5412  13.6167  13.7049
    13.7732  13.8614  13.8989  13.9277  14.0151  14.0577  14.1120  14.3486
    14.4770  14.4986  14.6891  14.8566  15.6565  15.7152  15.7960  15.8625

          k =-0.2500-0.2500 0.2500 ( 21239 PWs)   bands (ev):

   -46.6663 -46.6088 -46.4380 -46.3281 -46.3017 -46.2976 -46.2650 -45.9763
   -22.9649 -22.9272 -22.9017 -22.8958 -22.8714 -22.8394 -22.7270 -22.6982
   -22.6954 -22.6833 -22.6641 -22.6403 -22.6344 -22.6267 -22.6232 -22.6223
   -22.5992 -22.5563 -22.5505 -22.5481 -22.5276 -22.5084 -22.1875 -22.1689
   -15.0312 -14.9534 -14.7935 -14.6957 -14.6128 -14.5630 -14.4715 -14.4247
    -7.1615  -6.9516  -6.8608  -6.7948  -6.7176  -6.5908  -6.5219  -6.4527
    -6.3357  -6.2948  -6.2285  -6.2132  -6.1478  -6.1270  -6.0688  -6.0414
    -6.0324  -5.9452  -5.8935  -5.8462  -5.7996  -5.7818  -5.5755  -5.2146
    -0.6018  -0.5659  -0.3916  -0.3068  -0.2553  -0.2142  -0.1883  -0.1423
    -0.0752  -0.0233   0.0151   0.0545   0.0723   0.0898   0.1436   0.1816
     0.2496   0.2879   0.3070   0.3517   0.3796   0.4013   0.4547   0.4895
     5.8234   5.9925   6.0578   6.1116   6.2181   6.2564   6.3090   6.3530
     6.3908   6.4158   6.4915   6.4950   6.5476   6.5958   6.7322   6.8715
     6.9343   6.9863   7.0852   7.1142   7.1801   7.2190   7.2715   7.3149
     7.3352   7.3608   7.4230   7.4359   7.4797   7.5312   7.5483   7.6056
     7.6242   7.6586   7.7106   7.7738   7.8174   7.8495   7.8672   8.0131
     8.1578   8.1934   8.2469   8.3262   8.4236   8.5574   8.6152   8.7026
     8.7385   8.7930   8.8532   8.8781   8.9390   8.9965   9.0111   9.0736
     9.1109   9.1481   9.2207   9.2459   9.3068   9.3690   9.4061   9.5113
     9.5985   9.6136   9.6946   9.7652   9.7821   9.8373   9.9385  10.1646
    12.4316  12.4858  12.5837  12.6803  12.7441  12.7862  13.1623  13.3146
    13.3782  13.4973  13.5247  13.5453  13.5692  13.6302  13.6561  13.6861
    13.6912  13.8196  13.8972  13.9203  13.9794  14.1593  14.3623  14.3718
    14.5756  14.6400  14.7189  14.7801  14.8517  15.1606  15.3592  15.4505

          k =-0.2500 0.2500-0.2500 ( 21239 PWs)   bands (ev):

   -46.6663 -46.6088 -46.4380 -46.3281 -46.3017 -46.2976 -46.2650 -45.9763
   -22.9649 -22.9272 -22.9017 -22.8958 -22.8714 -22.8394 -22.7270 -22.6982
   -22.6954 -22.6833 -22.6641 -22.6403 -22.6344 -22.6267 -22.6233 -22.6222
   -22.5992 -22.5563 -22.5505 -22.5481 -22.5276 -22.5084 -22.1875 -22.1689
   -15.0311 -14.9536 -14.7933 -14.6957 -14.6131 -14.5626 -14.4715 -14.4247
    -7.1607  -6.9526  -6.8593  -6.8071  -6.7002  -6.5933  -6.5428  -6.4303
    -6.3255  -6.2915  -6.2270  -6.2213  -6.1683  -6.1417  -6.0677  -6.0430
    -5.9829  -5.9755  -5.8896  -5.8425  -5.8039  -5.7839  -5.5718  -5.2151
    -0.6094  -0.5483  -0.4484  -0.2934  -0.2658  -0.2166  -0.1636  -0.1253
    -0.0893  -0.0027   0.0194   0.0328   0.0697   0.1170   0.1418   0.2089
     0.2497   0.2780   0.3014   0.3497   0.3895   0.4066   0.4222   0.4915
     5.8503   6.0013   6.0380   6.1212   6.2034   6.2397   6.3052   6.3484
     6.3940   6.4260   6.4629   6.4889   6.5538   6.5685   6.7221   6.8478
     6.9572   7.0093   7.0476   7.1076   7.1628   7.2384   7.2791   7.3191
     7.3346   7.3735   7.4095   7.4611   7.4933   7.5412   7.5694   7.5903
     7.6263   7.6766   7.7294   7.7589   7.7879   7.8411   7.9476   8.0261
     8.1496   8.1844   8.2789   8.3557   8.3788   8.4586   8.5815   8.7115
     8.7342   8.7813   8.8626   8.9147   8.9935   9.0096   9.0571   9.0995
     9.1489   9.1665   9.2309   9.2581   9.2873   9.3472   9.4186   9.4523
     9.5495   9.5987   9.6248   9.7064   9.8159   9.8345   9.9610  10.2101
    12.4314  12.4857  12.6147  12.6654  12.7247  12.7662  13.1345  13.3144
    13.4318  13.5153  13.5317  13.5677  13.5963  13.6327  13.6452  13.6738
    13.7109  13.7695  13.8716  13.9220  13.9851  14.1568  14.3482  14.3688
    14.5619  14.6329  14.7325  14.8002  14.8602  15.2004  15.3202  15.4395

          k = 0.2500-0.2500-0.2500 ( 21239 PWs)   bands (ev):

   -46.6663 -46.6088 -46.4380 -46.3281 -46.3017 -46.2976 -46.2650 -45.9763
   -22.9649 -22.9272 -22.9017 -22.8958 -22.8714 -22.8394 -22.7270 -22.6982
   -22.6954 -22.6833 -22.6641 -22.6403 -22.6344 -22.6267 -22.6232 -22.6223
   -22.5992 -22.5563 -22.5505 -22.5481 -22.5276 -22.5084 -22.1875 -22.1689
   -15.0312 -14.9534 -14.7934 -14.6957 -14.6131 -14.5629 -14.4714 -14.4247
    -7.1593  -6.9561  -6.8647  -6.7998  -6.6960  -6.5935  -6.5352  -6.4494
    -6.3283  -6.2680  -6.2452  -6.2159  -6.1847  -6.1250  -6.0882  -6.0174
    -5.9914  -5.9715  -5.8875  -5.8470  -5.7947  -5.7878  -5.5762  -5.2148
    -0.6083  -0.5570  -0.4145  -0.3042  -0.2488  -0.2068  -0.1763  -0.1301
    -0.0964  -0.0064  -0.0009   0.0648   0.0788   0.1046   0.1248   0.1910
     0.2342   0.2642   0.3095   0.3493   0.3854   0.4044   0.4530   0.4987
     5.8406   6.0089   6.0457   6.1278   6.2244   6.2554   6.3079   6.3548
     6.3809   6.4268   6.4462   6.4686   6.5142   6.5908   6.7423   6.8952
     6.9541   7.0025   7.0611   7.1288   7.2049   7.2462   7.2568   7.2931
     7.3275   7.3466   7.4118   7.4403   7.4775   7.5072   7.5335   7.5796
     7.6378   7.6809   7.7058   7.7680   7.8201   7.9019   7.9523   8.0277
     8.0949   8.1936   8.2577   8.2919   8.4031   8.4578   8.6073   8.6736
     8.8118   8.8772   8.8918   8.9244   8.9805   9.0233   9.0424   9.0667
     9.1092   9.1456   9.1870   9.2380   9.2546   9.3270   9.4053   9.4499
     9.5457   9.6333   9.7188   9.7645   9.7821   9.8389   9.9647  10.1520
    12.4162  12.4833  12.6226  12.6980  12.7238  12.7801  13.1588  13.3073
    13.4272  13.4826  13.5000  13.5235  13.5657  13.6250  13.6739  13.6916
    13.7165  13.8117  13.8911  13.9296  13.9853  14.1604  14.3464  14.3527
    14.5684  14.6358  14.7295  14.7772  14.8551  15.1926  15.3557  15.4324

          k =-0.2500 0.2500 0.5000 ( 21192 PWs)   bands (ev):

   -46.6663 -46.6088 -46.4380 -46.3281 -46.3017 -46.2976 -46.2650 -45.9763
   -22.9649 -22.9271 -22.9012 -22.8957 -22.8713 -22.8384 -22.7270 -22.6982
   -22.6928 -22.6821 -22.6641 -22.6404 -22.6352 -22.6272 -22.6270 -22.6223
   -22.5992 -22.5563 -22.5506 -22.5481 -22.5283 -22.5077 -22.1876 -22.1697
   -15.0294 -14.9522 -14.7855 -14.7041 -14.6115 -14.5589 -14.4796 -14.4260
    -7.1438  -6.9078  -6.8200  -6.7414  -6.6932  -6.6641  -6.5165  -6.4466
    -6.3510  -6.2855  -6.2394  -6.2265  -6.1782  -6.1271  -6.0938  -6.0370
    -6.0079  -5.9858  -5.8909  -5.8480  -5.8092  -5.7585  -5.6378  -5.2135
    -0.5510  -0.4903  -0.4252  -0.3263  -0.2588  -0.2304  -0.1600  -0.1405
    -0.0777  -0.0448  -0.0208  -0.0001   0.0619   0.1049   0.1364   0.1752
     0.1882   0.2615   0.3184   0.3806   0.4128   0.4209   0.4487   0.4933
     5.8922   6.0243   6.1502   6.1791   6.1996   6.2641   6.3891   6.4190
     6.5238   6.5912   6.6099   6.6506   6.6636   6.7195   6.7571   6.8070
     6.9084   6.9326   6.9790   7.0768   7.1318   7.2197   7.2495   7.2938
     7.3375   7.3626   7.4029   7.4306   7.4565   7.5202   7.5587   7.6050
     7.6140   7.6541   7.6950   7.7528   7.7662   7.8129   7.8590   7.9339
     8.0304   8.1217   8.1808   8.2315   8.3180   8.3638   8.4923   8.5306
     8.7538   8.8359   8.8953   8.9386   8.9944   9.0285   9.0536   9.0804
     9.1278   9.1854   9.2361   9.2926   9.3117   9.3707   9.3977   9.4516
     9.5073   9.5566   9.6062   9.6783   9.7901   9.8076   9.9514  10.0461
    12.6024  12.6836  12.7830  12.8360  12.8717  12.9161  13.0456  13.1203
    13.2779  13.3965  13.4544  13.5060  13.5518  13.6078  13.6334  13.6473
    13.6999  13.7269  13.7802  13.8672  13.9761  13.9839  14.2622  14.3469
    14.7313  14.7540  14.9632  15.0219  15.1262  15.3096  15.4810  15.5976

          k =-0.5000-0.2500 0.2500 ( 21192 PWs)   bands (ev):

   -46.6663 -46.6088 -46.4380 -46.3281 -46.3017 -46.2976 -46.2650 -45.9763
   -22.9641 -22.9266 -22.9014 -22.8958 -22.8714 -22.8394 -22.7246 -22.6983
   -22.6954 -22.6833 -22.6642 -22.6412 -22.6348 -22.6273 -22.6248 -22.6232
   -22.5991 -22.5563 -22.5505 -22.5476 -22.5276 -22.5084 -22.1883 -22.1689
   -15.0288 -14.9523 -14.7920 -14.6973 -14.5927 -14.5839 -14.4731 -14.4270
    -7.1150  -6.8996  -6.8162  -6.7979  -6.7113  -6.6279  -6.5364  -6.4386
    -6.3582  -6.2745  -6.2370  -6.2180  -6.1873  -6.1541  -6.0706  -6.0572
    -6.0240  -5.9580  -5.8908  -5.8521  -5.8064  -5.7846  -5.5795  -5.2287
    -0.5428  -0.4781  -0.4380  -0.3362  -0.2446  -0.2412  -0.1885  -0.1392
    -0.0719  -0.0308   0.0013   0.0302   0.0699   0.0890   0.1214   0.1496
     0.2259   0.2467   0.3248   0.3481   0.4047   0.4375   0.4529   0.4850
     5.9902   6.0389   6.1476   6.1800   6.1959   6.2959   6.3787   6.4555
     6.5060   6.5711   6.6102   6.6592   6.6985   6.7226   6.7794   6.8103
     6.8436   6.9260   6.9713   6.9898   7.0984   7.1769   7.1941   7.2208
     7.3092   7.3607   7.3900   7.4530   7.4959   7.5134   7.5573   7.5902
     7.6098   7.6719   7.6977   7.7491   7.7858   7.8159   7.8757   7.9363
     8.0350   8.1051   8.1581   8.2493   8.3555   8.4336   8.5467   8.6037
     8.7073   8.7630   8.8353   8.9397   8.9630   8.9943   9.0773   9.1409
     9.1544   9.1798   9.2474   9.2937   9.3336   9.3553   9.3922   9.4636
     9.4809   9.5733   9.6125   9.7030   9.7681   9.8476   9.8988  10.0775
    12.4797  12.6509  12.7918  12.8705  12.9362  13.0162  13.1300  13.2047
    13.2365  13.2904  13.3421  13.5238  13.5416  13.5862  13.6170  13.6606
    13.7318  13.7607  13.8572  13.8850  13.9393  13.9669  14.2380  14.3745
    14.6409  14.7251  15.0008  15.0347  15.1873  15.3860  15.4364  15.5228

          k = 0.5000-0.2500-0.2500 ( 21192 PWs)   bands (ev):

   -46.6663 -46.6088 -46.4380 -46.3281 -46.3017 -46.2976 -46.2650 -45.9763
   -22.9641 -22.9266 -22.9014 -22.8958 -22.8714 -22.8394 -22.7246 -22.6983
   -22.6954 -22.6833 -22.6642 -22.6412 -22.6348 -22.6273 -22.6248 -22.6232
   -22.5991 -22.5563 -22.5505 -22.5476 -22.5276 -22.5084 -22.1883 -22.1689
   -15.0289 -14.9522 -14.7920 -14.6974 -14.5928 -14.5840 -14.4730 -14.4270
    -7.1146  -6.9015  -6.8189  -6.7859  -6.7151  -6.6341  -6.5372  -6.4350
    -6.3462  -6.2837  -6.2454  -6.2273  -6.1939  -6.1343  -6.0833  -6.0476
    -6.0121  -5.9639  -5.8864  -5.8593  -5.8056  -5.7843  -5.5788  -5.2294
    -0.5548  -0.4587  -0.4325  -0.3177  -0.2566  -0.2427  -0.1916  -0.1365
    -0.0788  -0.0367  -0.0014   0.0348   0.0691   0.0856   0.1137   0.1560
     0.2016   0.2558   0.3180   0.3780   0.3988   0.4265   0.4580   0.4858
     5.9869   6.0303   6.1634   6.1896   6.2156   6.2812   6.3672   6.4506
     6.5114   6.5495   6.6192   6.6561   6.6848   6.7343   6.8005   6.8102
     6.8466   6.9100   6.9558   7.0163   7.1196   7.1610   7.2284   7.2533
     7.3400   7.3456   7.3941   7.4174   7.4578   7.4842   7.5715   7.5775
     7.6427   7.6703   7.7063   7.7184   7.7731   7.8310   7.8817   7.9370
     8.0137   8.0658   8.1367   8.2931   8.3542   8.4242   8.5318   8.6008
     8.7731   8.8239   8.8603   8.9039   8.9671   9.0213   9.0740   9.0995
     9.1330   9.1573   9.2377   9.2877   9.3247   9.3472   9.3868   9.4428
     9.5156   9.5571   9.6214   9.7105   9.7844   9.8411   9.8964  10.0760
    12.4755  12.6884  12.7869  12.8621  12.9481  13.0112  13.1332  13.2072
    13.2354  13.2838  13.3318  13.4952  13.5481  13.5675  13.6253  13.6852
    13.7230  13.7660  13.8445  13.8967  13.9491  13.9734  14.2405  14.3541
    14.6394  14.7135  15.0122  15.0260  15.1993  15.3967  15.4455  15.5120

          k =-0.2500-0.5000 0.2500 ( 21192 PWs)   bands (ev):

   -46.6663 -46.6088 -46.4380 -46.3281 -46.3017 -46.2976 -46.2650 -45.9763
   -22.9649 -22.9272 -22.9017 -22.8950 -22.8708 -22.8392 -22.7270 -22.6950
   -22.6868 -22.6816 -22.6754 -22.6405 -22.6346 -22.6267 -22.6233 -22.6223
   -22.5999 -22.5572 -22.5523 -22.5482 -22.5278 -22.5084 -22.1876 -22.1689
   -15.0225 -14.9623 -14.7895 -14.6928 -14.6145 -14.5613 -14.4746 -14.4296
    -7.1470  -6.8827  -6.8167  -6.7735  -6.7056  -6.5918  -6.5166  -6.4379
    -6.4188  -6.2762  -6.2457  -6.2185  -6.1840  -6.1356  -6.1048  -6.0390
    -6.0227  -5.9789  -5.8831  -5.8634  -5.8054  -5.7836  -5.5778  -5.2142
    -0.5476  -0.4603  -0.4088  -0.3723  -0.2970  -0.1995  -0.1639  -0.1322
    -0.0707  -0.0264  -0.0102   0.0204   0.0493   0.1053   0.1186   0.1603
     0.2117   0.2346   0.3121   0.3751   0.4031   0.4323   0.4508   0.4896
     5.8507   6.0657   6.1263   6.1727   6.2783   6.3312   6.3754   6.5247
     6.5471   6.6049   6.6467   6.6619   6.6936   6.7624   6.7963   6.8294
     6.8456   6.8692   6.9881   7.0305   7.0983   7.1709   7.1858   7.2179
     7.2630   7.3051   7.3573   7.3837   7.4134   7.4711   7.5135   7.5526
     7.5890   7.6509   7.7065   7.7351   7.8020   7.8643   7.9394   8.0021
     8.0306   8.0912   8.1520   8.3052   8.3458   8.3870   8.4805   8.6925
     8.7501   8.8146   8.8761   8.9100   8.9395   9.0098   9.0340   9.0854
     9.1539   9.2182   9.2533   9.3062   9.3699   9.4034   9.4497   9.4672
     9.5066   9.5800   9.6170   9.6587   9.7017   9.7120   9.8774  10.1639
    12.4445  12.7516  12.8247  12.9104  12.9731  13.0139  13.0402  13.0673
    13.1902  13.2622  13.4367  13.5103  13.5257  13.5806  13.6813  13.7001
    13.7430  13.7539  13.7940  13.8365  13.9159  14.1407  14.2441  14.2688
    14.5886  14.8278  14.8481  15.1268  15.2116  15.3025  15.4781  15.6396

          k =-0.2500 0.5000-0.2500 ( 21192 PWs)   bands (ev):

   -46.6663 -46.6088 -46.4380 -46.3281 -46.3017 -46.2976 -46.2650 -45.9763
   -22.9649 -22.9272 -22.9017 -22.8950 -22.8708 -22.8392 -22.7270 -22.6950
   -22.6868 -22.6816 -22.6754 -22.6405 -22.6346 -22.6267 -22.6233 -22.6222
   -22.5999 -22.5572 -22.5523 -22.5482 -22.5278 -22.5084 -22.1876 -22.1689
   -15.0225 -14.9623 -14.7895 -14.6928 -14.6146 -14.5612 -14.4746 -14.4296
    -7.1470  -6.8859  -6.8174  -6.7552  -6.7168  -6.6004  -6.5404  -6.4242
    -6.3660  -6.3086  -6.2427  -6.2156  -6.1816  -6.1559  -6.0969  -6.0506
    -6.0215  -5.9815  -5.8766  -5.8565  -5.8099  -5.7826  -5.5747  -5.2152
    -0.5613  -0.4437  -0.4269  -0.3553  -0.3187  -0.1837  -0.1575  -0.1273
    -0.0849  -0.0430   0.0010   0.0316   0.0558   0.0882   0.1025   0.1694
     0.2383   0.2688   0.3230   0.3683   0.3858   0.4132   0.4483   0.4826
     5.8585   6.0606   6.1277   6.1684   6.2749   6.3354   6.3793   6.5153
     6.5537   6.5943   6.6297   6.6526   6.6948   6.7518   6.7937   6.8202
     6.8430   6.8943   6.9615   7.0427   7.0843   7.1502   7.1775   7.2208
     7.2793   7.3023   7.3727   7.4015   7.4377   7.4885   7.5399   7.5682
     7.6238   7.6551   7.7114   7.7338   7.8174   7.8574   7.9181   7.9613
     7.9964   8.1105   8.1767   8.2661   8.3373   8.4424   8.4700   8.6316
     8.7513   8.7989   8.8485   8.9166   8.9718   9.0071   9.0619   9.1185
     9.1591   9.2180   9.2513   9.3216   9.3694   9.4041   9.4364   9.4827
     9.5022   9.5619   9.6000   9.6282   9.6704   9.7175   9.8786  10.2092
    12.4533  12.7187  12.8185  12.9216  12.9823  13.0097  13.0430  13.0707
    13.1666  13.2654  13.4306  13.5331  13.5889  13.6076  13.6561  13.7022
    13.7388  13.7459  13.7766  13.8010  13.9139  14.1379  14.2439  14.2710
    14.5739  14.8442  14.8862  15.0992  15.1770  15.3148  15.4857  15.6591

          k =-0.5000 0.2500 0.5000 ( 21208 PWs)   bands (ev):

   -46.6663 -46.6088 -46.4380 -46.3281 -46.3017 -46.2976 -46.2650 -45.9763
   -22.9641 -22.9264 -22.9009 -22.8957 -22.8713 -22.8384 -22.7246 -22.6983
   -22.6928 -22.6820 -22.6642 -22.6412 -22.6355 -22.6277 -22.6272 -22.6248
   -22.5991 -22.5563 -22.5506 -22.5476 -22.5283 -22.5077 -22.1883 -22.1697
   -15.0273 -14.9509 -14.7833 -14.7064 -14.5916 -14.5797 -14.4812 -14.4282
    -7.1031  -6.8734  -6.7867  -6.7377  -6.6830  -6.6104  -6.5387  -6.4571
    -6.4003  -6.3035  -6.2400  -6.2337  -6.1733  -6.1525  -6.1026  -6.0459
    -6.0388  -5.9634  -5.8971  -5.8624  -5.8151  -5.7592  -5.6420  -5.2274
    -0.5209  -0.4508  -0.4239  -0.3261  -0.2874  -0.2454  -0.1842  -0.1556
    -0.1036  -0.0775  -0.0312  -0.0137   0.0513   0.0643   0.1062   0.1544
     0.2478   0.2874   0.3070   0.3940   0.4137   0.4644   0.4797   0.5190
     6.0714   6.1101   6.1679   6.1889   6.2777   6.4230   6.4574   6.4958
     6.5579   6.5802   6.6176   6.6733   6.7038   6.7745   6.8114   6.8567
     6.9366   6.9709   7.0336   7.0846   7.1124   7.1607   7.2075   7.2309
     7.2977   7.3528   7.3730   7.4459   7.4632   7.4981   7.5453   7.5571
     7.6245   7.6473   7.6840   7.7297   7.7388   7.7636   7.8147   7.8783
     7.8826   8.0103   8.0355   8.1573   8.1774   8.2027   8.3623   8.4068
     8.7622   8.8287   8.9026   8.9695   9.0318   9.0850   9.1265   9.1524
     9.1863   9.2291   9.2463   9.2724   9.3154   9.3571   9.3890   9.4756
     9.5028   9.5720   9.5859   9.6729   9.6967   9.7600   9.9016  10.0403
    12.7849  12.8485  12.9022  12.9318  13.0016  13.0378  13.0612  13.2020
    13.2343  13.2727  13.3997  13.4154  13.4927  13.5389  13.5794  13.6006
    13.6341  13.6710  13.7152  13.7646  13.7950  13.8675  14.2404  14.2696
    14.9452  15.0026  15.1179  15.2574  15.3927  15.5043  15.8184  15.9411

          k =-0.5000 0.5000 0.2500 ( 21208 PWs)   bands (ev):

   -46.6663 -46.6088 -46.4380 -46.3281 -46.3017 -46.2976 -46.2650 -45.9763
   -22.9641 -22.9265 -22.9014 -22.8950 -22.8708 -22.8392 -22.7246 -22.6950
   -22.6869 -22.6816 -22.6754 -22.6414 -22.6350 -22.6273 -22.6248 -22.6232
   -22.5998 -22.5572 -22.5524 -22.5477 -22.5278 -22.5084 -22.1883 -22.1689
   -15.0204 -14.9608 -14.7884 -14.6944 -14.5946 -14.5815 -14.4764 -14.4320
    -7.1058  -6.8486  -6.7885  -6.7408  -6.6745  -6.6053  -6.5136  -6.4941
    -6.4013  -6.2885  -6.2687  -6.2356  -6.2000  -6.1473  -6.0876  -6.0700
    -6.0398  -5.9847  -5.8823  -5.8683  -5.8055  -5.7883  -5.5788  -5.2290
    -0.5526  -0.4176  -0.3963  -0.3673  -0.2835  -0.2368  -0.1813  -0.1535
    -0.1045  -0.0517  -0.0209  -0.0080   0.0365   0.0645   0.0863   0.1313
     0.2690   0.2951   0.3278   0.3824   0.4180   0.4332   0.4831   0.5138
     6.0196   6.1120   6.2107   6.2774   6.3416   6.4504   6.4857   6.5343
     6.5617   6.6010   6.6374   6.6767   6.7281   6.7912   6.8363   6.9031
     6.9074   6.9488   7.0054   7.0222   7.0567   7.1088   7.1542   7.1924
     7.2547   7.2803   7.3282   7.3511   7.4074   7.4932   7.5109   7.5604
     7.5873   7.6213   7.6714   7.7117   7.7491   7.8065   7.8465   7.8673
     7.9486   7.9836   8.0416   8.0880   8.2479   8.2979   8.4044   8.4654
     8.8114   8.8365   8.8963   8.9708   9.0083   9.0467   9.0970   9.1192
     9.2069   9.2560   9.2912   9.3186   9.3760   9.4032   9.4281   9.4538
     9.5219   9.5402   9.5754   9.6182   9.6686   9.7392   9.8743  10.0773
    12.7703  12.8228  12.9044  13.0137  13.0414  13.0808  13.1137  13.1543
    13.1954  13.2430  13.2791  13.3846  13.4753  13.5364  13.5704  13.6080
    13.6492  13.7091  13.7653  13.8083  13.8666  13.9445  14.0871  14.2686
    14.8376  14.9064  15.1024  15.2556  15.6949  15.7328  15.8136  15.8683

     the Fermi energy is    11.6239 ev

!    total energy              =   -5448.82148056 Ry
     estimated scf accuracy    <          1.6E-09 Ry
     smearing contrib. (-TS)   =      -0.00000000 Ry
     internal energy E=F+TS    =   -5448.82148056 Ry

     The total energy is F=E-TS. E is the sum of the following terms:
     one-electron contribution =    -598.84355101 Ry
     hartree contribution      =     496.64767270 Ry
     xc contribution           =    -487.04519239 Ry
     ewald contribution        =   -1631.51193273 Ry
     one-center paw contrib.   =   -3228.06847713 Ry

     convergence has been achieved in  25 iterations

     negative rho (up, down):  9.722E-03 0.000E+00

     Forces acting on atoms (cartesian axes, Ry/au):

     atom    1 type  1   force =     0.02121415    0.04901061    0.01517661
     atom    2 type  1   force =    -0.03171723    0.06652199    0.03104547
     atom    3 type  1   force =     0.00121796   -0.05291033   -0.04959646
     atom    4 type  1   force =     0.04977665    0.03171142    0.01201439
     atom    5 type  1   force =     0.01784196    0.03315621    0.02107042
     atom    6 type  1   force =     0.01749106    0.01864971    0.02290096
     atom    7 type  1   force =    -0.01948892   -0.02759613   -0.01351999
     atom    8 type  1   force =     0.03624036    0.01415081    0.01462069
     atom    9 type  2   force =    -0.01599098   -0.02103586   -0.01015422
     atom   10 type  2   force =    -0.00098663   -0.02302855   -0.07772853
     atom   11 type  2   force =    -0.10668180   -0.01139241   -0.03035771
     atom   12 type  2   force =     0.05406977   -0.15021414    0.02123032
     atom   13 type  2   force =     0.04296650   -0.00539183   -0.00665790
     atom   14 type  2   force =    -0.06175643    0.00085267    0.05182356
     atom   15 type  2   force =    -0.03459705    0.00066665    0.04397710
     atom   16 type  2   force =    -0.02758467   -0.03396203   -0.00826713
     atom   17 type  3   force =    -0.03346907   -0.01952324   -0.02178039
     atom   18 type  3   force =    -0.01016903   -0.01412978    0.04134448
     atom   19 type  3   force =     0.00841093   -0.00237584   -0.02352813
     atom   20 type  3   force =    -0.02902053   -0.01519632   -0.00503379
     atom   21 type  3   force =     0.05887112   -0.07459857    0.00660009
     atom   22 type  3   force =    -0.01165618    0.00350409   -0.02941094
     atom   23 type  3   force =    -0.06843510    0.01953594    0.04155647
     atom   24 type  3   force =    -0.00614623   -0.00801843   -0.02103409
     atom   25 type  3   force =     0.02258389   -0.01569243   -0.01298711
     atom   26 type  3   force =    -0.00155740   -0.00169097    0.02007269
     atom   27 type  3   force =     0.03489190    0.01531974    0.02454542
     atom   28 type  3   force =    -0.00228944    0.19673731   -0.00371379
     atom   29 type  3   force =    -0.04731760    0.04004509   -0.01075224
     atom   30 type  3   force =     0.04120059   -0.03261806    0.00403890
     atom   31 type  3   force =    -0.01756585   -0.00371103   -0.02923373
     atom   32 type  3   force =    -0.00995651   -0.01691544   -0.03513392
     atom   33 type  3   force =     0.04137866    0.02064895    0.02864412
     atom   34 type  3   force =     0.02438301    0.02110769   -0.03909791
     atom   35 type  3   force =     0.02660549    0.00900716   -0.00387316
     atom   36 type  3   force =    -0.01140407    0.00932544   -0.00613069
     atom   37 type  3   force =    -0.04205949   -0.00613845   -0.03293231
     atom   38 type  3   force =     0.03719233   -0.00299582    0.04217497
     atom   39 type  3   force =     0.01203076    0.00287371    0.02843595
     atom   40 type  3   force =     0.04148312   -0.01368952   -0.00034848

     Total force =     0.417181     Total SCF correction =     0.000045
     Message from routine punch:
     Nothing written, as per user request (disk_io='none')

     init_run     :     43.79s CPU     48.86s WALL (       1 calls)
     electrons    :   2967.35s CPU   3163.42s WALL (       1 calls)
     forces       :     30.24s CPU     31.55s WALL (       1 calls)

     Called by init_run:
     wfcinit      :     37.75s CPU     41.39s WALL (       1 calls)
     potinit      :      3.42s CPU      3.76s WALL (       1 calls)
     hinit0       :      1.22s CPU      1.42s WALL (       1 calls)

     Called by electrons:
     c_bands      :   2470.25s CPU   2614.22s WALL (      25 calls)
     sum_band     :    369.07s CPU    399.13s WALL (      25 calls)
     v_of_rho     :     29.94s CPU     33.95s WALL (      26 calls)
     newd         :     43.24s CPU     61.92s WALL (      26 calls)
     PAW_pot      :     48.39s CPU     48.42s WALL (      26 calls)
     mix_rho      :      4.61s CPU      4.76s WALL (      25 calls)

     Called by c_bands:
     init_us_2    :     99.06s CPU     99.37s WALL (     468 calls)
     cegterg      :   1894.26s CPU   2037.66s WALL (     225 calls)

     Called by *egterg:
     cdiaghg      :     54.32s CPU     54.34s WALL (     856 calls)
     h_psi        :    940.78s CPU   1021.02s WALL (     865 calls)
     s_psi        :    206.99s CPU    207.02s WALL (     865 calls)
     g_psi        :      8.20s CPU      8.21s WALL (     631 calls)

     Called by h_psi:
     h_psi:calbec :    224.74s CPU    226.11s WALL (     865 calls)
     vloc_psi     :    489.02s CPU    539.87s WALL (     865 calls)
                                        0.00s GPU  (     865 calls)
     add_vuspsi   :    215.34s CPU    215.38s WALL (     865 calls)

     General routines
     calbec       :    331.60s CPU    333.67s WALL (    1126 calls)
     fft          :     32.49s CPU     35.19s WALL (     347 calls)
     ffts         :      1.35s CPU      1.43s WALL (      51 calls)
     fftw         :    468.64s CPU    526.65s WALL (  231334 calls)
     interpolate  :      3.40s CPU      3.62s WALL (      26 calls)

     Parallel routines

     PWSCF        :  50m41.81s CPU  54m 4.45s WALL


   This run was terminated on:   3:26:20   4Oct2026            

=------------------------------------------------------------------------------=
   JOB DONE.
=------------------------------------------------------------------------------=
