
     Program PWSCF v.7.5 starts on 27Sep2026 at  8:20:49 

     This program is part of the open-source Quantum ESPRESSO suite
     for quantum simulation of materials; please cite
         "P. Giannozzi et al., J. Phys.:Condens. Matter 21 395502 (2009);
         "P. Giannozzi et al., J. Phys.:Condens. Matter 29 465901 (2017);
         "P. Giannozzi et al., J. Chem. Phys. 152 154105 (2020);
          URL http://www.quantum-espresso.org", 
     in publications or presentations arising from this work. More details at
     http://www.quantum-espresso.org/quote

     Parallel version (MPI & OpenMP), running on       8 processor cores
     Number of MPI processes:                 8
     Threads/MPI process:                     1

     MPI processes distributed on     1 nodes
     64440 MiB available memory on the printing compute node when the environment starts

     Reading input from pw.in

     Current dimensions of program PWSCF are:
     Max number of different atomic species (ntypx) = 10
     Max number of k-points (npk) =  40000
     Max angular momentum in pseudopotentials (lmaxx) =  4
     Message from routine setup:
     using ibrav=0 with symmetry is DISCOURAGED, use correct ibrav instead

     K-points division:     npool     =       8
     Subspace diagonalization in iterative solution of the eigenvalue problem:
     a serial algorithm will be used


     G-vector sticks info
     --------------------
     sticks:   dense  smooth     PW     G-vecs:    dense   smooth      PW
     Sum        8185    4093   1111               490385   173463   24357

     Using Slab Decomposition



     bravais-lattice index     =            0
     lattice parameter (alat)  =      15.7535  a.u.
     unit-cell volume          =    2764.4861 (a.u.)^3
     number of atoms/cell      =           10
     number of atomic types    =            3
     number of electrons       =        88.00
     number of Kohn-Sham states=           53
     kinetic-energy cutoff     =      60.0000  Ry
     charge density cutoff     =     480.0000  Ry
     scf convergence threshold =      1.0E-09
     mixing beta               =       0.4000
     number of iterations used =            8  plain     mixing
     Exchange-correlation=  SLA  PW   PBX  PBC
                           (   1   4   3   4   0   0   0)

     celldm(1)=  15.753479  celldm(2)=   0.000000  celldm(3)=   0.000000
     celldm(4)=   0.000000  celldm(5)=   0.000000  celldm(6)=   0.000000

     crystal axes: (cart. coord. in units of alat)
               a(1) = (   0.707107   0.000000   0.707107 )  
               a(2) = (  -0.000000  -0.707107   0.707107 )  
               a(3) = (   0.707107  -0.707107  -0.000000 )  

     reciprocal axes: (cart. coord. in units 2 pi/alat)
               b(1) = (  0.707107  0.707107  0.707107 )  
               b(2) = ( -0.707107 -0.707107  0.707107 )  
               b(3) = (  0.707107 -0.707107 -0.707107 )  


     PseudoPot. # 1 for Cs read from file:
     /root/sssp/upf/Cs_pbe_v1.uspp.F.UPF
     MD5 check sum: 3476d69cb178dfad3ffaa59df4e07ca4
     Pseudo is Ultrasoft + core correction, Zval =  9.0
     Generated by new atomic code, or converted to UPF format
     Using radial grid of  905 points,  6 beta functions with: 
                l(1) =   0
                l(2) =   0
                l(3) =   1
                l(4) =   1
                l(5) =   2
                l(6) =   2
     Q(r) pseudized with  6 coefficients,  rinner =    1.500   1.500   1.500
                                                       1.500   1.500

     PseudoPot. # 2 for Sn read from file:
     /root/sssp/upf/Sn_pbe_v1.uspp.F.UPF
     MD5 check sum: 4cf58ce39ec5d5d420df3dd08604eb00
     Pseudo is Ultrasoft + core correction, Zval = 14.0
     Generated by new atomic code, or converted to UPF format
     Using radial grid of  891 points,  6 beta functions with: 
                l(1) =   0
                l(2) =   0
                l(3) =   1
                l(4) =   1
                l(5) =   2
                l(6) =   2
     Q(r) pseudized with  6 coefficients,  rinner =    1.200   1.200   1.200
                                                       1.200   1.200

     PseudoPot. # 3 for Br read from file:
     /root/sssp/upf/br_pbe_v1.4.uspp.F.UPF
     MD5 check sum: d3ffb7b29f6225aa16fe06858fb2a80b
     Pseudo is Ultrasoft + core correction, Zval =  7.0
     Generated by new atomic code, or converted to UPF format
     Using radial grid of  879 points,  6 beta functions with: 
                l(1) =   0
                l(2) =   0
                l(3) =   1
                l(4) =   1
                l(5) =   2
                l(6) =   2
     Q(r) pseudized with  8 coefficients,  rinner =    1.100   1.100   1.100
                                                       1.100   1.100

     atomic species   valence    mass     pseudopotential
     Cs                9.00   132.90550     Cs( 1.00)
     Sn               14.00   118.71000     Sn( 1.00)
     Br                7.00    79.90400     Br( 1.00)

      2 Sym. Ops., with inversion, found ( 1 have fractional translation)



   Cartesian axes

     site n.     atom                  positions (alat units)
         1        Cs     tau(   1) = (   0.7071068  -0.7071068   0.7071068  )
         2        Cs     tau(   2) = (   0.0000000   0.0000000   0.0000000  )
         3        Sn     tau(   3) = (   1.0606602  -1.0606602   1.0606602  )
         4        Sn     tau(   4) = (   0.3535534  -0.3535534   0.3535534  )
         5        Br     tau(   5) = (   0.7071068  -1.0597870   0.3529867  )
         6        Br     tau(   6) = (   0.7071068  -0.3544266   0.3541201  )
         7        Br     tau(   7) = (   0.3544266  -0.7071068   1.0579945  )
         8        Br     tau(   8) = (   0.3526802  -0.7071068   0.3562191  )
         9        Br     tau(   9) = (   1.0600934  -1.0579945   0.7071068  )
        10        Br     tau(  10) = (   1.0612269  -0.3562191   0.7071068  )

     number of k points=    36  Marzari-Vanderbilt smearing, width (Ry)=  0.0050
                       cart. coord. in units 2pi/alat
        k(    1) = (   0.0000000   0.0000000   0.0000000), wk =   0.0312500
        k(    2) = (   0.1767767  -0.1767767  -0.1767767), wk =   0.0625000
        k(    3) = (  -0.3535534   0.3535534   0.3535534), wk =   0.0312500
        k(    4) = (   0.0000000  -0.3535534   0.0000000), wk =   0.0625000
        k(    5) = (  -0.5303301   0.1767767   0.5303301), wk =   0.0625000
        k(    6) = (  -0.3535534   0.0000000   0.3535534), wk =   0.0625000
        k(    7) = (   0.0000000   0.7071068   0.0000000), wk =   0.0312500
        k(    8) = (   0.3535534   0.7071068   0.0000000), wk =   0.0625000
        k(    9) = (  -0.1767767  -0.1767767   0.1767767), wk =   0.0625000
        k(   10) = (   0.1767767   0.1767767   0.1767767), wk =   0.0625000
        k(   11) = (   0.1767767  -0.1767767   0.1767767), wk =   0.0625000
        k(   12) = (   0.3535534   0.3535534  -0.3535534), wk =   0.0312500
        k(   13) = (  -0.3535534  -0.3535534  -0.3535534), wk =   0.0312500
        k(   14) = (  -0.3535534   0.3535534  -0.3535534), wk =   0.0312500
        k(   15) = (  -0.3535534   0.0000000   0.0000000), wk =   0.0625000
        k(   16) = (   0.0000000   0.0000000  -0.3535534), wk =   0.0625000
        k(   17) = (   0.5303301   0.1767767  -0.5303301), wk =   0.0625000
        k(   18) = (  -0.5303301  -0.1767767  -0.5303301), wk =   0.0625000
        k(   19) = (   0.1767767  -0.5303301  -0.5303301), wk =   0.0625000
        k(   20) = (  -0.1767767   0.5303301  -0.5303301), wk =   0.0625000
        k(   21) = (   0.1767767   0.5303301   0.5303301), wk =   0.0625000
        k(   22) = (  -0.1767767  -0.5303301   0.5303301), wk =   0.0625000
        k(   23) = (  -0.5303301   0.1767767  -0.5303301), wk =   0.0625000
        k(   24) = (   0.5303301   0.5303301   0.1767767), wk =   0.0625000
        k(   25) = (   0.5303301  -0.5303301  -0.1767767), wk =   0.0625000
        k(   26) = (  -0.5303301   0.5303301  -0.1767767), wk =   0.0625000
        k(   27) = (  -0.5303301  -0.5303301   0.1767767), wk =   0.0625000
        k(   28) = (  -0.3535534   0.0000000  -0.3535534), wk =   0.0625000
        k(   29) = (   0.0000000  -0.3535534  -0.3535534), wk =   0.0625000
        k(   30) = (   0.0000000   0.3535534  -0.3535534), wk =   0.0625000
        k(   31) = (   0.3535534   0.3535534   0.0000000), wk =   0.0625000
        k(   32) = (   0.3535534  -0.3535534   0.0000000), wk =   0.0625000
        k(   33) = (   0.7071068   0.0000000   0.0000000), wk =   0.0312500
        k(   34) = (   0.0000000   0.0000000   0.7071068), wk =   0.0312500
        k(   35) = (   0.7071068   0.3535534   0.0000000), wk =   0.0625000
        k(   36) = (   0.0000000  -0.7071068   0.3535534), wk =   0.0625000

     Dense  grid:   490385 G-vectors     FFT dimensions: ( 120, 120, 120)

     Smooth grid:   173463 G-vectors     FFT dimensions: (  80,  80,  80)

     Estimated max dynamical RAM per process >     712.92 MB

     Estimated total dynamical RAM >       4.75 GB

     Initial potential from superposition of free atoms

     starting charge      85.9210, renormalised to      88.0000
     Starting wfcs are   68 randomized atomic wfcs

     total cpu time spent up to now is       16.9 secs

     per-process dynamical memory:   420.6 Mb

     Self-consistent Calculation

     iteration #  1     ecut=    60.00 Ry     beta= 0.40
     Davidson diagonalization with overlap
     ethr =  1.00E-02,  avg # of iterations =  2.6

     Threshold (ethr) on eigenvalues was too large:
     Diagonalizing with lowered threshold

     Davidson diagonalization with overlap
     ethr =  4.84E-04,  avg # of iterations =  3.1

     total cpu time spent up to now is       73.3 secs

     total energy              =    -734.55918283 Ry
     estimated scf accuracy    <       0.40903611 Ry

     iteration #  2     ecut=    60.00 Ry     beta= 0.40
     Davidson diagonalization with overlap
     ethr =  4.65E-04,  avg # of iterations =  2.0

     total cpu time spent up to now is      104.7 secs

     total energy              =    -734.60552840 Ry
     estimated scf accuracy    <       0.03737442 Ry

     iteration #  3     ecut=    60.00 Ry     beta= 0.40
     Davidson diagonalization with overlap
     ethr =  4.25E-05,  avg # of iterations =  5.3

     total cpu time spent up to now is      133.9 secs

     total energy              =    -734.60911301 Ry
     estimated scf accuracy    <       0.00567403 Ry

     iteration #  4     ecut=    60.00 Ry     beta= 0.40
     Davidson diagonalization with overlap
     ethr =  6.45E-06,  avg # of iterations =  6.2

     total cpu time spent up to now is      162.4 secs

     total energy              =    -734.60969658 Ry
     estimated scf accuracy    <       0.00047626 Ry

     iteration #  5     ecut=    60.00 Ry     beta= 0.40
     Davidson diagonalization with overlap
     c_bands:  2 eigenvalues not converged
     ethr =  5.41E-07,  avg # of iterations =  7.6

     total cpu time spent up to now is      193.5 secs

     total energy              =    -734.60977111 Ry
     estimated scf accuracy    <       0.00001281 Ry

     iteration #  6     ecut=    60.00 Ry     beta= 0.40
     Davidson diagonalization with overlap
     ethr =  1.46E-08,  avg # of iterations =  5.8

     total cpu time spent up to now is      228.6 secs

     total energy              =    -734.60978470 Ry
     estimated scf accuracy    <       0.00000118 Ry

     iteration #  7     ecut=    60.00 Ry     beta= 0.40
     Davidson diagonalization with overlap
     ethr =  1.34E-09,  avg # of iterations =  3.2

     total cpu time spent up to now is      257.6 secs

     total energy              =    -734.60978711 Ry
     estimated scf accuracy    <       0.00000025 Ry

     iteration #  8     ecut=    60.00 Ry     beta= 0.40
     Davidson diagonalization with overlap
     ethr =  2.83E-10,  avg # of iterations =  2.7

     total cpu time spent up to now is      286.3 secs

     total energy              =    -734.60978786 Ry
     estimated scf accuracy    <       0.00000004 Ry

     iteration #  9     ecut=    60.00 Ry     beta= 0.40
     Davidson diagonalization with overlap
     ethr =  4.92E-11,  avg # of iterations =  2.2

     total cpu time spent up to now is      313.1 secs

     total energy              =    -734.60978809 Ry
     estimated scf accuracy    <       0.00000001 Ry

     iteration # 10     ecut=    60.00 Ry     beta= 0.40
     Davidson diagonalization with overlap
     ethr =  1.15E-11,  avg # of iterations =  3.6

     total cpu time spent up to now is      339.6 secs

     End of self-consistent calculation

          k = 0.0000 0.0000 0.0000 ( 21595 PWs)   bands (ev):

   -17.9908 -17.9883 -17.9786 -17.9786 -17.9711 -17.9711 -17.9579 -17.9579
   -17.9579 -17.9576 -17.9576 -17.9576 -11.2390 -10.9253 -10.9252 -10.9252
   -10.7609 -10.7609  -4.8144  -4.8144  -4.8144  -4.7816  -4.7816  -4.7816
    -4.3820  -2.0409  -0.8245  -0.8243  -0.8242   0.6092   0.6092   0.6093
     1.0278   1.0278   1.3416   1.3417   1.3418   1.4573   1.4574   1.4574
     1.8114   1.8114   1.8114   4.1081   4.7596   4.7597   4.7598   6.5272
     7.6226   7.6231   8.0182   8.2686   8.2688

          k = 0.1768-0.1768-0.1768 ( 21719 PWs)   bands (ev):

   -17.9904 -17.9887 -17.9775 -17.9775 -17.9722 -17.9722 -17.9579 -17.9579
   -17.9578 -17.9577 -17.9576 -17.9576 -11.1980 -10.9767 -10.9023 -10.9022
   -10.7862 -10.7861  -4.8053  -4.8052  -4.7939  -4.7818  -4.7818  -4.7709
    -4.1646  -2.7026  -0.6254  -0.6254  -0.1301   0.5725   0.6002   0.6002
     0.7470   0.7470   1.2129   1.2131   1.3916   1.4048   1.4661   1.4661
     1.6849   1.6851   1.7361   3.0133   5.4218   5.4219   5.8329   6.9410
     7.8711   7.8716   8.2219   8.2370   8.2375

          k =-0.3536 0.3536 0.3536 ( 21668 PWs)   bands (ev):

   -17.9896 -17.9896 -17.9749 -17.9749 -17.9749 -17.9749 -17.9578 -17.9578
   -17.9578 -17.9578 -17.9577 -17.9576 -11.0925 -11.0925 -10.8454 -10.8454
   -10.8452 -10.8452  -4.7893  -4.7893  -4.7888  -4.7888  -4.7666  -4.7666
    -3.5619  -3.5619  -0.0757  -0.0757  -0.0735  -0.0735   0.4770   0.4770
     0.9319   0.9319   0.9330   0.9330   1.5398   1.5399   1.5432   1.5432
     1.5643   1.5643   1.8179   1.8179   6.7869   6.7869   6.7952   6.7952
     7.0563   7.0563   7.9480   7.9480   8.5398

          k = 0.0000-0.3536 0.0000 ( 21755 PWs)   bands (ev):

   -17.9904 -17.9888 -17.9786 -17.9761 -17.9736 -17.9711 -17.9579 -17.9578
   -17.9578 -17.9577 -17.9577 -17.9576 -11.1857 -10.9290 -10.9274 -10.9272
   -10.8272 -10.7601  -4.8030  -4.8030  -4.7881  -4.7765  -4.7759  -4.7759
    -4.1165  -2.6975  -0.7801  -0.7798   0.2056   0.2231   0.5157   0.7277
     0.7278   1.0247   1.2657   1.2658   1.2785   1.3975   1.3976   1.5353
     1.5482   1.5529   1.8059   3.3715   5.0150   5.0151   6.5891   7.0575
     7.3891   7.9930   8.0564   8.4644   8.4647

          k =-0.5303 0.1768 0.5303 ( 21709 PWs)   bands (ev):

   -17.9898 -17.9894 -17.9775 -17.9758 -17.9740 -17.9722 -17.9578 -17.9578
   -17.9578 -17.9577 -17.9577 -17.9576 -11.1073 -11.0263 -10.9049 -10.8916
   -10.8565 -10.7846  -4.7924  -4.7870  -4.7802  -4.7775  -4.7686  -4.7673
    -3.7319  -3.2527  -0.5536  -0.4033  -0.3950   0.5005   0.5338   0.5838
     0.8791   0.9917   1.0068   1.1742   1.3256   1.3294   1.3996   1.4097
     1.4493   1.7096   2.0092   2.5846   5.7348   5.9210   6.0925   7.6477
     7.7464   7.9053   8.0902   8.4079   8.5699

          k =-0.3536 0.0000 0.3536 ( 21693 PWs)   bands (ev):

   -17.9900 -17.9892 -17.9774 -17.9749 -17.9749 -17.9724 -17.9579 -17.9578
   -17.9577 -17.9577 -17.9577 -17.9577 -11.1359 -11.0140 -10.9280 -10.8468
   -10.8439 -10.7977  -4.7924  -4.7922  -4.7858  -4.7767  -4.7716  -4.7708
    -3.8434  -3.1690  -0.7250  -0.1330  -0.0044   0.2983   0.4101   0.5621
     0.7647   0.9675   1.0084   1.2171   1.3002   1.3396   1.4781   1.5348
     1.5612   1.6445   1.7135   2.6717   5.2475   6.6172   6.8743   7.0190
     7.1371   7.6627   8.3010   8.3173   8.3182

          k = 0.0000 0.7071 0.0000 ( 21732 PWs)   bands (ev):

   -17.9899 -17.9893 -17.9786 -17.9761 -17.9736 -17.9711 -17.9578 -17.9578
   -17.9578 -17.9578 -17.9576 -17.9576 -11.0974 -10.9328 -10.9294 -10.9293
   -10.9283 -10.7592  -4.7916  -4.7915  -4.7717  -4.7702  -4.7702  -4.7612
    -3.7725  -3.0515  -0.7321  -0.7318  -0.5897   0.4239   0.6967   1.0216
     1.0468   1.0473   1.1016   1.1019   1.1734   1.1737   1.2188   1.3533
     1.3534   1.8003   2.2361   3.1957   5.2592   5.2593   5.6940   7.9350
     8.0903   8.4849   8.4854   8.5733   8.6180

          k = 0.3536 0.7071 0.0000 ( 21692 PWs)   bands (ev):

   -17.9896 -17.9896 -17.9770 -17.9770 -17.9727 -17.9727 -17.9578 -17.9578
   -17.9577 -17.9577 -17.9577 -17.9577 -11.0496 -11.0495 -10.9288 -10.9288
   -10.8098 -10.8098  -4.7817  -4.7817  -4.7809  -4.7809  -4.7657  -4.7657
    -3.4773  -3.4773  -0.6649  -0.6649   0.1141   0.1141   0.5515   0.5515
     1.0306   1.0306   1.1374   1.1374   1.2309   1.2309   1.2966   1.2966
     1.5938   1.5938   2.4920   2.4920   5.4763   5.4763   6.9682   6.9683
     8.2343   8.2343   8.3788   8.3788   8.6824

          k =-0.1768-0.1768 0.1768 ( 21719 PWs)   bands (ev):

   -17.9904 -17.9887 -17.9775 -17.9775 -17.9722 -17.9722 -17.9579 -17.9579
   -17.9578 -17.9577 -17.9576 -17.9576 -11.1980 -10.9767 -10.9023 -10.9022
   -10.7862 -10.7861  -4.8053  -4.8052  -4.7939  -4.7818  -4.7818  -4.7709
    -4.1646  -2.7026  -0.6255  -0.6253  -0.1300   0.5725   0.6002   0.6002
     0.7469   0.7470   1.2130   1.2131   1.3916   1.4047   1.4660   1.4661
     1.6849   1.6850   1.7362   3.0134   5.4218   5.4219   5.8329   6.9410
     7.8712   7.8716   8.2219   8.2370   8.2378

          k = 0.1768 0.1768 0.1768 ( 21719 PWs)   bands (ev):

   -17.9904 -17.9887 -17.9775 -17.9775 -17.9722 -17.9722 -17.9579 -17.9579
   -17.9578 -17.9577 -17.9576 -17.9576 -11.1980 -10.9767 -10.9023 -10.9022
   -10.7862 -10.7861  -4.8053  -4.8052  -4.7939  -4.7818  -4.7818  -4.7709
    -4.1646  -2.7026  -0.6255  -0.6254  -0.1300   0.5726   0.6002   0.6003
     0.7469   0.7470   1.2131   1.2131   1.3916   1.4045   1.4660   1.4661
     1.6848   1.6849   1.7363   3.0135   5.4218   5.4219   5.8329   6.9410
     7.8713   7.8716   8.2219   8.2370   8.2376

          k = 0.1768-0.1768 0.1768 ( 21719 PWs)   bands (ev):

   -17.9904 -17.9887 -17.9775 -17.9775 -17.9722 -17.9722 -17.9579 -17.9579
   -17.9578 -17.9577 -17.9576 -17.9576 -11.1980 -10.9767 -10.9023 -10.9022
   -10.7862 -10.7861  -4.8053  -4.8052  -4.7939  -4.7818  -4.7818  -4.7709
    -4.1646  -2.7026  -0.6255  -0.6253  -0.1300   0.5726   0.6002   0.6002
     0.7469   0.7470   1.2130   1.2131   1.3916   1.4046   1.4660   1.4661
     1.6849   1.6850   1.7362   3.0134   5.4218   5.4219   5.8329   6.9410
     7.8712   7.8716   8.2219   8.2370   8.2379

          k = 0.3536 0.3536-0.3536 ( 21668 PWs)   bands (ev):

   -17.9896 -17.9896 -17.9749 -17.9749 -17.9749 -17.9749 -17.9578 -17.9578
   -17.9578 -17.9578 -17.9577 -17.9576 -11.0925 -11.0925 -10.8454 -10.8454
   -10.8453 -10.8452  -4.7893  -4.7893  -4.7888  -4.7888  -4.7666  -4.7666
    -3.5619  -3.5619  -0.0756  -0.0756  -0.0736  -0.0736   0.4770   0.4770
     0.9319   0.9319   0.9329   0.9330   1.5399   1.5402   1.5429   1.5432
     1.5641   1.5641   1.8180   1.8180   6.7873   6.7874   6.7948   6.7949
     7.0562   7.0563   7.9480   7.9480   8.5399

          k =-0.3536-0.3536-0.3536 ( 21668 PWs)   bands (ev):

   -17.9896 -17.9896 -17.9749 -17.9749 -17.9749 -17.9749 -17.9578 -17.9578
   -17.9578 -17.9578 -17.9577 -17.9576 -11.0925 -11.0925 -10.8454 -10.8454
   -10.8453 -10.8453  -4.7892  -4.7892  -4.7889  -4.7889  -4.7666  -4.7666
    -3.5618  -3.5618  -0.0753  -0.0753  -0.0739  -0.0739   0.4771   0.4771
     0.9321   0.9321   0.9328   0.9328   1.5406   1.5407   1.5425   1.5426
     1.5634   1.5634   1.8185   1.8185   6.7887   6.7887   6.7935   6.7935
     7.0562   7.0562   7.9482   7.9482   8.5397

          k =-0.3536 0.3536-0.3536 ( 21668 PWs)   bands (ev):

   -17.9896 -17.9896 -17.9749 -17.9749 -17.9749 -17.9749 -17.9578 -17.9578
   -17.9578 -17.9578 -17.9577 -17.9576 -11.0925 -11.0925 -10.8454 -10.8454
   -10.8453 -10.8452  -4.7893  -4.7893  -4.7888  -4.7888  -4.7666  -4.7666
    -3.5619  -3.5619  -0.0755  -0.0755  -0.0737  -0.0737   0.4770   0.4770
     0.9320   0.9320   0.9329   0.9329   1.5401   1.5403   1.5428   1.5430
     1.5639   1.5639   1.8182   1.8182   6.7876   6.7877   6.7945   6.7946
     7.0562   7.0562   7.9481   7.9481   8.5397

          k =-0.3536 0.0000 0.0000 ( 21755 PWs)   bands (ev):

   -17.9904 -17.9888 -17.9786 -17.9761 -17.9736 -17.9711 -17.9578 -17.9578
   -17.9578 -17.9577 -17.9577 -17.9576 -11.1857 -10.9291 -10.9272 -10.9272
   -10.8272 -10.7600  -4.8030  -4.8030  -4.7881  -4.7765  -4.7759  -4.7759
    -4.1164  -2.6977  -0.7798  -0.7798   0.2055   0.2232   0.5157   0.7277
     0.7277   1.0247   1.2655   1.2656   1.2787   1.3976   1.3976   1.5388
     1.5483   1.5491   1.8061   3.3713   5.0151   5.0151   6.5895   7.0575
     7.3894   7.9933   8.0555   8.4646   8.4646

          k = 0.0000 0.0000-0.3536 ( 21755 PWs)   bands (ev):

   -17.9904 -17.9888 -17.9786 -17.9761 -17.9736 -17.9711 -17.9579 -17.9578
   -17.9578 -17.9577 -17.9577 -17.9576 -11.1857 -10.9290 -10.9274 -10.9272
   -10.8272 -10.7600  -4.8030  -4.8030  -4.7881  -4.7765  -4.7759  -4.7759
    -4.1165  -2.6976  -0.7801  -0.7798   0.2056   0.2231   0.5157   0.7277
     0.7278   1.0247   1.2657   1.2658   1.2785   1.3975   1.3976   1.5355
     1.5482   1.5527   1.8059   3.3715   5.0150   5.0151   6.5891   7.0575
     7.3891   7.9931   8.0563   8.4644   8.4646

          k = 0.5303 0.1768-0.5303 ( 21709 PWs)   bands (ev):

   -17.9898 -17.9894 -17.9775 -17.9758 -17.9740 -17.9722 -17.9578 -17.9578
   -17.9578 -17.9577 -17.9577 -17.9576 -11.1073 -11.0263 -10.9049 -10.8916
   -10.8565 -10.7846  -4.7924  -4.7870  -4.7802  -4.7775  -4.7687  -4.7673
    -3.7319  -3.2527  -0.5536  -0.4033  -0.3950   0.5005   0.5338   0.5838
     0.8791   0.9917   1.0068   1.1742   1.3255   1.3294   1.3996   1.4097
     1.4493   1.7096   2.0093   2.5846   5.7348   5.9210   6.0925   7.6477
     7.7464   7.9052   8.0902   8.4079   8.5700

          k =-0.5303-0.1768-0.5303 ( 21709 PWs)   bands (ev):

   -17.9898 -17.9894 -17.9775 -17.9758 -17.9740 -17.9722 -17.9578 -17.9578
   -17.9578 -17.9577 -17.9577 -17.9576 -11.1073 -11.0263 -10.9050 -10.8916
   -10.8565 -10.7846  -4.7924  -4.7870  -4.7802  -4.7775  -4.7687  -4.7673
    -3.7319  -3.2527  -0.5537  -0.4031  -0.3951   0.5005   0.5338   0.5838
     0.8790   0.9917   1.0068   1.1743   1.3258   1.3289   1.3997   1.4097
     1.4493   1.7096   2.0093   2.5847   5.7347   5.9212   6.0925   7.6477
     7.7464   7.9054   8.0902   8.4080   8.5699

          k = 0.1768-0.5303-0.5303 ( 21709 PWs)   bands (ev):

   -17.9898 -17.9894 -17.9775 -17.9758 -17.9740 -17.9722 -17.9578 -17.9578
   -17.9578 -17.9577 -17.9577 -17.9576 -11.1073 -11.0263 -10.9049 -10.8917
   -10.8565 -10.7846  -4.7924  -4.7870  -4.7802  -4.7775  -4.7686  -4.7673
    -3.7318  -3.2529  -0.5536  -0.4033  -0.3951   0.5006   0.5338   0.5839
     0.8790   0.9916   1.0067   1.1743   1.3260   1.3289   1.3997   1.4099
     1.4492   1.7093   2.0097   2.5845   5.7347   5.9211   6.0926   7.6482
     7.7462   7.9051   8.0899   8.4075   8.5696

          k =-0.1768 0.5303-0.5303 ( 21709 PWs)   bands (ev):

   -17.9898 -17.9894 -17.9775 -17.9758 -17.9740 -17.9722 -17.9578 -17.9578
   -17.9578 -17.9577 -17.9577 -17.9577 -11.1073 -11.0263 -10.9049 -10.8917
   -10.8565 -10.7846  -4.7924  -4.7870  -4.7802  -4.7775  -4.7686  -4.7673
    -3.7318  -3.2529  -0.5535  -0.4033  -0.3951   0.5006   0.5338   0.5839
     0.8790   0.9916   1.0067   1.1743   1.3258   1.3289   1.3997   1.4100
     1.4492   1.7092   2.0098   2.5846   5.7347   5.9211   6.0926   7.6482
     7.7463   7.9050   8.0899   8.4078   8.5692

          k = 0.1768 0.5303 0.5303 ( 21709 PWs)   bands (ev):

   -17.9898 -17.9894 -17.9775 -17.9758 -17.9740 -17.9722 -17.9578 -17.9578
   -17.9578 -17.9577 -17.9577 -17.9577 -11.1073 -11.0263 -10.9049 -10.8917
   -10.8565 -10.7846  -4.7924  -4.7870  -4.7802  -4.7775  -4.7686  -4.7673
    -3.7318  -3.2529  -0.5535  -0.4033  -0.3951   0.5006   0.5338   0.5839
     0.8790   0.9916   1.0067   1.1743   1.3257   1.3288   1.3997   1.4100
     1.4492   1.7091   2.0098   2.5846   5.7347   5.9212   6.0926   7.6482
     7.7463   7.9050   8.0900   8.4080   8.5696

          k =-0.1768-0.5303 0.5303 ( 21709 PWs)   bands (ev):

   -17.9898 -17.9894 -17.9775 -17.9758 -17.9740 -17.9722 -17.9578 -17.9578
   -17.9578 -17.9577 -17.9577 -17.9577 -11.1073 -11.0263 -10.9049 -10.8917
   -10.8565 -10.7846  -4.7924  -4.7870  -4.7802  -4.7775  -4.7686  -4.7673
    -3.7318  -3.2529  -0.5535  -0.4033  -0.3951   0.5006   0.5338   0.5839
     0.8790   0.9916   1.0067   1.1743   1.3258   1.3290   1.3997   1.4100
     1.4492   1.7092   2.0098   2.5846   5.7347   5.9211   6.0926   7.6482
     7.7462   7.9050   8.0899   8.4077   8.5695

          k =-0.5303 0.1768-0.5303 ( 21709 PWs)   bands (ev):

   -17.9898 -17.9894 -17.9775 -17.9758 -17.9740 -17.9722 -17.9578 -17.9578
   -17.9578 -17.9577 -17.9577 -17.9576 -11.1073 -11.0263 -10.9050 -10.8916
   -10.8565 -10.7846  -4.7924  -4.7870  -4.7802  -4.7775  -4.7686  -4.7673
    -3.7319  -3.2527  -0.5537  -0.4031  -0.3951   0.5005   0.5338   0.5838
     0.8790   0.9917   1.0068   1.1743   1.3259   1.3290   1.3997   1.4097
     1.4493   1.7096   2.0093   2.5847   5.7347   5.9211   6.0925   7.6477
     7.7464   7.9055   8.0902   8.4078   8.4934

          k = 0.5303 0.5303 0.1768 ( 21709 PWs)   bands (ev):

   -17.9898 -17.9894 -17.9775 -17.9758 -17.9740 -17.9722 -17.9578 -17.9578
   -17.9578 -17.9577 -17.9577 -17.9576 -11.1073 -11.0263 -10.9049 -10.8916
   -10.8565 -10.7846  -4.7924  -4.7870  -4.7802  -4.7775  -4.7686  -4.7673
    -3.7319  -3.2527  -0.5537  -0.4032  -0.3951   0.5005   0.5338   0.5838
     0.8790   0.9917   1.0068   1.1743   1.3257   1.3290   1.3997   1.4097
     1.4493   1.7095   2.0094   2.5847   5.7347   5.9211   6.0925   7.6477
     7.7464   7.9054   8.0903   8.4080   8.5698

          k = 0.5303-0.5303-0.1768 ( 21709 PWs)   bands (ev):

   -17.9898 -17.9894 -17.9775 -17.9758 -17.9740 -17.9722 -17.9578 -17.9578
   -17.9578 -17.9577 -17.9577 -17.9576 -11.1073 -11.0263 -10.9049 -10.8916
   -10.8565 -10.7846  -4.7924  -4.7870  -4.7802  -4.7775  -4.7686  -4.7673
    -3.7319  -3.2527  -0.5536  -0.4033  -0.3950   0.5005   0.5338   0.5838
     0.8790   0.9917   1.0068   1.1742   1.3257   1.3293   1.3996   1.4097
     1.4493   1.7096   2.0093   2.5846   5.7347   5.9210   6.0925   7.6477
     7.7464   7.9053   8.0901   8.4077   8.5700

          k =-0.5303 0.5303-0.1768 ( 21709 PWs)   bands (ev):

   -17.9898 -17.9894 -17.9775 -17.9758 -17.9740 -17.9722 -17.9578 -17.9578
   -17.9578 -17.9577 -17.9577 -17.9576 -11.1073 -11.0263 -10.9049 -10.8916
   -10.8565 -10.7846  -4.7924  -4.7870  -4.7802  -4.7775  -4.7686  -4.7673
    -3.7319  -3.2527  -0.5536  -0.4033  -0.3950   0.5005   0.5338   0.5838
     0.8791   0.9917   1.0068   1.1743   1.3256   1.3293   1.3996   1.4097
     1.4493   1.7096   2.0093   2.5846   5.7348   5.9211   6.0925   7.6477
     7.7465   7.9052   8.0902   8.4079   8.5699

          k =-0.5303-0.5303 0.1768 ( 21709 PWs)   bands (ev):

   -17.9898 -17.9894 -17.9775 -17.9758 -17.9740 -17.9722 -17.9578 -17.9578
   -17.9578 -17.9577 -17.9577 -17.9576 -11.1073 -11.0263 -10.9049 -10.8916
   -10.8565 -10.7846  -4.7924  -4.7870  -4.7802  -4.7775  -4.7686  -4.7673
    -3.7319  -3.2527  -0.5537  -0.4032  -0.3951   0.5005   0.5338   0.5838
     0.8790   0.9917   1.0068   1.1743   1.3259   1.3291   1.3997   1.4097
     1.4493   1.7096   2.0093   2.5847   5.7347   5.9211   6.0925   7.6477
     7.7464   7.9054   8.0901   8.4077   8.4934

          k =-0.3536 0.0000-0.3536 ( 21693 PWs)   bands (ev):

   -17.9900 -17.9892 -17.9774 -17.9749 -17.9749 -17.9724 -17.9578 -17.9578
   -17.9577 -17.9577 -17.9577 -17.9577 -11.1359 -11.0140 -10.9280 -10.8468
   -10.8439 -10.7977  -4.7924  -4.7922  -4.7858  -4.7767  -4.7716  -4.7708
    -3.8434  -3.1690  -0.7250  -0.1330  -0.0044   0.2983   0.4101   0.5621
     0.7648   0.9675   1.0084   1.2171   1.3002   1.3394   1.4783   1.5347
     1.5612   1.6433   1.7145   2.6718   5.2475   6.6173   6.8742   7.0191
     7.1370   7.6629   8.3053   8.3142   8.3172

          k = 0.0000-0.3536-0.3536 ( 21693 PWs)   bands (ev):

   -17.9900 -17.9892 -17.9774 -17.9749 -17.9749 -17.9724 -17.9578 -17.9578
   -17.9577 -17.9577 -17.9577 -17.9577 -11.1359 -11.0139 -10.9281 -10.8468
   -10.8438 -10.7978  -4.7923  -4.7923  -4.7859  -4.7767  -4.7716  -4.7708
    -3.8435  -3.1688  -0.7253  -0.1330  -0.0044   0.2984   0.4102   0.5621
     0.7647   0.9677   1.0084   1.2170   1.3001   1.3396   1.4784   1.5345
     1.5611   1.6446   1.7133   2.6721   5.2474   6.6170   6.8740   7.0189
     7.1369   7.6629   8.3089   8.3106   8.3177

          k = 0.0000 0.3536-0.3536 ( 21693 PWs)   bands (ev):

   -17.9900 -17.9892 -17.9774 -17.9749 -17.9749 -17.9724 -17.9578 -17.9578
   -17.9577 -17.9577 -17.9577 -17.9577 -11.1359 -11.0139 -10.9281 -10.8468
   -10.8438 -10.7978  -4.7923  -4.7923  -4.7859  -4.7767  -4.7716  -4.7708
    -3.8435  -3.1688  -0.7253  -0.1330  -0.0044   0.2984   0.4101   0.5621
     0.7647   0.9677   1.0084   1.2170   1.3001   1.3396   1.4783   1.5345
     1.5611   1.6449   1.7131   2.6721   5.2474   6.6169   6.8740   7.0189
     7.1369   7.6628   8.3064   8.3134   8.3177

          k = 0.3536 0.3536 0.0000 ( 21693 PWs)   bands (ev):

   -17.9900 -17.9892 -17.9774 -17.9749 -17.9749 -17.9724 -17.9578 -17.9578
   -17.9577 -17.9577 -17.9577 -17.9577 -11.1359 -11.0140 -10.9280 -10.8468
   -10.8439 -10.7977  -4.7924  -4.7922  -4.7858  -4.7767  -4.7716  -4.7708
    -3.8434  -3.1690  -0.7250  -0.1330  -0.0044   0.2983   0.4101   0.5621
     0.7648   0.9675   1.0084   1.2171   1.3002   1.3395   1.4783   1.5347
     1.5612   1.6436   1.7142   2.6718   5.2475   6.6173   6.8742   7.0190
     7.1370   7.6629   8.3045   8.3147   8.3172

          k = 0.3536-0.3536 0.0000 ( 21693 PWs)   bands (ev):

   -17.9900 -17.9892 -17.9774 -17.9749 -17.9749 -17.9724 -17.9579 -17.9578
   -17.9577 -17.9577 -17.9577 -17.9577 -11.1359 -11.0140 -10.9280 -10.8468
   -10.8439 -10.7977  -4.7924  -4.7922  -4.7858  -4.7767  -4.7716  -4.7708
    -3.8434  -3.1690  -0.7250  -0.1330  -0.0044   0.2983   0.4101   0.5621
     0.7647   0.9675   1.0084   1.2171   1.3002   1.3396   1.4781   1.5348
     1.5612   1.6443   1.7136   2.6718   5.2475   6.6172   6.8743   7.0190
     7.1371   7.6627   8.3017   8.3173   8.3174

          k = 0.7071 0.0000 0.0000 ( 21732 PWs)   bands (ev):

   -17.9899 -17.9893 -17.9786 -17.9761 -17.9736 -17.9711 -17.9578 -17.9578
   -17.9578 -17.9578 -17.9576 -17.9576 -11.0974 -10.9329 -10.9293 -10.9292
   -10.9284 -10.7591  -4.7916  -4.7916  -4.7717  -4.7702  -4.7702  -4.7612
    -3.7722  -3.0518  -0.7318  -0.7318  -0.5900   0.4240   0.6968   1.0217
     1.0471   1.0471   1.1015   1.1015   1.1735   1.1735   1.2186   1.3535
     1.3535   1.8000   2.2367   3.1955   5.2594   5.2594   5.6939   7.9345
     8.0910   8.4849   8.4850   8.5736   8.6173

          k = 0.0000 0.0000 0.7071 ( 21732 PWs)   bands (ev):

   -17.9899 -17.9893 -17.9786 -17.9761 -17.9736 -17.9711 -17.9578 -17.9578
   -17.9578 -17.9578 -17.9576 -17.9576 -11.0974 -10.9328 -10.9294 -10.9293
   -10.9283 -10.7592  -4.7916  -4.7915  -4.7717  -4.7702  -4.7702  -4.7612
    -3.7725  -3.0515  -0.7321  -0.7318  -0.5897   0.4239   0.6968   1.0216
     1.0468   1.0473   1.1016   1.1019   1.1734   1.1737   1.2188   1.3533
     1.3534   1.8003   2.2361   3.1957   5.2592   5.2593   5.6940   7.9349
     8.0904   8.4849   8.4854   8.5742   8.6180

          k = 0.7071 0.3536 0.0000 ( 21692 PWs)   bands (ev):

   -17.9896 -17.9896 -17.9770 -17.9770 -17.9727 -17.9727 -17.9578 -17.9578
   -17.9577 -17.9577 -17.9577 -17.9577 -11.0495 -11.0495 -10.9289 -10.9288
   -10.8098 -10.8097  -4.7817  -4.7817  -4.7810  -4.7809  -4.7657  -4.7657
    -3.4773  -3.4771  -0.6652  -0.6649   0.1140   0.1141   0.5515   0.5516
     1.0305   1.0307   1.1371   1.1372   1.2310   1.2311   1.2966   1.2967
     1.5937   1.5938   2.4920   2.4924   5.4763   5.4763   6.9679   6.9679
     8.2344   8.2349   8.3784   8.3788   8.6825

          k = 0.0000-0.7071 0.3536 ( 21692 PWs)   bands (ev):

   -17.9896 -17.9896 -17.9770 -17.9770 -17.9727 -17.9727 -17.9578 -17.9578
   -17.9577 -17.9577 -17.9577 -17.9577 -11.0496 -11.0495 -10.9289 -10.9288
   -10.8098 -10.8097  -4.7817  -4.7817  -4.7810  -4.7809  -4.7657  -4.7657
    -3.4774  -3.4771  -0.6652  -0.6649   0.1140   0.1141   0.5515   0.5516
     1.0305   1.0307   1.1371   1.1373   1.2309   1.2311   1.2966   1.2967
     1.5937   1.5938   2.4920   2.4924   5.4763   5.4763   6.9679   6.9679
     8.2343   8.2349   8.3786   8.3788   8.6824

     the Fermi energy is     4.4350 ev

!    total energy              =    -734.60978822 Ry
     estimated scf accuracy    <          2.4E-10 Ry
     smearing contrib. (-TS)   =       0.00000000 Ry
     internal energy E=F+TS    =    -734.60978822 Ry

     The total energy is F=E-TS. E is the sum of the following terms:
     one-electron contribution =    -254.03552133 Ry
     hartree contribution      =     164.52262591 Ry
     xc contribution           =    -312.40513273 Ry
     ewald contribution        =    -332.69176007 Ry

     convergence has been achieved in  10 iterations

     Forces acting on atoms (cartesian axes, Ry/au):

     atom    1 type  1   force =     0.00000007    0.00000005   -0.00000009
     atom    2 type  1   force =    -0.00000007   -0.00000005    0.00000009
     atom    3 type  2   force =     0.00000000    0.00000000    0.00000000
     atom    4 type  2   force =     0.00000000    0.00000000    0.00000000
     atom    5 type  3   force =     0.00000022    0.00004066   -0.00002633
     atom    6 type  3   force =    -0.00000022   -0.00004066    0.00002633
     atom    7 type  3   force =     0.00004036   -0.00000023   -0.00012336
     atom    8 type  3   force =    -0.00004036    0.00000023    0.00012336
     atom    9 type  3   force =    -0.00002627    0.00012354   -0.00000022
     atom   10 type  3   force =     0.00002627   -0.00012354    0.00000022

     Total force =     0.000265     Total SCF correction =     0.000008
     Message from routine punch:
     Nothing written, as per user request (disk_io='none')

     init_run     :     14.13s CPU     15.54s WALL (       1 calls)
     electrons    :    304.50s CPU    322.74s WALL (       1 calls)
     forces       :      5.00s CPU      6.13s WALL (       1 calls)

     Called by init_run:
     wfcinit      :      8.16s CPU      8.53s WALL (       1 calls)
     potinit      :      2.21s CPU      2.60s WALL (       1 calls)
     hinit0       :      2.53s CPU      2.65s WALL (       1 calls)

     Called by electrons:
     c_bands      :    230.99s CPU    235.51s WALL (      11 calls)
     sum_band     :     49.45s CPU     55.57s WALL (      11 calls)
     v_of_rho     :     13.88s CPU     16.49s WALL (      11 calls)
     newd         :      9.33s CPU     15.05s WALL (      11 calls)
     mix_rho      :      1.06s CPU      1.06s WALL (      11 calls)

     Called by c_bands:
     init_us_2    :      7.95s CPU      8.02s WALL (     120 calls)
     cegterg      :    201.57s CPU    206.05s WALL (      55 calls)

     Called by *egterg:
     cdiaghg      :      0.77s CPU      0.78s WALL (     268 calls)
     h_psi        :    169.77s CPU    171.83s WALL (     278 calls)
     s_psi        :     10.13s CPU     10.13s WALL (     278 calls)
     g_psi        :      0.73s CPU      0.73s WALL (     218 calls)

     Called by h_psi:
     h_psi:calbec :     10.92s CPU     10.92s WALL (     278 calls)
     vloc_psi     :    148.02s CPU    148.22s WALL (     278 calls)
                                        0.00s GPU  (     278 calls)
     add_vuspsi   :     10.05s CPU     10.06s WALL (     278 calls)

     General routines
     calbec       :     15.56s CPU     15.57s WALL (     353 calls)
     fft          :      8.24s CPU      8.28s WALL (     153 calls)
     ffts         :      0.75s CPU      0.76s WALL (      22 calls)
     fftw         :    124.91s CPU    125.03s WALL (   18619 calls)
     interpolate  :      1.39s CPU      1.42s WALL (      11 calls)

     Parallel routines

     PWSCF        :   5m25.13s CPU   5m46.02s WALL


   This run was terminated on:   8:26:35  27Sep2026            

=------------------------------------------------------------------------------=
   JOB DONE.
=------------------------------------------------------------------------------=
