
     Program PWSCF v.7.5 starts on  5Oct2026 at  3: 1:22 

     This program is part of the open-source Quantum ESPRESSO suite
     for quantum simulation of materials; please cite
         "P. Giannozzi et al., J. Phys.:Condens. Matter 21 395502 (2009);
         "P. Giannozzi et al., J. Phys.:Condens. Matter 29 465901 (2017);
         "P. Giannozzi et al., J. Chem. Phys. 152 154105 (2020);
          URL http://www.quantum-espresso.org", 
     in publications or presentations arising from this work. More details at
     http://www.quantum-espresso.org/quote

     Parallel version (MPI & OpenMP), running on       8 processor cores
     Number of MPI processes:                 8
     Threads/MPI process:                     1

     MPI processes distributed on     1 nodes
     109579 MiB available memory on the printing compute node when the environment starts

     Reading input from pw.in

     Current dimensions of program PWSCF are:
     Max number of different atomic species (ntypx) = 10
     Max number of k-points (npk) =  40000
     Max angular momentum in pseudopotentials (lmaxx) =  4

     IMPORTANT: XC functional enforced from input :
     Exchange-correlation= PBESOL
                           (   1   4  10   8   0   0   0)
     Any further DFT definition will be discarded
     Please, verify this is what you really want

     Message from routine setup:
     using ibrav=0 with symmetry is DISCOURAGED, use correct ibrav instead

     K-points division:     npool     =       2
     R & G space division:  proc/nbgrp/npool/nimage =       4
     Subspace diagonalization in iterative solution of the eigenvalue problem:
     a serial algorithm will be used


     Parallelization info
     --------------------
     sticks:   dense  smooth     PW     G-vecs:    dense   smooth      PW
     Min        2365    1179    326               122697    43390    6246
     Max        2367    1183    327               122698    43391    6249
     Sum        9465    4725   1305               490789   173563   24989

     Using Slab Decomposition



     bravais-lattice index     =            0
     lattice parameter (alat)  =      15.7535  a.u.
     unit-cell volume          =    2764.4861 (a.u.)^3
     number of atoms/cell      =           10
     number of atomic types    =            3
     number of electrons       =        88.00
     number of Kohn-Sham states=           53
     kinetic-energy cutoff     =      60.0000  Ry
     charge density cutoff     =     480.0000  Ry
     scf convergence threshold =      1.0E-09
     mixing beta               =       0.4000
     number of iterations used =            8  plain     mixing
     Exchange-correlation= PBESOL
                           (   1   4  10   8   0   0   0)

     celldm(1)=  15.753479  celldm(2)=   0.000000  celldm(3)=   0.000000
     celldm(4)=   0.000000  celldm(5)=   0.000000  celldm(6)=   0.000000

     crystal axes: (cart. coord. in units of alat)
               a(1) = (   0.707107  -0.707107  -0.000000 )  
               a(2) = (   0.707107   0.707107   0.000000 )  
               a(3) = (   0.000000   0.000000   0.707107 )  

     reciprocal axes: (cart. coord. in units 2 pi/alat)
               b(1) = (  0.707107 -0.707107  0.000000 )  
               b(2) = (  0.707107  0.707107 -0.000000 )  
               b(3) = (  0.000000 -0.000000  1.414214 )  


     PseudoPot. # 1 for Cs read from file:
     /root/sssp/Cs_pbe_v1.uspp.F.UPF
     MD5 check sum: 3476d69cb178dfad3ffaa59df4e07ca4
     Pseudo is Ultrasoft + core correction, Zval =  9.0
     Generated by new atomic code, or converted to UPF format
     Using radial grid of  905 points,  6 beta functions with: 
                l(1) =   0
                l(2) =   0
                l(3) =   1
                l(4) =   1
                l(5) =   2
                l(6) =   2
     Q(r) pseudized with  6 coefficients,  rinner =    1.500   1.500   1.500
                                                       1.500   1.500

     PseudoPot. # 2 for Sn read from file:
     /root/sssp/Sn_pbe_v1.uspp.F.UPF
     MD5 check sum: 4cf58ce39ec5d5d420df3dd08604eb00
     Pseudo is Ultrasoft + core correction, Zval = 14.0
     Generated by new atomic code, or converted to UPF format
     Using radial grid of  891 points,  6 beta functions with: 
                l(1) =   0
                l(2) =   0
                l(3) =   1
                l(4) =   1
                l(5) =   2
                l(6) =   2
     Q(r) pseudized with  6 coefficients,  rinner =    1.200   1.200   1.200
                                                       1.200   1.200

     PseudoPot. # 3 for Br read from file:
     /root/sssp/br_pbe_v1.4.uspp.F.UPF
     MD5 check sum: d3ffb7b29f6225aa16fe06858fb2a80b
     Pseudo is Ultrasoft + core correction, Zval =  7.0
     Generated by new atomic code, or converted to UPF format
     Using radial grid of  879 points,  6 beta functions with: 
                l(1) =   0
                l(2) =   0
                l(3) =   1
                l(4) =   1
                l(5) =   2
                l(6) =   2
     Q(r) pseudized with  8 coefficients,  rinner =    1.100   1.100   1.100
                                                       1.100   1.100

     atomic species   valence    mass     pseudopotential
     Cs                9.00   132.90550     Cs( 1.00)
     Sn               14.00   118.71000     Sn( 1.00)
     Br                7.00    79.90400     Br( 1.00)

     16 Sym. Ops., with inversion, found ( 8 have fractional translation)



   Cartesian axes

     site n.     atom                  positions (alat units)
         1        Cs     tau(   1) = (   0.7071068   0.0000000  -0.0000000  )
         2        Cs     tau(   2) = (   0.0000000   0.0000000   0.0000000  )
         3        Sn     tau(   3) = (   0.3535534   0.3535534   0.3535534  )
         4        Sn     tau(   4) = (   0.3535534  -0.3535534   0.3535534  )
         5        Br     tau(   5) = (   0.7071068   0.3775446   0.3535534  )
         6        Br     tau(   6) = (   0.7071068  -0.3775446   0.3535534  )
         7        Br     tau(   7) = (   0.3775446  -0.0000000   0.3535534  )
         8        Br     tau(   8) = (   1.0366689   0.0000000   0.3535534  )
         9        Br     tau(   9) = (   0.3535534   0.3535534   0.7071068  )
        10        Br     tau(  10) = (   0.3535534  -0.3535534   0.7071068  )

     number of k points=    18  Marzari-Vanderbilt smearing, width (Ry)=  0.0050
                       cart. coord. in units 2pi/alat
        k(    1) = (   0.0000000   0.0000000   0.0000000), wk =   0.0250000
        k(    2) = (   0.0000000   0.0000000   0.2828427), wk =   0.0500000
        k(    3) = (   0.0000000   0.0000000   0.5656854), wk =   0.0500000
        k(    4) = (   0.1767767   0.1767767   0.0000000), wk =   0.1000000
        k(    5) = (   0.1767767   0.1767767   0.2828427), wk =   0.2000000
        k(    6) = (   0.1767767   0.1767767   0.5656854), wk =   0.2000000
        k(    7) = (  -0.3535534  -0.3535534   0.0000000), wk =   0.0500000
        k(    8) = (  -0.3535534  -0.3535534   0.2828427), wk =   0.1000000
        k(    9) = (  -0.3535534  -0.3535534   0.5656854), wk =   0.1000000
        k(   10) = (   0.3535534   0.0000000   0.0000000), wk =   0.1000000
        k(   11) = (   0.3535534   0.0000000   0.2828427), wk =   0.2000000
        k(   12) = (   0.3535534   0.0000000   0.5656854), wk =   0.2000000
        k(   13) = (  -0.1767767  -0.5303301   0.0000000), wk =   0.1000000
        k(   14) = (  -0.1767767  -0.5303301   0.2828427), wk =   0.2000000
        k(   15) = (  -0.1767767  -0.5303301   0.5656854), wk =   0.2000000
        k(   16) = (  -0.7071068   0.0000000   0.0000000), wk =   0.0250000
        k(   17) = (  -0.7071068   0.0000000   0.2828427), wk =   0.0500000
        k(   18) = (  -0.7071068   0.0000000   0.5656854), wk =   0.0500000

     Dense  grid:   490789 G-vectors     FFT dimensions: ( 120, 120,  80)

     Smooth grid:   173563 G-vectors     FFT dimensions: (  80,  80,  60)

     Estimated max dynamical RAM per process >     331.76 MB

     Estimated total dynamical RAM >       2.47 GB

     Initial potential from superposition of free atoms

     starting charge      85.9210, renormalised to      88.0000
     Starting wfcs are   68 randomized atomic wfcs

     total cpu time spent up to now is       12.2 secs

     per-process dynamical memory:   143.4 Mb

     Self-consistent Calculation

     iteration #  1     ecut=    60.00 Ry     beta= 0.40
     Davidson diagonalization with overlap
     ethr =  1.00E-02,  avg # of iterations =  2.8

     Threshold (ethr) on eigenvalues was too large:
     Diagonalizing with lowered threshold

     Davidson diagonalization with overlap
     ethr =  4.89E-04,  avg # of iterations =  3.2

     total cpu time spent up to now is       58.6 secs

     total energy              =    -731.33908762 Ry
     estimated scf accuracy    <       0.41403639 Ry

     iteration #  2     ecut=    60.00 Ry     beta= 0.40
     Davidson diagonalization with overlap
     ethr =  4.70E-04,  avg # of iterations =  2.0

     total cpu time spent up to now is       82.5 secs

     total energy              =    -731.38325088 Ry
     estimated scf accuracy    <       0.03885756 Ry

     iteration #  3     ecut=    60.00 Ry     beta= 0.40
     Davidson diagonalization with overlap
     ethr =  4.42E-05,  avg # of iterations =  6.8

     total cpu time spent up to now is      112.3 secs

     total energy              =    -731.38720964 Ry
     estimated scf accuracy    <       0.00520995 Ry

     iteration #  4     ecut=    60.00 Ry     beta= 0.40
     Davidson diagonalization with overlap
     ethr =  5.92E-06,  avg # of iterations =  6.1

     total cpu time spent up to now is      133.9 secs

     total energy              =    -731.38777151 Ry
     estimated scf accuracy    <       0.00051025 Ry

     iteration #  5     ecut=    60.00 Ry     beta= 0.40
     Davidson diagonalization with overlap
     ethr =  5.80E-07,  avg # of iterations =  5.6

     total cpu time spent up to now is      159.5 secs

     total energy              =    -731.38784056 Ry
     estimated scf accuracy    <       0.00001148 Ry

     iteration #  6     ecut=    60.00 Ry     beta= 0.40
     Davidson diagonalization with overlap
     ethr =  1.30E-08,  avg # of iterations =  5.2

     total cpu time spent up to now is      189.1 secs

     total energy              =    -731.38785211 Ry
     estimated scf accuracy    <       0.00000116 Ry

     iteration #  7     ecut=    60.00 Ry     beta= 0.40
     Davidson diagonalization with overlap
     ethr =  1.32E-09,  avg # of iterations =  2.4

     total cpu time spent up to now is      213.6 secs

     total energy              =    -731.38785362 Ry
     estimated scf accuracy    <       0.00000024 Ry

     iteration #  8     ecut=    60.00 Ry     beta= 0.40
     Davidson diagonalization with overlap
     ethr =  2.75E-10,  avg # of iterations =  2.2

     total cpu time spent up to now is      237.6 secs

     total energy              =    -731.38785405 Ry
     estimated scf accuracy    <       0.00000004 Ry

     iteration #  9     ecut=    60.00 Ry     beta= 0.40
     Davidson diagonalization with overlap
     ethr =  3.98E-11,  avg # of iterations =  4.1

     total cpu time spent up to now is      264.3 secs

     End of self-consistent calculation

          k = 0.0000 0.0000 0.0000 ( 21707 PWs)   bands (ev):

   -18.0188 -18.0171 -17.9735 -17.9700 -17.9674 -17.9659 -17.9507 -17.9505
   -17.9473 -17.9473 -17.9471 -17.9471 -11.3619 -11.0685 -11.0465 -11.0465
   -10.8895 -10.8799  -4.8242  -4.8242  -4.8090  -4.8059  -4.8059  -4.7873
    -3.9171  -2.2358  -0.9664  -0.9434  -0.9434  -0.7369   0.3088   0.9120
     0.9127   0.9127   0.9893   0.9893   1.2421   1.2421   1.2435   1.3555
     1.3596   1.3596   1.6946   3.0360   5.0749   5.0749   6.3281   7.4566
     7.4926   7.9183   8.7644   8.7646   8.8194

          k = 0.0000 0.0000 0.2828 ( 21691 PWs)   bands (ev):

   -18.0185 -18.0168 -17.9736 -17.9682 -17.9659 -17.9656 -17.9507 -17.9505
   -17.9474 -17.9474 -17.9472 -17.9472 -11.3264 -11.0660 -11.0450 -11.0450
   -10.9343 -10.8796  -4.8302  -4.8302  -4.8060  -4.8049  -4.8049  -4.8046
    -4.1688  -2.7374  -0.9128  -0.9128  -0.1779  -0.1770   0.3758   0.6608
     0.6608   0.9143   1.1786   1.1786   1.1956   1.3003   1.3003   1.3588
     1.3588   1.3615   1.7120   3.1378   4.9023   4.9023   6.7009   6.8273
     7.6028   7.7417   7.7870   8.2135   8.2136

          k = 0.0000 0.0000 0.5657 ( 21748 PWs)   bands (ev):

   -18.0179 -18.0163 -17.9736 -17.9659 -17.9652 -17.9626 -17.9508 -17.9505
   -17.9475 -17.9475 -17.9473 -17.9473 -11.2397 -11.0620 -11.0426 -11.0426
   -11.0360 -10.8790  -4.8431  -4.8431  -4.8356  -4.7999  -4.7999  -4.7977
    -4.4860  -3.1777  -0.8595  -0.8595   0.4871   0.5160   0.5160   0.5263
     0.7475   0.9181   1.0760   1.0760   1.1207   1.2574   1.2574   1.6594
     1.6594   1.6651   1.9360   3.6123   4.6117   4.6117   5.1029   5.8527
     7.5514   7.8544   8.2470   8.2582   8.2583

          k = 0.1768 0.1768 0.0000 ( 21735 PWs)   bands (ev):

   -18.0186 -18.0174 -17.9724 -17.9696 -17.9678 -17.9671 -17.9506 -17.9505
   -17.9473 -17.9473 -17.9472 -17.9472 -11.3346 -11.1593 -11.0229 -10.9769
   -10.9052 -10.8980  -4.8215  -4.8183  -4.8055  -4.8037  -4.8004  -4.7901
    -3.7621  -2.6910  -0.9412  -0.7809  -0.7606  -0.4097   0.3682   0.3967
     0.8621   1.0236   1.0534   1.1234   1.1554   1.2049   1.2493   1.3120
     1.3243   1.3744   1.6156   2.4191   5.6043   5.7892   6.6243   7.6475
     7.6777   7.9802   8.0921   8.0945   8.1444

          k = 0.1768 0.1768 0.2828 ( 21687 PWs)   bands (ev):

   -18.0182 -18.0170 -17.9724 -17.9678 -17.9671 -17.9660 -17.9507 -17.9505
   -17.9473 -17.9473 -17.9472 -17.9472 -11.3005 -11.1412 -11.0216 -10.9932
   -10.9397 -10.9046  -4.8268  -4.8232  -4.8094  -4.8078  -4.8014  -4.7951
    -4.0217  -3.0672  -0.7269  -0.6407  -0.2377  -0.0332   0.4080   0.4209
     0.6842   0.8052   1.0279   1.0814   1.2725   1.2998   1.3479   1.3771
     1.3864   1.3998   1.6327   2.4815   5.4453   5.6365   6.9122   6.9178
     7.4586   7.7313   7.9142   7.9918   8.0011

          k = 0.1768 0.1768 0.5657 ( 21726 PWs)   bands (ev):

   -18.0177 -18.0165 -17.9725 -17.9671 -17.9648 -17.9630 -17.9507 -17.9505
   -17.9474 -17.9474 -17.9473 -17.9473 -11.2163 -11.0943 -11.0372 -11.0362
   -11.0194 -10.9038  -4.8367  -4.8339  -4.8245  -4.8061  -4.8055  -4.7954
    -4.3435  -3.4559  -0.6676  -0.5120   0.4604   0.4789   0.4932   0.5202
     0.6149   0.6736   0.8643   1.0802   1.2063   1.3028   1.3383   1.5691
     1.5898   1.6401   2.0087   2.9442   5.0885   5.1965   5.5615   5.7282
     7.6038   7.6735   7.8869   7.9812   8.4957

          k =-0.3536-0.3536 0.0000 ( 21674 PWs)   bands (ev):

   -18.0179 -18.0179 -17.9698 -17.9698 -17.9687 -17.9687 -17.9506 -17.9506
   -17.9472 -17.9472 -17.9472 -17.9472 -11.2602 -11.2602 -10.9649 -10.9649
   -10.9255 -10.9255  -4.8174  -4.8174  -4.7975  -4.7975  -4.7964  -4.7964
    -3.3236  -3.3236  -0.8701  -0.8701  -0.2598  -0.2598   0.2707   0.2707
     0.8919   0.8919   1.1074   1.1074   1.1974   1.1974   1.2282   1.2282
     1.4361   1.4361   1.6234   1.6234   6.7960   6.7960   6.9227   6.9227
     7.4907   7.4907   8.1232   8.1232   8.1675

          k =-0.3536-0.3536 0.2828 ( 21670 PWs)   bands (ev):

   -18.0176 -18.0176 -17.9698 -17.9698 -17.9669 -17.9669 -17.9506 -17.9506
   -17.9473 -17.9473 -17.9472 -17.9472 -11.2314 -11.2314 -10.9640 -10.9640
   -10.9574 -10.9574  -4.8201  -4.8201  -4.8110  -4.8110  -4.7920  -4.7920
    -3.6147  -3.6147  -0.3812  -0.3812  -0.2189  -0.2189   0.3164   0.3164
     0.8464   0.8464   0.8824   0.8824   1.3599   1.3599   1.4070   1.4070
     1.4382   1.4382   1.6450   1.6450   6.6350   6.6350   6.7780   6.7780
     7.1026   7.1026   7.7430   7.7430   8.3045

          k =-0.3536-0.3536 0.5657 ( 21682 PWs)   bands (ev):

   -18.0171 -18.0171 -17.9698 -17.9698 -17.9639 -17.9639 -17.9506 -17.9506
   -17.9474 -17.9474 -17.9473 -17.9473 -11.1577 -11.1577 -11.0361 -11.0361
   -10.9624 -10.9624  -4.8220  -4.8220  -4.8184  -4.8184  -4.8021  -4.8021
    -3.9555  -3.9555  -0.1424  -0.1424   0.1213   0.1213   0.4329   0.4329
     0.6823   0.6823   0.8413   0.8413   1.3906   1.3906   1.4289   1.4289
     1.5267   1.5267   2.2880   2.2880   5.4271   5.4271   6.4317   6.4317
     6.6771   6.6771   8.0242   8.0242   8.5544

          k = 0.3536 0.0000 0.0000 ( 21737 PWs)   bands (ev):

   -18.0183 -18.0175 -17.9721 -17.9691 -17.9689 -17.9669 -17.9506 -17.9505
   -17.9473 -17.9472 -17.9472 -17.9471 -11.3094 -11.1765 -11.0461 -10.9479
   -10.9355 -10.8858  -4.8148  -4.8145  -4.8029  -4.7992  -4.7991  -4.7920
    -3.6268  -2.8647  -0.9237  -0.8991  -0.8113  -0.0155   0.0733   0.4364
     0.9015   1.0291   1.1192   1.1656   1.1696   1.1721   1.1882   1.2926
     1.2933   1.3882   1.5344   2.3458   5.2857   6.7567   6.8578   7.1858
     7.8299   7.9256   8.0460   8.2285   8.2607

          k = 0.3536 0.0000 0.2828 ( 21698 PWs)   bands (ev):

   -18.0180 -18.0172 -17.9719 -17.9684 -17.9672 -17.9657 -17.9507 -17.9505
   -17.9473 -17.9473 -17.9472 -17.9472 -11.2764 -11.1534 -11.0457 -10.9611
   -10.9577 -10.9114  -4.8196  -4.8196  -4.8106  -4.8003  -4.7991  -4.7972
    -3.8963  -3.2182  -0.8610  -0.4103  -0.3013   0.0769   0.1923   0.4458
     0.6943   0.9065   0.9347   1.1351   1.2224   1.2261   1.3129   1.3883
     1.4105   1.4637   1.5824   2.4411   5.1252   6.5701   6.8966   7.0157
     7.1643   7.5123   8.0334   8.1296   8.1419

          k = 0.3536 0.0000 0.5657 ( 21699 PWs)   bands (ev):

   -18.0175 -18.0167 -17.9718 -17.9681 -17.9644 -17.9630 -17.9507 -17.9505
   -17.9474 -17.9474 -17.9473 -17.9473 -11.1936 -11.0931 -11.0450 -11.0367
   -11.0164 -10.9278  -4.8313  -4.8276  -4.8155  -4.8120  -4.8034  -4.7951
    -4.2245  -3.5955  -0.7938  -0.0470   0.0564   0.4084   0.4270   0.5862
     0.6259   0.8215   0.8934   1.0401   1.1498   1.1996   1.4255   1.4572
     1.4840   1.6661   2.1433   2.9686   4.8620   5.2440   5.6443   6.4087
     6.7731   7.9611   8.0239   8.1768   8.4289

          k =-0.1768-0.5303 0.0000 ( 21648 PWs)   bands (ev):

   -18.0179 -18.0179 -17.9709 -17.9709 -17.9676 -17.9676 -17.9506 -17.9506
   -17.9473 -17.9473 -17.9472 -17.9472 -11.2442 -11.2442 -11.0102 -11.0102
   -10.8984 -10.8984  -4.8109  -4.8109  -4.7971  -4.7971  -4.7947  -4.7947
    -3.2701  -3.2701  -0.8739  -0.8739  -0.6100  -0.6100   0.4605   0.4605
     0.9662   0.9662   1.0870   1.0870   1.2231   1.2231   1.2299   1.2299
     1.3110   1.3110   1.8433   1.8433   5.9545   5.9545   7.5487   7.5487
     7.8635   7.8635   8.1968   8.1969   8.2315

          k =-0.1768-0.5303 0.2828 ( 21698 PWs)   bands (ev):

   -18.0176 -18.0176 -17.9704 -17.9704 -17.9662 -17.9662 -17.9506 -17.9506
   -17.9473 -17.9473 -17.9472 -17.9472 -11.2146 -11.2146 -11.0124 -11.0124
   -10.9280 -10.9280  -4.8149  -4.8149  -4.8062  -4.8062  -4.7935  -4.7935
    -3.5726  -3.5726  -0.6092  -0.6092  -0.2637  -0.2637   0.4329   0.4329
     0.8278   0.8278   1.0055   1.0055   1.2276   1.2276   1.3230   1.3230
     1.4317   1.4317   1.9535   1.9535   5.8077   5.8077   7.1686   7.1686
     7.5559   7.5559   7.9045   7.9045   8.3923

          k =-0.1768-0.5303 0.5657 ( 21692 PWs)   bands (ev):

   -18.0171 -18.0171 -17.9702 -17.9702 -17.9635 -17.9635 -17.9506 -17.9506
   -17.9473 -17.9473 -17.9473 -17.9473 -11.1384 -11.1384 -11.0389 -11.0389
   -10.9816 -10.9816  -4.8214  -4.8214  -4.8152  -4.8152  -4.7971  -4.7971
    -3.9216  -3.9216  -0.5141  -0.5141   0.3710   0.3710   0.4647   0.4647
     0.7666   0.7666   0.9012   0.9012   1.2104   1.2104   1.2853   1.2853
     1.6177   1.6177   2.5386   2.5386   5.4167   5.4167   5.6424   5.6424
     7.4138   7.4138   8.2815   8.2815   8.6718

          k =-0.7071 0.0000 0.0000 ( 21704 PWs)   bands (ev):

   -18.0178 -18.0178 -17.9715 -17.9715 -17.9670 -17.9670 -17.9506 -17.9506
   -17.9473 -17.9473 -17.9471 -17.9471 -11.2243 -11.2243 -11.0458 -11.0458
   -10.8849 -10.8849  -4.8058  -4.8058  -4.7968  -4.7968  -4.7916  -4.7916
    -3.2118  -3.2118  -0.8777  -0.8777  -0.8514  -0.8514   0.5579   0.5579
     1.0726   1.0726   1.0842   1.0842   1.1052   1.1052   1.2427   1.2427
     1.2440   1.2440   2.0930   2.0930   5.5022   5.5022   7.7868   7.7868
     8.2607   8.2607   8.2755   8.2755   8.4973

          k =-0.7071 0.0000 0.2828 ( 21688 PWs)   bands (ev):

   -18.0176 -18.0176 -17.9710 -17.9710 -17.9657 -17.9657 -17.9506 -17.9506
   -17.9473 -17.9473 -17.9472 -17.9472 -11.1931 -11.1931 -11.0463 -11.0463
   -10.9180 -10.9180  -4.8091  -4.8091  -4.8038  -4.8038  -4.7931  -4.7931
    -3.5280  -3.5280  -0.8046  -0.8046  -0.2712  -0.2712   0.4679   0.4679
     0.9144   0.9144   1.0585   1.0585   1.1570   1.1570   1.2106   1.2106
     1.4145   1.4145   2.2447   2.2447   5.3495   5.3495   7.2339   7.2339
     8.0664   8.0664   8.0710   8.0711   8.6585

          k =-0.7071 0.0000 0.5657 ( 21660 PWs)   bands (ev):

   -18.0171 -18.0171 -17.9705 -17.9705 -17.9632 -17.9632 -17.9506 -17.9506
   -17.9473 -17.9473 -17.9473 -17.9473 -11.1104 -11.1104 -11.0472 -11.0472
   -11.0040 -11.0040  -4.8195  -4.8195  -4.8152  -4.8152  -4.7901  -4.7901
    -3.8862  -3.8862  -0.7203  -0.7203   0.3229   0.3229   0.6485   0.6485
     0.9222   0.9222   1.0095   1.0095   1.0186   1.0186   1.0807   1.0807
     1.6587   1.6587   2.8200   2.8200   5.1038   5.1038   5.4690   5.4690
     7.8866   7.8866   8.4937   8.4937   8.7018

     the Fermi energy is     4.2124 ev

!    total energy              =    -731.38785424 Ry
     estimated scf accuracy    <          7.0E-10 Ry
     smearing contrib. (-TS)   =      -0.00000000 Ry
     internal energy E=F+TS    =    -731.38785424 Ry

     The total energy is F=E-TS. E is the sum of the following terms:
     one-electron contribution =    -253.08633782 Ry
     hartree contribution      =     163.74674513 Ry
     xc contribution           =    -309.02318042 Ry
     ewald contribution        =    -333.02508113 Ry

     convergence has been achieved in   9 iterations

     Forces acting on atoms (cartesian axes, Ry/au):

     atom    1 type  1   force =     0.00000000    0.00000000    0.00000000
     atom    2 type  1   force =     0.00000000    0.00000000    0.00000000
     atom    3 type  2   force =     0.00000000    0.00000000    0.00000000
     atom    4 type  2   force =     0.00000000    0.00000000    0.00000000
     atom    5 type  3   force =    -0.00000000    0.00045439    0.00000000
     atom    6 type  3   force =     0.00000000   -0.00045439    0.00000000
     atom    7 type  3   force =     0.00045439    0.00000000    0.00000000
     atom    8 type  3   force =    -0.00045439   -0.00000000    0.00000000
     atom    9 type  3   force =     0.00000000    0.00000000    0.00000000
     atom   10 type  3   force =     0.00000000    0.00000000    0.00000000

     Total force =     0.000909     Total SCF correction =     0.000006
     Message from routine punch:
     Nothing written, as per user request (disk_io='none')

     init_run     :      9.43s CPU     11.82s WALL (       1 calls)
     electrons    :    230.18s CPU    252.14s WALL (       1 calls)
     forces       :      7.78s CPU      8.38s WALL (       1 calls)

     Called by init_run:
     wfcinit      :      5.12s CPU      5.68s WALL (       1 calls)
     potinit      :      1.04s CPU      1.23s WALL (       1 calls)
     hinit0       :      0.90s CPU      1.02s WALL (       1 calls)

     Called by electrons:
     c_bands      :    148.03s CPU    154.44s WALL (      10 calls)
     sum_band     :     50.62s CPU     59.67s WALL (      10 calls)
     v_of_rho     :      3.99s CPU      4.60s WALL (      10 calls)
     newd         :     29.13s CPU     36.56s WALL (      10 calls)
     mix_rho      :      0.41s CPU      0.43s WALL (      10 calls)

     Called by c_bands:
     init_us_2    :      5.60s CPU      5.66s WALL (     198 calls)
     cegterg      :     94.38s CPU    100.76s WALL (      90 calls)

     Called by *egterg:
     cdiaghg      :      1.51s CPU      1.51s WALL (     431 calls)
     h_psi        :     55.99s CPU     61.67s WALL (     449 calls)
     s_psi        :      7.36s CPU      7.37s WALL (     449 calls)
     g_psi        :      0.36s CPU      0.36s WALL (     350 calls)

     Called by h_psi:
     h_psi:calbec :     11.93s CPU     12.06s WALL (     449 calls)
     vloc_psi     :     35.10s CPU     40.12s WALL (     449 calls)
                                        0.00s GPU  (     449 calls)
     add_vuspsi   :      8.19s CPU      8.21s WALL (     449 calls)

     General routines
     calbec       :     16.41s CPU     16.58s WALL (     575 calls)
     fft          :      3.35s CPU      3.79s WALL (     140 calls)
     ffts         :      0.48s CPU      0.51s WALL (      20 calls)
     fftw         :     37.76s CPU     43.28s WALL (   30590 calls)
     interpolate  :      0.64s CPU      0.67s WALL (      10 calls)

     Parallel routines

     PWSCF        :   4m 7.90s CPU   4m32.92s WALL


   This run was terminated on:   3: 5:55   5Oct2026            

=------------------------------------------------------------------------------=
   JOB DONE.
=------------------------------------------------------------------------------=
