
     Program PWSCF v.7.5 starts on 27Sep2026 at  9: 9:53 

     This program is part of the open-source Quantum ESPRESSO suite
     for quantum simulation of materials; please cite
         "P. Giannozzi et al., J. Phys.:Condens. Matter 21 395502 (2009);
         "P. Giannozzi et al., J. Phys.:Condens. Matter 29 465901 (2017);
         "P. Giannozzi et al., J. Chem. Phys. 152 154105 (2020);
          URL http://www.quantum-espresso.org", 
     in publications or presentations arising from this work. More details at
     http://www.quantum-espresso.org/quote

     Parallel version (MPI & OpenMP), running on       8 processor cores
     Number of MPI processes:                 8
     Threads/MPI process:                     1

     MPI processes distributed on     1 nodes
     68840 MiB available memory on the printing compute node when the environment starts

     Reading input from pw.in

     Current dimensions of program PWSCF are:
     Max number of different atomic species (ntypx) = 10
     Max number of k-points (npk) =  40000
     Max angular momentum in pseudopotentials (lmaxx) =  4
     Message from routine setup:
     using ibrav=0 with symmetry is DISCOURAGED, use correct ibrav instead

     K-points division:     npool     =       8
     Subspace diagonalization in iterative solution of the eigenvalue problem:
     a serial algorithm will be used


     G-vector sticks info
     --------------------
     sticks:   dense  smooth     PW     G-vecs:    dense   smooth      PW
     Sum        9465    4725   1305               490789   173563   24989

     Using Slab Decomposition



     bravais-lattice index     =            0
     lattice parameter (alat)  =      15.7535  a.u.
     unit-cell volume          =    2764.4861 (a.u.)^3
     number of atoms/cell      =           10
     number of atomic types    =            3
     number of electrons       =        88.00
     number of Kohn-Sham states=           53
     kinetic-energy cutoff     =      60.0000  Ry
     charge density cutoff     =     480.0000  Ry
     scf convergence threshold =      1.0E-09
     mixing beta               =       0.4000
     number of iterations used =            8  plain     mixing
     Exchange-correlation=  SLA  PW   PBX  PBC
                           (   1   4   3   4   0   0   0)

     celldm(1)=  15.753479  celldm(2)=   0.000000  celldm(3)=   0.000000
     celldm(4)=   0.000000  celldm(5)=   0.000000  celldm(6)=   0.000000

     crystal axes: (cart. coord. in units of alat)
               a(1) = (   0.707107  -0.707107  -0.000000 )  
               a(2) = (   0.707107   0.707107   0.000000 )  
               a(3) = (   0.000000   0.000000   0.707107 )  

     reciprocal axes: (cart. coord. in units 2 pi/alat)
               b(1) = (  0.707107 -0.707107  0.000000 )  
               b(2) = (  0.707107  0.707107 -0.000000 )  
               b(3) = (  0.000000 -0.000000  1.414214 )  


     PseudoPot. # 1 for Cs read from file:
     /root/sssp/upf/Cs_pbe_v1.uspp.F.UPF
     MD5 check sum: 3476d69cb178dfad3ffaa59df4e07ca4
     Pseudo is Ultrasoft + core correction, Zval =  9.0
     Generated by new atomic code, or converted to UPF format
     Using radial grid of  905 points,  6 beta functions with: 
                l(1) =   0
                l(2) =   0
                l(3) =   1
                l(4) =   1
                l(5) =   2
                l(6) =   2
     Q(r) pseudized with  6 coefficients,  rinner =    1.500   1.500   1.500
                                                       1.500   1.500

     PseudoPot. # 2 for Sn read from file:
     /root/sssp/upf/Sn_pbe_v1.uspp.F.UPF
     MD5 check sum: 4cf58ce39ec5d5d420df3dd08604eb00
     Pseudo is Ultrasoft + core correction, Zval = 14.0
     Generated by new atomic code, or converted to UPF format
     Using radial grid of  891 points,  6 beta functions with: 
                l(1) =   0
                l(2) =   0
                l(3) =   1
                l(4) =   1
                l(5) =   2
                l(6) =   2
     Q(r) pseudized with  6 coefficients,  rinner =    1.200   1.200   1.200
                                                       1.200   1.200

     PseudoPot. # 3 for Br read from file:
     /root/sssp/upf/br_pbe_v1.4.uspp.F.UPF
     MD5 check sum: d3ffb7b29f6225aa16fe06858fb2a80b
     Pseudo is Ultrasoft + core correction, Zval =  7.0
     Generated by new atomic code, or converted to UPF format
     Using radial grid of  879 points,  6 beta functions with: 
                l(1) =   0
                l(2) =   0
                l(3) =   1
                l(4) =   1
                l(5) =   2
                l(6) =   2
     Q(r) pseudized with  8 coefficients,  rinner =    1.100   1.100   1.100
                                                       1.100   1.100

     atomic species   valence    mass     pseudopotential
     Cs                9.00   132.90550     Cs( 1.00)
     Sn               14.00   118.71000     Sn( 1.00)
     Br                7.00    79.90400     Br( 1.00)

     16 Sym. Ops., with inversion, found ( 8 have fractional translation)



   Cartesian axes

     site n.     atom                  positions (alat units)
         1        Cs     tau(   1) = (   0.7071068   0.0000000  -0.0000000  )
         2        Cs     tau(   2) = (   0.0000000   0.0000000   0.0000000  )
         3        Sn     tau(   3) = (   0.3535534   0.3535534   0.3535534  )
         4        Sn     tau(   4) = (   0.3535534  -0.3535534   0.3535534  )
         5        Br     tau(   5) = (   0.7071068   0.4075336   0.3535534  )
         6        Br     tau(   6) = (   0.7071068  -0.4075336   0.3535534  )
         7        Br     tau(   7) = (   0.4075336  -0.0000000   0.3535534  )
         8        Br     tau(   8) = (   1.0066799   0.0000000   0.3535534  )
         9        Br     tau(   9) = (   0.3535534   0.3535534   0.7071068  )
        10        Br     tau(  10) = (   0.3535534  -0.3535534   0.7071068  )

     number of k points=    18  Marzari-Vanderbilt smearing, width (Ry)=  0.0050
                       cart. coord. in units 2pi/alat
        k(    1) = (   0.0000000   0.0000000   0.0000000), wk =   0.0250000
        k(    2) = (   0.0000000   0.0000000   0.2828427), wk =   0.0500000
        k(    3) = (   0.0000000   0.0000000   0.5656854), wk =   0.0500000
        k(    4) = (   0.1767767   0.1767767   0.0000000), wk =   0.1000000
        k(    5) = (   0.1767767   0.1767767   0.2828427), wk =   0.2000000
        k(    6) = (   0.1767767   0.1767767   0.5656854), wk =   0.2000000
        k(    7) = (  -0.3535534  -0.3535534   0.0000000), wk =   0.0500000
        k(    8) = (  -0.3535534  -0.3535534   0.2828427), wk =   0.1000000
        k(    9) = (  -0.3535534  -0.3535534   0.5656854), wk =   0.1000000
        k(   10) = (   0.3535534   0.0000000   0.0000000), wk =   0.1000000
        k(   11) = (   0.3535534   0.0000000   0.2828427), wk =   0.2000000
        k(   12) = (   0.3535534   0.0000000   0.5656854), wk =   0.2000000
        k(   13) = (  -0.1767767  -0.5303301   0.0000000), wk =   0.1000000
        k(   14) = (  -0.1767767  -0.5303301   0.2828427), wk =   0.2000000
        k(   15) = (  -0.1767767  -0.5303301   0.5656854), wk =   0.2000000
        k(   16) = (  -0.7071068   0.0000000   0.0000000), wk =   0.0250000
        k(   17) = (  -0.7071068   0.0000000   0.2828427), wk =   0.0500000
        k(   18) = (  -0.7071068   0.0000000   0.5656854), wk =   0.0500000

     Dense  grid:   490789 G-vectors     FFT dimensions: ( 120, 120,  80)

     Smooth grid:   173563 G-vectors     FFT dimensions: (  80,  80,  60)

     Estimated max dynamical RAM per process >     638.62 MB

     Estimated total dynamical RAM >       4.17 GB

     Initial potential from superposition of free atoms

     starting charge      85.9210, renormalised to      88.0000
     Starting wfcs are   68 randomized atomic wfcs

     total cpu time spent up to now is        9.8 secs

     per-process dynamical memory:   377.6 Mb

     Self-consistent Calculation

     iteration #  1     ecut=    60.00 Ry     beta= 0.40
     Davidson diagonalization with overlap
     ethr =  1.00E-02,  avg # of iterations =  2.9

     Threshold (ethr) on eigenvalues was too large:
     Diagonalizing with lowered threshold

     Davidson diagonalization with overlap
     ethr =  4.86E-04,  avg # of iterations =  2.8

     total cpu time spent up to now is       30.1 secs

     total energy              =    -734.56031019 Ry
     estimated scf accuracy    <       0.41020425 Ry

     iteration #  2     ecut=    60.00 Ry     beta= 0.40
     Davidson diagonalization with overlap
     ethr =  4.66E-04,  avg # of iterations =  2.0

     total cpu time spent up to now is       41.4 secs

     total energy              =    -734.60862876 Ry
     estimated scf accuracy    <       0.03668159 Ry

     iteration #  3     ecut=    60.00 Ry     beta= 0.40
     Davidson diagonalization with overlap
     ethr =  4.17E-05,  avg # of iterations =  7.0

     total cpu time spent up to now is       53.6 secs

     total energy              =    -734.61232068 Ry
     estimated scf accuracy    <       0.00555844 Ry

     iteration #  4     ecut=    60.00 Ry     beta= 0.40
     Davidson diagonalization with overlap
     ethr =  6.32E-06,  avg # of iterations =  7.2

     total cpu time spent up to now is       66.8 secs

     total energy              =    -734.61291243 Ry
     estimated scf accuracy    <       0.00050774 Ry

     iteration #  5     ecut=    60.00 Ry     beta= 0.40
     Davidson diagonalization with overlap
     ethr =  5.77E-07,  avg # of iterations =  3.9

     total cpu time spent up to now is       79.0 secs

     total energy              =    -734.61298775 Ry
     estimated scf accuracy    <       0.00001229 Ry

     iteration #  6     ecut=    60.00 Ry     beta= 0.40
     Davidson diagonalization with overlap
     ethr =  1.40E-08,  avg # of iterations =  5.7

     total cpu time spent up to now is       93.1 secs

     total energy              =    -734.61300162 Ry
     estimated scf accuracy    <       0.00000148 Ry

     iteration #  7     ecut=    60.00 Ry     beta= 0.40
     Davidson diagonalization with overlap
     ethr =  1.68E-09,  avg # of iterations =  2.3

     total cpu time spent up to now is      104.4 secs

     total energy              =    -734.61300400 Ry
     estimated scf accuracy    <       0.00000030 Ry

     iteration #  8     ecut=    60.00 Ry     beta= 0.40
     Davidson diagonalization with overlap
     ethr =  3.36E-10,  avg # of iterations =  2.3

     total cpu time spent up to now is      115.6 secs

     total energy              =    -734.61300478 Ry
     estimated scf accuracy    <       0.00000005 Ry

     iteration #  9     ecut=    60.00 Ry     beta= 0.40
     Davidson diagonalization with overlap
     ethr =  5.98E-11,  avg # of iterations =  2.0

     total cpu time spent up to now is      126.1 secs

     End of self-consistent calculation

          k = 0.0000 0.0000 0.0000 ( 21707 PWs)   bands (ev):

   -18.0722 -18.0688 -18.0667 -18.0660 -18.0568 -18.0564 -18.0515 -18.0515
   -18.0513 -18.0513 -17.8992 -17.8972 -11.2323 -10.9870 -10.9188 -10.9188
   -10.7995 -10.7725  -4.7289  -4.7289  -4.7015  -4.6902  -4.6902  -4.6805
    -3.7029  -2.1791  -0.8455  -0.7409  -0.7409  -0.6424   0.4437   0.9536
     0.9536   0.9939   1.0701   1.0701   1.3304   1.3304   1.3415   1.4369
     1.4660   1.4660   1.7186   2.9770   5.2448   5.2448   6.6211   7.6513
     7.8602   8.0758   8.6140   8.6141   8.8866

          k = 0.0000 0.0000 0.2828 ( 21691 PWs)   bands (ev):

   -18.0722 -18.0671 -18.0660 -18.0650 -18.0568 -18.0564 -18.0515 -18.0515
   -18.0514 -18.0514 -17.8987 -17.8969 -11.1976 -10.9847 -10.9171 -10.9171
   -10.8434 -10.7734  -4.7312  -4.7312  -4.6963  -4.6963  -4.6940  -4.6933
    -3.9638  -2.6726  -0.7096  -0.7096  -0.0776  -0.0566   0.5136   0.7535
     0.7535   0.9966   1.2449   1.2449   1.2857   1.3601   1.3601   1.3974
     1.4640   1.4640   1.7839   3.0850   5.0763   5.0763   6.9674   6.9825
     7.7207   7.8910   8.0993   8.2520   8.2520

          k = 0.0000 0.0000 0.5657 ( 21748 PWs)   bands (ev):

   -18.0722 -18.0660 -18.0643 -18.0622 -18.0567 -18.0564 -18.0516 -18.0516
   -18.0515 -18.0515 -17.8980 -17.8964 -11.1081 -10.9808 -10.9480 -10.9142
   -10.9142 -10.7749  -4.7417  -4.7417  -4.7155  -4.6994  -4.6994  -4.6808
    -4.2885  -3.1122  -0.6546  -0.6546   0.6339   0.6394   0.6394   0.6555
     0.8324   1.0010   1.1474   1.1474   1.1942   1.3428   1.3428   1.6209
     1.7125   1.7125   2.0989   3.5791   4.7963   4.7963   5.2436   5.9285
     7.7372   7.9455   8.1723   8.1724   8.8149

          k = 0.1768 0.1768 0.0000 ( 21735 PWs)   bands (ev):

   -18.0713 -18.0685 -18.0670 -18.0669 -18.0567 -18.0564 -18.0514 -18.0514
   -18.0513 -18.0513 -17.8989 -17.8975 -11.2076 -11.0517 -10.8980 -10.8738
   -10.8068 -10.7946  -4.7256  -4.7239  -4.6980  -4.6875  -4.6857  -4.6832
    -3.5578  -2.5713  -0.8237  -0.6818  -0.5758  -0.2718   0.4819   0.5062
     0.9075   1.1044   1.1279   1.1941   1.2623   1.3062   1.3236   1.3838
     1.3955   1.4745   1.7037   2.4484   5.6965   5.8733   6.9123   7.8336
     7.9464   7.9803   8.1162   8.2059   8.2855

          k = 0.1768 0.1768 0.2828 ( 21687 PWs)   bands (ev):

   -18.0713 -18.0669 -18.0668 -18.0653 -18.0567 -18.0564 -18.0515 -18.0515
   -18.0514 -18.0514 -17.8985 -17.8972 -11.1744 -11.0350 -10.8967 -10.8885
   -10.8475 -10.7950  -4.7280  -4.7250  -4.6979  -4.6977  -4.6906  -4.6868
    -3.8274  -2.9580  -0.5405  -0.4806  -0.1311   0.0827   0.5105   0.5401
     0.7846   0.9074   1.1137   1.1873   1.3158   1.3436   1.4160   1.4402
     1.4651   1.4810   1.7551   2.5230   5.5452   5.7222   7.0645   7.1623
     7.5610   7.7504   7.9629   8.0493   8.2586

          k = 0.1768 0.1768 0.5657 ( 21726 PWs)   bands (ev):

   -18.0713 -18.0669 -18.0640 -18.0625 -18.0567 -18.0564 -18.0516 -18.0516
   -18.0515 -18.0515 -17.8977 -17.8966 -11.0874 -10.9944 -10.9469 -10.9260
   -10.8943 -10.7958  -4.7358  -4.7293  -4.7091  -4.7050  -4.6985  -4.6844
    -4.1574  -3.3536  -0.4782  -0.3436   0.5830   0.5866   0.6099   0.6490
     0.7284   0.7829   0.9538   1.1843   1.3019   1.3779   1.3987   1.5620
     1.6472   1.6892   2.1567   3.0064   5.2414   5.3089   5.6242   5.8173
     7.6097   7.6435   7.9891   8.0985   8.5736

          k =-0.3536-0.3536 0.0000 ( 21674 PWs)   bands (ev):

   -18.0691 -18.0691 -18.0677 -18.0677 -18.0566 -18.0566 -18.0514 -18.0514
   -18.0514 -18.0514 -17.8982 -17.8982 -11.1407 -11.1407 -10.8470 -10.8470
   -10.8303 -10.8303  -4.7214  -4.7214  -4.6903  -4.6903  -4.6821  -4.6821
    -3.1496  -3.1496  -0.7614  -0.7614  -0.1227  -0.1227   0.3791   0.3791
     0.9823   0.9823   1.1792   1.1792   1.2954   1.2954   1.2955   1.2955
     1.4645   1.4645   1.7749   1.7749   6.7664   6.7664   6.9517   6.9517
     7.7459   7.7460   8.2338   8.2338   8.3784

          k =-0.3536-0.3536 0.2828 ( 21670 PWs)   bands (ev):

   -18.0691 -18.0691 -18.0660 -18.0660 -18.0566 -18.0566 -18.0515 -18.0515
   -18.0514 -18.0514 -17.8978 -17.8978 -11.1128 -11.1128 -10.8615 -10.8615
   -10.8462 -10.8462  -4.7226  -4.7226  -4.6985  -4.6985  -4.6837  -4.6837
    -3.4524  -3.4524  -0.2577  -0.2577  -0.0785  -0.0785   0.4283   0.4283
     0.9664   0.9664   0.9833   0.9833   1.3555   1.3555   1.4618   1.4618
     1.5011   1.5011   1.8218   1.8218   6.6231   6.6231   6.8008   6.8008
     7.2457   7.2457   7.9790   7.9790   8.4669

          k =-0.3536-0.3536 0.5657 ( 21682 PWs)   bands (ev):

   -18.0691 -18.0691 -18.0633 -18.0633 -18.0566 -18.0566 -18.0516 -18.0516
   -18.0515 -18.0515 -17.8971 -17.8971 -11.0381 -11.0381 -10.9410 -10.9410
   -10.8455 -10.8455  -4.7222  -4.7222  -4.7064  -4.7064  -4.6941  -4.6941
    -3.8024  -3.8024   0.0003   0.0003   0.2483   0.2483   0.5515   0.5515
     0.7925   0.7925   0.9807   0.9807   1.4433   1.4433   1.4833   1.4833
     1.5835   1.5835   2.4052   2.4052   5.5483   5.5483   6.4378   6.4378
     6.6782   6.6782   8.2163   8.2164   8.6649

          k = 0.3536 0.0000 0.0000 ( 21737 PWs)   bands (ev):

   -18.0709 -18.0683 -18.0679 -18.0665 -18.0567 -18.0565 -18.0515 -18.0514
   -18.0514 -18.0513 -17.8987 -17.8977 -11.1854 -11.0698 -10.9193 -10.8395
   -10.8340 -10.7881  -4.7201  -4.7200  -4.6955  -4.6850  -4.6837  -4.6834
    -3.4328  -2.7338  -0.8091  -0.7096  -0.6972   0.1072   0.1631   0.5718
     0.9507   1.1191   1.1861   1.2512   1.2555   1.2704   1.2982   1.3715
     1.3882   1.3995   1.6797   2.3470   5.4087   6.7624   6.9892   7.3089
     8.0201   8.1597   8.2680   8.2786   8.3499

          k = 0.3536 0.0000 0.2828 ( 21698 PWs)   bands (ev):

   -18.0708 -18.0679 -18.0664 -18.0652 -18.0567 -18.0565 -18.0515 -18.0515
   -18.0514 -18.0514 -17.8982 -17.8973 -11.1532 -11.0486 -10.9194 -10.8605
   -10.8537 -10.8057  -4.7217  -4.7214  -4.6982  -4.6906  -4.6906  -4.6873
    -3.7126  -3.0965  -0.6578  -0.2795  -0.1844   0.1930   0.2922   0.5685
     0.8143   0.9989   1.0267   1.2356   1.2361   1.3437   1.3786   1.4469
     1.4745   1.5136   1.7425   2.4457   5.2549   6.5938   6.8902   7.1472
     7.3441   7.6964   8.1088   8.1725   8.4169

          k = 0.3536 0.0000 0.5657 ( 21699 PWs)   bands (ev):

   -18.0707 -18.0677 -18.0637 -18.0626 -18.0567 -18.0565 -18.0516 -18.0516
   -18.0515 -18.0515 -17.8975 -17.8967 -11.0681 -10.9978 -10.9454 -10.9192
   -10.9022 -10.8165  -4.7303  -4.7201  -4.7077  -4.7043  -4.6946  -4.6882
    -4.0494  -3.4807  -0.5877   0.0794   0.1909   0.5226   0.5479   0.7033
     0.7762   0.9029   0.9940   1.1160   1.2707   1.2929   1.4608   1.5256
     1.5368   1.7139   2.2601   2.9827   5.0068   5.3828   5.7424   6.4298
     6.7472   7.9607   8.1660   8.2831   8.5866

          k =-0.1768-0.5303 0.0000 ( 21648 PWs)   bands (ev):

   -18.0698 -18.0698 -18.0670 -18.0670 -18.0566 -18.0566 -18.0514 -18.0514
   -18.0513 -18.0513 -17.8982 -17.8982 -11.1284 -11.1284 -10.8910 -10.8910
   -10.8005 -10.8005  -4.7161  -4.7161  -4.6899  -4.6899  -4.6797  -4.6797
    -3.1051  -3.1051  -0.7658  -0.7658  -0.4346  -0.4346   0.5417   0.5417
     1.0675   1.0675   1.1840   1.1840   1.2961   1.2961   1.3021   1.3021
     1.4000   1.4000   1.8994   1.8994   6.0021   6.0021   7.7036   7.7036
     7.9535   7.9537   8.2772   8.2772   8.4425

          k =-0.1768-0.5303 0.2828 ( 21698 PWs)   bands (ev):

   -18.0695 -18.0695 -18.0656 -18.0656 -18.0566 -18.0566 -18.0515 -18.0515
   -18.0514 -18.0514 -17.8978 -17.8978 -11.1001 -11.1001 -10.8962 -10.8962
   -10.8262 -10.8262  -4.7171  -4.7171  -4.6948  -4.6948  -4.6848  -4.6848
    -3.4180  -3.4180  -0.4337  -0.4337  -0.1454  -0.1454   0.5328   0.5328
     0.9321   0.9321   1.1009   1.1009   1.2983   1.2983   1.3927   1.3927
     1.5197   1.5197   2.0081   2.0081   5.8618   5.8618   7.2836   7.2836
     7.5696   7.5696   8.1401   8.1402   8.5528

          k =-0.1768-0.5303 0.5657 ( 21692 PWs)   bands (ev):

   -18.0693 -18.0693 -18.0630 -18.0630 -18.0566 -18.0566 -18.0516 -18.0516
   -18.0515 -18.0515 -17.8971 -17.8971 -11.0254 -11.0254 -10.9370 -10.9370
   -10.8645 -10.8645  -4.7203  -4.7203  -4.7004  -4.7004  -4.6935  -4.6935
    -3.7754  -3.7754  -0.3297  -0.3297   0.4840   0.4840   0.5630   0.5630
     0.8796   0.8796   1.0262   1.0262   1.2926   1.2926   1.3656   1.3656
     1.6658   1.6658   2.5963   2.5963   5.5327   5.5327   5.7053   5.7053
     7.3950   7.3950   8.4549   8.4549   8.7300

          k =-0.7071 0.0000 0.0000 ( 21704 PWs)   bands (ev):

   -18.0703 -18.0703 -18.0665 -18.0665 -18.0566 -18.0566 -18.0515 -18.0515
   -18.0513 -18.0513 -17.8982 -17.8982 -11.1138 -11.1138 -10.9198 -10.9198
   -10.7881 -10.7881  -4.7116  -4.7116  -4.6895  -4.6895  -4.6765  -4.6765
    -3.0574  -3.0574  -0.7702  -0.7702  -0.6501  -0.6501   0.6220   0.6220
     1.1739   1.1739   1.1888   1.1888   1.2454   1.2454   1.2967   1.2967
     1.3171   1.3171   2.0865   2.0865   5.5946   5.5946   8.0901   8.0901
     8.1782   8.1782   8.3195   8.3195   8.7991

          k =-0.7071 0.0000 0.2828 ( 21688 PWs)   bands (ev):

   -18.0699 -18.0699 -18.0652 -18.0652 -18.0566 -18.0566 -18.0515 -18.0515
   -18.0514 -18.0514 -17.8978 -17.8978 -11.0848 -11.0848 -10.9215 -10.9215
   -10.8182 -10.8182  -4.7119  -4.7119  -4.6924  -4.6924  -4.6843  -4.6843
    -3.3820  -3.3820  -0.6013  -0.6013  -0.1589  -0.1589   0.5679   0.5679
     0.9742   0.9742   1.2173   1.2173   1.2315   1.2315   1.2880   1.2880
     1.4962   1.4962   2.2352   2.2352   5.4488   5.4488   7.3347   7.3347
     7.9980   7.9980   8.3522   8.3522   8.6507

          k =-0.7071 0.0000 0.5657 ( 21660 PWs)   bands (ev):

   -18.0696 -18.0696 -18.0628 -18.0628 -18.0566 -18.0566 -18.0517 -18.0517
   -18.0515 -18.0515 -17.8971 -17.8971 -11.0112 -11.0112 -10.9243 -10.9243
   -10.8937 -10.8937  -4.7189  -4.7189  -4.6970  -4.6970  -4.6897  -4.6897
    -3.7475  -3.7475  -0.5127  -0.5127   0.4358   0.4358   0.7446   0.7446
     0.9915   0.9915   1.0846   1.0846   1.1720   1.1720   1.1974   1.1974
     1.7025   1.7025   2.8164   2.8164   5.2194   5.2194   5.5845   5.5845
     7.8195   7.8195   8.6184   8.7848   8.7859

     the Fermi energy is     4.2570 ev

!    total energy              =    -734.61300516 Ry
     estimated scf accuracy    <          7.1E-10 Ry
     smearing contrib. (-TS)   =      -0.00000000 Ry
     internal energy E=F+TS    =    -734.61300516 Ry

     The total energy is F=E-TS. E is the sum of the following terms:
     one-electron contribution =    -250.69602952 Ry
     hartree contribution      =     162.78295692 Ry
     xc contribution           =    -312.38282697 Ry
     ewald contribution        =    -334.31710560 Ry

     convergence has been achieved in   9 iterations

     Forces acting on atoms (cartesian axes, Ry/au):

     atom    1 type  1   force =     0.00000000    0.00000000    0.00000000
     atom    2 type  1   force =     0.00000000    0.00000000    0.00000000
     atom    3 type  2   force =     0.00000000    0.00000000    0.00000000
     atom    4 type  2   force =     0.00000000    0.00000000    0.00000000
     atom    5 type  3   force =     0.00000000    0.00018719    0.00000000
     atom    6 type  3   force =     0.00000000   -0.00018719    0.00000000
     atom    7 type  3   force =     0.00018719   -0.00000000   -0.00000000
     atom    8 type  3   force =    -0.00018719   -0.00000000   -0.00000000
     atom    9 type  3   force =     0.00000000    0.00000000    0.00000000
     atom   10 type  3   force =     0.00000000    0.00000000    0.00000000

     Total force =     0.000374     Total SCF correction =     0.000015
     Message from routine punch:
     Nothing written, as per user request (disk_io='none')

     init_run     :      7.70s CPU      8.94s WALL (       1 calls)
     electrons    :    102.82s CPU    116.32s WALL (       1 calls)
     forces       :      3.63s CPU      4.39s WALL (       1 calls)

     Called by init_run:
     wfcinit      :      3.19s CPU      3.36s WALL (       1 calls)
     potinit      :      1.50s CPU      1.77s WALL (       1 calls)
     hinit0       :      2.01s CPU      2.09s WALL (       1 calls)

     Called by electrons:
     c_bands      :     70.11s CPU     72.58s WALL (      10 calls)
     sum_band     :     18.46s CPU     23.69s WALL (      10 calls)
     v_of_rho     :      7.38s CPU      8.79s WALL (      10 calls)
     newd         :      6.59s CPU     11.80s WALL (      10 calls)
     mix_rho      :      0.63s CPU      0.65s WALL (      10 calls)

     Called by c_bands:
     init_us_2    :      2.77s CPU      2.83s WALL (      66 calls)
     cegterg      :     59.40s CPU     61.85s WALL (      30 calls)

     Called by *egterg:
     cdiaghg      :      0.37s CPU      0.37s WALL (     132 calls)
     h_psi        :     44.74s CPU     45.76s WALL (     138 calls)
     s_psi        :      4.74s CPU      4.74s WALL (     138 calls)
     g_psi        :      0.37s CPU      0.37s WALL (     105 calls)

     Called by h_psi:
     h_psi:calbec :      4.94s CPU      5.00s WALL (     138 calls)
     vloc_psi     :     34.65s CPU     34.73s WALL (     138 calls)
                                        0.00s GPU  (     138 calls)
     add_vuspsi   :      4.80s CPU      4.86s WALL (     138 calls)

     General routines
     calbec       :      7.19s CPU      7.26s WALL (     180 calls)
     fft          :      4.22s CPU      4.24s WALL (     140 calls)
     ffts         :      0.74s CPU      0.74s WALL (      20 calls)
     fftw         :     33.44s CPU     33.49s WALL (   10124 calls)
     interpolate  :      1.11s CPU      1.12s WALL (      10 calls)

     Parallel routines

     PWSCF        :   1m55.04s CPU   2m10.64s WALL


   This run was terminated on:   9:12: 4  27Sep2026            

=------------------------------------------------------------------------------=
   JOB DONE.
=------------------------------------------------------------------------------=
