
     Program PWSCF v.7.5 starts on 27Sep2026 at  9:45:21 

     This program is part of the open-source Quantum ESPRESSO suite
     for quantum simulation of materials; please cite
         "P. Giannozzi et al., J. Phys.:Condens. Matter 21 395502 (2009);
         "P. Giannozzi et al., J. Phys.:Condens. Matter 29 465901 (2017);
         "P. Giannozzi et al., J. Chem. Phys. 152 154105 (2020);
          URL http://www.quantum-espresso.org", 
     in publications or presentations arising from this work. More details at
     http://www.quantum-espresso.org/quote

     Parallel version (MPI & OpenMP), running on       8 processor cores
     Number of MPI processes:                 8
     Threads/MPI process:                     1

     MPI processes distributed on     1 nodes
     74179 MiB available memory on the printing compute node when the environment starts

     Reading input from pw.in

     Current dimensions of program PWSCF are:
     Max number of different atomic species (ntypx) = 10
     Max number of k-points (npk) =  40000
     Max angular momentum in pseudopotentials (lmaxx) =  4
     file K.pbe-spn-kjpaw_psl.1.0.0.UPF: wavefunction(s)  3S renormalized
     file Nb.pbe-spn-kjpaw_psl.0.3.0.UPF: wavefunction(s)  4S 4P renormalized
     file O.pbe-n-kjpaw_psl.0.1.UPF: wavefunction(s)  2P renormalized

     K-points division:     npool     =       8
     Subspace diagonalization in iterative solution of the eigenvalue problem:
     a serial algorithm will be used


     G-vector sticks info
     --------------------
     sticks:   dense  smooth     PW     G-vecs:    dense   smooth      PW
     Sum        3179    1581    453               160337    56741    8429

     Using Slab Decomposition



     bravais-lattice index     =            0
     lattice parameter (alat)  =       7.6705  a.u.
     unit-cell volume          =     902.1575 (a.u.)^3
     number of atoms/cell      =           10
     number of atomic types    =            3
     number of electrons       =        80.00
     number of Kohn-Sham states=           48
     kinetic-energy cutoff     =      60.0000  Ry
     charge density cutoff     =     480.0000  Ry
     scf convergence threshold =      1.0E-09
     mixing beta               =       0.4000
     number of iterations used =            8  plain     mixing
     Exchange-correlation= SLA  PW   PBX  PBC
                           (   1   4   3   4   0   0   0)

     celldm(1)=   7.670485  celldm(2)=   0.000000  celldm(3)=   0.000000
     celldm(4)=   0.000000  celldm(5)=   0.000000  celldm(6)=   0.000000

     crystal axes: (cart. coord. in units of alat)
               a(1) = (   0.000002   0.000002   1.000000 )  
               a(2) = (   0.999769  -0.999732   0.000000 )  
               a(3) = (   0.999770   0.999733   0.000004 )  

     reciprocal axes: (cart. coord. in units 2 pi/alat)
               b(1) = ( -0.000002 -0.000002  1.000000 )  
               b(2) = (  0.500115 -0.500134 -0.000000 )  
               b(3) = (  0.500115  0.500133 -0.000002 )  


     PseudoPot. # 1 for K  read from file:
     /root/sssp/upf/K.pbe-spn-kjpaw_psl.1.0.0.UPF
     MD5 check sum: 7d58810084cac21f60fbe77ea2b688fd
     Pseudo is Projector augmented-wave + core cor, Zval =  9.0
     Generated using "atomic" code by A. Dal Corso  v.5.1
     Shape of augmentation charge: PSQ
     Using radial grid of 1165 points,  6 beta functions with: 
                l(1) =   0
                l(2) =   0
                l(3) =   1
                l(4) =   1
                l(5) =   2
                l(6) =   2
     Q(r) pseudized with 0 coefficients 


     PseudoPot. # 2 for Nb read from file:
     /root/sssp/upf/Nb.pbe-spn-kjpaw_psl.0.3.0.UPF
     MD5 check sum: 411d72ad547312f8017e2943ceca08cc
     Pseudo is Projector augmented-wave + core cor, Zval = 13.0
     Generated using "atomic" code by A. Dal Corso  v.5.0.99 svn rev. 10869
     Shape of augmentation charge: PSQ
     Using radial grid of 1227 points,  6 beta functions with: 
                l(1) =   0
                l(2) =   0
                l(3) =   1
                l(4) =   1
                l(5) =   2
                l(6) =   2
     Q(r) pseudized with 0 coefficients 


     PseudoPot. # 3 for O  read from file:
     /root/sssp/upf/O.pbe-n-kjpaw_psl.0.1.UPF
     MD5 check sum: 0234752ac141de4415c5fc33072bef88
     Pseudo is Projector augmented-wave + core cor, Zval =  6.0
     Generated using "atomic" code by A. Dal Corso  v.5.0.99 svn rev. 10869
     Shape of augmentation charge: BESSEL
     Using radial grid of 1095 points,  4 beta functions with: 
                l(1) =   0
                l(2) =   0
                l(3) =   1
                l(4) =   1
     Q(r) pseudized with 0 coefficients 


     atomic species   valence    mass     pseudopotential
     K                 9.00    39.09830     K ( 1.00)
     Nb               13.00    92.90640     Nb( 1.00)
     O                 6.00    15.99900     O ( 1.00)

     No symmetry found



   Cartesian axes

     site n.     atom                  positions (alat units)
         1        K      tau(   1) = (   0.9997717   0.0000057   0.0000026  )
         2        K      tau(   2) = (   1.9995355   0.0000086   1.0000009  )
         3        Nb     tau(   3) = (   0.4998830   0.4998516   0.4986306  )
         4        Nb     tau(   4) = (   0.4998840  -0.4998542   0.5013663  )
         5        O      tau(   5) = (   0.9997737  -0.4998646   0.4999991  )
         6        O      tau(   6) = (   0.9997746   0.4998690   0.5000031  )
         7        O      tau(   7) = (   1.4996586  -0.0000004   0.5000108  )
         8        O      tau(   8) = (   0.4998863  -0.0000013   0.5000098  )
         9        O      tau(   9) = (   0.4998878   0.4998652   0.0000232  )
        10        O      tau(  10) = (   1.4996547   0.4998672   0.9999757  )

     number of k points=    88  Marzari-Vanderbilt smearing, width (Ry)=  0.0050
                       cart. coord. in units 2pi/alat
        k(    1) = (   0.0000000   0.0000000   0.0000000), wk =   0.0114286
        k(    2) = (   0.1000230   0.1000267  -0.0000004), wk =   0.0228571
        k(    3) = (   0.2000459   0.2000534  -0.0000008), wk =   0.0228571
        k(    4) = (   0.1000231  -0.1000268  -0.0000000), wk =   0.0228571
        k(    5) = (   0.2000460  -0.0000001  -0.0000004), wk =   0.0228571
        k(    6) = (   0.3000690   0.1000266  -0.0000008), wk =   0.0228571
        k(    7) = (  -0.1000228  -0.3000802   0.0000007), wk =   0.0228571
        k(    8) = (   0.0000001  -0.2000535   0.0000003), wk =   0.0228571
        k(    9) = (   0.2000461  -0.2000536  -0.0000001), wk =   0.0228571
        k(   10) = (   0.3000691  -0.1000269  -0.0000004), wk =   0.0228571
        k(   11) = (   0.4000921  -0.0000002  -0.0000008), wk =   0.0228571
        k(   12) = (   0.0000002  -0.4001070   0.0000007), wk =   0.0228571
        k(   13) = (   0.1000232  -0.3000803   0.0000003), wk =   0.0228571
        k(   14) = (  -0.0000003  -0.0000002   0.1428571), wk =   0.0228571
        k(   15) = (   0.1000227   0.1000264   0.1428568), wk =   0.0228571
        k(   16) = (   0.2000456   0.2000531   0.1428564), wk =   0.0228571
        k(   17) = (  -0.2000462  -0.2000536   0.1428579), wk =   0.0228571
        k(   18) = (  -0.1000232  -0.1000269   0.1428575), wk =   0.0228571
        k(   19) = (   0.1000228  -0.1000270   0.1428571), wk =   0.0228571
        k(   20) = (   0.2000457  -0.0000004   0.1428567), wk =   0.0228571
        k(   21) = (   0.3000687   0.1000263   0.1428564), wk =   0.0228571
        k(   22) = (  -0.1000231  -0.3000804   0.1428579), wk =   0.0228571
        k(   23) = (  -0.0000002  -0.2000537   0.1428575), wk =   0.0228571
        k(   24) = (   0.2000458  -0.2000538   0.1428571), wk =   0.0228571
        k(   25) = (   0.3000688  -0.1000272   0.1428567), wk =   0.0228571
        k(   26) = (   0.4000918  -0.0000005   0.1428563), wk =   0.0228571
        k(   27) = (  -0.0000001  -0.4001072   0.1428578), wk =   0.0228571
        k(   28) = (   0.1000229  -0.3000805   0.1428575), wk =   0.0228571
        k(   29) = (  -0.2000464   0.2000533   0.1428572), wk =   0.0228571
        k(   30) = (  -0.1000235   0.3000800   0.1428568), wk =   0.0228571
        k(   31) = (  -0.0000005   0.4001067   0.1428565), wk =   0.0228571
        k(   32) = (  -0.4000923  -0.0000000   0.1428580), wk =   0.0228571
        k(   33) = (  -0.3000694   0.1000267   0.1428576), wk =   0.0228571
        k(   34) = (  -0.1000234   0.1000265   0.1428572), wk =   0.0228571
        k(   35) = (  -0.0000004   0.2000532   0.1428568), wk =   0.0228571
        k(   36) = (   0.1000226   0.3000799   0.1428564), wk =   0.0228571
        k(   37) = (  -0.3000693  -0.1000268   0.1428579), wk =   0.0228571
        k(   38) = (  -0.2000463  -0.0000001   0.1428575), wk =   0.0228571
        k(   39) = (  -0.0000006  -0.0000005   0.2857143), wk =   0.0228571
        k(   40) = (   0.1000224   0.1000262   0.2857139), wk =   0.0228571
        k(   41) = (   0.2000453   0.2000529   0.2857135), wk =   0.0228571
        k(   42) = (  -0.2000465  -0.2000539   0.2857150), wk =   0.0228571
        k(   43) = (  -0.1000235  -0.1000272   0.2857147), wk =   0.0228571
        k(   44) = (   0.1000225  -0.1000273   0.2857143), wk =   0.0228571
        k(   45) = (   0.2000454  -0.0000006   0.2857139), wk =   0.0228571
        k(   46) = (   0.3000684   0.1000261   0.2857135), wk =   0.0228571
        k(   47) = (  -0.1000234  -0.3000807   0.2857150), wk =   0.0228571
        k(   48) = (  -0.0000005  -0.2000540   0.2857146), wk =   0.0228571
        k(   49) = (   0.2000456  -0.2000541   0.2857142), wk =   0.0228571
        k(   50) = (   0.3000685  -0.1000274   0.2857138), wk =   0.0228571
        k(   51) = (   0.4000915  -0.0000007   0.2857135), wk =   0.0228571
        k(   52) = (  -0.0000004  -0.4001074   0.2857150), wk =   0.0228571
        k(   53) = (   0.1000226  -0.3000808   0.2857146), wk =   0.0228571
        k(   54) = (  -0.2000467   0.2000531   0.2857143), wk =   0.0228571
        k(   55) = (  -0.1000238   0.3000798   0.2857140), wk =   0.0228571
        k(   56) = (  -0.0000008   0.4001065   0.2857136), wk =   0.0228571
        k(   57) = (  -0.4000926  -0.0000003   0.2857151), wk =   0.0228571
        k(   58) = (  -0.3000697   0.1000264   0.2857147), wk =   0.0228571
        k(   59) = (  -0.1000236   0.1000263   0.2857143), wk =   0.0228571
        k(   60) = (  -0.0000007   0.2000530   0.2857139), wk =   0.0228571
        k(   61) = (   0.1000223   0.3000797   0.2857136), wk =   0.0228571
        k(   62) = (  -0.3000696  -0.1000271   0.2857151), wk =   0.0228571
        k(   63) = (  -0.2000466  -0.0000004   0.2857147), wk =   0.0228571
        k(   64) = (  -0.0000009  -0.0000007   0.4285714), wk =   0.0228571
        k(   65) = (   0.1000221   0.1000259   0.4285711), wk =   0.0228571
        k(   66) = (   0.2000450   0.2000526   0.4285707), wk =   0.0228571
        k(   67) = (  -0.2000468  -0.2000541   0.4285722), wk =   0.0228571
        k(   68) = (  -0.1000238  -0.1000274   0.4285718), wk =   0.0228571
        k(   69) = (   0.1000222  -0.1000275   0.4285714), wk =   0.0228571
        k(   70) = (   0.2000452  -0.0000008   0.4285710), wk =   0.0228571
        k(   71) = (   0.3000681   0.1000258   0.4285706), wk =   0.0228571
        k(   72) = (  -0.1000237  -0.3000809   0.4285721), wk =   0.0228571
        k(   73) = (  -0.0000008  -0.2000542   0.4285718), wk =   0.0228571
        k(   74) = (   0.2000453  -0.2000543   0.4285714), wk =   0.0228571
        k(   75) = (   0.3000682  -0.1000276   0.4285710), wk =   0.0228571
        k(   76) = (   0.4000912  -0.0000010   0.4285706), wk =   0.0228571
        k(   77) = (  -0.0000006  -0.4001077   0.4285721), wk =   0.0228571
        k(   78) = (   0.1000223  -0.3000810   0.4285717), wk =   0.0228571
        k(   79) = (  -0.2000470   0.2000529   0.4285715), wk =   0.0228571
        k(   80) = (  -0.1000241   0.3000795   0.4285711), wk =   0.0228571
        k(   81) = (  -0.0000011   0.4001062   0.4285707), wk =   0.0228571
        k(   82) = (  -0.4000929  -0.0000005   0.4285722), wk =   0.0228571
        k(   83) = (  -0.3000700   0.1000262   0.4285719), wk =   0.0228571
        k(   84) = (  -0.1000239   0.1000261   0.4285715), wk =   0.0228571
        k(   85) = (  -0.0000010   0.2000527   0.4285711), wk =   0.0228571
        k(   86) = (   0.1000220   0.3000794   0.4285707), wk =   0.0228571
        k(   87) = (  -0.3000699  -0.1000273   0.4285722), wk =   0.0228571
        k(   88) = (  -0.2000469  -0.0000006   0.4285718), wk =   0.0228571

     Dense  grid:   160337 G-vectors     FFT dimensions: (  54,  75,  75)

     Smooth grid:    56741 G-vectors     FFT dimensions: (  40,  54,  54)

     Estimated max dynamical RAM per process >     240.01 MB

     Estimated total dynamical RAM >       1.61 GB

     Check: negative core charge=   -0.000003

     Initial potential from superposition of free atoms

     starting charge      79.9581, renormalised to      80.0000
     Starting wfcs are   60 randomized atomic wfcs
     Checking if some PAW data can be deallocated... 

     total cpu time spent up to now is        5.3 secs

     per-process dynamical memory:   165.8 Mb

     Self-consistent Calculation

     iteration #  1     ecut=    60.00 Ry     beta= 0.40
     Davidson diagonalization with overlap
     ethr =  1.00E-02,  avg # of iterations =  2.0

     total cpu time spent up to now is       11.6 secs

     total energy              =   -1143.92895327 Ry
     estimated scf accuracy    <       5.17609958 Ry

     iteration #  2     ecut=    60.00 Ry     beta= 0.40
     Davidson diagonalization with overlap
     ethr =  6.47E-03,  avg # of iterations =  4.1

     total cpu time spent up to now is       18.8 secs

     total energy              =   -1145.15309406 Ry
     estimated scf accuracy    <       1.68314507 Ry

     iteration #  3     ecut=    60.00 Ry     beta= 0.40
     Davidson diagonalization with overlap
     ethr =  2.10E-03,  avg # of iterations =  2.7

     total cpu time spent up to now is       24.4 secs

     total energy              =   -1145.53513130 Ry
     estimated scf accuracy    <       0.11575425 Ry

     iteration #  4     ecut=    60.00 Ry     beta= 0.40
     Davidson diagonalization with overlap
     ethr =  1.45E-04,  avg # of iterations =  5.7

     total cpu time spent up to now is       31.5 secs

     total energy              =   -1145.52434327 Ry
     estimated scf accuracy    <       0.04415509 Ry

     iteration #  5     ecut=    60.00 Ry     beta= 0.40
     Davidson diagonalization with overlap
     ethr =  5.52E-05,  avg # of iterations =  6.4

     total cpu time spent up to now is       40.1 secs

     total energy              =   -1145.54117040 Ry
     estimated scf accuracy    <       0.03465217 Ry

     iteration #  6     ecut=    60.00 Ry     beta= 0.40
     Davidson diagonalization with overlap
     ethr =  4.33E-05,  avg # of iterations =  1.0

     total cpu time spent up to now is       45.7 secs

     total energy              =   -1145.53868249 Ry
     estimated scf accuracy    <       0.01850662 Ry

     iteration #  7     ecut=    60.00 Ry     beta= 0.40
     Davidson diagonalization with overlap
     ethr =  2.31E-05,  avg # of iterations =  1.5

     total cpu time spent up to now is       51.5 secs

     total energy              =   -1145.53541669 Ry
     estimated scf accuracy    <       0.00805265 Ry

     iteration #  8     ecut=    60.00 Ry     beta= 0.40
     Davidson diagonalization with overlap
     ethr =  1.01E-05,  avg # of iterations =  4.8

     total cpu time spent up to now is       59.0 secs

     total energy              =   -1145.53731522 Ry
     estimated scf accuracy    <       0.00015118 Ry

     iteration #  9     ecut=    60.00 Ry     beta= 0.40
     Davidson diagonalization with overlap
     ethr =  1.89E-07,  avg # of iterations =  4.2

     total cpu time spent up to now is       66.2 secs

     total energy              =   -1145.53733409 Ry
     estimated scf accuracy    <       0.00023073 Ry

     iteration # 10     ecut=    60.00 Ry     beta= 0.40
     Davidson diagonalization with overlap
     ethr =  1.89E-07,  avg # of iterations =  1.0

     total cpu time spent up to now is       71.6 secs

     total energy              =   -1145.53725462 Ry
     estimated scf accuracy    <       0.00017910 Ry

     iteration # 11     ecut=    60.00 Ry     beta= 0.40
     Davidson diagonalization with overlap
     ethr =  1.89E-07,  avg # of iterations =  2.2

     total cpu time spent up to now is       78.1 secs

     total energy              =   -1145.53729212 Ry
     estimated scf accuracy    <       0.00000216 Ry

     iteration # 12     ecut=    60.00 Ry     beta= 0.40
     Davidson diagonalization with overlap
     ethr =  2.70E-09,  avg # of iterations =  4.1

     total cpu time spent up to now is       85.3 secs

     total energy              =   -1145.53729219 Ry
     estimated scf accuracy    <       0.00000176 Ry

     iteration # 13     ecut=    60.00 Ry     beta= 0.40
     Davidson diagonalization with overlap
     ethr =  2.20E-09,  avg # of iterations =  1.0

     total cpu time spent up to now is       90.7 secs

     total energy              =   -1145.53729207 Ry
     estimated scf accuracy    <       0.00000055 Ry

     iteration # 14     ecut=    60.00 Ry     beta= 0.40
     Davidson diagonalization with overlap
     ethr =  6.85E-10,  avg # of iterations =  3.3

     total cpu time spent up to now is       97.1 secs

     total energy              =   -1145.53729213 Ry
     estimated scf accuracy    <       0.00000004 Ry

     iteration # 15     ecut=    60.00 Ry     beta= 0.40
     Davidson diagonalization with overlap
     ethr =  5.59E-11,  avg # of iterations =  4.0

     total cpu time spent up to now is      104.5 secs

     total energy              =   -1145.53729214 Ry
     estimated scf accuracy    <          2.5E-09 Ry

     iteration # 16     ecut=    60.00 Ry     beta= 0.40
     Davidson diagonalization with overlap
     ethr =  3.07E-12,  avg # of iterations =  4.1

     total cpu time spent up to now is      111.5 secs

     End of self-consistent calculation

          k = 0.0000 0.0000 0.0000 (  7107 PWs)   bands (ev):

   -47.1697 -47.1661 -23.3030 -23.3029 -23.1965 -23.1964 -23.1960 -23.1886
   -19.4286 -19.3978  -9.1104  -8.8039  -8.6711  -8.6689  -7.8958  -7.8956
    -2.9674  -2.9674  -2.9620  -2.9617  -2.9616  -2.8799   2.7740   3.1873
     3.6707   5.2640   5.2645   5.6949   5.6959   5.6960   6.3847   6.5811
     6.5812   6.9454   6.9466   6.9468   7.2931   7.2932   7.2932   7.9049
     9.4075   9.4077   9.4078  11.8882  11.8885  12.8733  12.8911  12.8941

          k = 0.1000 0.1000-0.0000 (  7081 PWs)   bands (ev):

   -47.1694 -47.1664 -23.2934 -23.2929 -23.2072 -23.2067 -23.1953 -23.1893
   -19.4246 -19.3997  -9.0558  -8.8240  -8.6391  -8.6037  -7.9993  -7.9775
    -2.9692  -2.9637  -2.9559  -2.9411  -2.9353  -2.8896   3.0400   3.4435
     3.8697   5.3214   5.3707   5.4376   5.4774   5.6688   6.4289   6.5026
     6.5213   6.5936   6.6729   6.9526   6.9575   7.0668   7.1354   7.7786
     9.6860   9.7531   9.9439  11.6604  11.7007  12.5921  13.0976  13.5285

          k = 0.2000 0.2001-0.0000 (  7116 PWs)   bands (ev):

   -47.1685 -47.1673 -23.2677 -23.2665 -23.2348 -23.2336 -23.1934 -23.1911
   -19.4152 -19.4057  -8.9509  -8.8746  -8.5057  -8.4213  -8.2502  -8.1828
    -2.9708  -2.9682  -2.9383  -2.9131  -2.8966  -2.8937   3.7628   4.0707
     4.4919   4.7193   4.8034   5.4555   5.4822   5.5874   5.6797   6.1503
     6.4582   6.5736   6.5906   6.6394   6.7433   6.8310   7.1735   7.4774
    10.3314  10.4675  10.9113  11.0697  11.1847  11.8629  13.5032  13.8585

          k = 0.1000-0.1000-0.0000 (  7081 PWs)   bands (ev):

   -47.1694 -47.1664 -23.2934 -23.2929 -23.2072 -23.2067 -23.1953 -23.1893
   -19.4246 -19.3997  -9.0558  -8.8240  -8.6391  -8.6037  -7.9993  -7.9775
    -2.9692  -2.9637  -2.9559  -2.9411  -2.9353  -2.8896   3.0400   3.4435
     3.8697   5.3214   5.3707   5.4376   5.4774   5.6688   6.4289   6.5026
     6.5213   6.5936   6.6729   6.9526   6.9575   7.0668   7.1354   7.7786
     9.6860   9.7531   9.9439  11.6604  11.7007  12.5921  13.0976  13.5285

          k = 0.2000-0.0000-0.0000 (  7079 PWs)   bands (ev):

   -47.1691 -47.1667 -23.3050 -23.2653 -23.2357 -23.1952 -23.1947 -23.1899
   -19.4212 -19.4011  -9.0528  -8.8494  -8.6629  -8.4534  -8.2271  -7.8790
    -2.9560  -2.9513  -2.9510  -2.9287  -2.9233  -2.8978   2.9414   3.9898
     4.0540   4.7962   5.3420   5.4802   5.6459   5.6470   6.4173   6.4186
     6.4679   6.4910   6.5351   6.6016   6.8000   7.1784   7.1790   7.6151
     9.4423  10.3800  10.3802  11.1428  11.8804  12.4227  12.8979  13.9796

          k = 0.3001 0.1000-0.0000 (  7102 PWs)   bands (ev):

   -47.1683 -47.1674 -23.2964 -23.2699 -23.2317 -23.2048 -23.1932 -23.1914
   -19.4133 -19.4056  -9.0039  -8.9178  -8.6182  -8.4705  -8.1934  -7.9625
    -2.9525  -2.9502  -2.9376  -2.9172  -2.8881  -2.8857   3.2207   3.9183
     4.5703   4.9112   5.2753   5.4499   5.5722   5.7103   5.7454   6.0312
     6.3785   6.3900   6.6864   6.6872   6.8756   6.9422   6.9840   7.2351
     9.7647  10.4332  11.1051  11.1840  11.6653  11.9247  13.1925  13.6753

          k =-0.1000-0.3001 0.0000 (  7098 PWs)   bands (ev):

   -47.1683 -47.1674 -23.2962 -23.2701 -23.2318 -23.2047 -23.1932 -23.1914
   -19.4133 -19.4056  -9.0037  -8.9178  -8.6179  -8.4709  -8.1938  -7.9623
    -2.9524  -2.9502  -2.9376  -2.9172  -2.8881  -2.8857   3.2213   3.9179
     4.5704   4.9110   5.2751   5.4503   5.5720   5.7101   5.7454   6.0312
     6.3785   6.3899   6.6864   6.6871   6.8756   6.9422   6.9842   7.2351
     9.7647  10.4333  11.1053  11.1843  11.6650  11.9244  13.1922  13.6754

          k = 0.0000-0.2001 0.0000 (  7079 PWs)   bands (ev):

   -47.1691 -47.1667 -23.3049 -23.2654 -23.2358 -23.1951 -23.1947 -23.1899
   -19.4212 -19.4011  -9.0526  -8.8494  -8.6626  -8.4538  -8.2274  -7.8788
    -2.9559  -2.9513  -2.9510  -2.9287  -2.9233  -2.8978   2.9420   3.9894
     4.0541   4.7960   5.3425   5.4798   5.6459   5.6468   6.4171   6.4183
     6.4679   6.4910   6.5352   6.6016   6.8002   7.1785   7.1790   7.6151
     9.4423  10.3801  10.3803  11.1430  11.8800  12.4225  12.8976  13.9796

          k = 0.2000-0.2001-0.0000 (  7116 PWs)   bands (ev):

   -47.1685 -47.1673 -23.2677 -23.2665 -23.2348 -23.2336 -23.1934 -23.1911
   -19.4152 -19.4057  -8.9509  -8.8746  -8.5057  -8.4213  -8.2502  -8.1828
    -2.9708  -2.9682  -2.9383  -2.9131  -2.8966  -2.8937   3.7628   4.0707
     4.4919   4.7193   4.8034   5.4555   5.4822   5.5874   5.6797   6.1503
     6.4582   6.5736   6.5906   6.6394   6.7433   6.8310   7.1735   7.4774
    10.3314  10.4676  10.9113  11.0697  11.1847  11.8629  13.5032  13.8585

          k = 0.3001-0.1000-0.0000 (  7102 PWs)   bands (ev):

   -47.1683 -47.1674 -23.2964 -23.2699 -23.2317 -23.2048 -23.1932 -23.1914
   -19.4133 -19.4056  -9.0039  -8.9178  -8.6182  -8.4705  -8.1934  -7.9625
    -2.9525  -2.9502  -2.9376  -2.9172  -2.8881  -2.8857   3.2207   3.9183
     4.5703   4.9112   5.2753   5.4499   5.5722   5.7103   5.7454   6.0312
     6.3785   6.3899   6.6864   6.6872   6.8756   6.9422   6.9840   7.2351
     9.7647  10.4332  11.1051  11.1840  11.6653  11.9247  13.1925  13.6753

          k = 0.4001-0.0000-0.0000 (  7073 PWs)   bands (ev):

   -47.1681 -47.1677 -23.3083 -23.2982 -23.2034 -23.1931 -23.1926 -23.1919
   -19.4092 -19.4063  -9.0583  -9.0142  -8.6520  -8.6111  -7.9470  -7.8522
    -2.9347  -2.9340  -2.9336  -2.9262  -2.8615  -2.8606   2.9723   3.2331
     5.0597   5.4704   5.5258   5.5265   5.5923   5.7728   5.8706   5.8721
     6.0078   6.1933   6.5783   6.7576   6.9041   6.9484   7.1146   7.1151
     9.4995   9.7964  11.6538  11.6542  11.8676  11.9247  12.9064  13.2001

          k = 0.0000-0.4001 0.0000 (  7073 PWs)   bands (ev):

   -47.1681 -47.1677 -23.3082 -23.2983 -23.2035 -23.1930 -23.1926 -23.1919
   -19.4092 -19.4063  -9.0580  -9.0144  -8.6518  -8.6114  -7.9473  -7.8520
    -2.9347  -2.9340  -2.9337  -2.9262  -2.8616  -2.8605   2.9729   3.2325
     5.0600   5.4710   5.5253   5.5260   5.5922   5.7726   5.8707   5.8720
     6.0080   6.1933   6.5784   6.7575   6.9041   6.9483   7.1147   7.1151
     9.4995   9.7964  11.6542  11.6546  11.8672  11.9243  12.9061  13.2004

          k = 0.1000-0.3001 0.0000 (  7098 PWs)   bands (ev):

   -47.1683 -47.1674 -23.2962 -23.2701 -23.2318 -23.2047 -23.1932 -23.1914
   -19.4133 -19.4056  -9.0037  -8.9178  -8.6179  -8.4709  -8.1938  -7.9623
    -2.9524  -2.9502  -2.9376  -2.9172  -2.8881  -2.8857   3.2213   3.9179
     4.5704   4.9110   5.2751   5.4503   5.5720   5.7101   5.7454   6.0312
     6.3785   6.3899   6.6864   6.6871   6.8756   6.9422   6.9842   7.2351
     9.7647  10.4333  11.1053  11.1843  11.6650  11.9244  13.1922  13.6754

          k =-0.0000-0.0000 0.1429 (  7095 PWs)   bands (ev):

   -47.1694 -47.1658 -23.3022 -23.3021 -23.2174 -23.2095 -23.1958 -23.1957
   -19.4246 -19.3956  -9.0695  -8.6675  -8.6370  -8.5634  -7.8832  -7.8830
    -3.0050  -3.0050  -2.9559  -2.9558  -2.9411  -2.9369   2.7764   3.1841
     3.7722   4.9376   4.9380   5.2319   5.6300   5.6705   5.6707   6.6388
     6.6390   6.7935   6.8646   6.9744   6.9745   7.2076   7.2077   7.9114
     9.4262   9.9748   9.9748  12.0400  12.0404  12.8915  12.8973  13.6446

          k = 0.1000 0.1000 0.1429 (  7099 PWs)   bands (ev):

   -47.1690 -47.1661 -23.2925 -23.2921 -23.2167 -23.2102 -23.2064 -23.2060
   -19.4210 -19.3975  -8.9952  -8.6580  -8.5994  -8.5508  -7.9899  -7.9660
    -3.0021  -2.9965  -2.9640  -2.9617  -2.9120  -2.9075   3.0424   3.4391
     3.9490   4.9615   5.0267   5.2018   5.3977   5.4593   5.6624   6.2601
     6.2784   6.6143   6.9374   6.9830   6.9896   7.0373   7.0532   7.7828
     9.9446  10.1572  10.1935  11.8205  11.8600  12.6097  13.5309  13.8872

          k = 0.2000 0.2001 0.1429 (  7098 PWs)   bands (ev):

   -47.1681 -47.1670 -23.2668 -23.2658 -23.2340 -23.2329 -23.2146 -23.2122
   -19.4124 -19.4035  -8.8313  -8.7160  -8.4693  -8.4152  -8.2429  -8.1740
    -2.9922  -2.9828  -2.9763  -2.9721  -2.8663  -2.8626   3.7658   4.0617
     4.5071   4.7210   4.7643   5.0518   5.1076   5.2875   5.5123   5.7072
     5.7544   5.9815   6.9132   6.9670   6.9892   6.9998   7.2126   7.4834
    10.6183  10.7433  10.9385  11.2692  11.3759  11.8829  14.3476  14.7293

          k =-0.2000-0.2001 0.1429 (  7098 PWs)   bands (ev):

   -47.1681 -47.1670 -23.2668 -23.2658 -23.2340 -23.2329 -23.2146 -23.2122
   -19.4124 -19.4035  -8.8313  -8.7160  -8.4693  -8.4152  -8.2429  -8.1740
    -2.9922  -2.9828  -2.9763  -2.9721  -2.8663  -2.8626   3.7658   4.0617
     4.5071   4.7210   4.7643   5.0518   5.1076   5.2875   5.5123   5.7072
     5.7544   5.9816   6.9133   6.9670   6.9892   6.9998   7.2126   7.4834
    10.6183  10.7433  10.9385  11.2692  11.3759  11.8829  14.3475  14.7293

          k =-0.1000-0.1000 0.1429 (  7099 PWs)   bands (ev):

   -47.1690 -47.1661 -23.2925 -23.2921 -23.2167 -23.2102 -23.2064 -23.2060
   -19.4210 -19.3975  -8.9952  -8.6581  -8.5994  -8.5508  -7.9899  -7.9660
    -3.0021  -2.9965  -2.9640  -2.9617  -2.9120  -2.9075   3.0424   3.4391
     3.9490   4.9615   5.0266   5.2019   5.3977   5.4593   5.6624   6.2601
     6.2784   6.6143   6.9374   6.9830   6.9896   7.0373   7.0532   7.7828
     9.9446  10.1572  10.1935  11.8205  11.8600  12.6097  13.5309  13.8872

          k = 0.1000-0.1000 0.1429 (  7099 PWs)   bands (ev):

   -47.1690 -47.1661 -23.2925 -23.2921 -23.2167 -23.2102 -23.2064 -23.2060
   -19.4210 -19.3975  -8.9952  -8.6581  -8.5994  -8.5508  -7.9899  -7.9660
    -3.0021  -2.9965  -2.9640  -2.9617  -2.9120  -2.9075   3.0424   3.4391
     3.9490   4.9615   5.0266   5.2019   5.3977   5.4593   5.6624   6.2601
     6.2784   6.6143   6.9374   6.9830   6.9896   7.0373   7.0532   7.7828
     9.9446  10.1572  10.1935  11.8205  11.8600  12.6097  13.5309  13.8872

          k = 0.2000-0.0000 0.1429 (  7078 PWs)   bands (ev):

   -47.1687 -47.1664 -23.3041 -23.2645 -23.2349 -23.2160 -23.2108 -23.1945
   -19.4179 -19.3990  -8.9858  -8.6869  -8.5794  -8.4484  -8.2123  -7.8738
    -3.0069  -2.9652  -2.9609  -2.9439  -2.9073  -2.9027   2.9406   3.9859
     4.1107   4.7797   4.9387   5.1253   5.1690   5.6164   5.7282   5.8123
     6.2857   6.6337   6.8335   6.9225   6.9408   6.9540   7.0816   7.6209
     9.9896  10.3990  10.6570  11.3487  12.0218  12.4400  13.3484  14.5215

          k = 0.3001 0.1000 0.1429 (  7091 PWs)   bands (ev):

   -47.1680 -47.1671 -23.2954 -23.2690 -23.2309 -23.2143 -23.2124 -23.2041
   -19.4108 -19.4035  -8.9080  -8.7771  -8.5481  -8.4378  -8.1971  -7.9635
    -2.9881  -2.9641  -2.9499  -2.9455  -2.8756  -2.8706   3.2177   3.9120
     4.5490   4.8882   5.0062   5.0167   5.2934   5.3057   5.4882   5.7045
     5.9447   6.3767   6.7699   6.8810   6.9411   6.9460   7.0753   7.2656
    10.2096  10.7320  11.1953  11.2863  11.8061  11.9427  13.7839  14.4461

          k =-0.1000-0.3001 0.1429 (  7091 PWs)   bands (ev):

   -47.1680 -47.1671 -23.2953 -23.2691 -23.2310 -23.2143 -23.2124 -23.2040
   -19.4108 -19.4035  -8.9077  -8.7772  -8.5479  -8.4381  -8.1974  -7.9633
    -2.9881  -2.9641  -2.9499  -2.9455  -2.8756  -2.8706   3.2182   3.9116
     4.5491   4.8880   5.0060   5.0170   5.2932   5.3055   5.4882   5.7045
     5.9446   6.3768   6.7699   6.8811   6.9412   6.9460   7.0752   7.2656
    10.2096  10.7321  11.1956  11.2865  11.8058  11.9425  13.7834  14.4464

          k =-0.0000-0.2001 0.1429 (  7076 PWs)   bands (ev):

   -47.1687 -47.1664 -23.3040 -23.2646 -23.2350 -23.2160 -23.2108 -23.1944
   -19.4179 -19.3990  -8.9855  -8.6869  -8.5792  -8.4487  -8.2126  -7.8736
    -3.0069  -2.9652  -2.9609  -2.9440  -2.9073  -2.9027   2.9412   3.9855
     4.1108   4.7795   4.9391   5.1250   5.1689   5.6162   5.7282   5.8122
     6.2854   6.6340   6.8338   6.9225   6.9409   6.9540   7.0815   7.6209
     9.9896  10.3991  10.6572  11.3489  12.0214  12.4398  13.3479  14.5219

          k = 0.2000-0.2001 0.1429 (  7098 PWs)   bands (ev):

   -47.1681 -47.1670 -23.2668 -23.2658 -23.2340 -23.2329 -23.2146 -23.2122
   -19.4124 -19.4035  -8.8313  -8.7160  -8.4693  -8.4152  -8.2429  -8.1740
    -2.9922  -2.9828  -2.9763  -2.9721  -2.8663  -2.8626   3.7658   4.0617
     4.5071   4.7210   4.7643   5.0518   5.1076   5.2875   5.5123   5.7072
     5.7544   5.9815   6.9132   6.9670   6.9892   6.9998   7.2126   7.4834
    10.6183  10.7433  10.9385  11.2692  11.3759  11.8829  14.3476  14.7293

          k = 0.3001-0.1000 0.1429 (  7091 PWs)   bands (ev):

   -47.1680 -47.1671 -23.2954 -23.2690 -23.2309 -23.2143 -23.2124 -23.2041
   -19.4108 -19.4035  -8.9080  -8.7771  -8.5481  -8.4378  -8.1971  -7.9635
    -2.9881  -2.9641  -2.9499  -2.9455  -2.8756  -2.8706   3.2177   3.9120
     4.5490   4.8882   5.0062   5.0167   5.2934   5.3057   5.4882   5.7046
     5.9447   6.3767   6.7699   6.8809   6.9410   6.9461   7.0753   7.2656
    10.2096  10.7320  11.1953  11.2863  11.8061  11.9427  13.7839  14.4461

          k = 0.4001-0.0000 0.1429 (  7070 PWs)   bands (ev):

   -47.1677 -47.1674 -23.3072 -23.2971 -23.2137 -23.2129 -23.2027 -23.1924
   -19.4073 -19.4045  -8.9718  -8.9109  -8.5664  -8.5399  -7.9554  -7.8591
    -2.9624  -2.9446  -2.9245  -2.9055  -2.8860  -2.8753   2.9676   3.2277
     4.7747   4.8831   5.1566   5.3243   5.3678   5.4854   5.5314   5.7926
     6.3122   6.4156   6.5904   6.7916   6.8377   6.9047   6.9806   6.9924
    10.0399  10.2424  11.6596  11.7882  11.9290  11.9975  13.4178  13.7861

          k =-0.0000-0.4001 0.1429 (  7070 PWs)   bands (ev):

   -47.1677 -47.1674 -23.3071 -23.2973 -23.2137 -23.2129 -23.2028 -23.1923
   -19.4073 -19.4045  -8.9714  -8.9112  -8.5662  -8.5401  -7.9556  -7.8589
    -2.9624  -2.9446  -2.9246  -2.9055  -2.8860  -2.8753   2.9682   3.2271
     4.7751   4.8828   5.1570   5.3242   5.3679   5.4849   5.5314   5.7925
     6.3124   6.4155   6.5904   6.7919   6.8377   6.9047   6.9805   6.9925
    10.0399  10.2424  11.6600  11.7885  11.9286  11.9972  13.4174  13.7866

          k = 0.1000-0.3001 0.1429 (  7091 PWs)   bands (ev):

   -47.1680 -47.1671 -23.2953 -23.2691 -23.2310 -23.2143 -23.2124 -23.2040
   -19.4108 -19.4035  -8.9077  -8.7772  -8.5479  -8.4381  -8.1974  -7.9633
    -2.9881  -2.9641  -2.9499  -2.9455  -2.8756  -2.8706   3.2182   3.9116
     4.5491   4.8880   5.0060   5.0170   5.2932   5.3055   5.4882   5.7045
     5.9446   6.3768   6.7699   6.8810   6.9412   6.9460   7.0752   7.2656
    10.2096  10.7321  11.1956  11.2865  11.8058  11.9425  13.7834  14.4464

          k =-0.2000 0.2001 0.1429 (  7098 PWs)   bands (ev):

   -47.1681 -47.1670 -23.2668 -23.2658 -23.2340 -23.2329 -23.2146 -23.2122
   -19.4124 -19.4035  -8.8313  -8.7160  -8.4693  -8.4152  -8.2429  -8.1740
    -2.9922  -2.9828  -2.9763  -2.9721  -2.8663  -2.8626   3.7658   4.0617
     4.5071   4.7210   4.7643   5.0518   5.1076   5.2875   5.5123   5.7072
     5.7544   5.9815   6.9133   6.9670   6.9892   6.9998   7.2126   7.4834
    10.6183  10.7433  10.9385  11.2692  11.3759  11.8829  14.3475  14.7293

          k =-0.1000 0.3001 0.1429 (  7091 PWs)   bands (ev):

   -47.1680 -47.1671 -23.2953 -23.2691 -23.2310 -23.2143 -23.2124 -23.2040
   -19.4108 -19.4035  -8.9077  -8.7772  -8.5479  -8.4381  -8.1974  -7.9633
    -2.9881  -2.9641  -2.9499  -2.9455  -2.8756  -2.8706   3.2182   3.9116
     4.5491   4.8880   5.0060   5.0170   5.2932   5.3055   5.4882   5.7045
     5.9446   6.3768   6.7699   6.8811   6.9411   6.9460   7.0752   7.2656
    10.2096  10.7321  11.1956  11.2865  11.8058  11.9425  13.7834  14.4464

          k =-0.0000 0.4001 0.1429 (  7070 PWs)   bands (ev):

   -47.1677 -47.1674 -23.3071 -23.2973 -23.2137 -23.2129 -23.2028 -23.1923
   -19.4073 -19.4045  -8.9714  -8.9112  -8.5662  -8.5401  -7.9556  -7.8589
    -2.9624  -2.9446  -2.9246  -2.9055  -2.8860  -2.8753   2.9682   3.2271
     4.7751   4.8828   5.1570   5.3242   5.3679   5.4849   5.5314   5.7925
     6.3124   6.4155   6.5904   6.7919   6.8377   6.9046   6.9805   6.9925
    10.0399  10.2424  11.6600  11.7885  11.9286  11.9972  13.4174  13.7866

          k =-0.4001-0.0000 0.1429 (  7070 PWs)   bands (ev):

   -47.1677 -47.1674 -23.3072 -23.2971 -23.2137 -23.2129 -23.2027 -23.1924
   -19.4073 -19.4045  -8.9718  -8.9109  -8.5664  -8.5399  -7.9554  -7.8591
    -2.9624  -2.9446  -2.9245  -2.9055  -2.8860  -2.8753   2.9676   3.2277
     4.7747   4.8831   5.1566   5.3243   5.3678   5.4854   5.5314   5.7926
     6.3122   6.4156   6.5904   6.7916   6.8377   6.9048   6.9806   6.9924
    10.0399  10.2423  11.6596  11.7882  11.9290  11.9975  13.4178  13.7861

          k =-0.3001 0.1000 0.1429 (  7091 PWs)   bands (ev):

   -47.1680 -47.1671 -23.2954 -23.2690 -23.2309 -23.2143 -23.2124 -23.2041
   -19.4108 -19.4035  -8.9080  -8.7771  -8.5481  -8.4377  -8.1971  -7.9635
    -2.9882  -2.9641  -2.9499  -2.9455  -2.8756  -2.8706   3.2177   3.9120
     4.5490   4.8882   5.0062   5.0167   5.2934   5.3057   5.4882   5.7045
     5.9447   6.3767   6.7699   6.8810   6.9411   6.9461   7.0753   7.2656
    10.2096  10.7320  11.1953  11.2863  11.8061  11.9427  13.7839  14.4461

          k =-0.1000 0.1000 0.1429 (  7099 PWs)   bands (ev):

   -47.1690 -47.1661 -23.2925 -23.2921 -23.2167 -23.2102 -23.2064 -23.2060
   -19.4210 -19.3975  -8.9952  -8.6581  -8.5994  -8.5508  -7.9899  -7.9660
    -3.0021  -2.9965  -2.9640  -2.9617  -2.9120  -2.9075   3.0424   3.4391
     3.9490   4.9615   5.0266   5.2019   5.3977   5.4593   5.6624   6.2601
     6.2784   6.6143   6.9374   6.9830   6.9896   7.0373   7.0532   7.7828
     9.9446  10.1572  10.1935  11.8205  11.8600  12.6097  13.5309  13.8872

          k =-0.0000 0.2001 0.1429 (  7076 PWs)   bands (ev):

   -47.1687 -47.1664 -23.3040 -23.2646 -23.2350 -23.2160 -23.2108 -23.1944
   -19.4179 -19.3990  -8.9855  -8.6869  -8.5792  -8.4487  -8.2126  -7.8736
    -3.0069  -2.9652  -2.9609  -2.9440  -2.9073  -2.9027   2.9412   3.9855
     4.1108   4.7795   4.9391   5.1250   5.1689   5.6162   5.7282   5.8122
     6.2854   6.6340   6.8338   6.9225   6.9409   6.9540   7.0815   7.6209
     9.9896  10.3991  10.6572  11.3489  12.0214  12.4398  13.3479  14.5219

          k = 0.1000 0.3001 0.1429 (  7091 PWs)   bands (ev):

   -47.1680 -47.1671 -23.2953 -23.2691 -23.2310 -23.2143 -23.2124 -23.2040
   -19.4108 -19.4035  -8.9077  -8.7772  -8.5479  -8.4381  -8.1974  -7.9633
    -2.9881  -2.9641  -2.9499  -2.9455  -2.8756  -2.8706   3.2182   3.9116
     4.5491   4.8880   5.0060   5.0170   5.2932   5.3055   5.4882   5.7045
     5.9446   6.3768   6.7699   6.8810   6.9412   6.9460   7.0752   7.2656
    10.2096  10.7321  11.1956  11.2865  11.8058  11.9425  13.7834  14.4464

          k =-0.3001-0.1000 0.1429 (  7091 PWs)   bands (ev):

   -47.1680 -47.1671 -23.2954 -23.2690 -23.2309 -23.2143 -23.2124 -23.2041
   -19.4108 -19.4035  -8.9080  -8.7771  -8.5481  -8.4377  -8.1971  -7.9635
    -2.9882  -2.9641  -2.9499  -2.9455  -2.8756  -2.8706   3.2177   3.9120
     4.5490   4.8882   5.0062   5.0167   5.2934   5.3057   5.4882   5.7046
     5.9447   6.3767   6.7699   6.8809   6.9410   6.9461   7.0753   7.2656
    10.2096  10.7320  11.1953  11.2863  11.8061  11.9427  13.7839  14.4461

          k =-0.2000-0.0000 0.1429 (  7078 PWs)   bands (ev):

   -47.1687 -47.1664 -23.3041 -23.2645 -23.2349 -23.2160 -23.2108 -23.1945
   -19.4179 -19.3990  -8.9858  -8.6869  -8.5794  -8.4484  -8.2123  -7.8738
    -3.0069  -2.9652  -2.9609  -2.9439  -2.9073  -2.9027   2.9406   3.9859
     4.1107   4.7797   4.9387   5.1253   5.1690   5.6164   5.7282   5.8123
     6.2857   6.6337   6.8335   6.9225   6.9408   6.9541   7.0815   7.6209
     9.9896  10.3990  10.6570  11.3487  12.0218  12.4400  13.3484  14.5216

          k =-0.0000-0.0000 0.2857 (  7063 PWs)   bands (ev):

   -47.1686 -47.1650 -23.3004 -23.3002 -23.2650 -23.2559 -23.1942 -23.1941
   -19.4155 -19.3905  -9.0494  -8.6593  -8.2358  -8.2282  -7.8545  -7.8543
    -3.0897  -3.0897  -3.0600  -2.9428  -2.9428  -2.8938   2.7819   3.1378
     3.9973   4.0449   4.2751   4.4892   4.4896   5.6011   5.6012   6.1193
     6.1194   6.2415   6.6916   7.1444   7.1445   7.5549   7.5550   7.9262
     9.4689  11.0011  11.0011  12.4550  12.4553  12.9040  12.9318  14.7218

          k = 0.1000 0.1000 0.2857 (  7096 PWs)   bands (ev):

   -47.1683 -47.1653 -23.2906 -23.2903 -23.2641 -23.2567 -23.2047 -23.2044
   -19.4128 -19.3926  -8.9530  -8.5897  -8.2607  -8.2325  -7.9671  -7.9399
    -3.0872  -3.0765  -2.9930  -2.9573  -2.9491  -2.8778   3.0480   3.3710
     4.0383   4.1044   4.2762   4.5624   4.5636   5.2060   5.3849   5.7419
     5.7844   6.5171   6.7629   6.9698   6.9898   7.4842   7.5191   7.7964
     9.9909  11.0865  11.1088  12.2629  12.2979  12.6494  13.5344  15.0460

          k = 0.2000 0.2001 0.2857 (  7078 PWs)   bands (ev):

   -47.1673 -47.1662 -23.2648 -23.2640 -23.2616 -23.2588 -23.2320 -23.2312
   -19.4062 -19.3984  -8.6946  -8.4012  -8.3891  -8.2302  -8.1717  -8.1539
    -3.0425  -3.0406  -2.9949  -2.9862  -2.8947  -2.8541   3.7737   3.8568
     4.0148   4.2086   4.6306   4.6951   4.7266   4.7723   4.7839   5.1701
     5.1896   5.5871   7.0356   7.0790   7.3184   7.3254   7.3336   7.5573
    10.9567  11.3796  11.4367  11.8018  11.8978  11.9424  14.9394  15.7380

          k =-0.2000-0.2001 0.2857 (  7078 PWs)   bands (ev):

   -47.1673 -47.1662 -23.2648 -23.2640 -23.2616 -23.2588 -23.2320 -23.2312
   -19.4062 -19.3984  -8.6946  -8.4012  -8.3891  -8.2302  -8.1717  -8.1539
    -3.0425  -3.0406  -2.9949  -2.9862  -2.8947  -2.8541   3.7737   3.8568
     4.0148   4.2085   4.6305   4.6952   4.7266   4.7724   4.7839   5.1701
     5.1896   5.5871   7.0356   7.0789   7.3184   7.3252   7.3337   7.5573
    10.9567  11.3796  11.4367  11.8018  11.8978  11.9424  14.9394  15.7380

          k =-0.1000-0.1000 0.2857 (  7096 PWs)   bands (ev):

   -47.1683 -47.1653 -23.2906 -23.2903 -23.2641 -23.2567 -23.2047 -23.2044
   -19.4128 -19.3926  -8.9530  -8.5897  -8.2607  -8.2325  -7.9671  -7.9399
    -3.0872  -3.0765  -2.9930  -2.9573  -2.9490  -2.8778   3.0480   3.3710
     4.0383   4.1044   4.2762   4.5623   4.5636   5.2061   5.3849   5.7419
     5.7844   6.5171   6.7629   6.9698   6.9898   7.4842   7.5191   7.7964
     9.9909  11.0865  11.1088  12.2629  12.2979  12.6494  13.5344  15.0460

          k = 0.1000-0.1000 0.2857 (  7096 PWs)   bands (ev):

   -47.1683 -47.1653 -23.2906 -23.2903 -23.2641 -23.2567 -23.2047 -23.2044
   -19.4128 -19.3926  -8.9530  -8.5897  -8.2607  -8.2325  -7.9671  -7.9399
    -3.0872  -3.0765  -2.9930  -2.9573  -2.9490  -2.8778   3.0480   3.3710
     4.0383   4.1044   4.2762   4.5623   4.5636   5.2061   5.3849   5.7419
     5.7844   6.5171   6.7629   6.9698   6.9898   7.4842   7.5191   7.7964
     9.9909  11.0865  11.1088  12.2629  12.2979  12.6494  13.5344  15.0460

          k = 0.2000-0.0000 0.2857 (  7092 PWs)   bands (ev):

   -47.1680 -47.1656 -23.3021 -23.2633 -23.2628 -23.2573 -23.2330 -23.1929
   -19.4106 -19.3943  -8.9275  -8.4748  -8.3246  -8.2361  -8.1502  -7.8622
    -3.0804  -3.0330  -2.9682  -2.9656  -2.9280  -2.8865   2.9303   3.8429
     4.0255   4.1875   4.3280   4.4827   4.7186   4.8255   5.1106   5.5354
     5.9234   6.4721   6.7090   6.7389   7.2354   7.3640   7.4883   7.6715
    10.4084  11.0223  11.3719  11.8928  12.4081  12.4935  13.6217  15.5532

          k = 0.3001 0.1000 0.2857 (  7076 PWs)   bands (ev):

   -47.1672 -47.1663 -23.2932 -23.2669 -23.2612 -23.2590 -23.2293 -23.2025
   -19.4052 -19.3989  -8.8025  -8.5669  -8.2708  -8.2330  -8.1900  -7.9655
    -3.0292  -2.9970  -2.9809  -2.9585  -2.8978  -2.8692   3.1957   3.8186
     4.0739   4.1303   4.2928   4.5647   4.7525   4.9151   5.2369   5.2940
     5.4788   6.0917   6.7735   6.8565   7.1124   7.1836   7.4549   7.5629
    11.1019  11.2480  11.4499  11.8095  11.9681  12.2386  14.2999  15.4034

          k =-0.1000-0.3001 0.2857 (  7076 PWs)   bands (ev):

   -47.1672 -47.1663 -23.2931 -23.2670 -23.2612 -23.2590 -23.2293 -23.2024
   -19.4052 -19.3989  -8.8020  -8.5673  -8.2708  -8.2331  -8.1902  -7.9653
    -3.0292  -2.9969  -2.9809  -2.9585  -2.8977  -2.8692   3.1963   3.8183
     4.0739   4.1302   4.2930   4.5645   4.7526   4.9149   5.2368   5.2938
     5.4787   6.0919   6.7736   6.8567   7.1123   7.1835   7.4548   7.5630
    11.1019  11.2482  11.4499  11.8097  11.9679  12.2383  14.2994  15.4041

          k =-0.0000-0.2001 0.2857 (  7092 PWs)   bands (ev):

   -47.1680 -47.1656 -23.3019 -23.2633 -23.2629 -23.2573 -23.2331 -23.1928
   -19.4106 -19.3943  -8.9272  -8.4750  -8.3247  -8.2362  -8.1504  -7.8620
    -3.0804  -3.0330  -2.9682  -2.9656  -2.9281  -2.8865   2.9309   3.8426
     4.0255   4.1877   4.3278   4.4830   4.7184   4.8252   5.1104   5.5352
     5.9231   6.4724   6.7093   6.7389   7.2352   7.3639   7.4884   7.6715
    10.4085  11.0223  11.3720  11.8929  12.4078  12.4933  13.6212  15.5537

          k = 0.2000-0.2001 0.2857 (  7078 PWs)   bands (ev):

   -47.1673 -47.1662 -23.2648 -23.2640 -23.2616 -23.2588 -23.2320 -23.2312
   -19.4062 -19.3984  -8.6946  -8.4012  -8.3891  -8.2302  -8.1717  -8.1539
    -3.0425  -3.0406  -2.9949  -2.9862  -2.8947  -2.8541   3.7737   3.8568
     4.0148   4.2086   4.6305   4.6951   4.7266   4.7724   4.7839   5.1701
     5.1896   5.5871   7.0356   7.0789   7.3184   7.3253   7.3337   7.5573
    10.9567  11.3796  11.4367  11.8018  11.8978  11.9424  14.9394  15.7380

          k = 0.3001-0.1000 0.2857 (  7076 PWs)   bands (ev):

   -47.1672 -47.1663 -23.2932 -23.2669 -23.2612 -23.2590 -23.2293 -23.2025
   -19.4052 -19.3989  -8.8025  -8.5669  -8.2708  -8.2330  -8.1900  -7.9655
    -3.0292  -2.9970  -2.9809  -2.9585  -2.8978  -2.8692   3.1957   3.8186
     4.0739   4.1303   4.2928   4.5647   4.7525   4.9151   5.2369   5.2940
     5.4788   6.0917   6.7735   6.8565   7.1124   7.1836   7.4549   7.5629
    11.1019  11.2480  11.4499  11.8095  11.9681  12.2386  14.2999  15.4034

          k = 0.4001-0.0000 0.2857 (  7068 PWs)   bands (ev):

   -47.1670 -47.1666 -23.3048 -23.2947 -23.2604 -23.2596 -23.2011 -23.1909
   -19.4028 -19.4004  -8.8645  -8.7780  -8.2620  -8.2554  -7.9739  -7.8748
    -2.9833  -2.9635  -2.9396  -2.9111  -2.9039  -2.8995   2.9459   3.1989
     4.0803   4.1111   4.1364   4.2478   5.1091   5.3136   5.3926   5.5557
     6.0794   6.4491   6.5269   6.6167   6.7231   6.8204   7.5464   7.5725
    11.0394  11.1527  11.6731  11.9476  12.2044  12.3826  13.9295  14.4035

          k =-0.0000-0.4001 0.2857 (  7068 PWs)   bands (ev):

   -47.1670 -47.1666 -23.3047 -23.2949 -23.2604 -23.2596 -23.2012 -23.1908
   -19.4028 -19.4004  -8.8640  -8.7785  -8.2620  -8.2555  -7.9741  -7.8746
    -2.9833  -2.9635  -2.9395  -2.9111  -2.9039  -2.8995   2.9465   3.1984
     4.0802   4.1110   4.1367   4.2475   5.1095   5.3135   5.3921   5.5556
     6.0792   6.4494   6.5270   6.6170   6.7229   6.8202   7.5463   7.5726
    11.0394  11.1527  11.6735  11.9472  12.2047  12.3823  13.9289  14.4041

          k = 0.1000-0.3001 0.2857 (  7076 PWs)   bands (ev):

   -47.1672 -47.1663 -23.2931 -23.2670 -23.2612 -23.2590 -23.2293 -23.2024
   -19.4052 -19.3989  -8.8020  -8.5673  -8.2708  -8.2331  -8.1902  -7.9653
    -3.0292  -2.9969  -2.9809  -2.9585  -2.8977  -2.8692   3.1963   3.8183
     4.0739   4.1302   4.2930   4.5645   4.7526   4.9149   5.2368   5.2938
     5.4787   6.0919   6.7736   6.8567   7.1123   7.1835   7.4548   7.5630
    11.1019  11.2482  11.4499  11.8097  11.9679  12.2383  14.2994  15.4041

          k =-0.2000 0.2001 0.2857 (  7078 PWs)   bands (ev):

   -47.1673 -47.1662 -23.2648 -23.2640 -23.2616 -23.2588 -23.2320 -23.2312
   -19.4062 -19.3984  -8.6946  -8.4012  -8.3891  -8.2302  -8.1717  -8.1539
    -3.0425  -3.0406  -2.9949  -2.9862  -2.8947  -2.8541   3.7737   3.8568
     4.0148   4.2085   4.6306   4.6951   4.7266   4.7723   4.7839   5.1701
     5.1896   5.5871   7.0356   7.0789   7.3184   7.3254   7.3336   7.5573
    10.9567  11.3796  11.4367  11.8018  11.8978  11.9424  14.9394  15.7380

          k =-0.1000 0.3001 0.2857 (  7076 PWs)   bands (ev):

   -47.1672 -47.1663 -23.2931 -23.2670 -23.2612 -23.2590 -23.2293 -23.2024
   -19.4052 -19.3989  -8.8020  -8.5673  -8.2708  -8.2331  -8.1902  -7.9653
    -3.0292  -2.9969  -2.9809  -2.9585  -2.8977  -2.8692   3.1963   3.8183
     4.0739   4.1302   4.2930   4.5645   4.7526   4.9149   5.2368   5.2938
     5.4787   6.0919   6.7736   6.8567   7.1123   7.1835   7.4548   7.5630
    11.1019  11.2482  11.4499  11.8097  11.9679  12.2383  14.2994  15.4041

          k =-0.0000 0.4001 0.2857 (  7068 PWs)   bands (ev):

   -47.1670 -47.1666 -23.3047 -23.2949 -23.2604 -23.2596 -23.2012 -23.1908
   -19.4028 -19.4004  -8.8640  -8.7785  -8.2620  -8.2555  -7.9741  -7.8746
    -2.9833  -2.9635  -2.9395  -2.9111  -2.9039  -2.8995   2.9465   3.1984
     4.0802   4.1110   4.1367   4.2475   5.1095   5.3135   5.3921   5.5556
     6.0793   6.4494   6.5270   6.6170   6.7229   6.8202   7.5463   7.5726
    11.0394  11.1527  11.6735  11.9472  12.2047  12.3823  13.9289  14.4041

          k =-0.4001-0.0000 0.2857 (  7068 PWs)   bands (ev):

   -47.1670 -47.1666 -23.3048 -23.2947 -23.2604 -23.2596 -23.2011 -23.1909
   -19.4028 -19.4004  -8.8645  -8.7780  -8.2620  -8.2554  -7.9739  -7.8748
    -2.9833  -2.9635  -2.9396  -2.9111  -2.9039  -2.8995   2.9459   3.1989
     4.0803   4.1111   4.1364   4.2478   5.1091   5.3136   5.3926   5.5557
     6.0794   6.4491   6.5269   6.6167   6.7231   6.8204   7.5464   7.5725
    11.0394  11.1527  11.6731  11.9476  12.2044  12.3826  13.9295  14.4035

          k =-0.3001 0.1000 0.2857 (  7076 PWs)   bands (ev):

   -47.1672 -47.1663 -23.2932 -23.2669 -23.2612 -23.2590 -23.2293 -23.2025
   -19.4052 -19.3989  -8.8025  -8.5669  -8.2708  -8.2330  -8.1900  -7.9655
    -3.0292  -2.9970  -2.9809  -2.9585  -2.8978  -2.8692   3.1957   3.8186
     4.0739   4.1303   4.2928   4.5647   4.7525   4.9150   5.2369   5.2940
     5.4788   6.0917   6.7735   6.8565   7.1124   7.1836   7.4549   7.5629
    11.1019  11.2480  11.4499  11.8095  11.9681  12.2386  14.2999  15.4035

          k =-0.1000 0.1000 0.2857 (  7096 PWs)   bands (ev):

   -47.1683 -47.1653 -23.2906 -23.2903 -23.2641 -23.2567 -23.2047 -23.2044
   -19.4128 -19.3926  -8.9530  -8.5897  -8.2607  -8.2325  -7.9671  -7.9399
    -3.0872  -3.0765  -2.9930  -2.9573  -2.9490  -2.8778   3.0480   3.3710
     4.0383   4.1044   4.2762   4.5623   4.5636   5.2060   5.3849   5.7419
     5.7844   6.5171   6.7629   6.9698   6.9898   7.4842   7.5191   7.7964
     9.9909  11.0865  11.1088  12.2629  12.2979  12.6494  13.5344  15.0460

          k =-0.0000 0.2001 0.2857 (  7092 PWs)   bands (ev):

   -47.1680 -47.1656 -23.3019 -23.2633 -23.2629 -23.2573 -23.2331 -23.1928
   -19.4106 -19.3943  -8.9272  -8.4750  -8.3247  -8.2362  -8.1504  -7.8620
    -3.0804  -3.0330  -2.9682  -2.9656  -2.9281  -2.8865   2.9309   3.8426
     4.0255   4.1877   4.3278   4.4829   4.7184   4.8252   5.1104   5.5352
     5.9231   6.4724   6.7093   6.7389   7.2353   7.3639   7.4884   7.6715
    10.4085  11.0223  11.3720  11.8929  12.4078  12.4933  13.6212  15.5537

          k = 0.1000 0.3001 0.2857 (  7076 PWs)   bands (ev):

   -47.1672 -47.1663 -23.2931 -23.2670 -23.2612 -23.2590 -23.2293 -23.2024
   -19.4052 -19.3989  -8.8020  -8.5673  -8.2708  -8.2331  -8.1902  -7.9653
    -3.0292  -2.9969  -2.9809  -2.9585  -2.8977  -2.8692   3.1963   3.8183
     4.0739   4.1302   4.2930   4.5645   4.7526   4.9149   5.2368   5.2938
     5.4787   6.0919   6.7736   6.8567   7.1123   7.1835   7.4548   7.5630
    11.1019  11.2482  11.4499  11.8097  11.9679  12.2383  14.2994  15.4041

          k =-0.3001-0.1000 0.2857 (  7076 PWs)   bands (ev):

   -47.1672 -47.1663 -23.2932 -23.2669 -23.2612 -23.2590 -23.2293 -23.2025
   -19.4052 -19.3989  -8.8025  -8.5669  -8.2708  -8.2330  -8.1900  -7.9655
    -3.0292  -2.9970  -2.9809  -2.9585  -2.8978  -2.8692   3.1957   3.8186
     4.0739   4.1303   4.2928   4.5647   4.7525   4.9150   5.2369   5.2940
     5.4788   6.0917   6.7735   6.8565   7.1124   7.1836   7.4549   7.5629
    11.1019  11.2480  11.4499  11.8095  11.9681  12.2386  14.2999  15.4034

          k =-0.2000-0.0000 0.2857 (  7092 PWs)   bands (ev):

   -47.1680 -47.1656 -23.3021 -23.2633 -23.2628 -23.2573 -23.2330 -23.1929
   -19.4106 -19.3943  -8.9275  -8.4748  -8.3246  -8.2362  -8.1502  -7.8622
    -3.0804  -3.0330  -2.9682  -2.9656  -2.9280  -2.8865   2.9303   3.8429
     4.0255   4.1875   4.3280   4.4827   4.7186   4.8255   5.1106   5.5354
     5.9234   6.4721   6.7090   6.7389   7.2353   7.3640   7.4883   7.6715
    10.4084  11.0223  11.3719  11.8928  12.4081  12.4935  13.6217  15.5532

          k =-0.0000-0.0000 0.4286 (  7063 PWs)   bands (ev):

   -47.1680 -47.1644 -23.3026 -23.2989 -23.2988 -23.2925 -23.1929 -23.1929
   -19.4083 -19.3864  -9.0621  -8.6527  -7.8984  -7.8810  -7.8309  -7.8307
    -3.1579  -3.1579  -3.1543  -2.9323  -2.9323  -2.8555   2.7862   2.8747
     3.1121   3.5623   4.1754   4.2359   4.2363   5.5140   5.5141   5.8401
     5.8403   5.9745   6.5606   7.1102   7.1103   7.8959   7.8960   7.9380
     9.5038  11.7531  11.7531  12.8915  12.8918  12.9090  12.9634  15.3750

          k = 0.1000 0.1000 0.4286 (  7069 PWs)   bands (ev):

   -47.1676 -47.1647 -23.3015 -23.2934 -23.2891 -23.2889 -23.2034 -23.2032
   -19.4064 -19.3887  -8.9582  -8.5819  -7.9719  -7.9185  -7.9062  -7.8861
    -3.1364  -3.1311  -3.0838  -2.9538  -2.9183  -2.8721   2.9639   3.0526
     3.1074   3.7263   4.1984   4.3009   4.3264   4.9867   5.2432   5.5572
     5.6036   6.4866   6.6157   6.8683   6.9460   7.7661   7.7854   7.8547
    10.0228  11.8090  11.8292  12.6696  12.7282  12.7565  13.5337  15.7083

          k = 0.2000 0.2001 0.4286 (  7057 PWs)   bands (ev):

   -47.1667 -47.1656 -23.2988 -23.2957 -23.2632 -23.2626 -23.2304 -23.2299
   -19.4012 -19.3944  -8.6754  -8.3900  -8.3001  -8.1375  -7.9167  -7.9099
    -3.0800  -3.0470  -3.0102  -2.9596  -2.9568  -2.8874   3.0600   3.0936
     3.7819   4.1630   4.3367   4.4521   4.4989   4.7477   4.7660   4.8528
     4.9646   5.6156   7.0222   7.0780   7.3357   7.3912   7.4992   7.6740
    10.9978  11.9497  12.0102  12.0666  12.3566  12.4244  14.9301  16.4581

          k =-0.2000-0.2001 0.4286 (  7057 PWs)   bands (ev):

   -47.1667 -47.1656 -23.2988 -23.2957 -23.2632 -23.2626 -23.2304 -23.2299
   -19.4012 -19.3944  -8.6754  -8.3900  -8.3001  -8.1375  -7.9167  -7.9099
    -3.0800  -3.0470  -3.0102  -2.9596  -2.9568  -2.8874   3.0600   3.0936
     3.7819   4.1630   4.3366   4.4521   4.4989   4.7477   4.7660   4.8528
     4.9646   5.6156   7.0222   7.0780   7.3356   7.3912   7.4992   7.6740
    10.9978  11.9497  12.0102  12.0666  12.3566  12.4244  14.9301  16.4580

          k =-0.1000-0.1000 0.4286 (  7069 PWs)   bands (ev):

   -47.1676 -47.1647 -23.3015 -23.2934 -23.2891 -23.2889 -23.2034 -23.2032
   -19.4064 -19.3887  -8.9582  -8.5819  -7.9719  -7.9185  -7.9062  -7.8861
    -3.1364  -3.1311  -3.0838  -2.9538  -2.9183  -2.8721   2.9639   3.0526
     3.1074   3.7263   4.1984   4.3009   4.3264   4.9867   5.2432   5.5572
     5.6036   6.4865   6.6157   6.8683   6.9460   7.7661   7.7854   7.8547
    10.0228  11.8090  11.8292  12.6696  12.7282  12.7565  13.5337  15.7083

          k = 0.1000-0.1000 0.4286 (  7069 PWs)   bands (ev):

   -47.1676 -47.1647 -23.3015 -23.2934 -23.2891 -23.2889 -23.2034 -23.2032
   -19.4064 -19.3887  -8.9582  -8.5819  -7.9719  -7.9185  -7.9062  -7.8861
    -3.1364  -3.1311  -3.0838  -2.9538  -2.9183  -2.8721   2.9639   3.0526
     3.1074   3.7263   4.1984   4.3009   4.3264   4.9867   5.2432   5.5572
     5.6036   6.4865   6.6157   6.8683   6.9460   7.7661   7.7854   7.8547
    10.0228  11.8090  11.8292  12.6696  12.7282  12.7565  13.5337  15.7083

          k = 0.2000-0.0000 0.4286 (  7073 PWs)   bands (ev):

   -47.1674 -47.1650 -23.3006 -23.3004 -23.2940 -23.2614 -23.2315 -23.1917
   -19.4048 -19.3905  -8.9206  -8.4709  -8.2006  -7.9144  -7.9013  -7.8529
    -3.1047  -3.0900  -3.0504  -2.9490  -2.9152  -2.8897   2.8398   3.1007
     3.1986   4.0523   4.1546   4.4421   4.4979   4.5403   4.8958   5.4363
     5.6843   6.3646   6.6801   6.6810   7.2321   7.5769   7.5984   7.8914
    10.4363  11.7624  12.0132  12.4181  12.5004  12.8617  13.6849  16.1769

          k = 0.3001 0.1000 0.4286 (  7068 PWs)   bands (ev):

   -47.1666 -47.1657 -23.2984 -23.2958 -23.2915 -23.2652 -23.2279 -23.2012
   -19.4007 -19.3952  -8.7733  -8.5116  -8.2199  -7.9714  -7.9259  -7.9199
    -3.0377  -3.0283  -2.9838  -2.9505  -2.9483  -2.8923   2.9726   3.0749
     3.3796   3.9764   3.9779   4.1486   4.7375   4.8046   5.1237   5.1315
     5.3033   6.0634   6.7354   6.8230   7.1838   7.2158   7.6038   7.8164
    11.2398  11.8429  11.9915  12.0784  12.3427  12.6914  14.4254  15.6042

          k =-0.1000-0.3001 0.4286 (  7068 PWs)   bands (ev):

   -47.1666 -47.1657 -23.2984 -23.2958 -23.2913 -23.2653 -23.2280 -23.2011
   -19.4007 -19.3952  -8.7729  -8.5121  -8.2201  -7.9712  -7.9259  -7.9199
    -3.0377  -3.0283  -2.9838  -2.9506  -2.9482  -2.8923   2.9728   3.0749
     3.3799   3.9766   3.9778   4.1483   4.7374   4.8046   5.1234   5.1316
     5.3030   6.0635   6.7356   6.8232   7.1837   7.2157   7.6037   7.8165
    11.2400  11.8429  11.9913  12.0784  12.3429  12.6912  14.4249  15.6048

          k =-0.0000-0.2001 0.4286 (  7073 PWs)   bands (ev):

   -47.1674 -47.1650 -23.3006 -23.3003 -23.2940 -23.2615 -23.2316 -23.1916
   -19.4048 -19.3905  -8.9202  -8.4712  -8.2009  -7.9144  -7.9014  -7.8527
    -3.1047  -3.0900  -3.0504  -2.9489  -2.9152  -2.8897   2.8403   3.1007
     3.1986   4.0526   4.1543   4.4422   4.4976   4.5402   4.8956   5.4363
     5.6840   6.3650   6.6804   6.6810   7.2320   7.5769   7.5984   7.8915
    10.4365  11.7624  12.0132  12.4183  12.5002  12.8615  13.6845  16.1773

          k = 0.2000-0.2001 0.4286 (  7057 PWs)   bands (ev):

   -47.1667 -47.1656 -23.2988 -23.2957 -23.2632 -23.2626 -23.2304 -23.2299
   -19.4012 -19.3944  -8.6754  -8.3900  -8.3001  -8.1375  -7.9167  -7.9099
    -3.0800  -3.0470  -3.0102  -2.9596  -2.9568  -2.8874   3.0600   3.0936
     3.7819   4.1630   4.3366   4.4521   4.4989   4.7477   4.7660   4.8528
     4.9646   5.6156   7.0222   7.0780   7.3356   7.3912   7.4992   7.6740
    10.9978  11.9497  12.0102  12.0666  12.3566  12.4245  14.9301  16.4580

          k = 0.3001-0.1000 0.4286 (  7068 PWs)   bands (ev):

   -47.1666 -47.1657 -23.2984 -23.2958 -23.2915 -23.2652 -23.2279 -23.2012
   -19.4007 -19.3952  -8.7733  -8.5116  -8.2199  -7.9714  -7.9259  -7.9199
    -3.0377  -3.0283  -2.9838  -2.9505  -2.9483  -2.8923   2.9726   3.0749
     3.3796   3.9764   3.9779   4.1486   4.7375   4.8046   5.1237   5.1315
     5.3033   6.0634   6.7354   6.8230   7.1838   7.2158   7.6038   7.8164
    11.2398  11.8429  11.9915  12.0784  12.3427  12.6914  14.4254  15.6042

          k = 0.4001-0.0000 0.4286 (  7074 PWs)   bands (ev):

   -47.1664 -47.1660 -23.3029 -23.2974 -23.2964 -23.2928 -23.1999 -23.1896
   -19.3993 -19.3972  -8.8228  -8.7284  -7.9917  -7.9397  -7.9391  -7.8876
    -2.9868  -2.9804  -2.9681  -2.9471  -2.9069  -2.8871   2.8342   2.9688
     3.2664   3.3934   3.7713   3.8224   5.0830   5.1114   5.3094   5.3476
     5.9928   6.4178   6.5320   6.5883   6.7897   6.8009   7.8075   7.8733
    11.6791  11.7790  11.8568  11.9611  12.6588  12.8090  14.0931  14.5825

          k =-0.0000-0.4001 0.4286 (  7074 PWs)   bands (ev):

   -47.1663 -47.1660 -23.3028 -23.2974 -23.2964 -23.2929 -23.1999 -23.1895
   -19.3993 -19.3972  -8.8223  -8.7289  -7.9919  -7.9397  -7.9391  -7.8874
    -2.9867  -2.9804  -2.9681  -2.9472  -2.9068  -2.8871   2.8347   2.9686
     3.2665   3.3931   3.7716   3.8221   5.0834   5.1113   5.3092   5.3472
     5.9927   6.4178   6.5324   6.5887   6.7895   6.8006   7.8074   7.8733
    11.6795  11.7790  11.8568  11.9607  12.6591  12.8088  14.0925  14.5831

          k = 0.1000-0.3001 0.4286 (  7068 PWs)   bands (ev):

   -47.1666 -47.1657 -23.2984 -23.2958 -23.2913 -23.2653 -23.2280 -23.2011
   -19.4007 -19.3952  -8.7729  -8.5121  -8.2201  -7.9712  -7.9259  -7.9199
    -3.0377  -3.0283  -2.9838  -2.9506  -2.9482  -2.8923   2.9728   3.0749
     3.3799   3.9765   3.9778   4.1483   4.7374   4.8046   5.1234   5.1316
     5.3030   6.0635   6.7356   6.8232   7.1837   7.2157   7.6037   7.8165
    11.2400  11.8429  11.9913  12.0784  12.3429  12.6912  14.4249  15.6048

          k =-0.2000 0.2001 0.4286 (  7057 PWs)   bands (ev):

   -47.1667 -47.1656 -23.2988 -23.2957 -23.2632 -23.2626 -23.2304 -23.2299
   -19.4012 -19.3944  -8.6754  -8.3900  -8.3001  -8.1375  -7.9167  -7.9099
    -3.0800  -3.0470  -3.0102  -2.9596  -2.9568  -2.8874   3.0600   3.0936
     3.7819   4.1630   4.3367   4.4521   4.4989   4.7477   4.7660   4.8528
     4.9646   5.6156   7.0222   7.0780   7.3357   7.3912   7.4992   7.6740
    10.9978  11.9497  12.0102  12.0666  12.3566  12.4245  14.9301  16.4581

          k =-0.1000 0.3001 0.4286 (  7068 PWs)   bands (ev):

   -47.1666 -47.1657 -23.2984 -23.2958 -23.2913 -23.2653 -23.2280 -23.2011
   -19.4007 -19.3952  -8.7729  -8.5121  -8.2201  -7.9712  -7.9259  -7.9199
    -3.0377  -3.0283  -2.9838  -2.9506  -2.9482  -2.8923   2.9728   3.0749
     3.3799   3.9765   3.9778   4.1483   4.7374   4.8046   5.1234   5.1316
     5.3030   6.0635   6.7356   6.8232   7.1837   7.2157   7.6037   7.8165
    11.2400  11.8429  11.9913  12.0784  12.3429  12.6912  14.4249  15.6048

          k =-0.0000 0.4001 0.4286 (  7074 PWs)   bands (ev):

   -47.1663 -47.1660 -23.3028 -23.2974 -23.2964 -23.2929 -23.1999 -23.1895
   -19.3993 -19.3972  -8.8223  -8.7289  -7.9919  -7.9397  -7.9391  -7.8874
    -2.9867  -2.9804  -2.9681  -2.9472  -2.9068  -2.8871   2.8347   2.9686
     3.2665   3.3931   3.7716   3.8221   5.0834   5.1113   5.3092   5.3472
     5.9927   6.4178   6.5324   6.5887   6.7895   6.8006   7.8075   7.8733
    11.6795  11.7790  11.8568  11.9607  12.6591  12.8088  14.0925  14.5831

          k =-0.4001-0.0000 0.4286 (  7074 PWs)   bands (ev):

   -47.1664 -47.1660 -23.3029 -23.2974 -23.2964 -23.2928 -23.1999 -23.1896
   -19.3993 -19.3972  -8.8228  -8.7284  -7.9917  -7.9397  -7.9391  -7.8876
    -2.9868  -2.9805  -2.9681  -2.9471  -2.9069  -2.8871   2.8342   2.9688
     3.2664   3.3934   3.7713   3.8224   5.0830   5.1114   5.3094   5.3476
     5.9928   6.4178   6.5320   6.5883   6.7897   6.8009   7.8075   7.8733
    11.6791  11.7790  11.8568  11.9611  12.6588  12.8090  14.0931  14.5825

          k =-0.3001 0.1000 0.4286 (  7068 PWs)   bands (ev):

   -47.1666 -47.1657 -23.2984 -23.2958 -23.2915 -23.2652 -23.2279 -23.2012
   -19.4007 -19.3952  -8.7733  -8.5116  -8.2199  -7.9714  -7.9259  -7.9199
    -3.0377  -3.0283  -2.9837  -2.9505  -2.9483  -2.8923   2.9726   3.0749
     3.3796   3.9764   3.9779   4.1486   4.7375   4.8046   5.1237   5.1315
     5.3033   6.0634   6.7354   6.8230   7.1838   7.2158   7.6038   7.8164
    11.2398  11.8429  11.9915  12.0784  12.3427  12.6914  14.4254  15.6042

          k =-0.1000 0.1000 0.4286 (  7069 PWs)   bands (ev):

   -47.1676 -47.1647 -23.3015 -23.2934 -23.2891 -23.2889 -23.2034 -23.2032
   -19.4064 -19.3887  -8.9582  -8.5819  -7.9719  -7.9185  -7.9062  -7.8861
    -3.1364  -3.1311  -3.0838  -2.9538  -2.9183  -2.8721   2.9639   3.0526
     3.1074   3.7263   4.1984   4.3009   4.3264   4.9867   5.2432   5.5572
     5.6036   6.4865   6.6157   6.8683   6.9460   7.7661   7.7854   7.8547
    10.0228  11.8090  11.8292  12.6696  12.7282  12.7565  13.5337  15.7083

          k =-0.0000 0.2001 0.4286 (  7073 PWs)   bands (ev):

   -47.1674 -47.1650 -23.3006 -23.3003 -23.2940 -23.2615 -23.2316 -23.1916
   -19.4048 -19.3905  -8.9202  -8.4712  -8.2009  -7.9144  -7.9014  -7.8527
    -3.1047  -3.0900  -3.0504  -2.9490  -2.9152  -2.8897   2.8403   3.1007
     3.1986   4.0526   4.1543   4.4422   4.4976   4.5401   4.8956   5.4363
     5.6840   6.3650   6.6804   6.6810   7.2320   7.5769   7.5984   7.8915
    10.4365  11.7624  12.0132  12.4183  12.5002  12.8615  13.6845  16.1773

          k = 0.1000 0.3001 0.4286 (  7068 PWs)   bands (ev):

   -47.1666 -47.1657 -23.2984 -23.2958 -23.2913 -23.2653 -23.2280 -23.2011
   -19.4007 -19.3952  -8.7729  -8.5121  -8.2201  -7.9712  -7.9259  -7.9199
    -3.0377  -3.0283  -2.9838  -2.9506  -2.9482  -2.8923   2.9728   3.0749
     3.3799   3.9765   3.9778   4.1483   4.7375   4.8046   5.1235   5.1316
     5.3030   6.0635   6.7356   6.8232   7.1837   7.2157   7.6037   7.8165
    11.2400  11.8429  11.9913  12.0784  12.3429  12.6912  14.4249  15.6048

          k =-0.3001-0.1000 0.4286 (  7068 PWs)   bands (ev):

   -47.1666 -47.1657 -23.2984 -23.2958 -23.2915 -23.2652 -23.2279 -23.2012
   -19.4007 -19.3952  -8.7733  -8.5116  -8.2199  -7.9714  -7.9259  -7.9199
    -3.0377  -3.0283  -2.9837  -2.9505  -2.9483  -2.8923   2.9726   3.0749
     3.3796   3.9764   3.9779   4.1486   4.7375   4.8046   5.1237   5.1315
     5.3033   6.0634   6.7354   6.8230   7.1838   7.2158   7.6038   7.8164
    11.2398  11.8429  11.9915  12.0784  12.3427  12.6914  14.4254  15.6042

          k =-0.2000-0.0000 0.4286 (  7073 PWs)   bands (ev):

   -47.1674 -47.1650 -23.3006 -23.3004 -23.2940 -23.2614 -23.2315 -23.1917
   -19.4048 -19.3905  -8.9206  -8.4709  -8.2006  -7.9144  -7.9013  -7.8529
    -3.1047  -3.0900  -3.0504  -2.9490  -2.9152  -2.8897   2.8398   3.1007
     3.1986   4.0523   4.1546   4.4422   4.4979   4.5404   4.8958   5.4363
     5.6843   6.3646   6.6801   6.6810   7.2321   7.5769   7.5984   7.8914
    10.4363  11.7624  12.0132  12.4181  12.5004  12.8617  13.6849  16.1769

     the Fermi energy is     9.0148 ev

!    total energy              =   -1145.53729214 Ry
     total all-electron energy =    -18592.510023 Ry
     estimated scf accuracy    <          6.2E-10 Ry
     smearing contrib. (-TS)   =      -0.00000000 Ry
     internal energy E=F+TS    =   -1145.53729214 Ry

     The total energy is F=E-TS. E is the sum of the following terms:
     one-electron contribution =    -145.84404761 Ry
     hartree contribution      =     117.72258236 Ry
     xc contribution           =    -124.93986410 Ry
     ewald contribution        =    -407.56747893 Ry
     one-center paw contrib.   =    -584.90848386 Ry

     convergence has been achieved in  16 iterations

     Forces acting on atoms (cartesian axes, Ry/au):

     atom    1 type  1   force =     0.00000944   -0.00000346   -0.00000120
     atom    2 type  1   force =    -0.00000754   -0.00000475    0.00000106
     atom    3 type  2   force =     0.00000123    0.00007788   -0.00113917
     atom    4 type  2   force =    -0.00001405   -0.00007344    0.00114188
     atom    5 type  3   force =     0.00000323   -0.00000090   -0.00000200
     atom    6 type  3   force =     0.00000064   -0.00000269   -0.00000409
     atom    7 type  3   force =     0.00000020    0.00000271   -0.00000815
     atom    8 type  3   force =     0.00000239    0.00000538   -0.00000920
     atom    9 type  3   force =    -0.00000071   -0.00001292    0.00136996
     atom   10 type  3   force =     0.00000517    0.00001219   -0.00134909

     Total force =     0.002512     Total SCF correction =     0.000008
     Message from routine punch:
     Nothing written, as per user request (disk_io='none')

     init_run     :      4.57s CPU      4.89s WALL (       1 calls)
     electrons    :    102.00s CPU    106.28s WALL (       1 calls)
     forces       :      1.31s CPU      1.46s WALL (       1 calls)

     Called by init_run:
     wfcinit      :      2.20s CPU      2.28s WALL (       1 calls)
     potinit      :      0.86s CPU      0.95s WALL (       1 calls)
     hinit0       :      1.32s CPU      1.35s WALL (       1 calls)

     Called by electrons:
     c_bands      :     76.47s CPU     76.97s WALL (      16 calls)
     sum_band     :     13.14s CPU     14.91s WALL (      16 calls)
     v_of_rho     :      2.51s CPU      2.75s WALL (      17 calls)
     newd         :      2.27s CPU      4.06s WALL (      17 calls)
     PAW_pot      :      7.67s CPU      7.85s WALL (      17 calls)
     mix_rho      :      0.26s CPU      0.26s WALL (      16 calls)

     Called by c_bands:
     init_us_2    :      3.11s CPU      3.13s WALL (     374 calls)
     cegterg      :     61.60s CPU     62.08s WALL (     176 calls)

     Called by *egterg:
     cdiaghg      :      1.71s CPU      1.72s WALL (     759 calls)
     h_psi        :     40.58s CPU     40.88s WALL (     770 calls)
     s_psi        :      5.24s CPU      5.24s WALL (     770 calls)
     g_psi        :      0.53s CPU      0.53s WALL (     583 calls)

     Called by h_psi:
     h_psi:calbec :      5.48s CPU      5.49s WALL (     770 calls)
     vloc_psi     :     29.75s CPU     29.91s WALL (     770 calls)
                                        0.00s GPU  (     770 calls)
     add_vuspsi   :      4.95s CPU      4.96s WALL (     770 calls)

     General routines
     calbec       :      7.98s CPU      7.99s WALL (     990 calls)
     fft          :      1.15s CPU      1.15s WALL (     230 calls)
     ffts         :      0.23s CPU      0.23s WALL (      33 calls)
     fftw         :     30.48s CPU     30.63s WALL (   49576 calls)
     interpolate  :      0.32s CPU      0.32s WALL (      17 calls)

     Parallel routines

     PWSCF        :   1m48.24s CPU   1m53.04s WALL


   This run was terminated on:   9:47:15  27Sep2026            

=------------------------------------------------------------------------------=
   JOB DONE.
=------------------------------------------------------------------------------=
