
     Program PWSCF v.7.5 starts on  4Oct2026 at  1:37:38 

     This program is part of the open-source Quantum ESPRESSO suite
     for quantum simulation of materials; please cite
         "P. Giannozzi et al., J. Phys.:Condens. Matter 21 395502 (2009);
         "P. Giannozzi et al., J. Phys.:Condens. Matter 29 465901 (2017);
         "P. Giannozzi et al., J. Chem. Phys. 152 154105 (2020);
          URL http://www.quantum-espresso.org", 
     in publications or presentations arising from this work. More details at
     http://www.quantum-espresso.org/quote

     Parallel version (MPI & OpenMP), running on       8 processor cores
     Number of MPI processes:                 8
     Threads/MPI process:                     1

     MPI processes distributed on     1 nodes
     93451 MiB available memory on the printing compute node when the environment starts

     Reading input from pw.in

     Current dimensions of program PWSCF are:
     Max number of different atomic species (ntypx) = 10
     Max number of k-points (npk) =  40000
     Max angular momentum in pseudopotentials (lmaxx) =  4
     file Ba.pbe-spn-kjpaw_psl.1.0.0.UPF: wavefunction(s)  5S 6S renormalized
     file O.pbe-n-kjpaw_psl.0.1.UPF: wavefunction(s)  2P renormalized

     K-points division:     npool     =       4
     R & G space division:  proc/nbgrp/npool/nimage =       2
     Subspace diagonalization in iterative solution of the eigenvalue problem:
     a serial algorithm will be used


     Parallelization info
     --------------------
     sticks:   dense  smooth     PW     G-vecs:    dense   smooth      PW
     Min        3707    1852    516               239884    84716   12286
     Max        3710    1853    517               239885    84721   12287
     Sum        7417    3705   1033               479769   169437   24573

     Using Slab Decomposition



     bravais-lattice index     =            0
     lattice parameter (alat)  =      15.2544  a.u.
     unit-cell volume          =    3549.6625 (a.u.)^3
     number of atoms/cell      =           40
     number of atomic types    =            3
     number of electrons       =       320.00
     number of Kohn-Sham states=          192
     kinetic-energy cutoff     =      50.0000  Ry
     charge density cutoff     =     400.0000  Ry
     scf convergence threshold =      4.0E-09
     mixing beta               =       0.4000
     number of iterations used =            8  plain     mixing
     Exchange-correlation= SLA  PW   PBX  PBC
                           (   1   4   3   4   0   0   0)

     celldm(1)=  15.254424  celldm(2)=   0.000000  celldm(3)=   0.000000
     celldm(4)=   0.000000  celldm(5)=   0.000000  celldm(6)=   0.000000

     crystal axes: (cart. coord. in units of alat)
               a(1) = (   1.000000   0.000000   0.000000 )  
               a(2) = (   0.000000   0.999999  -0.000000 )  
               a(3) = (   0.000000  -0.000000   1.000000 )  

     reciprocal axes: (cart. coord. in units 2 pi/alat)
               b(1) = (  1.000000 -0.000000 -0.000000 )  
               b(2) = ( -0.000000  1.000001  0.000000 )  
               b(3) = ( -0.000000  0.000000  1.000000 )  


     PseudoPot. # 1 for Ba read from file:
     /root/sssp/Ba.pbe-spn-kjpaw_psl.1.0.0.UPF
     MD5 check sum: c432291d3e53af55f19d5e8866385beb
     Pseudo is Projector augmented-wave + core cor, Zval = 10.0
     Generated using "atomic" code by A. Dal Corso  v.5.1
     Shape of augmentation charge: PSQ
     Using radial grid of 1251 points,  7 beta functions with: 
                l(1) =   0
                l(2) =   0
                l(3) =   0
                l(4) =   1
                l(5) =   1
                l(6) =   2
                l(7) =   2
     Q(r) pseudized with 0 coefficients 


     PseudoPot. # 2 for Ti read from file:
     /root/sssp/ti_pbe_v1.4.uspp.F.UPF
     MD5 check sum: 88a00a6731bd790ddea75d31a80cb452
     Pseudo is Ultrasoft + core correction, Zval = 12.0
     Generated by new atomic code, or converted to UPF format
     Using radial grid of  851 points,  6 beta functions with: 
                l(1) =   0
                l(2) =   0
                l(3) =   1
                l(4) =   1
                l(5) =   2
                l(6) =   2
     Q(r) pseudized with  6 coefficients,  rinner =    1.000   1.000   1.000
                                                       1.000   1.000

     PseudoPot. # 3 for O  read from file:
     /root/sssp/O.pbe-n-kjpaw_psl.0.1.UPF
     MD5 check sum: 0234752ac141de4415c5fc33072bef88
     Pseudo is Projector augmented-wave + core cor, Zval =  6.0
     Generated using "atomic" code by A. Dal Corso  v.5.0.99 svn rev. 10869
     Shape of augmentation charge: BESSEL
     Using radial grid of 1095 points,  4 beta functions with: 
                l(1) =   0
                l(2) =   0
                l(3) =   1
                l(4) =   1
     Q(r) pseudized with 0 coefficients 


     atomic species   valence    mass     pseudopotential
     Ba               10.00   137.32700     Ba( 1.00)
     Ti               12.00    47.86700     Ti( 1.00)
     O                 6.00    15.99900     O ( 1.00)

     No symmetry found



   Cartesian axes

     site n.     atom                  positions (alat units)
         1        Ba     tau(   1) = (   0.0002315   0.4852740   0.5038931  )
         2        Ba     tau(   2) = (   0.5026056   0.5147842   0.4936630  )
         3        Ba     tau(   3) = (   0.0106249   0.9967849   0.5100799  )
         4        Ba     tau(   4) = (   0.4960747   1.0016553   0.4963582  )
         5        Ba     tau(   5) = (  -0.0027540   0.5010549   0.9932447  )
         6        Ba     tau(   6) = (   0.4985354   0.4862963   0.9949317  )
         7        Ba     tau(   7) = (   0.0098199   1.0145718   0.9908827  )
         8        Ba     tau(   8) = (   0.4997398   0.9921121   1.0014649  )
         9        Ti     tau(   9) = (   0.2479266   0.2606152   0.2625787  )
        10        Ti     tau(  10) = (   0.7507703   0.2515962   0.2542704  )
        11        Ti     tau(  11) = (   0.2498876   0.7539842   0.2508823  )
        12        Ti     tau(  12) = (   0.7454945   0.7481766   0.2525713  )
        13        Ti     tau(  13) = (   0.2422505   0.2427042   0.7556902  )
        14        Ti     tau(  14) = (   0.7373731   0.2476532   0.7466995  )
        15        Ti     tau(  15) = (   0.2555498   0.7460700   0.7532829  )
        16        Ti     tau(  16) = (   0.7525798   0.7483242   0.7455769  )
        17        O      tau(  17) = (   0.5068433   0.2380441   0.2553150  )
        18        O      tau(  18) = (   0.9913548   0.2371890   0.2567751  )
        19        O      tau(  19) = (   0.4824539   0.7512851   0.2519904  )
        20        O      tau(  20) = (   1.0076206   0.7517127   0.2505361  )
        21        O      tau(  21) = (   0.5044060   0.2676620   0.7585399  )
        22        O      tau(  22) = (   1.0035712   0.2578699   0.7377272  )
        23        O      tau(  23) = (   0.5011450   0.7380925   0.7526872  )
        24        O      tau(  24) = (   0.9889533   0.7664484   0.7632534  )
        25        O      tau(  25) = (   0.2509906   0.4973382   0.2634414  )
        26        O      tau(  26) = (   0.7426946   0.5086730   0.2468376  )
        27        O      tau(  27) = (   0.2524880   1.0030843   0.2553731  )
        28        O      tau(  28) = (   0.7465428   0.9889237   0.2597903  )
        29        O      tau(  29) = (   0.2509923   0.5046541   0.7535696  )
        30        O      tau(  30) = (   0.7540369   0.5178429   0.7454392  )
        31        O      tau(  31) = (   0.2509912   1.0135258   0.7431670  )
        32        O      tau(  32) = (   0.7476120   1.0154373   0.7467785  )
        33        O      tau(  33) = (   0.2228464   0.2516923  -0.0050059  )
        34        O      tau(  34) = (   0.7479749   0.2427551   0.0015513  )
        35        O      tau(  35) = (   0.2467806   0.7729695   0.0020541  )
        36        O      tau(  36) = (   0.7517843   0.7502908   0.0085476  )
        37        O      tau(  37) = (   0.2396410   0.2525329   0.5024750  )
        38        O      tau(  38) = (   0.7478443   0.2434597   0.5057941  )
        39        O      tau(  39) = (   0.2384000   0.7409036   0.5090937  )
        40        O      tau(  40) = (   0.7487083   0.7542561   0.5026353  )

     number of k points=    36  Marzari-Vanderbilt smearing, width (Ry)=  0.0050
                       cart. coord. in units 2pi/alat
        k(    1) = (   0.0000000   0.0000000   0.0000000), wk =   0.0312500
        k(    2) = (  -0.0000000   0.0000000   0.2500001), wk =   0.0625000
        k(    3) = (   0.0000000  -0.0000001  -0.5000002), wk =   0.0312500
        k(    4) = (  -0.0000000   0.2500002   0.2500001), wk =   0.0625000
        k(    5) = (   0.0000000   0.2500000  -0.5000001), wk =   0.0625000
        k(    6) = (   0.0000000  -0.5000004  -0.5000003), wk =   0.0312500
        k(    7) = (   0.2500000   0.2500002   0.2500001), wk =   0.0625000
        k(    8) = (   0.2500000   0.2500000  -0.5000001), wk =   0.0625000
        k(    9) = (   0.2500000  -0.5000004  -0.5000003), wk =   0.0625000
        k(   10) = (  -0.5000000  -0.5000004  -0.5000002), wk =   0.0312500
        k(   11) = (   0.2500000  -0.0000000  -0.0000000), wk =   0.0625000
        k(   12) = (  -0.0000000   0.2500001   0.0000000), wk =   0.0625000
        k(   13) = (  -0.5000000   0.0000000   0.0000000), wk =   0.0312500
        k(   14) = (   0.0000000  -0.5000003  -0.0000001), wk =   0.0312500
        k(   15) = (  -0.0000000  -0.2500001   0.2500000), wk =   0.0625000
        k(   16) = (   0.2500000  -0.0000001  -0.2500001), wk =   0.0625000
        k(   17) = (  -0.2500000  -0.0000000  -0.2500001), wk =   0.0625000
        k(   18) = (   0.2500000  -0.2500002  -0.0000001), wk =   0.0625000
        k(   19) = (  -0.2500000  -0.2500001  -0.0000000), wk =   0.0625000
        k(   20) = (   0.2500000   0.0000001   0.5000001), wk =   0.0625000
        k(   21) = (  -0.5000000  -0.2500001  -0.0000000), wk =   0.0625000
        k(   22) = (   0.0000000  -0.5000002   0.2500000), wk =   0.0625000
        k(   23) = (   0.2500000  -0.5000003  -0.0000001), wk =   0.0625000
        k(   24) = (  -0.5000000   0.0000001   0.2500001), wk =   0.0625000
        k(   25) = (  -0.5000000   0.0000001   0.5000002), wk =   0.0312500
        k(   26) = (  -0.5000000   0.5000003   0.0000001), wk =   0.0312500
        k(   27) = (  -0.2500000  -0.2500001   0.2500000), wk =   0.0625000
        k(   28) = (  -0.2500000   0.2500001  -0.2500000), wk =   0.0625000
        k(   29) = (   0.2500000  -0.2500002  -0.2500001), wk =   0.0625000
        k(   30) = (  -0.2500000   0.2500003   0.5000002), wk =   0.0625000
        k(   31) = (  -0.5000000  -0.2500001   0.2500001), wk =   0.0625000
        k(   32) = (   0.5000000  -0.2500002  -0.2500002), wk =   0.0625000
        k(   33) = (  -0.2500000  -0.5000002   0.2500000), wk =   0.0625000
        k(   34) = (  -0.2500000   0.5000003  -0.2500000), wk =   0.0625000
        k(   35) = (  -0.5000000   0.2500003   0.5000002), wk =   0.0625000
        k(   36) = (  -0.5000000   0.5000004   0.2500002), wk =   0.0625000

     Dense  grid:   479769 G-vectors     FFT dimensions: ( 100, 100, 100)

     Smooth grid:   169437 G-vectors     FFT dimensions: (  72,  72,  72)

     Estimated max dynamical RAM per process >     796.87 MB

     Estimated total dynamical RAM >       5.88 GB

     Check: negative core charge=   -0.000004

     Initial potential from superposition of free atoms

     starting charge     311.8636, renormalised to     320.0000

     negative rho (up, down):  1.073E-02 0.000E+00
     Starting wfcs are  216 randomized atomic wfcs
     Checking if some PAW data can be deallocated... 

     total cpu time spent up to now is       49.7 secs

     per-process dynamical memory:   538.2 Mb

     Self-consistent Calculation

     iteration #  1     ecut=    50.00 Ry     beta= 0.40
     Davidson diagonalization with overlap
     ethr =  1.00E-02,  avg # of iterations =  2.0

     negative rho (up, down):  1.009E-01 0.000E+00

     total cpu time spent up to now is      174.0 secs

     total energy              =   -5446.41513079 Ry
     estimated scf accuracy    <       7.87211552 Ry

     iteration #  2     ecut=    50.00 Ry     beta= 0.40
     Davidson diagonalization with overlap
     ethr =  2.46E-03,  avg # of iterations =  4.0

     negative rho (up, down):  1.488E-01 0.000E+00

     total cpu time spent up to now is      316.1 secs

     total energy              =   -5446.48910490 Ry
     estimated scf accuracy    <      12.99087323 Ry

     iteration #  3     ecut=    50.00 Ry     beta= 0.40
     Davidson diagonalization with overlap
     ethr =  2.46E-03,  avg # of iterations =  3.2

     negative rho (up, down):  2.584E-01 0.000E+00

     total cpu time spent up to now is      421.7 secs

     total energy              =   -5448.88177548 Ry
     estimated scf accuracy    <       0.84434937 Ry

     iteration #  4     ecut=    50.00 Ry     beta= 0.40
     Davidson diagonalization with overlap
     ethr =  2.64E-04,  avg # of iterations =  3.8

     negative rho (up, down):  2.883E-01 0.000E+00

     total cpu time spent up to now is      526.6 secs

     total energy              =   -5448.91557976 Ry
     estimated scf accuracy    <       0.27279994 Ry

     iteration #  5     ecut=    50.00 Ry     beta= 0.40
     Davidson diagonalization with overlap
     ethr =  8.52E-05,  avg # of iterations =  3.2

     negative rho (up, down):  2.278E-01 0.000E+00

     total cpu time spent up to now is      645.0 secs

     total energy              =   -5448.93745566 Ry
     estimated scf accuracy    <       0.10601187 Ry

     iteration #  6     ecut=    50.00 Ry     beta= 0.40
     Davidson diagonalization with overlap
     ethr =  3.31E-05,  avg # of iterations =  3.2

     negative rho (up, down):  1.496E-01 0.000E+00

     total cpu time spent up to now is      761.1 secs

     total energy              =   -5448.94539736 Ry
     estimated scf accuracy    <       0.03946036 Ry

     iteration #  7     ecut=    50.00 Ry     beta= 0.40
     Davidson diagonalization with overlap
     ethr =  1.23E-05,  avg # of iterations =  3.4

     negative rho (up, down):  2.354E-02 0.000E+00

     total cpu time spent up to now is      880.4 secs

     total energy              =   -5448.94882341 Ry
     estimated scf accuracy    <       0.03324509 Ry

     iteration #  8     ecut=    50.00 Ry     beta= 0.40
     Davidson diagonalization with overlap
     ethr =  1.04E-05,  avg # of iterations =  2.5

     negative rho (up, down):  1.172E-02 0.000E+00

     total cpu time spent up to now is      994.5 secs

     total energy              =   -5448.95020479 Ry
     estimated scf accuracy    <       0.00892594 Ry

     iteration #  9     ecut=    50.00 Ry     beta= 0.40
     Davidson diagonalization with overlap
     ethr =  2.79E-06,  avg # of iterations =  5.2

     negative rho (up, down):  1.013E-02 0.000E+00

     total cpu time spent up to now is     1121.2 secs

     total energy              =   -5448.95146098 Ry
     estimated scf accuracy    <       0.00732929 Ry

     iteration # 10     ecut=    50.00 Ry     beta= 0.40
     Davidson diagonalization with overlap
     ethr =  2.29E-06,  avg # of iterations =  2.0

     negative rho (up, down):  1.014E-02 0.000E+00

     total cpu time spent up to now is     1231.8 secs

     total energy              =   -5448.95142490 Ry
     estimated scf accuracy    <       0.00149820 Ry

     iteration # 11     ecut=    50.00 Ry     beta= 0.40
     Davidson diagonalization with overlap
     ethr =  4.68E-07,  avg # of iterations =  3.7

     negative rho (up, down):  1.014E-02 0.000E+00

     total cpu time spent up to now is     1353.8 secs

     total energy              =   -5448.95163898 Ry
     estimated scf accuracy    <       0.00116648 Ry

     iteration # 12     ecut=    50.00 Ry     beta= 0.40
     Davidson diagonalization with overlap
     ethr =  3.65E-07,  avg # of iterations =  2.0

     negative rho (up, down):  1.014E-02 0.000E+00

     total cpu time spent up to now is     1463.6 secs

     total energy              =   -5448.95169774 Ry
     estimated scf accuracy    <       0.00014347 Ry

     iteration # 13     ecut=    50.00 Ry     beta= 0.40
     Davidson diagonalization with overlap
     ethr =  4.48E-08,  avg # of iterations =  3.4

     negative rho (up, down):  1.013E-02 0.000E+00

     total cpu time spent up to now is     1584.7 secs

     total energy              =   -5448.95171312 Ry
     estimated scf accuracy    <       0.00019341 Ry

     iteration # 14     ecut=    50.00 Ry     beta= 0.40
     Davidson diagonalization with overlap
     ethr =  4.48E-08,  avg # of iterations =  2.0

     negative rho (up, down):  1.013E-02 0.000E+00

     total cpu time spent up to now is     1666.4 secs

     total energy              =   -5448.95171816 Ry
     estimated scf accuracy    <       0.00005957 Ry

     iteration # 15     ecut=    50.00 Ry     beta= 0.40
     Davidson diagonalization with overlap
     ethr =  1.86E-08,  avg # of iterations =  2.2

     negative rho (up, down):  1.013E-02 0.000E+00

     total cpu time spent up to now is     1767.7 secs

     total energy              =   -5448.95172005 Ry
     estimated scf accuracy    <       0.00001609 Ry

     iteration # 16     ecut=    50.00 Ry     beta= 0.40
     Davidson diagonalization with overlap
     ethr =  5.03E-09,  avg # of iterations =  3.9

     negative rho (up, down):  1.013E-02 0.000E+00

     total cpu time spent up to now is     1893.8 secs

     total energy              =   -5448.95172123 Ry
     estimated scf accuracy    <       0.00000300 Ry

     iteration # 17     ecut=    50.00 Ry     beta= 0.40
     Davidson diagonalization with overlap
     ethr =  9.36E-10,  avg # of iterations =  3.2

     negative rho (up, down):  1.013E-02 0.000E+00

     total cpu time spent up to now is     2019.4 secs

     total energy              =   -5448.95172231 Ry
     estimated scf accuracy    <       0.00001681 Ry

     iteration # 18     ecut=    50.00 Ry     beta= 0.40
     Davidson diagonalization with overlap
     ethr =  9.36E-10,  avg # of iterations =  3.1

     negative rho (up, down):  1.013E-02 0.000E+00

     total cpu time spent up to now is     2112.0 secs

     total energy              =   -5448.95172255 Ry
     estimated scf accuracy    <       0.00000092 Ry

     iteration # 19     ecut=    50.00 Ry     beta= 0.40
     Davidson diagonalization with overlap
     ethr =  2.88E-10,  avg # of iterations =  1.8

     negative rho (up, down):  1.013E-02 0.000E+00

     total cpu time spent up to now is     2190.7 secs

     total energy              =   -5448.95172260 Ry
     estimated scf accuracy    <       0.00000177 Ry

     iteration # 20     ecut=    50.00 Ry     beta= 0.40
     Davidson diagonalization with overlap
     ethr =  2.88E-10,  avg # of iterations =  2.0

     negative rho (up, down):  1.013E-02 0.000E+00

     total cpu time spent up to now is     2277.0 secs

     total energy              =   -5448.95172261 Ry
     estimated scf accuracy    <       0.00000058 Ry

     iteration # 21     ecut=    50.00 Ry     beta= 0.40
     Davidson diagonalization with overlap
     ethr =  1.80E-10,  avg # of iterations =  3.5

     negative rho (up, down):  1.013E-02 0.000E+00

     total cpu time spent up to now is     2369.1 secs

     total energy              =   -5448.95172266 Ry
     estimated scf accuracy    <       0.00000025 Ry

     iteration # 22     ecut=    50.00 Ry     beta= 0.40
     Davidson diagonalization with overlap
     ethr =  7.73E-11,  avg # of iterations =  1.0

     negative rho (up, down):  1.013E-02 0.000E+00

     total cpu time spent up to now is     2438.7 secs

     total energy              =   -5448.95172266 Ry
     estimated scf accuracy    <       0.00000003 Ry

     iteration # 23     ecut=    50.00 Ry     beta= 0.40
     Davidson diagonalization with overlap
     ethr =  8.84E-12,  avg # of iterations =  2.9

     negative rho (up, down):  1.013E-02 0.000E+00

     total cpu time spent up to now is     2521.7 secs

     total energy              =   -5448.95172267 Ry
     estimated scf accuracy    <       0.00000005 Ry

     iteration # 24     ecut=    50.00 Ry     beta= 0.40
     Davidson diagonalization with overlap
     ethr =  8.84E-12,  avg # of iterations =  2.0

     negative rho (up, down):  1.013E-02 0.000E+00

     total cpu time spent up to now is     2600.9 secs

     total energy              =   -5448.95172267 Ry
     estimated scf accuracy    <          9.1E-09 Ry

     iteration # 25     ecut=    50.00 Ry     beta= 0.40
     Davidson diagonalization with overlap
     ethr =  2.84E-12,  avg # of iterations =  2.3

     negative rho (up, down):  1.013E-02 0.000E+00

     total cpu time spent up to now is     2686.3 secs

     End of self-consistent calculation

          k = 0.0000 0.0000 0.0000 ( 21247 PWs)   bands (ev):

   -46.8280 -46.7032 -46.6958 -46.5119 -46.4414 -46.4092 -46.4043 -46.3538
   -23.0833 -23.0515 -23.0485 -22.9665 -22.9406 -22.9309 -22.9177 -22.9157
   -22.9073 -22.8160 -22.7844 -22.7817 -22.7271 -22.7151 -22.6919 -22.6813
   -22.6758 -22.6658 -22.6554 -22.6502 -22.6458 -22.6254 -22.6201 -22.5801
   -14.8885 -14.7855 -14.7578 -14.7497 -14.6877 -14.6328 -14.4594 -14.3574
    -7.1078  -7.0492  -7.0061  -6.7905  -6.5787  -6.5004  -6.4782  -6.3619
    -6.2705  -6.2432  -6.2063  -6.1702  -6.1118  -6.1047  -6.0641  -6.0435
    -6.0119  -5.9804  -5.8753  -5.8331  -5.7928  -5.6802  -5.6259  -5.5410
    -0.6545  -0.6522  -0.6456  -0.1140  -0.0966  -0.0621  -0.0533  -0.0367
    -0.0152  -0.0005   0.0187   0.0292   0.1362   0.1648   0.1752   0.1862
     0.2085   0.2289   0.4122   0.4222   0.4445   0.4772   0.5153   0.5422
     5.5820   5.7615   5.8332   5.8663   6.0644   6.0744   6.0756   6.1148
     6.1282   6.1516   6.2436   6.2717   6.2973   6.3451   6.4136   7.1667
     7.2013   7.2269   7.2569   7.2999   7.3143   7.3372   7.3581   7.3973
     7.4515   7.4867   7.5318   7.6098   7.6430   7.6515   7.7381   7.7686
     7.7861   7.9156   7.9722   8.0400   8.0752   8.1114   8.1449   8.1805
     8.2041   8.2522   8.2688   8.2934   8.3523   8.3986   8.4146   8.4324
     8.8952   8.9250   8.9443   9.0583   9.0932   9.1145   9.1383   9.1572
     9.1840   9.2874   9.3017   9.3079   9.3441   9.3748   9.3838   9.8026
     9.8068   9.8365   9.8653   9.8948   9.9420  10.0640  10.1102  10.1708
    11.8539  11.9079  12.0236  12.0584  12.1274  12.1860  13.3093  13.3314
    13.3896  13.4341  13.4505  13.4551  13.4818  13.5172  13.5977  13.6518
    13.7285  13.7589  13.7765  13.8505  13.8881  13.9330  13.9435  13.9548
    14.0073  14.0895  14.1988  14.2207  14.2216  14.6518  14.6898  14.7974

          k =-0.0000 0.0000 0.2500 ( 21174 PWs)   bands (ev):

   -46.8280 -46.7032 -46.6958 -46.5119 -46.4414 -46.4092 -46.4043 -46.3538
   -23.0825 -23.0515 -23.0484 -22.9665 -22.9406 -22.9309 -22.9169 -22.9148
   -22.9070 -22.8160 -22.7853 -22.7818 -22.7272 -22.7151 -22.6930 -22.6815
   -22.6761 -22.6655 -22.6559 -22.6502 -22.6421 -22.6252 -22.6202 -22.5843
   -14.8777 -14.7937 -14.7529 -14.7433 -14.6974 -14.6379 -14.4528 -14.3645
    -7.0649  -7.0001  -6.9429  -6.7957  -6.6325  -6.5882  -6.4379  -6.3434
    -6.2742  -6.2533  -6.2010  -6.1527  -6.1078  -6.0943  -6.0630  -6.0465
    -6.0113  -5.9815  -5.9048  -5.8721  -5.8033  -5.7050  -5.6389  -5.5461
    -0.5733  -0.5665  -0.5323  -0.1642  -0.1494  -0.0813  -0.0416  -0.0164
    -0.0068   0.0116   0.0341   0.0539   0.0984   0.1149   0.1646   0.1699
     0.2121   0.2307   0.3635   0.3846   0.4008   0.4324   0.4767   0.5035
     5.6681   5.7811   5.9007   5.9608   6.0550   6.1200   6.2026   6.2325
     6.2794   6.3028   6.3203   6.3463   6.4437   6.4548   6.5784   7.1054
     7.1652   7.2388   7.2666   7.3061   7.3278   7.3453   7.3748   7.3961
     7.4439   7.4626   7.4711   7.5027   7.5341   7.5733   7.5972   7.6353
     7.6556   7.7137   7.7549   7.9445   7.9762   8.0312   8.0840   8.2085
     8.2862   8.3136   8.3526   8.3989   8.4655   8.5016   8.6650   8.7483
     8.8064   8.8761   8.9180   8.9445   8.9893   9.0235   9.0887   9.1161
     9.1367   9.1500   9.2213   9.2930   9.3223   9.3434   9.3677   9.5340
     9.7134   9.7457   9.7779   9.7880   9.8725   9.9895  10.0372  10.0655
    12.0305  12.0976  12.1490  12.1692  12.3005  12.3647  13.1769  13.1874
    13.3112  13.3323  13.3914  13.4494  13.4581  13.5171  13.5983  13.6580
    13.7139  13.7313  13.7988  13.8253  13.8376  13.9687  14.0479  14.0942
    14.1080  14.1475  14.1651  14.2171  14.3681  14.6751  14.6920  15.1817

          k = 0.0000-0.0000-0.5000 ( 21178 PWs)   bands (ev):

   -46.8280 -46.7032 -46.6958 -46.5119 -46.4414 -46.4092 -46.4043 -46.3538
   -23.0817 -23.0515 -23.0483 -22.9665 -22.9406 -22.9309 -22.9160 -22.9139
   -22.9067 -22.8160 -22.7862 -22.7818 -22.7272 -22.7151 -22.6942 -22.6817
   -22.6764 -22.6653 -22.6564 -22.6502 -22.6379 -22.6247 -22.6204 -22.5892
   -14.8630 -14.8069 -14.7474 -14.7281 -14.7149 -14.6435 -14.4450 -14.3730
    -7.0137  -6.9194  -6.8244  -6.7948  -6.7500  -6.7163  -6.3800  -6.3262
    -6.2881  -6.2577  -6.1798  -6.1352  -6.1034  -6.0818  -6.0623  -6.0479
    -6.0153  -5.9887  -5.9701  -5.8923  -5.8132  -5.7350  -5.6483  -5.5508
    -0.3987  -0.3815  -0.3724  -0.3224  -0.2317  -0.2105  -0.0520  -0.0182
     0.0073   0.0156   0.0485   0.0548   0.0883   0.1032   0.1674   0.1781
     0.1989   0.2208   0.3185   0.3449   0.3589   0.3907   0.4386   0.4643
     5.7310   5.7887   5.9669   6.0279   6.0553   6.0743   6.2653   6.3175
     6.5409   6.6042   6.6275   6.7531   6.7764   6.8216   6.8658   6.8693
     6.9009   6.9240   6.9646   7.0374   7.1100   7.2599   7.2934   7.3468
     7.4084   7.4510   7.5086   7.5218   7.5454   7.5584   7.5723   7.5990
     7.6101   7.6491   7.6635   7.7664   7.8078   7.9075   8.1723   8.3838
     8.3862   8.4472   8.5211   8.5754   8.6105   8.6254   8.6576   8.6761
     8.7078   8.7271   8.7667   8.7867   8.8001   8.8821   8.9600   8.9987
     9.0298   9.0540   9.3544   9.3898   9.4322   9.4517   9.4752   9.5085
     9.5773   9.5953   9.6074   9.6517   9.7708   9.7995   9.8772  10.0532
    12.0608  12.1231  12.5004  12.6219  12.7317  12.7856  12.8114  12.8656
    12.9309  12.9631  13.3921  13.4544  13.5029  13.5919  13.6029  13.6437
    13.6619  13.6769  13.8049  13.8362  13.8656  13.9155  13.9336  13.9909
    14.1042  14.1296  14.3849  14.4727  14.6006  14.6803  14.9308  15.1663

          k =-0.0000 0.2500 0.2500 ( 21200 PWs)   bands (ev):

   -46.8280 -46.7032 -46.6958 -46.5119 -46.4414 -46.4092 -46.4043 -46.3538
   -23.0825 -23.0511 -23.0481 -22.9649 -22.9406 -22.9309 -22.9167 -22.9147
   -22.9063 -22.8179 -22.7853 -22.7818 -22.7238 -22.7150 -22.6929 -22.6816
   -22.6764 -22.6665 -22.6562 -22.6537 -22.6422 -22.6252 -22.6204 -22.5843
   -14.8703 -14.7867 -14.7537 -14.7486 -14.7043 -14.6347 -14.4569 -14.3665
    -7.0196  -6.9476  -6.9017  -6.7744  -6.6439  -6.6030  -6.4716  -6.3708
    -6.2743  -6.2557  -6.2113  -6.1442  -6.1099  -6.0861  -6.0656  -6.0492
    -6.0216  -5.9976  -5.9088  -5.8938  -5.8243  -5.7242  -5.6456  -5.5479
    -0.5599  -0.4918  -0.3830  -0.1629  -0.1466  -0.1171  -0.0795  -0.0579
    -0.0332   0.0092   0.0287   0.0644   0.1050   0.1225   0.1540   0.1612
     0.1904   0.2064   0.3119   0.3585   0.3795   0.4171   0.4729   0.4953
     5.7721   5.8807   5.9554   6.0452   6.1236   6.2166   6.2693   6.3587
     6.3992   6.4170   6.4295   6.4744   6.4826   6.5176   6.5950   7.0543
     7.1310   7.1978   7.2526   7.2716   7.2954   7.3207   7.3365   7.3679
     7.4012   7.4366   7.4555   7.4887   7.5404   7.5676   7.5817   7.6381
     7.6438   7.6716   7.7058   7.7492   7.8013   7.9714   8.0474   8.0940
     8.1557   8.3091   8.3598   8.4587   8.5031   8.6617   8.6947   8.7487
     8.7955   8.8703   8.8906   8.9143   8.9799   9.0316   9.0472   9.0916
     9.1378   9.1468   9.1949   9.2262   9.2590   9.2912   9.3308   9.4125
     9.5978   9.6439   9.7191   9.7276   9.8031   9.9338   9.9623  10.0308
    12.1070  12.2711  12.3129  12.3412  12.4017  12.4902  13.1759  13.1855
    13.3112  13.3338  13.3450  13.3679  13.3924  13.4506  13.4956  13.5727
    13.6333  13.6946  13.7370  13.8436  13.9234  13.9743  14.0041  14.0572
    14.0784  14.2131  14.2703  14.4704  14.5787  14.6764  15.0779  15.2211

          k = 0.0000 0.2500-0.5000 ( 21174 PWs)   bands (ev):

   -46.8280 -46.7032 -46.6958 -46.5119 -46.4414 -46.4092 -46.4043 -46.3538
   -23.0817 -23.0511 -23.0481 -22.9648 -22.9406 -22.9309 -22.9158 -22.9138
   -22.9060 -22.8179 -22.7862 -22.7818 -22.7238 -22.7150 -22.6941 -22.6818
   -22.6766 -22.6663 -22.6568 -22.6537 -22.6379 -22.6247 -22.6205 -22.5892
   -14.8574 -14.7972 -14.7456 -14.7345 -14.7244 -14.6401 -14.4488 -14.3751
    -6.9759  -6.8842  -6.7954  -6.7612  -6.7331  -6.6683  -6.4346  -6.3492
    -6.3042  -6.2819  -6.2135  -6.1445  -6.1023  -6.0842  -6.0648  -6.0516
    -6.0299  -6.0099  -5.9581  -5.9009  -5.8244  -5.7461  -5.6551  -5.5492
    -0.4012  -0.3814  -0.3382  -0.2582  -0.1642  -0.1385  -0.1044  -0.0579
    -0.0387   0.0085   0.0170   0.0407   0.0651   0.1069   0.1302   0.1660
     0.1845   0.2061   0.3142   0.3365   0.3491   0.3976   0.4507   0.4789
     5.8617   5.8825   6.0034   6.0955   6.1667   6.1955   6.4050   6.4346
     6.5794   6.6361   6.7233   6.7814   6.7914   6.8265   6.8435   6.8751
     6.9028   6.9399   6.9913   7.0250   7.0850   7.2492   7.2902   7.3423
     7.3780   7.4350   7.4613   7.4817   7.5204   7.5687   7.5847   7.6154
     7.6330   7.6562   7.6770   7.7380   7.7537   7.8648   7.8987   8.0437
     8.2375   8.3103   8.3563   8.3877   8.5290   8.5958   8.6268   8.6840
     8.7674   8.8294   8.8601   8.8922   8.9043   8.9648   9.0007   9.0384
     9.0662   9.1234   9.2624   9.3439   9.3942   9.4110   9.4282   9.4609
     9.5007   9.5393   9.5815   9.6078   9.7352   9.7620   9.8064   9.9823
    12.2842  12.3358  12.5098  12.7090  12.8113  12.8379  12.8458  12.8799
    12.9277  13.0696  13.3374  13.3669  13.4318  13.4819  13.4969  13.5258
    13.6224  13.6814  13.7152  13.7836  13.8181  13.9088  13.9683  14.0197
    14.0514  14.2794  14.4604  14.6333  14.8430  15.0455  15.0766  15.3700

          k = 0.0000-0.5000-0.5000 ( 21216 PWs)   bands (ev):

   -46.8280 -46.7032 -46.6958 -46.5119 -46.4414 -46.4092 -46.4043 -46.3538
   -23.0817 -23.0508 -23.0477 -22.9632 -22.9406 -22.9308 -22.9156 -22.9136
   -22.9052 -22.8198 -22.7862 -22.7818 -22.7202 -22.7149 -22.6939 -22.6819
   -22.6769 -22.6673 -22.6576 -22.6571 -22.6380 -22.6247 -22.6207 -22.5892
   -14.8512 -14.7835 -14.7452 -14.7421 -14.7359 -14.6367 -14.4527 -14.3773
    -6.9324  -6.8405  -6.7860  -6.7264  -6.6522  -6.6255  -6.5085  -6.4123
    -6.3366  -6.2981  -6.2401  -6.1508  -6.1025  -6.0874  -6.0581  -6.0550
    -6.0462  -6.0231  -5.9581  -5.9070  -5.8359  -5.7592  -5.6604  -5.5479
    -0.3559  -0.3152  -0.2798  -0.2682  -0.2497  -0.1385  -0.0676  -0.0674
    -0.0343  -0.0038   0.0218   0.0369   0.0789   0.0821   0.1021   0.1381
     0.1535   0.1620   0.3000   0.3430   0.3498   0.3964   0.4655   0.4778
     5.9299   5.9510   6.0088   6.1179   6.4375   6.4801   6.5815   6.6421
     6.6600   6.6686   6.7500   6.7853   6.8173   6.8451   6.8480   6.9034
     6.9442   6.9833   7.0178   7.0312   7.1147   7.1798   7.2620   7.3024
     7.3127   7.3380   7.4034   7.4475   7.4666   7.5065   7.5514   7.5626
     7.5963   7.6415   7.6518   7.6893   7.7856   7.8262   7.8689   7.9097
     7.9823   8.0465   8.1239   8.1719   8.4934   8.5023   8.5711   8.6413
     8.8174   8.8398   8.9224   8.9559   8.9771   9.0169   9.0750   9.1140
     9.1659   9.2351   9.2685   9.2974   9.3373   9.3595   9.4241   9.4552
     9.4782   9.5197   9.5288   9.5874   9.6161   9.7494   9.7909   9.8322
    12.4863  12.6241  12.7177  12.8311  12.8655  12.8747  12.9155  13.0170
    13.0396  13.0667  13.0919  13.1346  13.2132  13.3819  13.4222  13.4844
    13.5277  13.5564  13.7133  13.7405  13.7788  13.8027  13.9087  13.9409
    14.1799  14.4576  14.5128  14.6229  15.3207  15.5633  15.5883  15.6671

          k = 0.2500 0.2500 0.2500 ( 21239 PWs)   bands (ev):

   -46.8280 -46.7032 -46.6958 -46.5119 -46.4414 -46.4091 -46.4043 -46.3538
   -23.0824 -23.0504 -23.0468 -22.9648 -22.9428 -22.9301 -22.9167 -22.9147
   -22.9063 -22.8179 -22.7852 -22.7778 -22.7240 -22.7190 -22.6930 -22.6792
   -22.6735 -22.6665 -22.6561 -22.6537 -22.6427 -22.6301 -22.6213 -22.5843
   -14.8633 -14.7825 -14.7578 -14.7490 -14.7023 -14.6401 -14.4598 -14.3684
    -6.9924  -6.9016  -6.8534  -6.7535  -6.6305  -6.5800  -6.5290  -6.3732
    -6.2863  -6.2704  -6.2149  -6.1553  -6.1216  -6.0994  -6.0711  -6.0670
    -6.0158  -6.0070  -5.9357  -5.8960  -5.8212  -5.7397  -5.6466  -5.5578
    -0.5045  -0.4743  -0.2587  -0.1570  -0.1445  -0.1234  -0.1034  -0.0811
    -0.0565  -0.0403  -0.0139   0.0222   0.0784   0.0930   0.1063   0.1362
     0.2235   0.2382   0.2795   0.3724   0.3962   0.4417   0.4689   0.5041
     5.8792   5.9934   6.0578   6.1072   6.2201   6.2832   6.2937   6.4208
     6.4276   6.4734   6.5163   6.5442   6.5479   6.6020   6.6489   6.9970
     7.0845   7.1211   7.1737   7.2018   7.2893   7.3169   7.3489   7.3762
     7.3985   7.4400   7.4631   7.4808   7.5370   7.5584   7.5785   7.6113
     7.6397   7.6496   7.6882   7.7338   7.7707   7.8410   7.8905   8.0787
     8.1341   8.1767   8.2634   8.3645   8.5123   8.5902   8.6161   8.7941
     8.8254   8.8844   8.9238   8.9473   8.9965   9.0242   9.0661   9.0765
     9.1109   9.1505   9.1869   9.2103   9.2543   9.2898   9.3491   9.3982
     9.5412   9.5829   9.6433   9.6619   9.7546   9.8664   9.9241   9.9757
    12.2795  12.3428  12.4242  12.4672  12.4912  12.5528  13.1784  13.1978
    13.2299  13.2757  13.3163  13.3382  13.3552  13.3948  13.4517  13.5023
    13.5918  13.6182  13.7119  13.7419  13.8159  13.9408  13.9590  13.9796
    14.3634  14.4690  14.4863  14.5587  14.6688  15.0685  15.1000  15.2282

          k = 0.2500 0.2500-0.5000 ( 21192 PWs)   bands (ev):

   -46.8280 -46.7032 -46.6958 -46.5119 -46.4414 -46.4091 -46.4043 -46.3538
   -23.0816 -23.0504 -23.0467 -22.9648 -22.9428 -22.9301 -22.9158 -22.9138
   -22.9060 -22.8179 -22.7861 -22.7778 -22.7240 -22.7190 -22.6941 -22.6797
   -22.6736 -22.6663 -22.6566 -22.6537 -22.6388 -22.6293 -22.6214 -22.5892
   -14.8511 -14.7923 -14.7520 -14.7329 -14.7217 -14.6459 -14.4515 -14.3772
    -6.9517  -6.8544  -6.7574  -6.7255  -6.6875  -6.6508  -6.4668  -6.3812
    -6.3282  -6.2732  -6.2294  -6.1462  -6.1116  -6.1039  -6.0933  -6.0713
    -6.0346  -6.0104  -5.9595  -5.9148  -5.8232  -5.7553  -5.6561  -5.5604
    -0.3637  -0.3542  -0.3163  -0.2895  -0.1425  -0.1306  -0.0984  -0.0906
    -0.0448  -0.0233  -0.0146   0.0166   0.0388   0.0469   0.0650   0.0959
     0.2010   0.2324   0.3297   0.3640   0.4111   0.4386   0.4834   0.5068
     5.9627   6.0238   6.1467   6.1811   6.2213   6.2443   6.4571   6.4846
     6.5703   6.6947   6.7191   6.7361   6.7627   6.8104   6.8363   6.8544
     6.9332   6.9785   7.0061   7.0974   7.1055   7.2473   7.2895   7.3437
     7.3702   7.4057   7.4695   7.4756   7.5097   7.5181   7.5798   7.5955
     7.6266   7.6426   7.7068   7.7329   7.7698   7.8229   7.9275   7.9806
     7.9907   8.1224   8.2431   8.2821   8.3196   8.3737   8.4647   8.6039
     8.8563   8.8668   8.9149   8.9751   9.0189   9.0326   9.0848   9.1126
     9.1378   9.2223   9.2570   9.2965   9.3451   9.3894   9.4065   9.4384
     9.4595   9.5097   9.5832   9.5929   9.6804   9.7549   9.7722   9.9080
    12.4300  12.4779  12.5956  12.7322  12.8223  12.8602  12.8859  12.9607
    13.0245  13.0631  13.2424  13.3204  13.3623  13.4458  13.4578  13.4955
    13.5202  13.5569  13.6756  13.7020  13.7607  13.7662  13.8733  13.8949
    14.4142  14.5754  14.7896  14.8764  15.0203  15.1186  15.1886  15.4452

          k = 0.2500-0.5000-0.5000 ( 21208 PWs)   bands (ev):

   -46.8280 -46.7032 -46.6958 -46.5119 -46.4414 -46.4091 -46.4043 -46.3538
   -23.0816 -23.0499 -23.0466 -22.9631 -22.9428 -22.9300 -22.9156 -22.9136
   -22.9053 -22.8198 -22.7861 -22.7778 -22.7210 -22.7183 -22.6940 -22.6799
   -22.6737 -22.6673 -22.6576 -22.6570 -22.6388 -22.6293 -22.6215 -22.5892
   -14.8450 -14.7788 -14.7500 -14.7418 -14.7332 -14.6422 -14.4556 -14.3794
    -6.9030  -6.8060  -6.7437  -6.6875  -6.6395  -6.6097  -6.5259  -6.4351
    -6.3326  -6.2977  -6.2549  -6.1543  -6.1138  -6.1002  -6.0926  -6.0740
    -6.0495  -6.0299  -5.9662  -5.9224  -5.8395  -5.7698  -5.6631  -5.5614
    -0.3316  -0.2875  -0.2774  -0.2553  -0.2244  -0.1859  -0.1273  -0.1154
    -0.0870  -0.0739  -0.0205  -0.0071   0.0256   0.0387   0.0493   0.0864
     0.2331   0.2489   0.3625   0.3731   0.4126   0.4774   0.5132   0.5268
     6.0844   6.1105   6.1679   6.2506   6.4083   6.4322   6.5293   6.5727
     6.6367   6.6492   6.7107   6.7437   6.7734   6.8430   6.9112   6.9860
     7.0310   7.0604   7.0858   7.1003   7.1580   7.1823   7.2307   7.2746
     7.3065   7.3416   7.3672   7.4074   7.4857   7.5154   7.5518   7.5770
     7.6291   7.6554   7.6706   7.7157   7.7563   7.7786   7.8276   7.8546
     7.9075   7.9454   7.9921   8.0499   8.2007   8.2575   8.3117   8.3557
     8.9235   8.9695   9.0187   9.0491   9.0663   9.1024   9.1331   9.1877
     9.2258   9.2564   9.2920   9.3197   9.3526   9.3911   9.3991   9.4233
     9.4679   9.4888   9.5231   9.5640   9.5855   9.7419   9.7824   9.8094
    12.5965  12.7022  12.7918  12.8910  12.9179  12.9380  13.0043  13.0184
    13.0508  13.1053  13.1410  13.1560  13.2460  13.3135  13.3630  13.3866
    13.4078  13.5452  13.5816  13.6102  13.6377  13.6693  13.7548  13.7873
    14.6090  14.8622  14.9453  15.0593  15.3257  15.5722  15.6002  15.6772

          k =-0.5000-0.5000-0.5000 ( 21008 PWs)   bands (ev):

   -46.8280 -46.7032 -46.6958 -46.5119 -46.4414 -46.4091 -46.4043 -46.3538
   -23.0815 -23.0495 -23.0448 -22.9631 -22.9451 -22.9293 -22.9157 -22.9136
   -22.9053 -22.8198 -22.7861 -22.7730 -22.7247 -22.7195 -22.6940 -22.6793
   -22.6678 -22.6670 -22.6576 -22.6564 -22.6419 -22.6336 -22.6223 -22.5892
   -14.8377 -14.7738 -14.7576 -14.7397 -14.7303 -14.6482 -14.4586 -14.3815
    -6.8716  -6.7691  -6.6732  -6.6521  -6.6122  -6.5861  -6.5643  -6.4814
    -6.3322  -6.2972  -6.2734  -6.1597  -6.1448  -6.1149  -6.1069  -6.0892
    -6.0526  -6.0325  -5.9837  -5.9324  -5.8439  -5.7808  -5.6661  -5.5740
    -0.2978  -0.2590  -0.2425  -0.2240  -0.2211  -0.1954  -0.1822  -0.1691
    -0.1606  -0.1318  -0.0775  -0.0537  -0.0202  -0.0101   0.0114   0.0612
     0.3098   0.3186   0.4348   0.4444   0.4660   0.4908   0.5380   0.5518
     6.2158   6.2772   6.3278   6.3709   6.3791   6.4077   6.4244   6.4799
     6.6829   6.7239   6.7847   6.8294   6.8839   6.9133   6.9351   6.9719
     6.9997   7.0424   7.0581   7.1041   7.1494   7.2202   7.2760   7.3518
     7.4132   7.4171   7.4479   7.4982   7.4998   7.5239   7.5457   7.5763
     7.5871   7.6328   7.6600   7.6869   7.7054   7.7190   7.7564   7.7773
     7.8077   7.8368   7.8565   7.8897   7.8928   7.9400   7.9703   8.0057
     9.0459   9.0679   9.0938   9.1149   9.1604   9.1775   9.2066   9.2427
     9.2807   9.2929   9.3236   9.3385   9.3730   9.3946   9.4330   9.4464
     9.4533   9.4753   9.4931   9.5435   9.5969   9.7209   9.7484   9.7814
    12.7725  12.9037  12.9161  12.9360  12.9851  13.0259  13.0393  13.0755
    13.1220  13.1392  13.1847  13.1991  13.2629  13.2801  13.3091  13.3436
    13.3533  13.3834  13.3994  13.4508  13.4806  13.4922  13.5369  13.5526
    15.1654  15.3089  15.3897  15.5192  15.6125  15.6309  15.7229  15.8566

          k = 0.2500-0.0000-0.0000 ( 21174 PWs)   bands (ev):

   -46.8280 -46.7032 -46.6958 -46.5119 -46.4414 -46.4091 -46.4043 -46.3538
   -23.0831 -23.0510 -23.0470 -22.9665 -22.9428 -22.9302 -22.9177 -22.9157
   -22.9073 -22.8160 -22.7843 -22.7777 -22.7272 -22.7192 -22.6919 -22.6786
   -22.6733 -22.6657 -22.6552 -22.6503 -22.6461 -22.6304 -22.6210 -22.5801
   -14.8806 -14.7817 -14.7649 -14.7478 -14.6860 -14.6377 -14.4624 -14.3591
    -7.0725  -6.9927  -6.9463  -6.7882  -6.6382  -6.5691  -6.4397  -6.3563
    -6.2782  -6.2387  -6.2101  -6.1608  -6.1265  -6.1009  -6.0610  -6.0506
    -5.9979  -5.9799  -5.9112  -5.8570  -5.8005  -5.6980  -5.6333  -5.5531
    -0.5819  -0.5738  -0.5258  -0.1607  -0.1209  -0.0686  -0.0314  -0.0198
    -0.0037   0.0054   0.0187   0.0442   0.1128   0.1415   0.1626   0.1759
     0.1845   0.1953   0.3282   0.3903   0.3996   0.4498   0.4883   0.5098
     5.6537   5.8316   5.8745   5.9280   6.0737   6.1415   6.1972   6.2598
     6.2682   6.3264   6.3300   6.3444   6.4234   6.4411   6.5195   7.1359
     7.1990   7.2292   7.2455   7.2727   7.3007   7.3130   7.3622   7.4085
     7.4384   7.4559   7.4783   7.5001   7.5169   7.5685   7.6168   7.6461
     7.6723   7.7311   7.7413   7.9335   7.9863   8.1046   8.1251   8.2106
     8.2993   8.3100   8.3431   8.3839   8.4591   8.4776   8.6543   8.7479
     8.7914   8.8564   8.9086   8.9511   9.0020   9.0284   9.0720   9.0874
     9.1511   9.1946   9.2193   9.2465   9.2968   9.3854   9.4138   9.5426
     9.7410   9.7493   9.7685   9.7889   9.9055   9.9545  10.0096  10.1637
    11.8992  12.0384  12.1350  12.2318  12.3274  12.3692  13.1992  13.2168
    13.2965  13.3014  13.3479  13.4344  13.4781  13.5170  13.5927  13.6402
    13.7118  13.7332  13.8316  13.8579  13.8932  13.9497  13.9606  14.0726
    14.0945  14.1375  14.1983  14.2767  14.3256  14.6727  14.7849  15.0733

          k =-0.0000 0.2500 0.0000 ( 21174 PWs)   bands (ev):

   -46.8280 -46.7032 -46.6958 -46.5119 -46.4414 -46.4092 -46.4043 -46.3538
   -23.0832 -23.0512 -23.0482 -22.9649 -22.9406 -22.9309 -22.9175 -22.9156
   -22.9065 -22.8179 -22.7844 -22.7817 -22.7238 -22.7150 -22.6918 -22.6814
   -22.6761 -22.6667 -22.6557 -22.6536 -22.6459 -22.6254 -22.6203 -22.5801
   -14.8801 -14.7827 -14.7572 -14.7537 -14.6940 -14.6298 -14.4636 -14.3592
    -7.0618  -6.9907  -6.9535  -6.7827  -6.6187  -6.5928  -6.4662  -6.3622
    -6.2666  -6.2340  -6.2068  -6.1560  -6.1073  -6.1013  -6.0588  -6.0455
    -6.0064  -5.9855  -5.8978  -5.8552  -5.8276  -5.7063  -5.6330  -5.5460
    -0.5877  -0.5671  -0.5236  -0.1572  -0.1411  -0.0547  -0.0393  -0.0314
    -0.0080   0.0122   0.0303   0.0466   0.0954   0.1316   0.1650   0.1825
     0.1913   0.2100   0.3237   0.3931   0.4016   0.4508   0.4876   0.5100
     5.6638   5.8324   5.9222   5.9439   6.1076   6.1328   6.2159   6.2202
     6.2583   6.2834   6.3609   6.3660   6.3961   6.4543   6.4951   7.1508
     7.1858   7.2279   7.2453   7.2627   7.3092   7.3235   7.3428   7.3919
     7.4372   7.4597   7.4689   7.5045   7.5457   7.5685   7.6010   7.6380
     7.6822   7.7473   7.7708   7.9349   8.0346   8.0740   8.1142   8.1719
     8.2516   8.2897   8.3359   8.3641   8.4559   8.4958   8.6844   8.7286
     8.7659   8.8974   8.9243   8.9735   9.0096   9.0317   9.0649   9.0945
     9.1180   9.1567   9.2126   9.2436   9.2987   9.3894   9.4079   9.5073
     9.7064   9.7373   9.7691   9.8205   9.8955   9.9790  10.0403  10.1142
    11.8731  12.1040  12.1605  12.2772  12.3074  12.3879  13.2038  13.3268
    13.3373  13.3596  13.3790  13.4443  13.4511  13.4842  13.4892  13.6150
    13.6769  13.7554  13.7894  13.8327  13.8955  13.9532  13.9940  14.0973
    14.1167  14.1537  14.1755  14.2031  14.3740  14.6591  14.7601  15.1439

          k =-0.5000 0.0000 0.0000 ( 21178 PWs)   bands (ev):

   -46.8280 -46.7032 -46.6958 -46.5119 -46.4414 -46.4091 -46.4043 -46.3538
   -23.0830 -23.0507 -23.0450 -22.9665 -22.9451 -22.9294 -22.9178 -22.9157
   -22.9073 -22.8160 -22.7843 -22.7730 -22.7276 -22.7237 -22.6919 -22.6777
   -22.6674 -22.6657 -22.6548 -22.6504 -22.6471 -22.6368 -22.6218 -22.5801
   -14.8716 -14.7776 -14.7736 -14.7454 -14.6842 -14.6430 -14.4654 -14.3608
    -7.0325  -6.8974  -6.8213  -6.8090  -6.7471  -6.6916  -6.3636  -6.3413
    -6.2880  -6.2279  -6.2159  -6.1663  -6.1378  -6.1104  -6.0774  -6.0479
    -5.9994  -5.9523  -5.9457  -5.8897  -5.8102  -5.7175  -5.6404  -5.5636
    -0.4701  -0.4191  -0.3183  -0.2658  -0.2173  -0.1666  -0.0467  -0.0203
     0.0021   0.0111   0.0455   0.0843   0.0969   0.1240   0.1315   0.1419
     0.1846   0.1891   0.2745   0.3222   0.3698   0.4138   0.4671   0.4775
     5.7017   5.8808   5.9100   5.9612   6.0693   6.1701   6.2535   6.3491
     6.5581   6.6105   6.6387   6.7074   6.7233   6.7733   6.8077   6.8259
     6.8718   6.9381   6.9419   7.0312   7.1568   7.2564   7.2637   7.3192
     7.4493   7.4680   7.4906   7.5132   7.5421   7.5691   7.5869   7.6005
     7.6364   7.6662   7.6913   7.7824   7.8090   7.9822   8.2067   8.2854
     8.3706   8.4515   8.5322   8.5438   8.5679   8.5983   8.6217   8.6442
     8.7051   8.7573   8.8001   8.8696   8.8996   8.9121   8.9546   8.9966
     9.0256   9.0611   9.3204   9.3558   9.4159   9.4572   9.4887   9.5285
     9.5522   9.5832   9.6373   9.6915   9.7398   9.8297   9.8963  10.1595
    11.9170  12.0214  12.5519  12.6238  12.7219  12.7781  12.8103  12.8614
    12.9610  12.9864  13.3192  13.4620  13.4808  13.5196  13.6116  13.6939
    13.7274  13.7410  13.7750  13.8317  13.8684  13.9020  13.9334  13.9794
    13.9900  14.1742  14.4112  14.5054  14.5388  14.7583  14.9355  15.1571

          k = 0.0000-0.5000-0.0000 ( 21178 PWs)   bands (ev):

   -46.8280 -46.7032 -46.6958 -46.5119 -46.4414 -46.4092 -46.4043 -46.3538
   -23.0832 -23.0509 -23.0478 -22.9632 -22.9406 -22.9308 -22.9174 -22.9155
   -22.9057 -22.8198 -22.7844 -22.7818 -22.7201 -22.7149 -22.6916 -22.6815
   -22.6764 -22.6677 -22.6575 -22.6560 -22.6460 -22.6254 -22.6204 -22.5801
   -14.8702 -14.7836 -14.7584 -14.7526 -14.7013 -14.6267 -14.4679 -14.3611
    -7.0082  -6.8930  -6.8432  -6.7862  -6.7460  -6.7110  -6.4022  -6.3802
    -6.2592  -6.2313  -6.2042  -6.1413  -6.0990  -6.0969  -6.0542  -6.0527
    -6.0334  -5.9581  -5.9259  -5.8939  -5.8542  -5.7327  -5.6399  -5.5510
    -0.4467  -0.4138  -0.3235  -0.2859  -0.2347  -0.2027  -0.0255  -0.0064
     0.0051   0.0147   0.0405   0.0864   0.0988   0.1077   0.1298   0.1690
     0.1793   0.2028   0.2533   0.3458   0.3568   0.4243   0.4574   0.4822
     5.7104   5.8783   5.9868   6.0182   6.0930   6.1472   6.2418   6.4021
     6.5742   6.5796   6.6283   6.6588   6.7151   6.7287   6.7672   6.8407
     6.9348   6.9844   6.9932   7.0402   7.1548   7.2460   7.2685   7.3179
     7.3488   7.3664   7.4407   7.4942   7.5185   7.5770   7.5893   7.6452
     7.6716   7.7191   7.7312   7.7739   7.8146   7.9857   8.1931   8.2716
     8.3253   8.4205   8.4527   8.5445   8.6029   8.6196   8.6569   8.6933
     8.7103   8.7278   8.7898   8.8267   8.8828   8.8996   8.9327   8.9456
     9.0260   9.1144   9.3452   9.3698   9.3830   9.4329   9.4650   9.4705
     9.5284   9.5487   9.6655   9.6795   9.8227   9.8662   9.8994  10.1038
    11.8826  12.0998  12.6576  12.6591  12.6797  12.7358  12.7886  13.0444
    13.0587  13.1022  13.3325  13.4387  13.4532  13.4639  13.5397  13.6291
    13.6889  13.7583  13.7622  13.8076  13.8198  13.9639  13.9727  13.9878
    14.0179  14.1450  14.3997  14.5227  14.5591  14.6439  15.0334  15.2248

          k =-0.0000-0.2500 0.2500 ( 21200 PWs)   bands (ev):

   -46.8280 -46.7032 -46.6958 -46.5119 -46.4414 -46.4092 -46.4043 -46.3538
   -23.0825 -23.0511 -23.0481 -22.9649 -22.9406 -22.9309 -22.9167 -22.9147
   -22.9063 -22.8179 -22.7853 -22.7818 -22.7238 -22.7150 -22.6929 -22.6816
   -22.6764 -22.6665 -22.6562 -22.6536 -22.6422 -22.6252 -22.6204 -22.5843
   -14.8702 -14.7870 -14.7527 -14.7492 -14.7043 -14.6348 -14.4568 -14.3665
    -7.0230  -6.9501  -6.8938  -6.7758  -6.6450  -6.6011  -6.4750  -6.3550
    -6.2948  -6.2539  -6.2062  -6.1481  -6.1066  -6.0958  -6.0604  -6.0487
    -6.0078  -5.9993  -5.9288  -5.8870  -5.8201  -5.7229  -5.6463  -5.5474
    -0.5548  -0.4937  -0.3825  -0.1904  -0.1416  -0.1157  -0.0610  -0.0525
    -0.0145   0.0015   0.0197   0.0674   0.0843   0.1268   0.1501   0.1629
     0.1969   0.2016   0.3217   0.3565   0.3878   0.4163   0.4583   0.4999
     5.7707   5.8851   5.9548   6.0500   6.1234   6.2314   6.2586   6.3611
     6.3918   6.3998   6.4359   6.4712   6.4810   6.5144   6.5928   7.0710
     7.1369   7.1906   7.2217   7.2616   7.2941   7.3139   7.3385   7.3905
     7.4340   7.4491   7.4669   7.5204   7.5313   7.5391   7.5775   7.6191
     7.6366   7.6689   7.7206   7.7420   7.7848   8.0086   8.0478   8.0975
     8.1406   8.3337   8.3799   8.4590   8.5075   8.6142   8.6558   8.7598
     8.7928   8.8259   8.8729   8.9387   8.9588   9.0577   9.0935   9.1126
     9.1285   9.1671   9.2024   9.2155   9.2648   9.2812   9.3303   9.4018
     9.6045   9.6437   9.6900   9.7432   9.7882   9.9435   9.9800  10.0117
    12.0985  12.2515  12.3381  12.3501  12.4029  12.4968  13.1782  13.1838
    13.3033  13.3300  13.3446  13.3619  13.3901  13.4546  13.4915  13.5806
    13.6292  13.6899  13.7393  13.8406  13.9202  13.9799  14.0069  14.0585
    14.0802  14.2122  14.2783  14.4721  14.5716  14.6734  15.0653  15.2265

          k = 0.2500-0.0000-0.2500 ( 21200 PWs)   bands (ev):

   -46.8280 -46.7032 -46.6958 -46.5119 -46.4414 -46.4091 -46.4043 -46.3538
   -23.0824 -23.0509 -23.0469 -22.9665 -22.9428 -22.9302 -22.9169 -22.9148
   -22.9071 -22.8160 -22.7852 -22.7778 -22.7273 -22.7192 -22.6931 -22.6790
   -22.6734 -22.6655 -22.6558 -22.6503 -22.6426 -22.6301 -22.6211 -22.5843
   -14.8704 -14.7892 -14.7597 -14.7416 -14.6956 -14.6432 -14.4556 -14.3664
    -7.0348  -6.9539  -6.8829  -6.7829  -6.6659  -6.5308  -6.5159  -6.3361
    -6.2794  -6.2663  -6.2173  -6.1437  -6.1328  -6.0997  -6.0736  -6.0508
    -5.9987  -5.9875  -5.9241  -5.8909  -5.8062  -5.7197  -5.6410  -5.5560
    -0.5457  -0.5050  -0.3878  -0.1736  -0.1407  -0.1067  -0.0641  -0.0480
    -0.0126   0.0047   0.0334   0.0473   0.0616   0.1276   0.1444   0.1626
     0.1878   0.2134   0.3252   0.3665   0.3803   0.4151   0.4676   0.4907
     5.7400   5.8667   5.9474   6.0455   6.0765   6.2434   6.2897   6.3478
     6.3863   6.4195   6.4498   6.4645   6.4872   6.5203   6.6027   7.0783
     7.1179   7.1581   7.2093   7.2595   7.2854   7.3535   7.3661   7.3810
     7.4087   7.4485   7.4823   7.5022   7.5407   7.5628   7.6018   7.6163
     7.6521   7.6732   7.6934   7.7162   7.7476   8.0543   8.0697   8.1171
     8.1548   8.3418   8.3775   8.4278   8.5054   8.5996   8.7165   8.7472
     8.8193   8.8487   8.8952   8.9194   8.9604   9.0239   9.0660   9.0975
     9.1354   9.1623   9.1836   9.2240   9.2765   9.3279   9.3452   9.4227
     9.5975   9.6593   9.6900   9.7460   9.7961   9.9208   9.9553  10.0477
    12.1356  12.2420  12.2860  12.2935  12.3305  12.5463  13.1582  13.1964
    13.2214  13.2689  13.2960  13.3306  13.3587  13.5189  13.5930  13.6143
    13.6419  13.7218  13.7362  13.8288  13.9225  13.9716  14.0546  14.0746
    14.0909  14.1517  14.2845  14.4296  14.5641  14.7257  15.0865  15.1796

          k =-0.2500-0.0000-0.2500 ( 21200 PWs)   bands (ev):

   -46.8280 -46.7032 -46.6958 -46.5119 -46.4414 -46.4091 -46.4043 -46.3538
   -23.0824 -23.0510 -23.0469 -22.9665 -22.9428 -22.9302 -22.9169 -22.9148
   -22.9071 -22.8160 -22.7852 -22.7777 -22.7273 -22.7192 -22.6931 -22.6790
   -22.6734 -22.6655 -22.6558 -22.6503 -22.6426 -22.6301 -22.6211 -22.5843
   -14.8704 -14.7891 -14.7598 -14.7416 -14.6955 -14.6432 -14.4556 -14.3664
    -7.0344  -6.9528  -6.8872  -6.7805  -6.6652  -6.5355  -6.5070  -6.3433
    -6.2863  -6.2694  -6.2006  -6.1494  -6.1196  -6.1047  -6.0678  -6.0577
    -6.0058  -5.9852  -5.9421  -5.8745  -5.8040  -5.7207  -5.6403  -5.5568
    -0.5522  -0.5037  -0.3772  -0.1728  -0.1425  -0.1054  -0.0727  -0.0399
    -0.0315  -0.0043   0.0363   0.0421   0.0823   0.1352   0.1507   0.1674
     0.1864   0.2062   0.3117   0.3704   0.3855   0.4386   0.4548   0.4781
     5.7406   5.8643   5.9487   6.0469   6.0753   6.2663   6.2955   6.3398
     6.3901   6.3994   6.4378   6.4610   6.4886   6.5137   6.6180   7.0662
     7.1193   7.2071   7.2231   7.2383   7.2609   7.3240   7.3515   7.4053
     7.4185   7.4400   7.4805   7.4993   7.5263   7.5644   7.5971   7.6218
     7.6540   7.6742   7.7182   7.7296   7.7697   8.0352   8.0856   8.1122
     8.1450   8.3044   8.3864   8.4410   8.5242   8.5820   8.6959   8.7370
     8.8305   8.8658   8.8874   8.9348   8.9715   9.0089   9.0588   9.0928
     9.1357   9.1626   9.1901   9.2104   9.2601   9.3291   9.3515   9.4429
     9.6105   9.6595   9.6949   9.7474   9.8033   9.8996   9.9544  10.0488
    12.1314  12.2469  12.2833  12.2992  12.3298  12.5320  13.1748  13.1960
    13.2179  13.2630  13.3020  13.3366  13.3598  13.5168  13.5878  13.6187
    13.6425  13.7101  13.7363  13.8282  13.9225  13.9760  14.0531  14.0710
    14.0981  14.1523  14.2805  14.4317  14.5663  14.7253  15.0794  15.1740

          k = 0.2500-0.2500-0.0000 ( 21200 PWs)   bands (ev):

   -46.8280 -46.7032 -46.6958 -46.5119 -46.4414 -46.4091 -46.4043 -46.3538
   -23.0831 -23.0504 -23.0468 -22.9649 -22.9428 -22.9301 -22.9176 -22.9156
   -22.9065 -22.8179 -22.7843 -22.7778 -22.7239 -22.7190 -22.6918 -22.6788
   -22.6735 -22.6667 -22.6556 -22.6537 -22.6462 -22.6305 -22.6212 -22.5801
   -14.8725 -14.7793 -14.7625 -14.7528 -14.6924 -14.6346 -14.4667 -14.3610
    -7.0316  -6.9368  -6.9021  -6.7685  -6.6439  -6.5751  -6.5080  -6.3562
    -6.2870  -6.2387  -6.2129  -6.1536  -6.1329  -6.1036  -6.0702  -6.0548
    -6.0098  -5.9655  -5.9363  -5.8719  -5.8217  -5.7170  -5.6386  -5.5556
    -0.5519  -0.4984  -0.3967  -0.1694  -0.1423  -0.0872  -0.0566  -0.0436
    -0.0227  -0.0014   0.0261   0.0441   0.0730   0.1155   0.1328   0.1700
     0.1816   0.2332   0.3327   0.3473   0.3594   0.4300   0.4667   0.5031
     5.7475   5.9119   5.9718   6.0283   6.1397   6.2487   6.3017   6.3202
     6.3472   6.4140   6.4258   6.4564   6.4955   6.5272   6.5689   7.1061
     7.1456   7.1920   7.2324   7.2499   7.2765   7.3022   7.3268   7.3690
     7.3984   7.4287   7.4514   7.4932   7.5502   7.5594   7.5782   7.6182
     7.6471   7.6677   7.7131   7.7362   7.8179   8.0299   8.0520   8.0744
     8.1441   8.3384   8.3945   8.4502   8.5414   8.5833   8.6595   8.7617
     8.7982   8.8348   8.8988   8.9620   8.9675   9.0446   9.0757   9.1003
     9.1246   9.1695   9.2014   9.2259   9.2582   9.2880   9.3355   9.4143
     9.6076   9.6446   9.6941   9.7704   9.8045   9.8879   9.9745  10.0801
    12.1073  12.1853  12.2749  12.3538  12.4150  12.5042  13.1865  13.2176
    13.2336  13.2991  13.3257  13.3963  13.4367  13.4454  13.4837  13.5307
    13.6736  13.7056  13.7977  13.8260  13.8578  13.9749  14.0485  14.0758
    14.1013  14.1885  14.2445  14.4084  14.5992  14.7438  15.0866  15.1577

          k =-0.2500-0.2500-0.0000 ( 21200 PWs)   bands (ev):

   -46.8280 -46.7032 -46.6958 -46.5119 -46.4414 -46.4091 -46.4043 -46.3538
   -23.0831 -23.0504 -23.0468 -22.9649 -22.9428 -22.9301 -22.9176 -22.9156
   -22.9065 -22.8179 -22.7843 -22.7778 -22.7240 -22.7190 -22.6918 -22.6788
   -22.6735 -22.6667 -22.6556 -22.6537 -22.6462 -22.6305 -22.6212 -22.5801
   -14.8726 -14.7792 -14.7625 -14.7528 -14.6922 -14.6348 -14.4667 -14.3610
    -7.0314  -6.9386  -6.8994  -6.7710  -6.6374  -6.5610  -6.5322  -6.3660
    -6.2685  -6.2375  -6.2072  -6.1716  -6.1241  -6.0992  -6.0661  -6.0600
    -6.0123  -5.9806  -5.9210  -5.8725  -5.8220  -5.7206  -5.6361  -5.5558
    -0.5575  -0.4981  -0.3936  -0.1639  -0.1325  -0.0874  -0.0638  -0.0488
    -0.0284   0.0018   0.0233   0.0408   0.0923   0.1033   0.1380   0.1689
     0.1823   0.2297   0.3265   0.3488   0.3645   0.4311   0.4714   0.4965
     5.7487   5.9185   5.9688   6.0358   6.1401   6.2438   6.2995   6.3274
     6.3496   6.4162   6.4316   6.4588   6.4944   6.5179   6.5373   7.0743
     7.1785   7.1951   7.2203   7.2570   7.2763   7.3066   7.3538   7.3635
     7.3969   7.4256   7.4460   7.4799   7.5348   7.5650   7.5881   7.6317
     7.6548   7.6794   7.7097   7.7369   7.7825   8.0274   8.0958   8.1195
     8.1331   8.3262   8.3865   8.4331   8.5089   8.5925   8.6296   8.7877
     8.8221   8.8504   8.8878   8.9210   8.9839   9.0413   9.0889   9.0968
     9.1260   9.1590   9.2107   9.2302   9.2549   9.2993   9.3420   9.3904
     9.6218   9.6561   9.6862   9.7367   9.8125   9.8857  10.0101  10.0540
    12.0856  12.1948  12.2956  12.3517  12.4076  12.5258  13.1808  13.2142
    13.2275  13.3122  13.3387  13.3922  13.4322  13.4457  13.4859  13.5123
    13.6699  13.7084  13.7939  13.8254  13.8583  13.9769  14.0545  14.0748
    14.1025  14.1906  14.2372  14.4057  14.5912  14.7423  15.0957  15.1516

          k = 0.2500 0.0000 0.5000 ( 21174 PWs)   bands (ev):

   -46.8280 -46.7032 -46.6958 -46.5119 -46.4414 -46.4091 -46.4043 -46.3538
   -23.0816 -23.0509 -23.0468 -22.9665 -22.9428 -22.9302 -22.9161 -22.9139
   -22.9068 -22.8160 -22.7861 -22.7778 -22.7273 -22.7192 -22.6942 -22.6795
   -22.6734 -22.6653 -22.6563 -22.6503 -22.6387 -22.6293 -22.6212 -22.5892
   -14.8566 -14.8016 -14.7539 -14.7266 -14.7126 -14.6493 -14.4476 -14.3750
    -6.9922  -6.8920  -6.7982  -6.7382  -6.7208  -6.6748  -6.4308  -6.3551
    -6.3098  -6.2590  -6.2154  -6.1493  -6.1143  -6.1014  -6.0840  -6.0554
    -6.0049  -5.9936  -5.9747  -5.8959  -5.8096  -5.7459  -5.6465  -5.5591
    -0.3980  -0.3716  -0.3171  -0.2987  -0.1640  -0.1406  -0.0879  -0.0482
    -0.0325   0.0060   0.0168   0.0324   0.0645   0.0889   0.1222   0.1522
     0.1951   0.2169   0.3185   0.3416   0.3544   0.4115   0.4365   0.4694
     5.7931   5.8794   6.0238   6.0483   6.2016   6.2212   6.3941   6.4367
     6.5796   6.6488   6.7146   6.7423   6.7658   6.8236   6.8508   6.8812
     6.9125   6.9482   6.9767   7.0611   7.0853   7.2369   7.2834   7.3087
     7.3602   7.4258   7.4757   7.5097   7.5446   7.5717   7.5934   7.6048
     7.6293   7.6573   7.6897   7.7418   7.7770   7.9121   7.9183   8.0396
     8.2177   8.3027   8.3730   8.4402   8.5117   8.5378   8.6771   8.6943
     8.7292   8.7644   8.8705   8.9024   8.9580   8.9646   8.9970   9.0541
     9.0627   9.1448   9.2641   9.3388   9.3870   9.4018   9.4299   9.4626
     9.5045   9.5695   9.5961   9.6172   9.7462   9.7593   9.8007   9.9620
    12.2540  12.2829  12.5873  12.6310  12.7306  12.7895  12.8577  12.9561
    12.9783  13.0313  13.2227  13.3079  13.3553  13.5150  13.6012  13.6113
    13.6400  13.6672  13.7052  13.7726  13.8345  13.9124  13.9851  14.0007
    14.1124  14.2601  14.4192  14.6674  14.7770  15.0469  15.1467  15.3405

          k =-0.5000-0.2500-0.0000 ( 21174 PWs)   bands (ev):

   -46.8280 -46.7032 -46.6958 -46.5119 -46.4414 -46.4091 -46.4043 -46.3538
   -23.0830 -23.0501 -23.0450 -22.9648 -22.9451 -22.9294 -22.9176 -22.9156
   -22.9065 -22.8178 -22.7843 -22.7730 -22.7254 -22.7225 -22.6918 -22.6780
   -22.6676 -22.6666 -22.6551 -22.6538 -22.6472 -22.6368 -22.6220 -22.5801
   -14.8639 -14.7757 -14.7710 -14.7496 -14.6905 -14.6399 -14.4699 -14.3627
    -6.9991  -6.8573  -6.7924  -6.7733  -6.7044  -6.6609  -6.4562  -6.3726
    -6.2946  -6.2453  -6.2116  -6.1763  -6.1479  -6.1106  -6.0801  -6.0632
    -6.0163  -5.9563  -5.9492  -5.8942  -5.8217  -5.7326  -5.6414  -5.5640
    -0.4400  -0.3549  -0.3392  -0.2512  -0.1632  -0.1430  -0.0557  -0.0412
    -0.0299  -0.0015   0.0184   0.0421   0.0632   0.0768   0.1224   0.1499
     0.1816   0.2067   0.2939   0.3159   0.3636   0.4179   0.4549   0.4823
     5.8044   5.9647   5.9923   6.1123   6.1597   6.2684   6.3402   6.4661
     6.6330   6.6588   6.6757   6.7089   6.7598   6.7786   6.8077   6.8476
     6.8866   6.9009   6.9669   7.0473   7.1272   7.2462   7.3005   7.3239
     7.3840   7.4170   7.4507   7.4951   7.5343   7.5560   7.5852   7.6200
     7.6375   7.6790   7.6932   7.7380   7.8004   7.8625   7.9209   8.0562
     8.2055   8.2897   8.3327   8.3827   8.5300   8.5538   8.6707   8.6914
     8.7823   8.8049   8.8826   8.9304   8.9620   9.0060   9.0328   9.0517
     9.1013   9.1224   9.2629   9.2988   9.3410   9.4003   9.4547   9.4738
     9.4962   9.5451   9.5668   9.5855   9.7259   9.7820   9.8222  10.0566
    12.1641  12.2702  12.5571  12.7133  12.7943  12.8079  12.8553  12.8716
    12.9632  13.0900  13.2170  13.3895  13.4496  13.4724  13.5089  13.5464
    13.6697  13.6804  13.7510  13.7783  13.7887  13.8436  13.9179  14.0793
    14.1408  14.2095  14.4460  14.6082  14.8758  15.0490  15.0799  15.3725

          k = 0.0000-0.5000 0.2500 ( 21174 PWs)   bands (ev):

   -46.8280 -46.7032 -46.6958 -46.5119 -46.4414 -46.4092 -46.4043 -46.3538
   -23.0825 -23.0509 -23.0478 -22.9632 -22.9406 -22.9308 -22.9165 -22.9146
   -22.9055 -22.8198 -22.7853 -22.7818 -22.7201 -22.7149 -22.6928 -22.6817
   -22.6767 -22.6675 -22.6575 -22.6566 -22.6423 -22.6252 -22.6205 -22.5843
   -14.8617 -14.7782 -14.7616 -14.7481 -14.7126 -14.6315 -14.4610 -14.3685
    -6.9722  -6.8689  -6.8137  -6.7569  -6.7160  -6.6710  -6.4344  -6.4008
    -6.2975  -6.2498  -6.2282  -6.1429  -6.1011  -6.0942  -6.0634  -6.0534
    -6.0327  -6.0025  -5.9313  -5.9081  -5.8401  -5.7436  -5.6522  -5.5493
    -0.4203  -0.3703  -0.3654  -0.2070  -0.1606  -0.1349  -0.1030  -0.0644
    -0.0350  -0.0164   0.0305   0.0639   0.0771   0.0918   0.1160   0.1662
     0.1861   0.1873   0.2958   0.3245   0.3474   0.4084   0.4665   0.4868
     5.8273   5.9607   5.9796   6.1073   6.1761   6.2863   6.3758   6.5375
     6.5955   6.6143   6.6709   6.7207   6.7382   6.7793   6.8295   6.8665
     6.9350   6.9576   6.9895   7.0250   7.0886   7.2293   7.2914   7.3223
     7.3422   7.3987   7.4120   7.4972   7.5128   7.5469   7.5960   7.6388
     7.6541   7.6843   7.7258   7.7359   7.8014   7.8865   7.9552   8.0347
     8.1577   8.2104   8.2894   8.4635   8.5487   8.5714   8.6195   8.7263
     8.7633   8.8270   8.8357   8.8696   8.9114   8.9924   9.0205   9.0548
     9.1262   9.1734   9.2845   9.3082   9.3371   9.3512   9.3984   9.4635
     9.4946   9.5263   9.5640   9.5934   9.7510   9.8108   9.8493  10.0081
    12.1113  12.3292  12.6619  12.7210  12.7405  12.7859  12.8814  13.0426
    13.0540  13.1856  13.1952  13.3208  13.3935  13.4497  13.4738  13.4810
    13.6201  13.7026  13.7313  13.7977  13.8347  13.8687  13.9558  14.0425
    14.0488  14.2467  14.5357  14.5561  14.8801  14.9757  15.1700  15.4611

          k = 0.2500-0.5000-0.0000 ( 21174 PWs)   bands (ev):

   -46.8280 -46.7032 -46.6958 -46.5119 -46.4414 -46.4091 -46.4043 -46.3538
   -23.0831 -23.0500 -23.0467 -22.9632 -22.9428 -22.9301 -22.9174 -22.9155
   -22.9057 -22.8198 -22.7843 -22.7778 -22.7209 -22.7182 -22.6916 -22.6791
   -22.6737 -22.6677 -22.6575 -22.6559 -22.6463 -22.6305 -22.6213 -22.5801
   -14.8630 -14.7807 -14.7599 -14.7543 -14.6996 -14.6315 -14.4712 -14.3629
    -6.9854  -6.8589  -6.8026  -6.7464  -6.7114  -6.6809  -6.4457  -6.4190
    -6.2769  -6.2462  -6.2054  -6.1571  -6.1408  -6.1039  -6.0788  -6.0543
    -6.0343  -5.9548  -5.9466  -5.8940  -5.8405  -5.7400  -5.6414  -5.5582
    -0.4244  -0.3508  -0.3492  -0.2546  -0.1778  -0.1663  -0.0553  -0.0368
    -0.0235   0.0022   0.0263   0.0414   0.0649   0.0849   0.1165   0.1430
     0.1807   0.2179   0.3044   0.3196   0.3548   0.4156   0.4537   0.4842
     5.7948   5.9783   6.0201   6.1501   6.1760   6.2637   6.3547   6.4961
     6.5790   6.6004   6.6875   6.7229   6.7380   6.7892   6.8328   6.8564
     6.9243   6.9409   6.9932   7.0366   7.1145   7.2293   7.2918   7.3076
     7.3344   7.3826   7.4186   7.4703   7.5321   7.5873   7.5961   7.6175
     7.6638   7.6790   7.7092   7.7433   7.8029   7.8297   7.9175   7.9990
     8.1783   8.3100   8.3453   8.4167   8.5186   8.5676   8.6723   8.6919
     8.7603   8.8290   8.8894   8.9143   8.9579   8.9729   8.9989   9.0556
     9.1141   9.1452   9.2823   9.3189   9.3345   9.3836   9.4147   9.4319
     9.4903   9.5284   9.5586   9.5999   9.7570   9.7988   9.8680  10.0133
    12.1263  12.3337  12.6682  12.6732  12.7076  12.7843  12.8012  13.0775
    13.0943  13.1380  13.2125  13.2952  13.3389  13.4421  13.5460  13.5723
    13.6306  13.6649  13.7197  13.7452  13.8264  13.8881  13.9705  14.0400
    14.0922  14.2635  14.4288  14.5996  14.8711  14.9566  15.2715  15.3777

          k =-0.5000 0.0000 0.2500 ( 21174 PWs)   bands (ev):

   -46.8280 -46.7032 -46.6958 -46.5119 -46.4414 -46.4091 -46.4043 -46.3538
   -23.0823 -23.0507 -23.0450 -22.9665 -22.9451 -22.9294 -22.9169 -22.9148
   -22.9071 -22.8160 -22.7852 -22.7730 -22.7276 -22.7237 -22.6931 -22.6782
   -22.6674 -22.6654 -22.6553 -22.6503 -22.6443 -22.6358 -22.6219 -22.5843
   -14.8620 -14.7843 -14.7680 -14.7395 -14.6936 -14.6489 -14.4585 -14.3682
    -7.0025  -6.8804  -6.7945  -6.7544  -6.7214  -6.6476  -6.4243  -6.3527
    -6.3172  -6.2828  -6.2103  -6.1573  -6.1333  -6.1120  -6.0772  -6.0658
    -6.0007  -5.9723  -5.9645  -5.8965  -5.8084  -5.7361  -5.6426  -5.5657
    -0.4100  -0.3962  -0.3638  -0.1956  -0.1258  -0.1075  -0.0786  -0.0733
    -0.0453  -0.0220   0.0028   0.0372   0.0580   0.0930   0.1172   0.1460
     0.1750   0.2092   0.3164   0.3365   0.3507   0.4259   0.4458   0.4727
     5.7831   5.9186   5.9866   6.0771   6.1222   6.3032   6.3997   6.4975
     6.6017   6.6498   6.6625   6.7026   6.7405   6.7780   6.8243   6.8700
     6.8941   6.9577   6.9860   7.0257   7.1173   7.2019   7.3021   7.3220
     7.3782   7.4087   7.4774   7.5157   7.5351   7.5508   7.5760   7.6242
     7.6678   7.6896   7.7060   7.7414   7.8062   7.9091   7.9739   8.0462
     8.1163   8.2468   8.3398   8.4932   8.5230   8.5441   8.6317   8.6876
     8.7945   8.8536   8.8764   8.8873   8.9323   8.9743   9.0250   9.0658
     9.1014   9.1532   9.2450   9.3001   9.3733   9.4023   9.4405   9.4701
     9.5099   9.5554   9.5639   9.5991   9.7120   9.7764   9.8091  10.0420
    12.1569  12.2712  12.6141  12.6322  12.7229  12.7819  12.8788  12.9372
    12.9778  13.0519  13.2024  13.3262  13.3393  13.5173  13.5621  13.6095
    13.6677  13.7265  13.7336  13.7774  13.8118  13.8519  13.9175  14.0640
    14.1451  14.1999  14.4564  14.6491  14.7877  15.0993  15.1425  15.3109

          k =-0.5000 0.0000 0.5000 ( 21216 PWs)   bands (ev):

   -46.8280 -46.7032 -46.6958 -46.5119 -46.4414 -46.4091 -46.4043 -46.3538
   -23.0815 -23.0507 -23.0449 -22.9664 -22.9451 -22.9294 -22.9161 -22.9139
   -22.9068 -22.8160 -22.7861 -22.7730 -22.7276 -22.7237 -22.6942 -22.6787
   -22.6674 -22.6652 -22.6558 -22.6503 -22.6419 -22.6335 -22.6220 -22.5892
   -14.8492 -14.7958 -14.7616 -14.7251 -14.7102 -14.6555 -14.4503 -14.3770
    -6.9702  -6.8630  -6.7693  -6.7044  -6.6159  -6.5707  -6.5558  -6.4625
    -6.3054  -6.2552  -6.2506  -6.1661  -6.1326  -6.1245  -6.0848  -6.0576
    -6.0006  -5.9941  -5.9862  -5.9014  -5.8074  -5.7567  -5.6449  -5.5668
    -0.3311  -0.3186  -0.2820  -0.2502  -0.2259  -0.2139  -0.0657  -0.0392
    -0.0318  -0.0011   0.0179   0.0276   0.0700   0.0754   0.1083   0.1324
     0.1420   0.1701   0.3086   0.3390   0.3762   0.4140   0.4303   0.4729
     5.8286   5.9254   6.0574   6.0731   6.4531   6.5392   6.5530   6.5646
     6.6666   6.6862   6.7424   6.7728   6.7854   6.8111   6.8532   6.8964
     6.9209   6.9841   7.0356   7.0623   7.0857   7.1093   7.2191   7.2953
     7.3708   7.4226   7.4577   7.4896   7.5010   7.5255   7.5339   7.5816
     7.5994   7.6262   7.6714   7.6999   7.8071   7.8310   7.8632   7.9241
     8.0173   8.0978   8.1306   8.1754   8.4603   8.5041   8.5318   8.6479
     8.8232   8.8708   8.9357   8.9775   9.0224   9.0614   9.0671   9.0935
     9.1256   9.1727   9.2698   9.2896   9.3603   9.3872   9.4301   9.4669
     9.4819   9.5406   9.5542   9.6154   9.6619   9.7113   9.7557   9.7877
    12.5585  12.6373  12.6676  12.7272  12.7741  12.7898  12.8359  12.9502
    12.9914  13.0149  13.0866  13.1834  13.2582  13.3065  13.4822  13.5046
    13.6188  13.6611  13.6915  13.7510  13.7860  13.8227  13.8950  13.9033
    14.3472  14.3731  14.4075  14.7097  15.1752  15.5857  15.5975  15.8684

          k =-0.5000 0.5000 0.0000 ( 21216 PWs)   bands (ev):

   -46.8280 -46.7032 -46.6958 -46.5119 -46.4414 -46.4091 -46.4043 -46.3538
   -23.0830 -23.0496 -23.0449 -22.9632 -22.9451 -22.9293 -22.9175 -22.9155
   -22.9057 -22.8198 -22.7843 -22.7730 -22.7247 -22.7194 -22.6916 -22.6783
   -22.6680 -22.6673 -22.6576 -22.6553 -22.6473 -22.6369 -22.6222 -22.5801
   -14.8547 -14.7778 -14.7685 -14.7498 -14.6980 -14.6367 -14.4747 -14.3647
    -6.9618  -6.8242  -6.7572  -6.6762  -6.6696  -6.6114  -6.5539  -6.4740
    -6.2983  -6.2653  -6.2112  -6.1859  -6.1644  -6.1133  -6.0872  -6.0579
    -6.0364  -5.9653  -5.9506  -5.8955  -5.8342  -5.7479  -5.6429  -5.5644
    -0.3402  -0.3135  -0.2948  -0.2468  -0.1905  -0.1800  -0.1632  -0.0735
    -0.0385  -0.0165  -0.0022   0.0560   0.0804   0.1010   0.1230   0.1571
     0.2002   0.2137   0.2827   0.3035   0.3175   0.4173   0.4449   0.4905
     5.8480   6.0280   6.0337   6.1805   6.4776   6.5011   6.5208   6.5752
     6.6711   6.7169   6.7372   6.7670   6.7971   6.8261   6.8460   6.8664
     6.9079   6.9392   6.9777   7.0214   7.0930   7.1573   7.2053   7.3051
     7.3640   7.3746   7.4353   7.4509   7.4756   7.4931   7.5407   7.5782
     7.6033   7.6417   7.6498   7.6833   7.8057   7.8746   7.9158   7.9448
     7.9530   8.0118   8.0270   8.2046   8.4933   8.5156   8.5823   8.6508
     8.8339   8.8865   8.9702   8.9811   9.0138   9.0463   9.0843   9.1273
     9.1717   9.2093   9.2565   9.2809   9.3198   9.3386   9.4327   9.4646
     9.4709   9.5177   9.5417   9.5826   9.5951   9.7378   9.8228   9.8584
    12.5112  12.6317  12.6820  12.7453  12.8495  12.8730  12.8941  12.9020
    12.9766  13.0159  13.1120  13.2752  13.2763  13.3378  13.4846  13.5105
    13.5307  13.5750  13.6890  13.6987  13.7644  13.7803  13.8931  13.9675
    14.3053  14.3995  14.4638  14.6155  15.3686  15.4083  15.5957  15.7689

          k =-0.2500-0.2500 0.2500 ( 21239 PWs)   bands (ev):

   -46.8280 -46.7032 -46.6958 -46.5119 -46.4414 -46.4091 -46.4043 -46.3538
   -23.0824 -23.0504 -23.0468 -22.9648 -22.9428 -22.9301 -22.9167 -22.9147
   -22.9063 -22.8179 -22.7852 -22.7778 -22.7240 -22.7190 -22.6929 -22.6792
   -22.6735 -22.6665 -22.6561 -22.6537 -22.6427 -22.6301 -22.6213 -22.5843
   -14.8632 -14.7830 -14.7574 -14.7488 -14.7024 -14.6401 -14.4598 -14.3684
    -6.9945  -6.9063  -6.8402  -6.7589  -6.6289  -6.5851  -6.5325  -6.3623
    -6.2853  -6.2561  -6.2316  -6.1543  -6.1273  -6.0987  -6.0859  -6.0620
    -6.0129  -5.9961  -5.9316  -5.9091  -5.8215  -5.7309  -5.6489  -5.5588
    -0.4938  -0.4750  -0.2764  -0.1792  -0.1547  -0.1092  -0.0784  -0.0682
    -0.0607  -0.0337  -0.0121   0.0247   0.0584   0.0875   0.1147   0.1378
     0.2100   0.2361   0.2978   0.3693   0.3945   0.4212   0.4835   0.5092
     5.8746   6.0022   6.0566   6.1105   6.2261   6.2635   6.2892   6.4123
     6.4274   6.4961   6.5222   6.5408   6.5602   6.6040   6.6138   7.0337
     7.0823   7.1201   7.1664   7.1987   7.2505   7.3011   7.3413   7.3750
     7.4287   7.4484   7.4781   7.5103   7.5287   7.5655   7.5845   7.6129
     7.6326   7.6623   7.6840   7.7110   7.7664   7.8452   7.8794   8.0933
     8.1221   8.1723   8.2771   8.3510   8.5242   8.5778   8.6368   8.7834
     8.8163   8.8454   8.9113   8.9344   8.9824   9.0387   9.1019   9.1144
     9.1413   9.1560   9.2009   9.2369   9.2568   9.2854   9.3347   9.3541
     9.5409   9.5733   9.6220   9.6635   9.7236   9.8932   9.9337   9.9693
    12.2727  12.3506  12.4158  12.4766  12.5086  12.5586  13.1717  13.1959
    13.2319  13.2761  13.3014  13.3290  13.3483  13.3931  13.4546  13.5072
    13.5904  13.6115  13.7219  13.7448  13.8150  13.9445  13.9591  13.9806
    14.3552  14.4737  14.5022  14.5635  14.6573  15.0555  15.1028  15.2306

          k =-0.2500 0.2500-0.2500 ( 21239 PWs)   bands (ev):

   -46.8280 -46.7032 -46.6958 -46.5119 -46.4414 -46.4091 -46.4043 -46.3538
   -23.0824 -23.0504 -23.0468 -22.9648 -22.9428 -22.9301 -22.9167 -22.9147
   -22.9063 -22.8179 -22.7852 -22.7778 -22.7240 -22.7190 -22.6929 -22.6792
   -22.6735 -22.6665 -22.6561 -22.6537 -22.6427 -22.6301 -22.6213 -22.5843
   -14.8632 -14.7828 -14.7577 -14.7488 -14.7026 -14.6399 -14.4598 -14.3684
    -6.9940  -6.9049  -6.8474  -6.7524  -6.6425  -6.5699  -6.5287  -6.3577
    -6.3012  -6.2744  -6.2105  -6.1515  -6.1284  -6.1076  -6.0777  -6.0536
    -6.0217  -5.9880  -5.9544  -5.8917  -5.8188  -5.7351  -5.6504  -5.5573
    -0.4975  -0.4728  -0.2646  -0.1803  -0.1545  -0.1097  -0.0914  -0.0735
    -0.0593  -0.0410  -0.0016   0.0161   0.0662   0.0892   0.1143   0.1411
     0.2183   0.2316   0.3022   0.3613   0.3950   0.4455   0.4588   0.5096
     5.8765   5.9924   6.0548   6.1036   6.2314   6.2837   6.2930   6.3953
     6.4334   6.4699   6.5194   6.5371   6.5618   6.6213   6.6399   7.0546
     7.0855   7.1272   7.1438   7.2090   7.2501   7.3107   7.3432   7.3587
     7.4184   7.4358   7.4843   7.5002   7.5151   7.5442   7.5871   7.6085
     7.6418   7.6621   7.6733   7.7186   7.7655   7.8553   7.9025   8.0965
     8.1310   8.1625   8.2818   8.3396   8.5384   8.5655   8.6318   8.8098
     8.8156   8.8400   8.9339   8.9476   8.9962   9.0122   9.0304   9.0900
     9.1253   9.1786   9.2098   9.2232   9.2574   9.2786   9.3330   9.3916
     9.5626   9.5766   9.6222   9.6847   9.7350   9.8771   9.9035   9.9921
    12.2848  12.3326  12.4211  12.4703  12.4970  12.5424  13.1846  13.1963
    13.2335  13.2739  13.3079  13.3382  13.3563  13.3766  13.4477  13.5246
    13.5873  13.6177  13.7172  13.7351  13.8175  13.9423  13.9619  13.9842
    14.3641  14.4752  14.4917  14.5739  14.6603  15.0413  15.1099  15.2220

          k = 0.2500-0.2500-0.2500 ( 21239 PWs)   bands (ev):

   -46.8280 -46.7032 -46.6958 -46.5119 -46.4414 -46.4091 -46.4043 -46.3538
   -23.0824 -23.0504 -23.0468 -22.9648 -22.9428 -22.9301 -22.9167 -22.9147
   -22.9063 -22.8179 -22.7852 -22.7778 -22.7240 -22.7190 -22.6930 -22.6792
   -22.6735 -22.6665 -22.6561 -22.6537 -22.6426 -22.6301 -22.6213 -22.5843
   -14.8632 -14.7825 -14.7578 -14.7490 -14.7025 -14.6399 -14.4598 -14.3684
    -6.9928  -6.9019  -6.8511  -6.7524  -6.6449  -6.5732  -6.5259  -6.3579
    -6.2958  -6.2770  -6.2155  -6.1449  -6.1255  -6.1037  -6.0874  -6.0523
    -6.0191  -5.9980  -5.9323  -5.8994  -5.8276  -5.7367  -5.6453  -5.5589
    -0.4983  -0.4760  -0.2696  -0.1579  -0.1425  -0.1293  -0.0919  -0.0768
    -0.0572  -0.0283  -0.0089   0.0184   0.0535   0.0862   0.1134   0.1376
     0.2227   0.2514   0.2814   0.3603   0.3903   0.4244   0.4975   0.5034
     5.8742   5.9899   6.0557   6.1121   6.2172   6.2770   6.2905   6.4039
     6.4281   6.4710   6.5287   6.5549   6.5651   6.6112   6.6526   7.0530
     7.0702   7.0932   7.1663   7.2114   7.2543   7.3136   7.3530   7.3750
     7.4130   7.4375   7.4799   7.5079   7.5315   7.5499   7.5794   7.6052
     7.6240   7.6487   7.6770   7.7038   7.7646   7.8459   7.8807   8.1004
     8.1275   8.1495   8.2775   8.3415   8.5681   8.6099   8.6520   8.8002
     8.8146   8.8308   8.8946   8.9424   9.0029   9.0347   9.0489   9.0802
     9.1505   9.1794   9.1959   9.2166   9.2382   9.2726   9.3516   9.3787
     9.5345   9.5649   9.6528   9.6908   9.7325   9.8726   9.9033  10.0032
    12.2835  12.3366  12.4188  12.4709  12.4833  12.5558  13.1730  13.2006
    13.2337  13.2698  13.2991  13.3315  13.3687  13.3964  13.4471  13.5180
    13.5809  13.6214  13.7176  13.7467  13.8228  13.9444  13.9528  13.9785
    14.3622  14.4704  14.4894  14.5639  14.6727  15.0609  15.1116  15.2246

          k =-0.2500 0.2500 0.5000 ( 21192 PWs)   bands (ev):

   -46.8280 -46.7032 -46.6958 -46.5119 -46.4414 -46.4091 -46.4043 -46.3538
   -23.0816 -23.0504 -23.0467 -22.9648 -22.9428 -22.9301 -22.9158 -22.9138
   -22.9060 -22.8179 -22.7861 -22.7778 -22.7240 -22.7190 -22.6941 -22.6797
   -22.6736 -22.6663 -22.6567 -22.6537 -22.6388 -22.6293 -22.6214 -22.5892
   -14.8511 -14.7921 -14.7520 -14.7330 -14.7220 -14.6457 -14.4516 -14.3772
    -6.9517  -6.8541  -6.7622  -6.7170  -6.6953  -6.6457  -6.4733  -6.3751
    -6.3078  -6.2905  -6.2373  -6.1549  -6.1100  -6.1024  -6.0943  -6.0556
    -6.0251  -6.0148  -5.9752  -5.9044  -5.8259  -5.7589  -5.6549  -5.5601
    -0.3744  -0.3423  -0.3254  -0.2798  -0.1397  -0.1296  -0.1100  -0.0851
    -0.0405  -0.0230  -0.0085   0.0117   0.0374   0.0477   0.0719   0.0790
     0.2135   0.2310   0.3341   0.3551   0.3967   0.4507   0.4816   0.5093
     5.9593   6.0210   6.1382   6.1948   6.2192   6.2419   6.4551   6.4846
     6.5787   6.6788   6.7197   6.7405   6.7681   6.7842   6.8484   6.8721
     6.9602   6.9933   7.0516   7.0678   7.1069   7.2515   7.2871   7.3074
     7.3412   7.4008   7.4468   7.4771   7.5277   7.5495   7.5695   7.6010
     7.6227   7.6521   7.7103   7.7258   7.7518   7.7876   7.8849   8.0092
     8.0325   8.1000   8.2558   8.2760   8.3188   8.3591   8.5319   8.6227
     8.8155   8.8900   8.9226   8.9772   8.9970   9.0247   9.0529   9.1238
     9.1386   9.1930   9.2495   9.3168   9.3376   9.3927   9.4132   9.4505
     9.4661   9.5216   9.5696   9.5968   9.6839   9.7278   9.8074   9.9090
    12.4266  12.4536  12.6026  12.7265  12.8254  12.8523  12.8942  12.9661
    13.0237  13.0683  13.2453  13.3107  13.3622  13.4418  13.4545  13.5130
    13.5292  13.5464  13.6676  13.7042  13.7561  13.7741  13.8774  13.8961
    14.4189  14.5900  14.7828  14.8776  15.0290  15.0987  15.1896  15.4427

          k =-0.5000-0.2500 0.2500 ( 21192 PWs)   bands (ev):

   -46.8280 -46.7032 -46.6958 -46.5119 -46.4414 -46.4091 -46.4043 -46.3538
   -23.0823 -23.0501 -23.0449 -22.9648 -22.9451 -22.9293 -22.9167 -22.9147
   -22.9063 -22.8178 -22.7852 -22.7730 -22.7254 -22.7225 -22.6930 -22.6785
   -22.6676 -22.6664 -22.6556 -22.6537 -22.6444 -22.6358 -22.6221 -22.5843
   -14.8550 -14.7784 -14.7657 -14.7461 -14.7006 -14.6456 -14.4628 -14.3703
    -6.9646  -6.8422  -6.7610  -6.7223  -6.6776  -6.6333  -6.4912  -6.3889
    -6.3002  -6.2799  -6.2347  -6.1648  -6.1475  -6.1113  -6.0886  -6.0691
    -6.0259  -5.9863  -5.9595  -5.9112  -5.8215  -5.7442  -5.6529  -5.5674
    -0.3869  -0.3494  -0.3286  -0.2425  -0.1316  -0.1170  -0.1062  -0.0871
    -0.0690  -0.0488  -0.0280  -0.0085   0.0576   0.0733   0.1015   0.1247
     0.1373   0.2571   0.2957   0.3664   0.4116   0.4496   0.4753   0.5154
     5.9380   6.0825   6.1140   6.1440   6.2417   6.3121   6.4253   6.5470
     6.6090   6.6364   6.6711   6.7135   6.7525   6.7904   6.7997   6.8894
     6.9402   6.9763   6.9985   7.0465   7.1172   7.2294   7.3008   7.3280
     7.3698   7.4094   7.4403   7.4673   7.5141   7.5498   7.5765   7.5896
     7.6365   7.6856   7.7199   7.7477   7.7662   7.8461   7.9036   7.9680
     8.0519   8.1018   8.1833   8.2522   8.2856   8.4017   8.5565   8.6336
     8.7943   8.8741   8.9456   8.9839   9.0026   9.0764   9.1002   9.1473
     9.1851   9.2127   9.2542   9.3032   9.3300   9.3644   9.3944   9.4062
     9.4678   9.5137   9.5386   9.5694   9.6815   9.7381   9.7973   9.9696
    12.3536  12.4583  12.6271  12.7292  12.8062  12.8541  12.8928  12.9423
    13.0383  13.0823  13.2140  13.3309  13.3500  13.3813  13.4814  13.5557
    13.5811  13.6071  13.6294  13.6881  13.7353  13.7679  13.7779  13.9579
    14.4768  14.5327  14.7753  14.8960  14.9529  15.1761  15.1945  15.4264

          k = 0.5000-0.2500-0.2500 ( 21192 PWs)   bands (ev):

   -46.8280 -46.7032 -46.6958 -46.5119 -46.4414 -46.4091 -46.4043 -46.3538
   -23.0823 -23.0501 -23.0449 -22.9648 -22.9451 -22.9293 -22.9167 -22.9147
   -22.9063 -22.8178 -22.7852 -22.7730 -22.7254 -22.7225 -22.6930 -22.6785
   -22.6676 -22.6664 -22.6556 -22.6537 -22.6444 -22.6358 -22.6221 -22.5843
   -14.8551 -14.7779 -14.7657 -14.7467 -14.7004 -14.6456 -14.4629 -14.3703
    -6.9653  -6.8357  -6.7581  -6.7385  -6.6771  -6.6295  -6.4715  -6.4025
    -6.3193  -6.2877  -6.2201  -6.1548  -6.1411  -6.1142  -6.0890  -6.0717
    -6.0171  -5.9905  -5.9635  -5.9068  -5.8253  -5.7524  -5.6463  -5.5681
    -0.4020  -0.3469  -0.3312  -0.2190  -0.1393  -0.1173  -0.0906  -0.0856
    -0.0756  -0.0511  -0.0158  -0.0036   0.0252   0.0704   0.1043   0.1238
     0.1483   0.2584   0.2798   0.3690   0.4115   0.4568   0.4881   0.5043
     5.9384   6.0796   6.1161   6.1548   6.2327   6.3112   6.4271   6.5451
     6.6109   6.6472   6.6688   6.6955   6.7646   6.7815   6.8121   6.8755
     6.9410   6.9695   7.0037   7.0646   7.1361   7.1975   7.2676   7.3235
     7.3925   7.4270   7.4504   7.4869   7.5047   7.5545   7.5875   7.6218
     7.6398   7.6624   7.7063   7.7389   7.7554   7.8273   7.8757   7.9485
     8.0438   8.0753   8.2208   8.2584   8.2985   8.4362   8.5622   8.6392
     8.8179   8.8860   8.9455   8.9773   8.9876   9.0628   9.0915   9.1150
     9.1608   9.1963   9.2478   9.2819   9.3401   9.3992   9.4155   9.4480
     9.4683   9.4926   9.5406   9.5751   9.6921   9.7273   9.7984   9.9693
    12.3484  12.4554  12.6246  12.7287  12.8052  12.8561  12.8944  12.9420
    13.0355  13.0922  13.2021  13.3319  13.3536  13.4011  13.4793  13.5473
    13.5806  13.6141  13.6286  13.6938  13.7311  13.7608  13.7799  13.9542
    14.4797  14.5309  14.7556  14.9017  14.9477  15.1910  15.2129  15.4242

          k =-0.2500-0.5000 0.2500 ( 21192 PWs)   bands (ev):

   -46.8280 -46.7032 -46.6958 -46.5119 -46.4414 -46.4091 -46.4043 -46.3538
   -23.0824 -23.0500 -23.0466 -22.9632 -22.9428 -22.9301 -22.9165 -22.9146
   -22.9055 -22.8198 -22.7852 -22.7778 -22.7209 -22.7183 -22.6928 -22.6795
   -22.6737 -22.6675 -22.6576 -22.6564 -22.6427 -22.6301 -22.6214 -22.5843
   -14.8550 -14.7748 -14.7581 -14.7547 -14.7108 -14.6366 -14.4641 -14.3705
    -6.9473  -6.8333  -6.7700  -6.7206  -6.6861  -6.6519  -6.4734  -6.4252
    -6.2953  -6.2660  -6.2387  -6.1494  -6.1236  -6.1089  -6.0924  -6.0629
    -6.0376  -6.0016  -5.9453  -5.9132  -5.8417  -5.7501  -5.6516  -5.5618
    -0.3832  -0.3484  -0.3350  -0.2484  -0.1468  -0.1212  -0.1018  -0.0836
    -0.0587  -0.0503  -0.0267   0.0064   0.0474   0.0766   0.0982   0.1284
     0.1439   0.2579   0.2882   0.3608   0.3991   0.4441   0.5030   0.5134
     5.9445   6.0935   6.1507   6.1796   6.2541   6.2910   6.4233   6.5631
     6.5783   6.6040   6.6879   6.7480   6.7629   6.7838   6.8365   6.8761
     6.9489   6.9803   7.0039   7.0697   7.1089   7.2384   7.2624   7.3272
     7.3595   7.3893   7.4254   7.4590   7.4964   7.5652   7.5850   7.6066
     7.6537   7.6798   7.6963   7.7226   7.7454   7.8238   7.8644   7.9506
     7.9815   8.0551   8.2322   8.2812   8.3414   8.4195   8.5636   8.6209
     8.8245   8.8671   8.9219   8.9410   9.0297   9.0519   9.0983   9.1387
     9.1857   9.2310   9.2795   9.2949   9.3374   9.3696   9.3839   9.3992
     9.4672   9.4948   9.5036   9.5522   9.6776   9.7825   9.8296   9.9490
    12.2964  12.5199  12.7116  12.7429  12.7821  12.8093  12.8748  13.0792
    13.1305  13.1766  13.2139  13.2908  13.3069  13.3266  13.4157  13.4887
    13.5666  13.6015  13.6184  13.6692  13.7710  13.8014  13.8286  13.9245
    14.3966  14.5856  14.8057  14.9291  14.9798  15.0125  15.3064  15.5242

          k =-0.2500 0.5000-0.2500 ( 21192 PWs)   bands (ev):

   -46.8280 -46.7032 -46.6958 -46.5119 -46.4414 -46.4091 -46.4043 -46.3538
   -23.0824 -23.0500 -23.0466 -22.9632 -22.9428 -22.9301 -22.9165 -22.9146
   -22.9055 -22.8198 -22.7852 -22.7778 -22.7209 -22.7183 -22.6928 -22.6795
   -22.6737 -22.6675 -22.6576 -22.6564 -22.6427 -22.6301 -22.6214 -22.5843
   -14.8550 -14.7749 -14.7579 -14.7549 -14.7107 -14.6366 -14.4641 -14.3705
    -6.9468  -6.8354  -6.7726  -6.7199  -6.6866  -6.6427  -6.4726  -6.4304
    -6.3011  -6.2649  -6.2373  -6.1561  -6.1331  -6.1024  -6.0809  -6.0568
    -6.0385  -6.0048  -5.9394  -5.9225  -5.8341  -5.7549  -5.6558  -5.5583
    -0.3857  -0.3499  -0.3377  -0.2303  -0.1548  -0.1212  -0.1062  -0.0926
    -0.0626  -0.0315  -0.0263  -0.0039   0.0344   0.0864   0.1059   0.1317
     0.1470   0.2500   0.2879   0.3635   0.4098   0.4510   0.4868   0.5112
     5.9492   6.0922   6.1527   6.1794   6.2439   6.2964   6.4335   6.5490
     6.5770   6.5981   6.6946   6.7480   6.7635   6.8123   6.8297   6.8816
     6.9179   6.9697   7.0090   7.0666   7.1172   7.2425   7.3036   7.3091
     7.3665   7.3794   7.3987   7.4431   7.4963   7.5302   7.5937   7.6224
     7.6564   7.6817   7.7043   7.7258   7.7642   7.8500   7.8704   7.9344
     7.9863   8.0811   8.2228   8.2730   8.3385   8.3966   8.5263   8.6371
     8.8536   8.8903   8.9235   8.9640   9.0115   9.0256   9.0689   9.1542
     9.1809   9.2159   9.2719   9.2933   9.3180   9.3408   9.3980   9.4220
     9.4684   9.4938   9.5338   9.5626   9.7004   9.7659   9.8433   9.9316
    12.3011  12.4975  12.7130  12.7432  12.7804  12.8137  12.8759  13.0775
    13.1277  13.1773  13.2143  13.2964  13.3145  13.3365  13.4153  13.4925
    13.5651  13.6039  13.6164  13.6587  13.7656  13.8044  13.8277  13.9256
    14.4003  14.5876  14.7948  14.9208  14.9792  15.0193  15.3107  15.5252

          k =-0.5000 0.2500 0.5000 ( 21208 PWs)   bands (ev):

   -46.8280 -46.7032 -46.6958 -46.5119 -46.4414 -46.4091 -46.4043 -46.3538
   -23.0815 -23.0501 -23.0449 -22.9648 -22.9451 -22.9293 -22.9159 -22.9138
   -22.9060 -22.8178 -22.7861 -22.7730 -22.7254 -22.7225 -22.6941 -22.6790
   -22.6676 -22.6662 -22.6561 -22.6538 -22.6419 -22.6335 -22.6222 -22.5892
   -14.8437 -14.7867 -14.7596 -14.7313 -14.7191 -14.6519 -14.4544 -14.3793
    -6.9268  -6.8225  -6.7269  -6.6656  -6.6231  -6.5740  -6.5599  -6.4664
    -6.3144  -6.2796  -6.2589  -6.1592  -6.1416  -6.1207  -6.0981  -6.0677
    -6.0313  -6.0129  -5.9837  -5.9166  -5.8258  -5.7683  -5.6560  -5.5705
    -0.3129  -0.2968  -0.2651  -0.2393  -0.2353  -0.2127  -0.1188  -0.1103
    -0.0862  -0.0782  -0.0362  -0.0078   0.0141   0.0339   0.0634   0.0978
     0.2291   0.2422   0.3636   0.3886   0.4238   0.4697   0.4976   0.5294
     6.0107   6.0974   6.2115   6.2309   6.4171   6.4793   6.5029   6.5213
     6.6321   6.6428   6.6770   6.7496   6.8228   6.8697   6.9140   6.9402
     6.9756   7.0332   7.0813   7.0991   7.1169   7.1759   7.2143   7.2731
     7.3136   7.3551   7.4279   7.4757   7.5229   7.5384   7.5825   7.5927
     7.6190   7.6603   7.6966   7.7107   7.7543   7.7714   7.8071   7.8587
     7.9404   7.9806   8.0234   8.0624   8.1809   8.2506   8.2876   8.3414
     8.9512   8.9829   9.0067   9.0426   9.0709   9.0911   9.1286   9.1732
     9.2128   9.2345   9.2846   9.3208   9.3565   9.3853   9.4153   9.4409
     9.4715   9.5120   9.5292   9.5859   9.6374   9.7121   9.7533   9.7856
    12.6864  12.7499  12.7681  12.7756  12.8333  12.8601  12.9077  13.0023
    13.0704  13.0848  13.1208  13.1704  13.2391  13.3231  13.4395  13.4791
    13.4975  13.5131  13.5495  13.5986  13.6664  13.6868  13.7439  13.7518
    14.7605  14.7957  14.8262  15.1435  15.1877  15.5842  15.6063  15.8750

          k =-0.5000 0.5000 0.2500 ( 21208 PWs)   bands (ev):

   -46.8280 -46.7032 -46.6958 -46.5119 -46.4414 -46.4091 -46.4043 -46.3538
   -23.0823 -23.0496 -23.0449 -22.9631 -22.9451 -22.9293 -22.9166 -22.9146
   -22.9055 -22.8198 -22.7852 -22.7730 -22.7247 -22.7194 -22.6928 -22.6788
   -22.6679 -22.6671 -22.6576 -22.6559 -22.6444 -22.6358 -22.6223 -22.5843
   -14.8471 -14.7715 -14.7633 -14.7535 -14.7088 -14.6421 -14.4674 -14.3724
    -6.9209  -6.7985  -6.7185  -6.6633  -6.6443  -6.5912  -6.5628  -6.4766
    -6.3046  -6.2843  -6.2507  -6.1672  -6.1575  -6.1151  -6.0958  -6.0691
    -6.0429  -6.0007  -5.9616  -5.9208  -5.8384  -5.7618  -5.6555  -5.5698
    -0.3154  -0.2919  -0.2775  -0.2501  -0.2343  -0.1584  -0.1390  -0.1030
    -0.0997  -0.0858  -0.0648  -0.0480  -0.0002   0.0648   0.0922   0.1438
     0.1980   0.3033   0.3496   0.3629   0.3813   0.4764   0.5191   0.5318
     6.0211   6.1660   6.1867   6.3095   6.4352   6.4600   6.4751   6.5316
     6.6217   6.6791   6.7152   6.7540   6.7902   6.8498   6.9038   6.9355
     6.9559   6.9818   7.0561   7.1039   7.1367   7.1670   7.2108   7.2430
     7.3329   7.3471   7.4144   7.4598   7.5032   7.5435   7.5830   7.5968
     7.6283   7.6601   7.6687   7.6817   7.7299   7.8174   7.8422   7.8752
     7.9033   7.9214   7.9539   8.0295   8.1973   8.3041   8.3400   8.3727
     8.9403   8.9638   9.0261   9.0435   9.0662   9.1043   9.1778   9.1938
     9.2110   9.2715   9.2956   9.3180   9.3423   9.3661   9.3979   9.4428
     9.4522   9.4958   9.5155   9.5482   9.5927   9.7184   9.8003   9.8316
    12.6127  12.7432  12.7778  12.8380  12.8947  12.9129  12.9251  12.9669
    13.0223  13.0478  13.1935  13.2645  13.2986  13.3345  13.3627  13.4379
    13.4885  13.5090  13.5408  13.5537  13.6291  13.6374  13.7396  13.8169
    14.7122  14.8241  14.8790  15.0394  15.3846  15.4269  15.6264  15.7939

     the Fermi energy is    10.5493 ev

!    total energy              =   -5448.95172267 Ry
     estimated scf accuracy    <          2.4E-09 Ry
     smearing contrib. (-TS)   =       0.00000000 Ry
     internal energy E=F+TS    =   -5448.95172267 Ry

     The total energy is F=E-TS. E is the sum of the following terms:
     one-electron contribution =    -582.86055699 Ry
     hartree contribution      =     488.14745794 Ry
     xc contribution           =    -486.55118727 Ry
     ewald contribution        =   -1639.62413014 Ry
     one-center paw contrib.   =   -3228.06330622 Ry

     convergence has been achieved in  25 iterations

     negative rho (up, down):  1.013E-02 0.000E+00

     Forces acting on atoms (cartesian axes, Ry/au):

     atom    1 type  1   force =    -0.00642398    0.04293687   -0.00407412
     atom    2 type  1   force =    -0.00749625   -0.02487657    0.02210724
     atom    3 type  1   force =    -0.03402011   -0.00716752   -0.03110571
     atom    4 type  1   force =     0.01170170    0.00046526    0.00222323
     atom    5 type  1   force =    -0.00933463    0.01656559    0.01329056
     atom    6 type  1   force =     0.00596584    0.02954694    0.01549345
     atom    7 type  1   force =    -0.04388389   -0.03796519    0.03742710
     atom    8 type  1   force =     0.01490876    0.01117665    0.01044689
     atom    9 type  2   force =    -0.00111146   -0.04457228    0.00716012
     atom   10 type  2   force =    -0.00225269   -0.03821126   -0.01740327
     atom   11 type  2   force =    -0.05549951    0.03749015   -0.00877329
     atom   12 type  2   force =     0.05026853    0.04787452   -0.04287476
     atom   13 type  2   force =    -0.01581994    0.03841119    0.00013590
     atom   14 type  2   force =     0.01408948   -0.03214973    0.00369746
     atom   15 type  2   force =    -0.00018009   -0.04695142   -0.00987540
     atom   16 type  2   force =     0.02176886   -0.00592994    0.01488298
     atom   17 type  3   force =    -0.03366237    0.02946169   -0.00745014
     atom   18 type  3   force =     0.01276190    0.03312281    0.00026504
     atom   19 type  3   force =     0.04576964   -0.00833411    0.00704619
     atom   20 type  3   force =    -0.01646913   -0.01393820    0.00521453
     atom   21 type  3   force =    -0.01652120   -0.01842461   -0.01662947
     atom   22 type  3   force =     0.00393274   -0.00448793    0.02188971
     atom   23 type  3   force =    -0.03471540    0.03743270    0.00259849
     atom   24 type  3   force =     0.02532987   -0.01349980   -0.01580628
     atom   25 type  3   force =    -0.00156780   -0.02657106   -0.03058439
     atom   26 type  3   force =     0.00658312   -0.04956322    0.01684754
     atom   27 type  3   force =    -0.00206386    0.00498091    0.00589589
     atom   28 type  3   force =    -0.00518336    0.02093325   -0.00882808
     atom   29 type  3   force =    -0.00994731    0.03416857    0.00888913
     atom   30 type  3   force =     0.00081874   -0.03596092    0.00920659
     atom   31 type  3   force =     0.01822400   -0.02667036    0.00985872
     atom   32 type  3   force =    -0.01319825   -0.00764714    0.00779076
     atom   33 type  3   force =     0.05221490    0.01281295    0.01530871
     atom   34 type  3   force =     0.00663631    0.02627501    0.01236619
     atom   35 type  3   force =     0.00790168   -0.03852564   -0.01917588
     atom   36 type  3   force =    -0.02366631    0.00560079    0.00171211
     atom   37 type  3   force =     0.02951151    0.00513171   -0.03498118
     atom   38 type  3   force =    -0.00746744    0.02958660   -0.02123445
     atom   39 type  3   force =     0.01863533    0.02217871    0.01368322
     atom   40 type  3   force =    -0.00653792   -0.00470599    0.00335868

     Total force =     0.254477     Total SCF correction =     0.000025
     Message from routine punch:
     Nothing written, as per user request (disk_io='none')

     init_run     :     45.54s CPU     49.19s WALL (       1 calls)
     electrons    :   2490.92s CPU   2636.58s WALL (       1 calls)
     forces       :     21.23s CPU     22.09s WALL (       1 calls)

     Called by init_run:
     wfcinit      :     28.00s CPU     30.82s WALL (       1 calls)
     potinit      :      3.60s CPU      3.81s WALL (       1 calls)
     hinit0       :      1.02s CPU      1.15s WALL (       1 calls)

     Called by electrons:
     c_bands      :   2077.83s CPU   2184.36s WALL (      25 calls)
     sum_band     :    311.19s CPU    333.73s WALL (      25 calls)
     v_of_rho     :     18.26s CPU     21.09s WALL (      26 calls)
     newd         :     34.31s CPU     48.38s WALL (      26 calls)
     PAW_pot      :     46.74s CPU     46.77s WALL (      26 calls)
     mix_rho      :      3.71s CPU      3.84s WALL (      25 calls)

     Called by c_bands:
     init_us_2    :     76.10s CPU     76.38s WALL (     468 calls)
     cegterg      :   1510.49s CPU   1616.47s WALL (     225 calls)

     Called by *egterg:
     cdiaghg      :     49.73s CPU     49.76s WALL (     857 calls)
     h_psi        :    751.68s CPU    808.13s WALL (     866 calls)
     s_psi        :    169.37s CPU    169.40s WALL (     866 calls)
     g_psi        :      6.76s CPU      6.77s WALL (     632 calls)

     Called by h_psi:
     h_psi:calbec :    176.19s CPU    177.19s WALL (     866 calls)
     vloc_psi     :    389.83s CPU    422.89s WALL (     866 calls)
                                        0.00s GPU  (     866 calls)
     add_vuspsi   :    176.68s CPU    176.71s WALL (     866 calls)

     General routines
     calbec       :    256.46s CPU    257.95s WALL (    1127 calls)
     fft          :     16.21s CPU     17.99s WALL (     347 calls)
     ffts         :      0.74s CPU      0.79s WALL (      51 calls)
     fftw         :    375.62s CPU    412.51s WALL (  232540 calls)
     interpolate  :      1.87s CPU      2.01s WALL (      26 calls)

     Parallel routines

     PWSCF        :  42m38.83s CPU  45m 9.14s WALL


   This run was terminated on:   2:22:47   4Oct2026            

=------------------------------------------------------------------------------=
   JOB DONE.
=------------------------------------------------------------------------------=
