
     Program PWSCF v.7.5 starts on  4Oct2026 at 21:53:55 

     This program is part of the open-source Quantum ESPRESSO suite
     for quantum simulation of materials; please cite
         "P. Giannozzi et al., J. Phys.:Condens. Matter 21 395502 (2009);
         "P. Giannozzi et al., J. Phys.:Condens. Matter 29 465901 (2017);
         "P. Giannozzi et al., J. Chem. Phys. 152 154105 (2020);
          URL http://www.quantum-espresso.org", 
     in publications or presentations arising from this work. More details at
     http://www.quantum-espresso.org/quote

     Parallel version (MPI & OpenMP), running on       8 processor cores
     Number of MPI processes:                 8
     Threads/MPI process:                     1

     MPI processes distributed on     1 nodes
     77905 MiB available memory on the printing compute node when the environment starts

     Reading input from pw.in

     Current dimensions of program PWSCF are:
     Max number of different atomic species (ntypx) = 10
     Max number of k-points (npk) =  40000
     Max angular momentum in pseudopotentials (lmaxx) =  4
     Found identity + ( -0.5000 -0.0000  0.0000) symmetry
     This is a supercell, fractional translations are disabled
     Message from routine setup:
     using ibrav=0 with symmetry is DISCOURAGED, use correct ibrav instead

     K-points division:     npool     =       8
     Subspace diagonalization in iterative solution of the eigenvalue problem:
     a serial algorithm will be used


     G-vector sticks info
     --------------------
     sticks:   dense  smooth     PW     G-vecs:    dense   smooth      PW
     Sum        9555    4781   1301               496805   175711   25001

     Using Slab Decomposition



     bravais-lattice index     =            0
     lattice parameter (alat)  =      22.3764  a.u.
     unit-cell volume          =    2800.9888 (a.u.)^3
     number of atoms/cell      =           10
     number of atomic types    =            3
     number of electrons       =        88.00
     number of Kohn-Sham states=           53
     kinetic-energy cutoff     =      60.0000  Ry
     charge density cutoff     =     480.0000  Ry
     scf convergence threshold =      1.0E-09
     mixing beta               =       0.4000
     number of iterations used =            8  plain     mixing
     Exchange-correlation=  SLA  PW   PBX  PBC
                           (   1   4   3   4   0   0   0)

     celldm(1)=  22.376419  celldm(2)=   0.000000  celldm(3)=   0.000000
     celldm(4)=   0.000000  celldm(5)=   0.000000  celldm(6)=   0.000000

     crystal axes: (cart. coord. in units of alat)
               a(1) = (   1.000000  -0.000000  -0.000000 )  
               a(2) = (  -0.000000   0.500000   0.000000 )  
               a(3) = (  -0.000000   0.000000   0.499999 )  

     reciprocal axes: (cart. coord. in units 2 pi/alat)
               b(1) = (  1.000000  0.000000  0.000000 )  
               b(2) = (  0.000000  1.999999 -0.000000 )  
               b(3) = (  0.000000 -0.000000  2.000003 )  


     PseudoPot. # 1 for Cs read from file:
     /root/sssp/Cs_pbe_v1.uspp.F.UPF
     MD5 check sum: 3476d69cb178dfad3ffaa59df4e07ca4
     Pseudo is Ultrasoft + core correction, Zval =  9.0
     Generated by new atomic code, or converted to UPF format
     Using radial grid of  905 points,  6 beta functions with: 
                l(1) =   0
                l(2) =   0
                l(3) =   1
                l(4) =   1
                l(5) =   2
                l(6) =   2
     Q(r) pseudized with  6 coefficients,  rinner =    1.500   1.500   1.500
                                                       1.500   1.500

     PseudoPot. # 2 for Sn read from file:
     /root/sssp/Sn_pbe_v1.uspp.F.UPF
     MD5 check sum: 4cf58ce39ec5d5d420df3dd08604eb00
     Pseudo is Ultrasoft + core correction, Zval = 14.0
     Generated by new atomic code, or converted to UPF format
     Using radial grid of  891 points,  6 beta functions with: 
                l(1) =   0
                l(2) =   0
                l(3) =   1
                l(4) =   1
                l(5) =   2
                l(6) =   2
     Q(r) pseudized with  6 coefficients,  rinner =    1.200   1.200   1.200
                                                       1.200   1.200

     PseudoPot. # 3 for Br read from file:
     /root/sssp/br_pbe_v1.4.uspp.F.UPF
     MD5 check sum: d3ffb7b29f6225aa16fe06858fb2a80b
     Pseudo is Ultrasoft + core correction, Zval =  7.0
     Generated by new atomic code, or converted to UPF format
     Using radial grid of  879 points,  6 beta functions with: 
                l(1) =   0
                l(2) =   0
                l(3) =   1
                l(4) =   1
                l(5) =   2
                l(6) =   2
     Q(r) pseudized with  8 coefficients,  rinner =    1.100   1.100   1.100
                                                       1.100   1.100

     atomic species   valence    mass     pseudopotential
     Cs                9.00   132.90550     Cs( 1.00)
     Sn               14.00   118.71000     Sn( 1.00)
     Br                7.00    79.90400     Br( 1.00)

      8 Sym. Ops., with inversion, found



   Cartesian axes

     site n.     atom                  positions (alat units)
         1        Cs     tau(   1) = (   0.0000000   0.5000002   0.0000000  )
         2        Cs     tau(   2) = (   0.5000000   0.5000002  -0.0000000  )
         3        Sn     tau(   3) = (   0.2500000   0.2500000   0.2499996  )
         4        Sn     tau(   4) = (   0.7500000   0.2500000   0.2499996  )
         5        Br     tau(   5) = (  -0.0000000   0.2500001   0.2499996  )
         6        Br     tau(   6) = (   0.5000000   0.2500001   0.2499996  )
         7        Br     tau(   7) = (   0.2500000   0.0000002   0.2499996  )
         8        Br     tau(   8) = (   0.7500000   0.0000002   0.2499996  )
         9        Br     tau(   9) = (   0.2500000   0.2500001   0.4999993  )
        10        Br     tau(  10) = (   0.7500000   0.2500001   0.4999992  )

     number of k points=    18  Marzari-Vanderbilt smearing, width (Ry)=  0.0050
                       cart. coord. in units 2pi/alat
        k(    1) = (   0.0000000   0.0000000   0.0000000), wk =   0.0266667
        k(    2) = (   0.0000000  -0.0000000   0.4000006), wk =   0.0533333
        k(    3) = (   0.0000000  -0.0000000   0.8000012), wk =   0.0533333
        k(    4) = (   0.0000000   0.3999998  -0.0000000), wk =   0.0533333
        k(    5) = (   0.0000000   0.3999998   0.4000006), wk =   0.1066667
        k(    6) = (   0.0000000   0.3999998   0.8000012), wk =   0.1066667
        k(    7) = (   0.0000000   0.7999996  -0.0000000), wk =   0.0533333
        k(    8) = (   0.0000000   0.7999996   0.4000006), wk =   0.1066667
        k(    9) = (   0.0000000   0.7999996   0.8000012), wk =   0.1066667
        k(   10) = (   0.3333333   0.0000000   0.0000000), wk =   0.0533333
        k(   11) = (   0.3333334   0.0000000   0.4000006), wk =   0.1066667
        k(   12) = (   0.3333334  -0.0000000   0.8000012), wk =   0.1066667
        k(   13) = (   0.3333333   0.3999998   0.0000000), wk =   0.1066667
        k(   14) = (   0.3333334   0.3999998   0.4000006), wk =   0.2133333
        k(   15) = (   0.3333334   0.3999998   0.8000012), wk =   0.2133333
        k(   16) = (   0.3333333   0.7999996   0.0000000), wk =   0.1066667
        k(   17) = (   0.3333334   0.7999996   0.4000006), wk =   0.2133333
        k(   18) = (   0.3333334   0.7999996   0.8000012), wk =   0.2133333

     Dense  grid:   496805 G-vectors     FFT dimensions: ( 160,  80,  80)

     Smooth grid:   175711 G-vectors     FFT dimensions: ( 120,  60,  60)

     Estimated max dynamical RAM per process >     636.74 MB

     Estimated total dynamical RAM >       4.15 GB

     Initial potential from superposition of free atoms

     starting charge      85.9210, renormalised to      88.0000
     Starting wfcs are   68 randomized atomic wfcs

     total cpu time spent up to now is       68.8 secs

     per-process dynamical memory:   345.9 Mb

     Self-consistent Calculation

     iteration #  1     ecut=    60.00 Ry     beta= 0.40
     Davidson diagonalization with overlap
     ethr =  1.00E-02,  avg # of iterations =  2.8

     Threshold (ethr) on eigenvalues was too large:
     Diagonalizing with lowered threshold

     Davidson diagonalization with overlap
     ethr =  4.89E-04,  avg # of iterations =  2.9

     total cpu time spent up to now is      286.2 secs

     total energy              =    -734.55981644 Ry
     estimated scf accuracy    <       0.41360388 Ry

     iteration #  2     ecut=    60.00 Ry     beta= 0.40
     Davidson diagonalization with overlap
     ethr =  4.70E-04,  avg # of iterations =  2.0

     total cpu time spent up to now is      384.7 secs

     total energy              =    -734.60687328 Ry
     estimated scf accuracy    <       0.03807555 Ry

     iteration #  3     ecut=    60.00 Ry     beta= 0.40
     Davidson diagonalization with overlap
     ethr =  4.33E-05,  avg # of iterations =  8.8

     total cpu time spent up to now is      542.6 secs

     total energy              =    -734.61032937 Ry
     estimated scf accuracy    <       0.00585296 Ry

     iteration #  4     ecut=    60.00 Ry     beta= 0.40
     Davidson diagonalization with overlap
     ethr =  6.65E-06,  avg # of iterations =  6.5

     total cpu time spent up to now is      643.5 secs

     total energy              =    -734.61092118 Ry
     estimated scf accuracy    <       0.00049670 Ry

     iteration #  5     ecut=    60.00 Ry     beta= 0.40
     Davidson diagonalization with overlap
     ethr =  5.64E-07,  avg # of iterations =  4.9

     total cpu time spent up to now is      736.1 secs

     total energy              =    -734.61099751 Ry
     estimated scf accuracy    <       0.00001299 Ry

     iteration #  6     ecut=    60.00 Ry     beta= 0.40
     Davidson diagonalization with overlap
     ethr =  1.48E-08,  avg # of iterations =  6.1

     total cpu time spent up to now is      829.1 secs

     total energy              =    -734.61101131 Ry
     estimated scf accuracy    <       0.00000131 Ry

     iteration #  7     ecut=    60.00 Ry     beta= 0.40
     Davidson diagonalization with overlap
     ethr =  1.49E-09,  avg # of iterations =  3.3

     total cpu time spent up to now is      930.8 secs

     total energy              =    -734.61101386 Ry
     estimated scf accuracy    <       0.00000026 Ry

     iteration #  8     ecut=    60.00 Ry     beta= 0.40
     Davidson diagonalization with overlap
     ethr =  2.92E-10,  avg # of iterations =  2.2

     total cpu time spent up to now is     1051.6 secs

     total energy              =    -734.61101463 Ry
     estimated scf accuracy    <       0.00000005 Ry

     iteration #  9     ecut=    60.00 Ry     beta= 0.40
     Davidson diagonalization with overlap
     ethr =  5.41E-11,  avg # of iterations =  2.7

     total cpu time spent up to now is     1116.5 secs

     total energy              =    -734.61101486 Ry
     estimated scf accuracy    <       0.00000001 Ry

     iteration # 10     ecut=    60.00 Ry     beta= 0.40
     Davidson diagonalization with overlap
     ethr =  1.26E-11,  avg # of iterations =  3.9

     total cpu time spent up to now is     1212.2 secs

     End of self-consistent calculation

          k = 0.0000 0.0000 0.0000 ( 21959 PWs)   bands (ev):

   -18.1176 -18.1146 -18.1138 -18.1138 -18.1137 -18.1130 -18.0978 -18.0978
   -18.0977 -18.0977 -18.0948 -18.0948 -11.3120 -11.1786 -11.0070 -10.8567
   -10.8551 -10.8503  -4.9026  -4.9023  -4.9023  -4.8940  -4.8918  -4.8918
    -3.1538  -2.1825  -0.8877  -0.8877  -0.8837  -0.7965  -0.7965   0.6157
     1.0896   1.0896   1.1291   1.2479   1.2516   1.2516   1.2585   1.2585
     1.3583   1.3602   1.3602   2.1000   5.5437   6.4076   7.5258   7.5262
     7.8028   8.2992   8.2993   8.7882   8.7883

          k = 0.0000-0.0000 0.4000 ( 21957 PWs)   bands (ev):

   -18.1173 -18.1142 -18.1136 -18.1133 -18.1125 -18.1119 -18.0978 -18.0977
   -18.0977 -18.0977 -18.0948 -18.0948 -11.2781 -11.1487 -11.0073 -10.8972
   -10.8865 -10.8512  -4.9004  -4.8993  -4.8989  -4.8988  -4.8987  -4.8889
    -3.4572  -2.6667  -0.8576  -0.8535  -0.7522  -0.2111  -0.1220   0.5195
     0.9494   1.0658   1.1771   1.1987   1.2006   1.2093   1.2225   1.3165
     1.3202   1.3804   1.4229   2.2510   5.3967   6.7717   7.2452   7.6139
     7.8021   7.8101   8.0879   8.1176   8.2900

          k = 0.0000-0.0000 0.8000 ( 21988 PWs)   bands (ev):

   -18.1170 -18.1137 -18.1134 -18.1132 -18.1102 -18.1094 -18.0978 -18.0978
   -18.0977 -18.0975 -18.0949 -18.0949 -11.1971 -11.0691 -11.0078 -10.9912
   -10.9687 -10.8504  -4.9106  -4.9102  -4.8945  -4.8930  -4.8928  -4.8842
    -3.8046  -3.0979  -0.8054  -0.8012  -0.6729   0.3763   0.5694   0.6783
     0.9529   1.0278   1.0392   1.0905   1.1007   1.1011   1.1437   1.2664
     1.2719   1.6632   1.8827   2.8137   5.1599   5.5101   5.8852   7.6128
     7.9395   8.2910   8.3065   8.3087   8.3798

          k = 0.0000 0.4000-0.0000 ( 21957 PWs)   bands (ev):

   -18.1173 -18.1142 -18.1136 -18.1133 -18.1125 -18.1119 -18.0978 -18.0977
   -18.0977 -18.0977 -18.0948 -18.0948 -11.2781 -11.1487 -11.0073 -10.8972
   -10.8865 -10.8512  -4.9004  -4.8993  -4.8989  -4.8988  -4.8987  -4.8889
    -3.4572  -2.6667  -0.8576  -0.8535  -0.7522  -0.2111  -0.1220   0.5195
     0.9494   1.0658   1.1771   1.1987   1.2006   1.2093   1.2225   1.3165
     1.3202   1.3804   1.4229   2.2510   5.3967   6.7717   7.2452   7.6139
     7.8021   7.8101   8.0879   8.1176   8.2898

          k = 0.0000 0.4000 0.4000 ( 21957 PWs)   bands (ev):

   -18.1168 -18.1140 -18.1134 -18.1122 -18.1114 -18.1114 -18.0979 -18.0977
   -18.0977 -18.0976 -18.0949 -18.0948 -11.2459 -11.1237 -11.0071 -10.9136
   -10.9112 -10.8726  -4.9071  -4.9060  -4.9051  -4.8956  -4.8931  -4.8930
    -3.7244  -3.0276  -0.8189  -0.4380  -0.3244  -0.0475   0.1063   0.5048
     0.7524   0.9780   1.0028   1.1631   1.2566   1.2644   1.2962   1.3774
     1.4143   1.4259   1.4767   2.3626   5.2449   6.9886   7.0350   7.1600
     7.3762   7.5889   8.0270   8.1346   8.2058

          k = 0.0000 0.4000 0.8000 ( 21981 PWs)   bands (ev):

   -18.1163 -18.1136 -18.1131 -18.1120 -18.1093 -18.1090 -18.0979 -18.0978
   -18.0977 -18.0976 -18.0950 -18.0948 -11.1676 -11.0580 -11.0066 -10.9922
   -10.9765 -10.8813  -4.9178  -4.9175  -4.9031  -4.8997  -4.8957  -4.8901
    -4.0478  -3.4059  -0.7582  -0.2313  -0.1389   0.4301   0.5035   0.6370
     0.6992   0.8653   0.9407   1.0769   1.1864   1.2343   1.3596   1.3859
     1.4229   1.6673   2.0253   2.9021   4.9980   5.3591   5.7441   6.8798
     7.2578   7.8927   8.1326   8.3808   8.4158

          k = 0.0000 0.8000-0.0000 ( 21988 PWs)   bands (ev):

   -18.1170 -18.1137 -18.1134 -18.1132 -18.1102 -18.1094 -18.0978 -18.0978
   -18.0977 -18.0975 -18.0949 -18.0949 -11.1971 -11.0691 -11.0078 -10.9912
   -10.9687 -10.8504  -4.9106  -4.9102  -4.8945  -4.8930  -4.8928  -4.8842
    -3.8046  -3.0979  -0.8054  -0.8012  -0.6729   0.3763   0.5694   0.6783
     0.9529   1.0278   1.0392   1.0905   1.1007   1.1011   1.1437   1.2664
     1.2719   1.6632   1.8827   2.8137   5.1599   5.5101   5.8852   7.6128
     7.9395   8.2910   8.3066   8.3087   8.3798

          k = 0.0000 0.8000 0.4000 ( 21981 PWs)   bands (ev):

   -18.1163 -18.1136 -18.1131 -18.1120 -18.1093 -18.1090 -18.0979 -18.0978
   -18.0977 -18.0976 -18.0950 -18.0948 -11.1676 -11.0580 -11.0066 -10.9922
   -10.9765 -10.8813  -4.9178  -4.9175  -4.9031  -4.8997  -4.8957  -4.8901
    -4.0478  -3.4058  -0.7582  -0.2313  -0.1389   0.4301   0.5035   0.6370
     0.6992   0.8653   0.9407   1.0769   1.1864   1.2343   1.3596   1.3859
     1.4229   1.6673   2.0253   2.9021   4.9980   5.3590   5.7441   6.8798
     7.2579   7.8927   8.1326   8.3808   8.4158

          k = 0.0000 0.8000 0.8000 ( 21986 PWs)   bands (ev):

   -18.1155 -18.1134 -18.1124 -18.1109 -18.1075 -18.1075 -18.0980 -18.0979
   -18.0978 -18.0978 -18.0950 -18.0947 -11.0927 -11.0301 -11.0048 -11.0025
   -10.9989 -10.9498  -4.9295  -4.9292  -4.9243  -4.9110  -4.9064  -4.8853
    -4.3553  -3.7556  -0.6817   0.3916   0.5117   0.5558   0.5580   0.5608
     0.6968   0.8526   0.9293   1.0353   1.0550   1.1388   1.6297   1.6333
     1.6408   1.6837   2.5962   3.3535   4.7284   5.0250   5.2956   5.4720
     5.6103   7.9642   8.0195   8.3960   8.5693

          k = 0.3333 0.0000 0.0000 ( 21971 PWs)   bands (ev):

   -18.1164 -18.1143 -18.1141 -18.1139 -18.1138 -18.1138 -18.0978 -18.0978
   -18.0977 -18.0977 -18.0948 -18.0948 -11.2886 -11.2272 -10.9526 -10.8796
   -10.8563 -10.8555  -4.9004  -4.8997  -4.8997  -4.8960  -4.8944  -4.8944
    -2.9967  -2.5632  -0.8662  -0.8661  -0.8207  -0.8206  -0.2985   0.4465
     1.1360   1.1360   1.1578   1.2172   1.2183   1.2183   1.2784   1.2784
     1.3278   1.3278   1.3639   1.6421   6.3839   6.6677   7.3540   7.6712
     7.7281   7.9694   8.1097   8.2033   8.2665

          k = 0.3333 0.0000 0.4000 ( 21977 PWs)   bands (ev):

   -18.1162 -18.1141 -18.1141 -18.1137 -18.1125 -18.1123 -18.0978 -18.0977
   -18.0977 -18.0977 -18.0948 -18.0948 -11.2558 -11.1969 -10.9562 -10.9036
   -10.8855 -10.8711  -4.9049  -4.9046  -4.8962  -4.8940  -4.8937  -4.8914
    -3.3145  -2.9429  -0.8329  -0.7803  -0.5147  -0.2678   0.0255   0.4422
     0.9323   1.0365   1.1105   1.1770   1.2027   1.2387   1.2611   1.2751
     1.3825   1.4120   1.4284   1.7665   6.2440   6.9664   7.2666   7.4891
     7.6746   7.7277   7.9989   8.1507   8.2161

          k = 0.3333-0.0000 0.8000 ( 21976 PWs)   bands (ev):

   -18.1160 -18.1141 -18.1137 -18.1135 -18.1101 -18.1097 -18.0978 -18.0977
   -18.0977 -18.0976 -18.0949 -18.0949 -11.1765 -11.1211 -10.9940 -10.9916
   -10.9288 -10.8723  -4.9096  -4.9029  -4.9014  -4.8945  -4.8907  -4.8864
    -3.6696  -3.3308  -0.7748  -0.7088  -0.3775   0.3556   0.4263   0.5238
     0.9118   0.9544   1.0496   1.0839   1.0960   1.1739   1.2144   1.2381
     1.3760   1.5888   1.9781   2.3594   5.5803   5.7826   6.0825   7.5171
     7.8347   8.0008   8.1697   8.2302   8.3817

          k = 0.3333 0.4000 0.0000 ( 21977 PWs)   bands (ev):

   -18.1162 -18.1141 -18.1141 -18.1137 -18.1125 -18.1123 -18.0978 -18.0977
   -18.0977 -18.0977 -18.0948 -18.0948 -11.2558 -11.1969 -10.9562 -10.9036
   -10.8855 -10.8711  -4.9049  -4.9046  -4.8962  -4.8940  -4.8937  -4.8914
    -3.3144  -2.9429  -0.8329  -0.7803  -0.5146  -0.2678   0.0255   0.4422
     0.9323   1.0365   1.1105   1.1770   1.2027   1.2387   1.2611   1.2751
     1.3825   1.4120   1.4284   1.7665   6.2440   6.9663   7.2666   7.4891
     7.6746   7.7277   7.9977   8.1507   8.2163

          k = 0.3333 0.4000 0.4000 ( 21966 PWs)   bands (ev):

   -18.1156 -18.1138 -18.1135 -18.1134 -18.1114 -18.1114 -18.0978 -18.0978
   -18.0977 -18.0977 -18.0949 -18.0948 -11.2251 -11.1701 -10.9576 -10.9130
   -10.9118 -10.8964  -4.9083  -4.9058  -4.9053  -4.9041  -4.8889  -4.8873
    -3.5911  -3.2569  -0.4941  -0.4121  -0.3557  -0.1402   0.1999   0.4437
     0.8253   0.9392   0.9731   1.0015   1.3480   1.3535   1.3793   1.3865
     1.4055   1.4141   1.4572   1.8332   6.0997   7.0580   7.1152   7.1767
     7.2416   7.3891   7.7697   7.8626   8.1581

          k = 0.3333 0.4000 0.8000 ( 21972 PWs)   bands (ev):

   -18.1152 -18.1135 -18.1132 -18.1131 -18.1093 -18.1091 -18.0979 -18.0978
   -18.0978 -18.0977 -18.0949 -18.0948 -11.1499 -11.1027 -10.9933 -10.9921
   -10.9451 -10.8991  -4.9152  -4.9122  -4.9062  -4.9040  -4.8961  -4.8903
    -3.9201  -3.6086  -0.4201  -0.1897  -0.1468   0.3892   0.4584   0.4951
     0.7190   0.8040   0.8466   0.9927   1.2858   1.3640   1.3646   1.4140
     1.4488   1.5934   2.0838   2.4284   5.4297   5.6390   5.9311   6.9587
     7.1170   7.3653   7.9879   8.1700   8.5267

          k = 0.3333 0.8000 0.0000 ( 21976 PWs)   bands (ev):

   -18.1160 -18.1141 -18.1137 -18.1135 -18.1101 -18.1097 -18.0978 -18.0977
   -18.0977 -18.0976 -18.0949 -18.0949 -11.1765 -11.1211 -10.9939 -10.9916
   -10.9288 -10.8723  -4.9096  -4.9029  -4.9014  -4.8945  -4.8907  -4.8864
    -3.6696  -3.3308  -0.7749  -0.7088  -0.3775   0.3556   0.4263   0.5238
     0.9118   0.9544   1.0497   1.0839   1.0960   1.1739   1.2144   1.2380
     1.3760   1.5888   1.9781   2.3594   5.5803   5.7826   6.0825   7.5171
     7.8347   8.0008   8.1697   8.2302   8.3817

          k = 0.3333 0.8000 0.4000 ( 21971 PWs)   bands (ev):

   -18.1152 -18.1135 -18.1132 -18.1130 -18.1093 -18.1091 -18.0979 -18.0978
   -18.0978 -18.0977 -18.0949 -18.0948 -11.1499 -11.1027 -10.9933 -10.9920
   -10.9451 -10.8991  -4.9152  -4.9122  -4.9062  -4.9040  -4.8961  -4.8903
    -3.9201  -3.6086  -0.4201  -0.1897  -0.1468   0.3892   0.4584   0.4951
     0.7190   0.8040   0.8466   0.9927   1.2858   1.3640   1.3646   1.4140
     1.4488   1.5934   2.0838   2.4283   5.4297   5.6389   5.9311   6.9587
     7.1170   7.3653   7.9879   8.1700   8.5268

          k = 0.3333 0.8000 0.8000 ( 22003 PWs)   bands (ev):

   -18.1144 -18.1132 -18.1127 -18.1121 -18.1075 -18.1075 -18.0979 -18.0979
   -18.0979 -18.0978 -18.0949 -18.0948 -11.0826 -11.0559 -11.0016 -10.9998
   -10.9809 -10.9580  -4.9246  -4.9243  -4.9155  -4.9141  -4.9125  -4.8948
    -4.2320  -3.9388  -0.2968   0.4252   0.4397   0.4902   0.5603   0.5619
     0.6209   0.7361   0.7458   0.8653   1.3050   1.3516   1.5678   1.5717
     1.6359   1.6453   2.6439   2.9054   5.1359   5.2669   5.3591   5.5047
     5.8092   7.1683   8.0963   8.3292   8.7721

     the Fermi energy is     4.1686 ev

!    total energy              =    -734.61101500 Ry
     estimated scf accuracy    <          2.4E-10 Ry
     smearing contrib. (-TS)   =      -0.00000000 Ry
     internal energy E=F+TS    =    -734.61101500 Ry

     The total energy is F=E-TS. E is the sum of the following terms:
     one-electron contribution =    -256.28558041 Ry
     hartree contribution      =     165.27681242 Ry
     xc contribution           =    -312.36690239 Ry
     ewald contribution        =    -331.23534463 Ry

     convergence has been achieved in  10 iterations

     Forces acting on atoms (cartesian axes, Ry/au):

     atom    1 type  1   force =     0.00000000    0.00000000    0.00000000
     atom    2 type  1   force =     0.00000000    0.00000000    0.00000000
     atom    3 type  2   force =     0.00000559    0.00000000    0.00000000
     atom    4 type  2   force =    -0.00000559   -0.00000000   -0.00000000
     atom    5 type  3   force =     0.00000000    0.00000000    0.00000000
     atom    6 type  3   force =     0.00000000    0.00000000    0.00000000
     atom    7 type  3   force =    -0.00000008   -0.00000000   -0.00000000
     atom    8 type  3   force =     0.00000008    0.00000000    0.00000000
     atom    9 type  3   force =    -0.00000018   -0.00000000   -0.00000000
     atom   10 type  3   force =     0.00000018    0.00000000    0.00000000

     Total force =     0.000008     Total SCF correction =     0.000015
     SCF correction compared to forces is large: reduce conv_thr to get better values
     Message from routine punch:
     Nothing written, as per user request (disk_io='none')

     init_run     :     64.83s CPU     68.16s WALL (       1 calls)
     electrons    :   1098.16s CPU   1143.46s WALL (       1 calls)
     forces       :     13.60s CPU     15.80s WALL (       1 calls)

     Called by init_run:
     wfcinit      :     34.97s CPU     36.79s WALL (       1 calls)
     potinit      :     13.05s CPU     13.43s WALL (       1 calls)
     hinit0       :      3.05s CPU      3.15s WALL (       1 calls)

     Called by electrons:
     c_bands      :    719.89s CPU    731.40s WALL (      11 calls)
     sum_band     :    222.27s CPU    241.53s WALL (      11 calls)
     v_of_rho     :     22.50s CPU     25.87s WALL (      11 calls)
     newd         :    136.54s CPU    148.35s WALL (      11 calls)
     mix_rho      :      3.17s CPU      3.48s WALL (      11 calls)

     Called by c_bands:
     init_us_2    :     17.68s CPU     18.20s WALL (      72 calls)
     cegterg      :    298.16s CPU    308.90s WALL (      33 calls)

     Called by *egterg:
     cdiaghg      :      0.95s CPU      0.96s WALL (     164 calls)
     h_psi        :    246.54s CPU    251.78s WALL (     170 calls)
     s_psi        :     21.79s CPU     21.79s WALL (     170 calls)
     g_psi        :      1.19s CPU      1.19s WALL (     134 calls)

     Called by h_psi:
     h_psi:calbec :     24.00s CPU     24.00s WALL (     170 calls)
     vloc_psi     :    198.10s CPU    198.65s WALL (     170 calls)
                                        0.00s GPU  (     170 calls)
     add_vuspsi   :     22.02s CPU     22.03s WALL (     170 calls)

     General routines
     calbec       :     33.02s CPU     33.04s WALL (     215 calls)
     fft          :     11.36s CPU     11.40s WALL (     153 calls)
     ffts         :      1.24s CPU      1.24s WALL (      22 calls)
     fftw         :    166.69s CPU    166.96s WALL (   11221 calls)
     interpolate  :      1.91s CPU      1.92s WALL (      11 calls)

     Parallel routines

     PWSCF        :  19m37.40s CPU  20m28.38s WALL


   This run was terminated on:  22:14:23   4Oct2026            

=------------------------------------------------------------------------------=
   JOB DONE.
=------------------------------------------------------------------------------=
