
     Program PWSCF v.7.5 starts on  4Oct2026 at 22: 9: 7 

     This program is part of the open-source Quantum ESPRESSO suite
     for quantum simulation of materials; please cite
         "P. Giannozzi et al., J. Phys.:Condens. Matter 21 395502 (2009);
         "P. Giannozzi et al., J. Phys.:Condens. Matter 29 465901 (2017);
         "P. Giannozzi et al., J. Chem. Phys. 152 154105 (2020);
          URL http://www.quantum-espresso.org", 
     in publications or presentations arising from this work. More details at
     http://www.quantum-espresso.org/quote

     Parallel version (MPI & OpenMP), running on       8 processor cores
     Number of MPI processes:                 8
     Threads/MPI process:                     1

     MPI processes distributed on     1 nodes
     76790 MiB available memory on the printing compute node when the environment starts

     Reading input from pw.in

     Current dimensions of program PWSCF are:
     Max number of different atomic species (ntypx) = 10
     Max number of k-points (npk) =  40000
     Max angular momentum in pseudopotentials (lmaxx) =  4

     K-points division:     npool     =       8
     Subspace diagonalization in iterative solution of the eigenvalue problem:
     a serial algorithm will be used


     G-vector sticks info
     --------------------
     sticks:   dense  smooth     PW     G-vecs:    dense   smooth      PW
     Sum        9555    4781   1301               496805   175711   25001

     Using Slab Decomposition



     bravais-lattice index     =            0
     lattice parameter (alat)  =      22.3764  a.u.
     unit-cell volume          =    2800.9888 (a.u.)^3
     number of atoms/cell      =           10
     number of atomic types    =            3
     number of electrons       =        88.00
     number of Kohn-Sham states=           53
     kinetic-energy cutoff     =      60.0000  Ry
     charge density cutoff     =     480.0000  Ry
     scf convergence threshold =      1.0E-09
     mixing beta               =       0.4000
     number of iterations used =            8  plain     mixing
     Exchange-correlation=  SLA  PW   PBX  PBC
                           (   1   4   3   4   0   0   0)

     celldm(1)=  22.376419  celldm(2)=   0.000000  celldm(3)=   0.000000
     celldm(4)=   0.000000  celldm(5)=   0.000000  celldm(6)=   0.000000

     crystal axes: (cart. coord. in units of alat)
               a(1) = (   1.000000  -0.000000  -0.000000 )  
               a(2) = (  -0.000000   0.500000   0.000000 )  
               a(3) = (  -0.000000   0.000000   0.499999 )  

     reciprocal axes: (cart. coord. in units 2 pi/alat)
               b(1) = (  1.000000  0.000000  0.000000 )  
               b(2) = (  0.000000  1.999999 -0.000000 )  
               b(3) = (  0.000000 -0.000000  2.000003 )  


     PseudoPot. # 1 for Cs read from file:
     /root/sssp/Cs_pbe_v1.uspp.F.UPF
     MD5 check sum: 3476d69cb178dfad3ffaa59df4e07ca4
     Pseudo is Ultrasoft + core correction, Zval =  9.0
     Generated by new atomic code, or converted to UPF format
     Using radial grid of  905 points,  6 beta functions with: 
                l(1) =   0
                l(2) =   0
                l(3) =   1
                l(4) =   1
                l(5) =   2
                l(6) =   2
     Q(r) pseudized with  6 coefficients,  rinner =    1.500   1.500   1.500
                                                       1.500   1.500

     PseudoPot. # 2 for Sn read from file:
     /root/sssp/Sn_pbe_v1.uspp.F.UPF
     MD5 check sum: 4cf58ce39ec5d5d420df3dd08604eb00
     Pseudo is Ultrasoft + core correction, Zval = 14.0
     Generated by new atomic code, or converted to UPF format
     Using radial grid of  891 points,  6 beta functions with: 
                l(1) =   0
                l(2) =   0
                l(3) =   1
                l(4) =   1
                l(5) =   2
                l(6) =   2
     Q(r) pseudized with  6 coefficients,  rinner =    1.200   1.200   1.200
                                                       1.200   1.200

     PseudoPot. # 3 for Br read from file:
     /root/sssp/br_pbe_v1.4.uspp.F.UPF
     MD5 check sum: d3ffb7b29f6225aa16fe06858fb2a80b
     Pseudo is Ultrasoft + core correction, Zval =  7.0
     Generated by new atomic code, or converted to UPF format
     Using radial grid of  879 points,  6 beta functions with: 
                l(1) =   0
                l(2) =   0
                l(3) =   1
                l(4) =   1
                l(5) =   2
                l(6) =   2
     Q(r) pseudized with  8 coefficients,  rinner =    1.100   1.100   1.100
                                                       1.100   1.100

     atomic species   valence    mass     pseudopotential
     Cs                9.00   132.90550     Cs( 1.00)
     Sn               14.00   118.71000     Sn( 1.00)
     Br                7.00    79.90400     Br( 1.00)

     No symmetry found



   Cartesian axes

     site n.     atom                  positions (alat units)
         1        Cs     tau(   1) = (   0.0000875   0.5041902  -0.0015562  )
         2        Cs     tau(   2) = (   0.4999125   0.4958103   0.0015562  )
         3        Sn     tau(   3) = (   0.2499285   0.2505129   0.2477798  )
         4        Sn     tau(   4) = (   0.7500699   0.2493055   0.2516738  )
         5        Br     tau(   5) = (  -0.0000741   0.2493466   0.2521460  )
         6        Br     tau(   6) = (   0.5000741   0.2506537   0.2478533  )
         7        Br     tau(   7) = (   0.2424932  -0.0004754   0.2499865  )
         8        Br     tau(   8) = (   0.7556549   0.0007401   0.2541004  )
         9        Br     tau(   9) = (   0.2550219   0.2490142   0.4988027  )
        10        Br     tau(  10) = (   0.7468350   0.2523466   0.5019925  )

     number of k points=    38  Marzari-Vanderbilt smearing, width (Ry)=  0.0050
                       cart. coord. in units 2pi/alat
        k(    1) = (   0.0000000   0.0000000   0.0000000), wk =   0.0266667
        k(    2) = (   0.0000000  -0.0000000   0.4000006), wk =   0.0533333
        k(    3) = (   0.0000000  -0.0000000   0.8000012), wk =   0.0533333
        k(    4) = (   0.0000000   0.3999998  -0.0000000), wk =   0.0533333
        k(    5) = (   0.0000000   0.3999998   0.4000006), wk =   0.0533333
        k(    6) = (   0.0000000   0.3999998   0.8000012), wk =   0.0533333
        k(    7) = (   0.0000000   0.7999996  -0.0000000), wk =   0.0533333
        k(    8) = (   0.0000000   0.7999996   0.4000006), wk =   0.0533333
        k(    9) = (   0.0000000   0.7999996   0.8000012), wk =   0.0533333
        k(   10) = (   0.3333333   0.0000000   0.0000000), wk =   0.0533333
        k(   11) = (   0.3333334   0.0000000   0.4000006), wk =   0.0533333
        k(   12) = (   0.3333334  -0.0000000   0.8000012), wk =   0.0533333
        k(   13) = (   0.3333333   0.3999998   0.0000000), wk =   0.0533333
        k(   14) = (   0.3333334   0.3999998   0.4000006), wk =   0.0533333
        k(   15) = (   0.3333334   0.3999998   0.8000012), wk =   0.0533333
        k(   16) = (   0.3333333   0.7999996   0.0000000), wk =   0.0533333
        k(   17) = (   0.3333334   0.7999996   0.4000006), wk =   0.0533333
        k(   18) = (   0.3333334   0.7999996   0.8000012), wk =   0.0533333
        k(   19) = (   0.0000000  -0.3999998   0.4000006), wk =   0.0533333
        k(   20) = (   0.0000000  -0.3999998   0.8000012), wk =   0.0533333
        k(   21) = (   0.0000000  -0.7999996   0.4000006), wk =   0.0533333
        k(   22) = (   0.0000000  -0.7999996   0.8000012), wk =   0.0533333
        k(   23) = (  -0.3333333  -0.0000000   0.4000006), wk =   0.0533333
        k(   24) = (  -0.3333333  -0.0000000   0.8000012), wk =   0.0533333
        k(   25) = (  -0.3333333   0.3999998  -0.0000000), wk =   0.0533333
        k(   26) = (  -0.3333333  -0.3999998   0.4000006), wk =   0.0533333
        k(   27) = (  -0.3333333   0.3999998  -0.4000006), wk =   0.0533333
        k(   28) = (   0.3333333  -0.3999998  -0.4000006), wk =   0.0533333
        k(   29) = (  -0.3333333  -0.3999998   0.8000012), wk =   0.0533333
        k(   30) = (  -0.3333334   0.3999998  -0.8000012), wk =   0.0533333
        k(   31) = (   0.3333333  -0.3999998  -0.8000012), wk =   0.0533333
        k(   32) = (  -0.3333333   0.7999996  -0.0000000), wk =   0.0533333
        k(   33) = (  -0.3333333  -0.7999996   0.4000006), wk =   0.0533333
        k(   34) = (  -0.3333333   0.7999996  -0.4000006), wk =   0.0533333
        k(   35) = (   0.3333333  -0.7999996  -0.4000006), wk =   0.0533333
        k(   36) = (  -0.3333333  -0.7999996   0.8000012), wk =   0.0533333
        k(   37) = (  -0.3333334   0.7999996  -0.8000012), wk =   0.0533333
        k(   38) = (   0.3333333  -0.7999996  -0.8000012), wk =   0.0533333

     Dense  grid:   496805 G-vectors     FFT dimensions: ( 160,  80,  80)

     Smooth grid:   175711 G-vectors     FFT dimensions: ( 120,  60,  60)

     Estimated max dynamical RAM per process >     672.30 MB

     Estimated total dynamical RAM >       4.42 GB

     Initial potential from superposition of free atoms

     starting charge      85.9210, renormalised to      88.0000
     Starting wfcs are   68 randomized atomic wfcs

     total cpu time spent up to now is      127.3 secs

     per-process dynamical memory:   401.9 Mb

     Self-consistent Calculation

     iteration #  1     ecut=    60.00 Ry     beta= 0.40
     Davidson diagonalization with overlap
     ethr =  1.00E-02,  avg # of iterations =  2.9

     Threshold (ethr) on eigenvalues was too large:
     Diagonalizing with lowered threshold

     Davidson diagonalization with overlap
     ethr =  4.89E-04,  avg # of iterations =  2.8

     total cpu time spent up to now is      455.3 secs

     total energy              =    -734.55934110 Ry
     estimated scf accuracy    <       0.41374549 Ry

     iteration #  2     ecut=    60.00 Ry     beta= 0.40
     Davidson diagonalization with overlap
     ethr =  4.70E-04,  avg # of iterations =  2.0

     total cpu time spent up to now is      664.4 secs

     total energy              =    -734.60648339 Ry
     estimated scf accuracy    <       0.03806639 Ry

     iteration #  3     ecut=    60.00 Ry     beta= 0.40
     Davidson diagonalization with overlap
     c_bands:  1 eigenvalues not converged
     ethr =  4.33E-05,  avg # of iterations = 10.0

     total cpu time spent up to now is      844.7 secs

     total energy              =    -734.60995782 Ry
     estimated scf accuracy    <       0.00585628 Ry

     iteration #  4     ecut=    60.00 Ry     beta= 0.40
     Davidson diagonalization with overlap
     ethr =  6.65E-06,  avg # of iterations = 10.5

     total cpu time spent up to now is     1065.5 secs

     total energy              =    -734.61055304 Ry
     estimated scf accuracy    <       0.00049718 Ry

     iteration #  5     ecut=    60.00 Ry     beta= 0.40
     Davidson diagonalization with overlap
     ethr =  5.65E-07,  avg # of iterations =  3.9

     total cpu time spent up to now is     1308.3 secs

     total energy              =    -734.61062765 Ry
     estimated scf accuracy    <       0.00001380 Ry

     iteration #  6     ecut=    60.00 Ry     beta= 0.40
     Davidson diagonalization with overlap
     ethr =  1.57E-08,  avg # of iterations =  5.7

     total cpu time spent up to now is     1547.8 secs

     total energy              =    -734.61064136 Ry
     estimated scf accuracy    <       0.00000195 Ry

     iteration #  7     ecut=    60.00 Ry     beta= 0.40
     Davidson diagonalization with overlap
     ethr =  2.22E-09,  avg # of iterations =  3.1

     total cpu time spent up to now is     1715.6 secs

     total energy              =    -734.61064420 Ry
     estimated scf accuracy    <       0.00000040 Ry

     iteration #  8     ecut=    60.00 Ry     beta= 0.40
     Davidson diagonalization with overlap
     ethr =  4.56E-10,  avg # of iterations =  2.2

     total cpu time spent up to now is     1870.2 secs

     total energy              =    -734.61064504 Ry
     estimated scf accuracy    <       0.00000007 Ry

     iteration #  9     ecut=    60.00 Ry     beta= 0.40
     Davidson diagonalization with overlap
     ethr =  7.77E-11,  avg # of iterations =  2.8

     total cpu time spent up to now is     2077.5 secs

     total energy              =    -734.61064531 Ry
     estimated scf accuracy    <          9.4E-09 Ry

     iteration # 10     ecut=    60.00 Ry     beta= 0.40
     Davidson diagonalization with overlap
     ethr =  1.07E-11,  avg # of iterations =  3.9

     total cpu time spent up to now is     2185.3 secs

     End of self-consistent calculation

          k = 0.0000 0.0000 0.0000 ( 21959 PWs)   bands (ev):

   -18.1314 -18.1206 -18.1185 -18.1135 -18.1127 -18.1026 -18.1025 -18.0996
   -18.0968 -18.0967 -18.0937 -18.0908 -11.3120 -11.1779 -11.0088 -10.8584
   -10.8533 -10.8487  -4.9186  -4.9156  -4.9110  -4.8782  -4.8758  -4.8706
    -3.1560  -2.1876  -0.8859  -0.8851  -0.8837  -0.7925  -0.7895   0.6179
     1.0840   1.0858   1.1269   1.2389   1.2502   1.2541   1.2576   1.2611
     1.3588   1.3621   1.3664   2.1069   5.5358   6.4085   7.5177   7.5283
     7.8196   8.1111   8.1451   8.1705   8.3108

          k = 0.0000-0.0000 0.4000 ( 21957 PWs)   bands (ev):

   -18.1312 -18.1203 -18.1172 -18.1133 -18.1113 -18.1026 -18.1025 -18.0997
   -18.0969 -18.0968 -18.0938 -18.0903 -11.2781 -11.1481 -11.0092 -10.8980
   -10.8863 -10.8487  -4.9204  -4.9159  -4.9077  -4.8788  -4.8747  -4.8727
    -3.4586  -2.6692  -0.8549  -0.8527  -0.7475  -0.2088  -0.1213   0.5193
     0.9503   1.0606   1.1702   1.1834   1.1992   1.2123   1.2373   1.3163
     1.3269   1.3650   1.4390   2.2554   5.3895   6.7717   7.2358   7.6060
     7.7923   7.8119   8.0571   8.1032   8.2754

          k = 0.0000-0.0000 0.8000 ( 21988 PWs)   bands (ev):

   -18.1308 -18.1202 -18.1150 -18.1130 -18.1088 -18.1027 -18.1026 -18.0998
   -18.0971 -18.0968 -18.0939 -18.0896 -11.1971 -11.0688 -11.0104 -10.9909
   -10.9683 -10.8479  -4.9254  -4.9191  -4.9025  -4.8800  -4.8741  -4.8696
    -3.8056  -3.0995  -0.8028  -0.8004  -0.6681   0.3730   0.5701   0.6789
     0.9551   1.0237   1.0366   1.0658   1.0999   1.1246   1.1479   1.2670
     1.2785   1.6595   1.8844   2.8138   5.1549   5.5084   5.8852   7.6123
     7.9059   8.2761   8.2830   8.3054   8.3695

          k = 0.0000 0.4000-0.0000 ( 21957 PWs)   bands (ev):

   -18.1312 -18.1203 -18.1172 -18.1133 -18.1113 -18.1027 -18.1025 -18.0997
   -18.0970 -18.0967 -18.0938 -18.0903 -11.2782 -11.1481 -11.0092 -10.8954
   -10.8864 -10.8510  -4.9170  -4.9154  -4.9118  -4.8812  -4.8773  -4.8675
    -3.4578  -2.6677  -0.8568  -0.8565  -0.7481  -0.2063  -0.1215   0.5205
     0.9481   1.0628   1.1744   1.1786   1.1984   1.2119   1.2384   1.3177
     1.3204   1.3507   1.4587   2.2542   5.3900   6.7713   7.2284   7.6045
     7.7945   7.8080   8.0871   8.1040   8.2847

          k = 0.0000 0.4000 0.4000 ( 21957 PWs)   bands (ev):

   -18.1310 -18.1198 -18.1162 -18.1127 -18.1103 -18.1027 -18.1025 -18.0997
   -18.0970 -18.0968 -18.0939 -18.0899 -11.2459 -11.1232 -11.0090 -10.9144
   -10.9094 -10.8712  -4.9241  -4.9187  -4.9089  -4.8848  -4.8790  -4.8696
    -3.7246  -3.0278  -0.8218  -0.4375  -0.3194  -0.0447   0.1062   0.5049
     0.7512   0.9743   1.0049   1.1626   1.2459   1.2575   1.3098   1.3765
     1.4000   1.4161   1.5079   2.3651   5.2387   6.9760   7.0329   7.1478
     7.3699   7.5846   8.0188   8.0273   8.1715

          k = 0.0000 0.4000 0.8000 ( 21981 PWs)   bands (ev):

   -18.1306 -18.1194 -18.1141 -18.1122 -18.1081 -18.1027 -18.1026 -18.0999
   -18.0970 -18.0969 -18.0940 -18.0893 -11.1675 -11.0576 -11.0096 -10.9916
   -10.9759 -10.8789  -4.9322  -4.9243  -4.9121  -4.8848  -4.8791  -4.8766
    -4.0477  -3.4055  -0.7611  -0.2314  -0.1329   0.4268   0.5050   0.6376
     0.6996   0.8647   0.9417   1.0760   1.1861   1.2230   1.3719   1.3861
     1.4237   1.6647   2.0279   2.9017   4.9939   5.3577   5.7446   6.8658
     7.2479   7.8925   8.1314   8.3660   8.4181

          k = 0.0000 0.8000-0.0000 ( 21988 PWs)   bands (ev):

   -18.1308 -18.1202 -18.1151 -18.1130 -18.1088 -18.1029 -18.1025 -18.0998
   -18.0972 -18.0967 -18.0939 -18.0896 -11.1980 -11.0687 -11.0102 -10.9875
   -10.9684 -10.8503  -4.9217  -4.9167  -4.9100  -4.8829  -4.8771  -4.8623
    -3.8042  -3.0973  -0.8048  -0.8043  -0.6694   0.3719   0.5712   0.6805
     0.9524   1.0264   1.0380   1.0623   1.0993   1.1301   1.1465   1.2665
     1.2725   1.6590   1.8862   2.8102   5.1581   5.5094   5.8900   7.6126
     7.9197   8.2835   8.2943   8.3164   8.3695

          k = 0.0000 0.8000 0.4000 ( 21981 PWs)   bands (ev):

   -18.1305 -18.1194 -18.1141 -18.1122 -18.1081 -18.1028 -18.1025 -18.0999
   -18.0971 -18.0968 -18.0940 -18.0893 -11.1684 -11.0576 -11.0095 -10.9883
   -10.9760 -10.8812  -4.9264  -4.9253  -4.9181  -4.8894  -4.8775  -4.8726
    -4.0470  -3.4046  -0.7617  -0.2321  -0.1362   0.4255   0.5067   0.6378
     0.6983   0.8674   0.9408   1.0770   1.1850   1.2309   1.3635   1.3859
     1.4212   1.6658   2.0270   2.8989   4.9967   5.3583   5.7490   6.8729
     7.2521   7.8921   8.1354   8.3659   8.4237

          k = 0.0000 0.8000 0.8000 ( 21986 PWs)   bands (ev):

   -18.1302 -18.1185 -18.1123 -18.1114 -18.1065 -18.1028 -18.1026 -18.1000
   -18.0970 -18.0969 -18.0943 -18.0888 -11.0933 -11.0298 -11.0100 -11.0001
   -10.9964 -10.9481  -4.9419  -4.9343  -4.9319  -4.8983  -4.8885  -4.8762
    -4.3540  -3.7538  -0.6852   0.3916   0.5096   0.5517   0.5565   0.5654
     0.6996   0.8542   0.9298   1.0351   1.0544   1.1362   1.6239   1.6302
     1.6473   1.6821   2.5957   3.3502   4.7286   5.0253   5.2925   5.4779
     5.6119   7.9671   8.0231   8.3972   8.5660

          k = 0.3333 0.0000 0.0000 ( 21971 PWs)   bands (ev):

   -18.1314 -18.1200 -18.1185 -18.1141 -18.1127 -18.1026 -18.1025 -18.0996
   -18.0968 -18.0967 -18.0937 -18.0908 -11.2885 -11.2268 -10.9548 -10.8794
   -10.8570 -10.8527  -4.9182  -4.9152  -4.9104  -4.8788  -4.8761  -4.8711
    -2.9992  -2.5665  -0.8649  -0.8625  -0.8185  -0.8153  -0.2973   0.4482
     1.1278   1.1296   1.1513   1.2084   1.2177   1.2220   1.2779   1.2786
     1.3294   1.3358   1.3692   1.6524   6.3741   6.6679   7.3490   7.6716
     7.7391   7.9538   8.1065   8.1758   8.2082

          k = 0.3333 0.0000 0.4000 ( 21977 PWs)   bands (ev):

   -18.1312 -18.1198 -18.1172 -18.1139 -18.1113 -18.1026 -18.1025 -18.0997
   -18.0969 -18.0968 -18.0938 -18.0903 -11.2558 -11.1965 -10.9584 -10.9050
   -10.8860 -10.8666  -4.9211  -4.9165  -4.9072  -4.8781  -4.8752  -4.8720
    -3.3161  -2.9450  -0.8300  -0.7758  -0.5144  -0.2647   0.0251   0.4433
     0.9232   1.0423   1.1048   1.1726   1.2015   1.2324   1.2651   1.2852
     1.3762   1.3979   1.4479   1.7743   6.2351   6.9637   7.2583   7.4824
     7.6622   7.7327   7.9713   8.0113   8.0799

          k = 0.3333-0.0000 0.8000 ( 21976 PWs)   bands (ev):

   -18.1308 -18.1197 -18.1148 -18.1136 -18.1088 -18.1027 -18.1026 -18.0998
   -18.0971 -18.0968 -18.0939 -18.0896 -11.1766 -11.1209 -10.9959 -10.9913
   -10.9305 -10.8683  -4.9248  -4.9178  -4.9021  -4.8813  -4.8747  -4.8700
    -3.6708  -3.3320  -0.7723  -0.7042  -0.3775   0.3578   0.4240   0.5232
     0.8993   0.9698   1.0468   1.0805   1.0922   1.1709   1.2243   1.2418
     1.3762   1.5885   1.9734   2.3638   5.5780   5.7773   6.0824   7.5129
     7.8328   7.9521   8.1639   8.2247   8.3846

          k = 0.3333 0.4000 0.0000 ( 21977 PWs)   bands (ev):

   -18.1312 -18.1198 -18.1172 -18.1138 -18.1113 -18.1027 -18.1025 -18.0997
   -18.0970 -18.0967 -18.0938 -18.0903 -11.2559 -11.1966 -10.9586 -10.9005
   -10.8868 -10.8700  -4.9177  -4.9150  -4.9127  -4.8804  -4.8764  -4.8679
    -3.3151  -2.9439  -0.8323  -0.7792  -0.5153  -0.2610   0.0237   0.4441
     0.9245   1.0368   1.1064   1.1768   1.2019   1.2347   1.2626   1.2781
     1.3707   1.3894   1.4700   1.7712   6.2354   6.9627   7.2487   7.4809
     7.6455   7.7554   7.9702   8.0117   8.1265

          k = 0.3333 0.4000 0.4000 ( 21966 PWs)   bands (ev):

   -18.1309 -18.1192 -18.1162 -18.1133 -18.1103 -18.1027 -18.1025 -18.0997
   -18.0970 -18.0968 -18.0939 -18.0899 -11.2252 -11.1698 -10.9602 -10.9152
   -10.9095 -10.8932  -4.9242  -4.9195  -4.9106  -4.8847  -4.8777  -4.8683
    -3.5913  -3.2572  -0.5026  -0.4119  -0.3445  -0.1373   0.1985   0.4450
     0.8214   0.9320   0.9757   1.0065   1.3252   1.3449   1.3844   1.3898
     1.3993   1.4132   1.4870   1.8379   6.0913   7.0300   7.1159   7.1496
     7.2548   7.3995   7.7675   7.8600   8.1587

          k = 0.3333 0.4000 0.8000 ( 21972 PWs)   bands (ev):

   -18.1306 -18.1188 -18.1140 -18.1129 -18.1081 -18.1027 -18.1026 -18.0999
   -18.0970 -18.0969 -18.0940 -18.0893 -11.1500 -11.1025 -10.9954 -10.9915
   -10.9466 -10.8951  -4.9314  -4.9223  -4.9129  -4.8853  -4.8817  -4.8757
    -3.9199  -3.6083  -0.4258  -0.1816  -0.1477   0.3920   0.4560   0.4960
     0.7144   0.8094   0.8459   0.9923   1.2822   1.3439   1.3766   1.4255
     1.4483   1.5933   2.0823   2.4314   5.4281   5.6338   5.9303   6.9371
     7.1137   7.3719   7.9878   8.1710   8.5211

          k = 0.3333 0.8000 0.0000 ( 21976 PWs)   bands (ev):

   -18.1308 -18.1197 -18.1148 -18.1136 -18.1089 -18.1029 -18.1025 -18.0998
   -18.0972 -18.0967 -18.0939 -18.0896 -11.1778 -11.1206 -10.9964 -10.9873
   -10.9288 -10.8722  -4.9209  -4.9152  -4.9097  -4.8844  -4.8779  -4.8626
    -3.6692  -3.3301  -0.7746  -0.7080  -0.3789   0.3592   0.4223   0.5250
     0.8950   0.9699   1.0477   1.0853   1.0951   1.1709   1.2178   1.2398
     1.3729   1.5931   1.9713   2.3628   5.5784   5.7789   6.0873   7.5160
     7.8328   7.9801   8.1639   8.2239   8.3882

          k = 0.3333 0.8000 0.4000 ( 21971 PWs)   bands (ev):

   -18.1305 -18.1188 -18.1141 -18.1128 -18.1082 -18.1028 -18.1025 -18.0999
   -18.0971 -18.0968 -18.0940 -18.0893 -11.1512 -11.1022 -10.9961 -10.9877
   -10.9451 -10.8987  -4.9254  -4.9239  -4.9176  -4.8911  -4.8797  -4.8715
    -3.9191  -3.6075  -0.4240  -0.1867  -0.1499   0.3936   0.4529   0.4999
     0.7153   0.8069   0.8466   0.9935   1.2839   1.3519   1.3749   1.4158
     1.4436   1.5983   2.0788   2.4311   5.4280   5.6344   5.9364   6.9481
     7.1160   7.3708   7.9866   8.1710   8.5260

          k = 0.3333 0.8000 0.8000 ( 22003 PWs)   bands (ev):

   -18.1302 -18.1179 -18.1123 -18.1120 -18.1065 -18.1028 -18.1026 -18.1000
   -18.0970 -18.0969 -18.0943 -18.0888 -11.0835 -11.0557 -11.0033 -10.9981
   -10.9818 -10.9552  -4.9408  -4.9320  -4.9260  -4.9001  -4.8899  -4.8824
    -4.2306  -3.9372  -0.3006   0.4253   0.4307   0.4894   0.5604   0.5669
     0.6245   0.7322   0.7506   0.8675   1.3039   1.3483   1.5680   1.5716
     1.6331   1.6451   2.6425   2.9047   5.1354   5.2648   5.3552   5.5060
     5.8177   7.1714   8.0991   8.3316   8.6758

          k = 0.0000-0.4000 0.4000 ( 21957 PWs)   bands (ev):

   -18.1310 -18.1198 -18.1162 -18.1127 -18.1103 -18.1027 -18.1025 -18.0997
   -18.0970 -18.0968 -18.0939 -18.0899 -11.2459 -11.1231 -11.0089 -10.9144
   -10.9097 -10.8710  -4.9241  -4.9188  -4.9089  -4.8847  -4.8790  -4.8697
    -3.7246  -3.0277  -0.8217  -0.4383  -0.3203  -0.0439   0.1070   0.5048
     0.7512   0.9749   1.0028   1.1622   1.2468   1.2577   1.3091   1.3755
     1.4018   1.4170   1.5073   2.3651   5.2388   6.9732   7.0329   7.1508
     7.3678   7.5878   8.0192   8.0312   8.1680

          k = 0.0000-0.4000 0.8000 ( 21981 PWs)   bands (ev):

   -18.1306 -18.1194 -18.1141 -18.1122 -18.1081 -18.1027 -18.1026 -18.0999
   -18.0970 -18.0969 -18.0940 -18.0893 -11.1675 -11.0576 -11.0093 -10.9919
   -10.9760 -10.8789  -4.9322  -4.9243  -4.9121  -4.8847  -4.8790  -4.8768
    -4.0477  -3.4055  -0.7611  -0.2315  -0.1332   0.4266   0.5054   0.6379
     0.6995   0.8640   0.9413   1.0764   1.1863   1.2231   1.3720   1.3857
     1.4235   1.6652   2.0278   2.9017   4.9939   5.3576   5.7444   6.8662
     7.2483   7.8916   8.1311   8.3726   8.4141

          k = 0.0000-0.8000 0.4000 ( 21981 PWs)   bands (ev):

   -18.1305 -18.1194 -18.1141 -18.1122 -18.1081 -18.1028 -18.1025 -18.0999
   -18.0971 -18.0968 -18.0940 -18.0893 -11.1684 -11.0576 -11.0093 -10.9885
   -10.9761 -10.8811  -4.9266  -4.9251  -4.9181  -4.8893  -4.8775  -4.8726
    -4.0470  -3.4045  -0.7617  -0.2324  -0.1363   0.4252   0.5070   0.6383
     0.6983   0.8669   0.9402   1.0768   1.1853   1.2311   1.3638   1.3860
     1.4206   1.6662   2.0270   2.8989   4.9968   5.3581   5.7487   6.8734
     7.2525   7.8913   8.1350   8.3730   8.4185

          k = 0.0000-0.8000 0.8000 ( 21986 PWs)   bands (ev):

   -18.1302 -18.1185 -18.1123 -18.1114 -18.1065 -18.1028 -18.1026 -18.1000
   -18.0970 -18.0969 -18.0943 -18.0888 -11.0933 -11.0298 -11.0090 -11.0007
   -10.9971 -10.9479  -4.9418  -4.9342  -4.9320  -4.8982  -4.8886  -4.8762
    -4.3540  -3.7538  -0.6852   0.3914   0.5104   0.5470   0.5576   0.5686
     0.6988   0.8544   0.9294   1.0344   1.0553   1.1365   1.6241   1.6309
     1.6450   1.6835   2.5959   3.3503   4.7287   5.0239   5.2935   5.4761
     5.6140   7.9669   8.0237   8.3938   8.5684

          k =-0.3333-0.0000 0.4000 ( 21977 PWs)   bands (ev):

   -18.1312 -18.1198 -18.1172 -18.1139 -18.1113 -18.1026 -18.1025 -18.0997
   -18.0969 -18.0968 -18.0938 -18.0903 -11.2557 -11.1967 -10.9580 -10.9052
   -10.8867 -10.8660  -4.9210  -4.9165  -4.9072  -4.8781  -4.8752  -4.8719
    -3.3162  -2.9448  -0.8300  -0.7758  -0.5153  -0.2646   0.0266   0.4423
     0.9240   1.0407   1.1058   1.1700   1.2028   1.2339   1.2650   1.2854
     1.3715   1.4014   1.4503   1.7728   6.2356   6.9650   7.2549   7.4810
     7.6658   7.7322   7.9723   8.0095   8.0810

          k =-0.3333-0.0000 0.8000 ( 21976 PWs)   bands (ev):

   -18.1308 -18.1197 -18.1148 -18.1136 -18.1088 -18.1027 -18.1026 -18.0998
   -18.0971 -18.0968 -18.0939 -18.0896 -11.1765 -11.1211 -10.9971 -10.9896
   -10.9310 -10.8681  -4.9248  -4.9179  -4.9021  -4.8813  -4.8747  -4.8700
    -3.6708  -3.3319  -0.7723  -0.7042  -0.3778   0.3587   0.4230   0.5238
     0.8992   0.9690   1.0475   1.0808   1.0909   1.1716   1.2246   1.2414
     1.3764   1.5889   1.9732   2.3634   5.5777   5.7801   6.0794   7.5140
     7.8327   7.9524   8.1634   8.2256   8.3846

          k =-0.3333 0.4000-0.0000 ( 21977 PWs)   bands (ev):

   -18.1312 -18.1198 -18.1172 -18.1138 -18.1113 -18.1027 -18.1025 -18.0997
   -18.0970 -18.0967 -18.0938 -18.0903 -11.2559 -11.1965 -10.9589 -10.9000
   -10.8863 -10.8706  -4.9177  -4.9150  -4.9127  -4.8804  -4.8765  -4.8679
    -3.3153  -2.9437  -0.8323  -0.7792  -0.5169  -0.2603   0.0259   0.4441
     0.9223   1.0374   1.1058   1.1784   1.2011   1.2347   1.2626   1.2778
     1.3675   1.3904   1.4715   1.7722   6.2351   6.9643   7.2468   7.4813
     7.6472   7.7530   7.9696   8.0120   8.1206

          k =-0.3333-0.4000 0.4000 ( 21966 PWs)   bands (ev):

   -18.1309 -18.1192 -18.1162 -18.1133 -18.1103 -18.1027 -18.1025 -18.0997
   -18.0970 -18.0968 -18.0939 -18.0899 -11.2251 -11.1699 -10.9597 -10.9153
   -10.9109 -10.8922  -4.9241  -4.9195  -4.9106  -4.8846  -4.8777  -4.8684
    -3.5913  -3.2570  -0.5055  -0.4123  -0.3420  -0.1368   0.1995   0.4443
     0.8214   0.9317   0.9746   1.0071   1.3250   1.3398   1.3861   1.3895
     1.4048   1.4114   1.4880   1.8373   6.0919   7.0322   7.1122   7.1469
     7.2591   7.3974   7.7692   7.8599   8.1587

          k =-0.3333 0.4000-0.4000 ( 21966 PWs)   bands (ev):

   -18.1309 -18.1192 -18.1162 -18.1133 -18.1103 -18.1027 -18.1025 -18.0997
   -18.0970 -18.0968 -18.0939 -18.0899 -11.2252 -11.1698 -10.9605 -10.9148
   -10.9092 -10.8937  -4.9242  -4.9193  -4.9108  -4.8845  -4.8776  -4.8685
    -3.5913  -3.2571  -0.4999  -0.4138  -0.3501  -0.1333   0.2005   0.4449
     0.8219   0.9302   0.9746   1.0069   1.3236   1.3420   1.3844   1.3897
     1.4034   1.4130   1.4874   1.8387   6.0907   7.0248   7.1202   7.1717
     7.2376   7.3922   7.7744   7.8569   8.1583

          k = 0.3333-0.4000-0.4000 ( 21966 PWs)   bands (ev):

   -18.1309 -18.1192 -18.1162 -18.1133 -18.1103 -18.1027 -18.1025 -18.0997
   -18.0970 -18.0968 -18.0939 -18.0899 -11.2251 -11.1699 -10.9601 -10.9148
   -10.9100 -10.8932  -4.9242  -4.9194  -4.9108  -4.8847  -4.8777  -4.8683
    -3.5915  -3.2570  -0.5022  -0.4131  -0.3466  -0.1350   0.2008   0.4442
     0.8220   0.9300   0.9757   1.0072   1.3261   1.3402   1.3828   1.3925
     1.3997   1.4129   1.4894   1.8378   6.0913   7.0303   7.1206   7.1624
     7.2438   7.3856   7.7762   7.8577   8.1586

          k =-0.3333-0.4000 0.8000 ( 21972 PWs)   bands (ev):

   -18.1306 -18.1188 -18.1140 -18.1129 -18.1081 -18.1027 -18.1026 -18.0999
   -18.0970 -18.0969 -18.0940 -18.0893 -11.1499 -11.1027 -10.9967 -10.9897
   -10.9472 -10.8950  -4.9313  -4.9223  -4.9129  -4.8853  -4.8815  -4.8759
    -3.9199  -3.6082  -0.4263  -0.1819  -0.1473   0.3926   0.4548   0.4970
     0.7150   0.8086   0.8455   0.9925   1.2821   1.3401   1.3793   1.4266
     1.4480   1.5939   2.0822   2.4312   5.4276   5.6364   5.9275   6.9375
     7.1142   7.3722   7.9868   8.1706   8.5243

          k =-0.3333 0.4000-0.8000 ( 21972 PWs)   bands (ev):

   -18.1306 -18.1188 -18.1140 -18.1129 -18.1081 -18.1027 -18.1026 -18.0999
   -18.0970 -18.0969 -18.0940 -18.0893 -11.1500 -11.1025 -10.9956 -10.9914
   -10.9465 -10.8952  -4.9314  -4.9219  -4.9134  -4.8851  -4.8811  -4.8763
    -3.9199  -3.6083  -0.4248  -0.1824  -0.1492   0.3928   0.4552   0.4973
     0.7160   0.8074   0.8467   0.9912   1.2825   1.3435   1.3760   1.4264
     1.4484   1.5933   2.0830   2.4308   5.4275   5.6330   5.9327   6.9369
     7.1120   7.3727   7.9877   8.1707   8.5249

          k = 0.3333-0.4000-0.8000 ( 21972 PWs)   bands (ev):

   -18.1306 -18.1188 -18.1140 -18.1129 -18.1081 -18.1027 -18.1026 -18.0999
   -18.0970 -18.0969 -18.0940 -18.0893 -11.1499 -11.1027 -10.9969 -10.9894
   -10.9471 -10.8951  -4.9314  -4.9219  -4.9134  -4.8852  -4.8811  -4.8762
    -3.9199  -3.6082  -0.4251  -0.1824  -0.1485   0.3934   0.4542   0.4977
     0.7162   0.8075   0.8462   0.9920   1.2827   1.3404   1.3782   1.4267
     1.4486   1.5933   2.0827   2.4304   5.4274   5.6363   5.9296   6.9367
     7.1114   7.3733   7.9880   8.1714   8.5223

          k =-0.3333 0.8000-0.0000 ( 21976 PWs)   bands (ev):

   -18.1308 -18.1197 -18.1148 -18.1136 -18.1089 -18.1029 -18.1025 -18.0998
   -18.0972 -18.0967 -18.0939 -18.0896 -11.1779 -11.1205 -10.9964 -10.9876
   -10.9284 -10.8723  -4.9206  -4.9157  -4.9097  -4.8838  -4.8783  -4.8626
    -3.6693  -3.3300  -0.7746  -0.7080  -0.3794   0.3615   0.4219   0.5247
     0.8927   0.9715   1.0474   1.0842   1.0966   1.1706   1.2175   1.2400
     1.3731   1.5916   1.9728   2.3626   5.5795   5.7767   6.0885   7.5159
     7.8327   7.9796   8.1656   8.2226   8.3867

          k =-0.3333-0.8000 0.4000 ( 21970 PWs)   bands (ev):

   -18.1305 -18.1188 -18.1141 -18.1128 -18.1082 -18.1028 -18.1025 -18.0999
   -18.0971 -18.0968 -18.0940 -18.0893 -11.1511 -11.1023 -10.9957 -10.9881
   -10.9450 -10.8987  -4.9254  -4.9238  -4.9177  -4.8910  -4.8797  -4.8716
    -3.9192  -3.6073  -0.4264  -0.1878  -0.1458   0.3929   0.4533   0.4997
     0.7139   0.8083   0.8466   0.9930   1.2825   1.3559   1.3720   1.4162
     1.4432   1.5987   2.0784   2.4316   5.4275   5.6348   5.9367   6.9474
     7.1160   7.3714   7.9864   8.1709   8.5276

          k =-0.3333 0.8000-0.4000 ( 21971 PWs)   bands (ev):

   -18.1305 -18.1188 -18.1141 -18.1128 -18.1082 -18.1028 -18.1025 -18.0999
   -18.0971 -18.0968 -18.0940 -18.0893 -11.1512 -11.1021 -10.9960 -10.9882
   -10.9447 -10.8988  -4.9255  -4.9232  -4.9184  -4.8907  -4.8798  -4.8716
    -3.9191  -3.6075  -0.4236  -0.1877  -0.1507   0.3962   0.4524   0.5000
     0.7141   0.8074   0.8465   0.9928   1.2839   1.3551   1.3718   1.4167
     1.4428   1.5973   2.0800   2.4309   5.4288   5.6318   5.9381   6.9485
     7.1160   7.3708   7.9864   8.1702   8.5280

          k = 0.3333-0.8000-0.4000 ( 21970 PWs)   bands (ev):

   -18.1305 -18.1188 -18.1141 -18.1128 -18.1082 -18.1028 -18.1025 -18.0999
   -18.0971 -18.0968 -18.0940 -18.0893 -11.1512 -11.1022 -10.9957 -10.9883
   -10.9446 -10.8989  -4.9255  -4.9234  -4.9183  -4.8908  -4.8798  -4.8716
    -3.9193  -3.6073  -0.4258  -0.1878  -0.1470   0.3953   0.4527   0.4994
     0.7126   0.8097   0.8466   0.9924   1.2827   1.3582   1.3701   1.4158
     1.4434   1.5973   2.0793   2.4312   5.4288   5.6327   5.9383   6.9467
     7.1149   7.3718   7.9874   8.1706   8.5233

          k =-0.3333-0.8000 0.8000 ( 22003 PWs)   bands (ev):

   -18.1302 -18.1179 -18.1123 -18.1120 -18.1065 -18.1028 -18.1026 -18.1000
   -18.0970 -18.0969 -18.0943 -18.0888 -11.0834 -11.0558 -11.0032 -10.9983
   -10.9820 -10.9550  -4.9407  -4.9320  -4.9261  -4.9001  -4.8897  -4.8826
    -4.2307  -3.9371  -0.3012   0.4251   0.4333   0.4886   0.5591   0.5681
     0.6226   0.7367   0.7476   0.8668   1.3038   1.3481   1.5683   1.5709
     1.6323   1.6464   2.6425   2.9050   5.1318   5.2693   5.3544   5.5069
     5.8162   7.1719   8.0993   8.3297   8.6770

          k =-0.3333 0.8000-0.8000 ( 22003 PWs)   bands (ev):

   -18.1302 -18.1179 -18.1123 -18.1120 -18.1065 -18.1028 -18.1026 -18.1000
   -18.0970 -18.0969 -18.0943 -18.0888 -11.0835 -11.0556 -11.0033 -10.9986
   -10.9816 -10.9551  -4.9408  -4.9310  -4.9272  -4.8997  -4.8897  -4.8827
    -4.2306  -3.9372  -0.3004   0.4227   0.4287   0.4904   0.5594   0.5715
     0.6245   0.7269   0.7574   0.8652   1.3037   1.3492   1.5685   1.5710
     1.6345   1.6435   2.6432   2.9041   5.1343   5.2570   5.3659   5.5075
     5.8144   7.1716   8.0995   8.3305   8.6791

          k = 0.3333-0.8000-0.8000 ( 22003 PWs)   bands (ev):

   -18.1302 -18.1179 -18.1123 -18.1120 -18.1065 -18.1028 -18.1026 -18.1000
   -18.0970 -18.0969 -18.0943 -18.0888 -11.0834 -11.0559 -11.0036 -10.9979
   -10.9816 -10.9553  -4.9408  -4.9309  -4.9274  -4.8998  -4.8894  -4.8829
    -4.2307  -3.9371  -0.3009   0.4240   0.4306   0.4903   0.5594   0.5695
     0.6228   0.7320   0.7542   0.8649   1.3039   1.3486   1.5686   1.5708
     1.6340   1.6444   2.6428   2.9039   5.1345   5.2610   5.3659   5.5045
     5.8128   7.1722   8.0992   8.3313   8.6735

     the Fermi energy is     4.0773 ev

!    total energy              =    -734.61064544 Ry
     estimated scf accuracy    <          1.9E-10 Ry
     smearing contrib. (-TS)   =       0.00000000 Ry
     internal energy E=F+TS    =    -734.61064544 Ry

     The total energy is F=E-TS. E is the sum of the following terms:
     one-electron contribution =    -256.29571939 Ry
     hartree contribution      =     165.28265371 Ry
     xc contribution           =    -312.36739425 Ry
     ewald contribution        =    -331.23018551 Ry

     convergence has been achieved in  10 iterations

     Forces acting on atoms (cartesian axes, Ry/au):

     atom    1 type  1   force =    -0.00006830   -0.00017477   -0.00000615
     atom    2 type  1   force =     0.00006579    0.00016718   -0.00007662
     atom    3 type  2   force =    -0.00071906   -0.00026779    0.00077336
     atom    4 type  2   force =     0.00075900    0.00048377   -0.00011235
     atom    5 type  3   force =     0.00015828    0.00001130   -0.00037338
     atom    6 type  3   force =    -0.00022896    0.00001246    0.00034901
     atom    7 type  3   force =     0.00162159   -0.00007218   -0.00043198
     atom    8 type  3   force =    -0.00138084    0.00014210   -0.00034235
     atom    9 type  3   force =    -0.00072396    0.00015509    0.00023062
     atom   10 type  3   force =     0.00051645   -0.00045713   -0.00001016

     Total force =     0.002892     Total SCF correction =     0.000011
     Message from routine punch:
     Nothing written, as per user request (disk_io='none')

     init_run     :    119.26s CPU    126.11s WALL (       1 calls)
     electrons    :   1989.64s CPU   2058.13s WALL (       1 calls)
     forces       :     35.71s CPU     41.11s WALL (       1 calls)

     Called by init_run:
     wfcinit      :     90.77s CPU     92.03s WALL (       1 calls)
     potinit      :     11.00s CPU     12.68s WALL (       1 calls)
     hinit0       :     10.08s CPU     10.69s WALL (       1 calls)

     Called by electrons:
     c_bands      :   1535.41s CPU   1555.52s WALL (      11 calls)
     sum_band     :    322.23s CPU    347.14s WALL (      11 calls)
     v_of_rho     :     42.68s CPU     49.77s WALL (      11 calls)
     newd         :     86.15s CPU    106.76s WALL (      11 calls)
     mix_rho      :      8.43s CPU      8.50s WALL (      11 calls)

     Called by c_bands:
     init_us_2    :     38.03s CPU     38.49s WALL (     120 calls)
     cegterg      :    703.17s CPU    721.79s WALL (      55 calls)

     Called by *egterg:
     cdiaghg      :      2.01s CPU      2.02s WALL (     316 calls)
     h_psi        :    600.75s CPU    610.33s WALL (     326 calls)
     s_psi        :     48.97s CPU     48.98s WALL (     326 calls)
     g_psi        :      2.43s CPU      2.43s WALL (     266 calls)

     Called by h_psi:
     h_psi:calbec :     53.05s CPU     53.07s WALL (     326 calls)
     vloc_psi     :    493.71s CPU    494.52s WALL (     326 calls)
                                        0.00s GPU  (     326 calls)
     add_vuspsi   :     49.13s CPU     49.17s WALL (     326 calls)

     General routines
     calbec       :     78.29s CPU     78.34s WALL (     401 calls)
     fft          :     29.46s CPU     29.63s WALL (     153 calls)
     ffts         :      4.65s CPU      4.67s WALL (      22 calls)
     fftw         :    425.38s CPU    425.94s WALL (   19033 calls)
     interpolate  :      7.22s CPU      7.24s WALL (      11 calls)

     Parallel routines

     PWSCF        :  35m50.49s CPU  37m11.62s WALL


   This run was terminated on:  22:46:19   4Oct2026            

=------------------------------------------------------------------------------=
   JOB DONE.
=------------------------------------------------------------------------------=
