
     Program PWSCF v.7.5 starts on 27Sep2026 at  8:20:23 

     This program is part of the open-source Quantum ESPRESSO suite
     for quantum simulation of materials; please cite
         "P. Giannozzi et al., J. Phys.:Condens. Matter 21 395502 (2009);
         "P. Giannozzi et al., J. Phys.:Condens. Matter 29 465901 (2017);
         "P. Giannozzi et al., J. Chem. Phys. 152 154105 (2020);
          URL http://www.quantum-espresso.org", 
     in publications or presentations arising from this work. More details at
     http://www.quantum-espresso.org/quote

     Parallel version (MPI & OpenMP), running on       8 processor cores
     Number of MPI processes:                 8
     Threads/MPI process:                     1

     MPI processes distributed on     1 nodes
     70308 MiB available memory on the printing compute node when the environment starts

     Reading input from pw.in

     Current dimensions of program PWSCF are:
     Max number of different atomic species (ntypx) = 10
     Max number of k-points (npk) =  40000
     Max angular momentum in pseudopotentials (lmaxx) =  4
     file O.pbe-n-kjpaw_psl.0.1.UPF: wavefunction(s)  2P renormalized
     Message from routine setup:
     using ibrav=0 with symmetry is DISCOURAGED, use correct ibrav instead

     K-points division:     npool     =       8
     Subspace diagonalization in iterative solution of the eigenvalue problem:
     a serial algorithm will be used


     G-vector sticks info
     --------------------
     sticks:   dense  smooth     PW     G-vecs:    dense   smooth      PW
     Sum        1489     749    221                62045    21919    3563

     Using Slab Decomposition



     bravais-lattice index     =            0
     lattice parameter (alat)  =       6.8805  a.u.
     unit-cell volume          =     460.6635 (a.u.)^3
     number of atoms/cell      =            6
     number of atomic types    =            2
     number of electrons       =        48.00
     number of Kohn-Sham states=           29
     kinetic-energy cutoff     =      50.0000  Ry
     charge density cutoff     =     400.0000  Ry
     scf convergence threshold =      6.0E-10
     mixing beta               =       0.4000
     number of iterations used =            8  plain     mixing
     Exchange-correlation= SLA  PW   PBX  PBC
                           (   1   4   3   4   0   0   0)

     celldm(1)=   6.880546  celldm(2)=   0.000000  celldm(3)=   0.000000
     celldm(4)=   0.000000  celldm(5)=   0.000000  celldm(6)=   0.000000

     crystal axes: (cart. coord. in units of alat)
               a(1) = (   0.707107   0.000000   0.707107 )  
               a(2) = (  -0.707107  -0.000000   0.707107 )  
               a(3) = (  -0.000000  -1.414214   0.000000 )  

     reciprocal axes: (cart. coord. in units 2 pi/alat)
               b(1) = (  0.707107 -0.000000  0.707107 )  
               b(2) = ( -0.707107  0.000000  0.707107 )  
               b(3) = (  0.000000 -0.707107 -0.000000 )  


     PseudoPot. # 1 for Zr read from file:
     /root/sssp/upf/Zr_pbe_v1.uspp.F.UPF
     MD5 check sum: 5db81b1e868ab7776c4564c113de050b
     Pseudo is Ultrasoft + core correction, Zval = 12.0
     Generated by new atomic code, or converted to UPF format
     Using radial grid of  887 points,  6 beta functions with: 
                l(1) =   0
                l(2) =   0
                l(3) =   1
                l(4) =   1
                l(5) =   2
                l(6) =   2
     Q(r) pseudized with  6 coefficients,  rinner =    1.200   1.200   1.200
                                                       1.200   1.200

     PseudoPot. # 2 for O  read from file:
     /root/sssp/upf/O.pbe-n-kjpaw_psl.0.1.UPF
     MD5 check sum: 0234752ac141de4415c5fc33072bef88
     Pseudo is Projector augmented-wave + core cor, Zval =  6.0
     Generated using "atomic" code by A. Dal Corso  v.5.0.99 svn rev. 10869
     Shape of augmentation charge: BESSEL
     Using radial grid of 1095 points,  4 beta functions with: 
                l(1) =   0
                l(2) =   0
                l(3) =   1
                l(4) =   1
     Q(r) pseudized with 0 coefficients 


     atomic species   valence    mass     pseudopotential
     Zr               12.00    91.22400     Zr( 1.00)
     O                 6.00    15.99900     O ( 1.00)

     16 Sym. Ops., with inversion, found ( 8 have fractional translation)



   Cartesian axes

     site n.     atom                  positions (alat units)
         1        Zr     tau(   1) = (  -0.0000000  -0.0000000   1.4142136  )
         2        Zr     tau(   2) = (  -0.0000000  -0.7071068   0.7071068  )
         3        O      tau(   3) = (   0.3535534  -1.0225147   0.3535534  )
         4        O      tau(   4) = (  -0.3535534  -0.3916989   0.3535534  )
         5        O      tau(   5) = (  -0.3535534  -0.3154079   1.0606602  )
         6        O      tau(   6) = (  -0.3535534  -1.0988057   0.3535534  )

     number of k points=    30  Marzari-Vanderbilt smearing, width (Ry)=  0.0050
                       cart. coord. in units 2pi/alat
        k(    1) = (   0.0000000   0.0000000   0.0000000), wk =   0.0081633
        k(    2) = (   0.0000000  -0.1414214  -0.0000000), wk =   0.0163265
        k(    3) = (   0.0000000  -0.2828427  -0.0000000), wk =   0.0163265
        k(    4) = (  -0.1010153   0.0000000   0.1010153), wk =   0.0326531
        k(    5) = (  -0.1010153  -0.1414214   0.1010153), wk =   0.0653061
        k(    6) = (  -0.1010153  -0.2828427   0.1010153), wk =   0.0653061
        k(    7) = (  -0.2020305   0.0000000   0.2020305), wk =   0.0326531
        k(    8) = (  -0.2020305  -0.1414214   0.2020305), wk =   0.0653061
        k(    9) = (  -0.2020305  -0.2828427   0.2020305), wk =   0.0653061
        k(   10) = (  -0.3030458   0.0000000   0.3030458), wk =   0.0326531
        k(   11) = (  -0.3030458  -0.1414214   0.3030458), wk =   0.0653061
        k(   12) = (  -0.3030458  -0.2828427   0.3030458), wk =   0.0653061
        k(   13) = (   0.0000000   0.0000000   0.2020305), wk =   0.0326531
        k(   14) = (   0.0000000  -0.1414214   0.2020305), wk =   0.0653061
        k(   15) = (   0.0000000  -0.2828427   0.2020305), wk =   0.0653061
        k(   16) = (  -0.1010153   0.0000000   0.3030458), wk =   0.0653061
        k(   17) = (  -0.1010153  -0.1414214   0.3030458), wk =   0.1306122
        k(   18) = (  -0.1010153  -0.2828427   0.3030458), wk =   0.1306122
        k(   19) = (  -0.2020305   0.0000000   0.4040610), wk =   0.0653061
        k(   20) = (  -0.2020305  -0.1414214   0.4040610), wk =   0.1306122
        k(   21) = (  -0.2020305  -0.2828427   0.4040610), wk =   0.1306122
        k(   22) = (   0.0000000   0.0000000   0.4040610), wk =   0.0326531
        k(   23) = (   0.0000000  -0.1414214   0.4040610), wk =   0.0653061
        k(   24) = (   0.0000000  -0.2828427   0.4040610), wk =   0.0653061
        k(   25) = (  -0.1010153   0.0000000   0.5050763), wk =   0.0653061
        k(   26) = (  -0.1010153  -0.1414214   0.5050763), wk =   0.1306122
        k(   27) = (  -0.1010153  -0.2828427   0.5050763), wk =   0.1306122
        k(   28) = (   0.0000000   0.0000000   0.6060915), wk =   0.0326531
        k(   29) = (   0.0000000  -0.1414214   0.6060915), wk =   0.0653061
        k(   30) = (   0.0000000  -0.2828427   0.6060915), wk =   0.0653061

     Dense  grid:    62045 G-vectors     FFT dimensions: (  48,  48,  64)

     Smooth grid:    21919 G-vectors     FFT dimensions: (  32,  32,  48)

     Estimated max dynamical RAM per process >      73.34 MB

     Estimated total dynamical RAM >     480.70 MB

     Check: negative core charge=   -0.000003

     Initial potential from superposition of free atoms

     starting charge      47.9957, renormalised to      48.0000

     negative rho (up, down):  1.239E-01 0.000E+00
     Starting wfcs are   42 randomized atomic wfcs
     Checking if some PAW data can be deallocated... 

     total cpu time spent up to now is        2.3 secs

     per-process dynamical memory:    53.7 Mb

     Self-consistent Calculation

     iteration #  1     ecut=    50.00 Ry     beta= 0.40
     Davidson diagonalization with overlap
     ethr =  1.00E-02,  avg # of iterations =  2.0

     negative rho (up, down):  1.266E-01 0.000E+00

     total cpu time spent up to now is        3.0 secs

     total energy              =    -365.23730758 Ry
     estimated scf accuracy    <       2.25903906 Ry

     iteration #  2     ecut=    50.00 Ry     beta= 0.40
     Davidson diagonalization with overlap
     ethr =  4.71E-03,  avg # of iterations =  3.3

     negative rho (up, down):  1.289E-01 0.000E+00

     total cpu time spent up to now is        3.8 secs

     total energy              =    -365.86107123 Ry
     estimated scf accuracy    <       0.16303051 Ry

     iteration #  3     ecut=    50.00 Ry     beta= 0.40
     Davidson diagonalization with overlap
     ethr =  3.40E-04,  avg # of iterations =  2.7

     negative rho (up, down):  1.327E-01 0.000E+00

     total cpu time spent up to now is        4.5 secs

     total energy              =    -365.87707025 Ry
     estimated scf accuracy    <       0.02878016 Ry

     iteration #  4     ecut=    50.00 Ry     beta= 0.40
     Davidson diagonalization with overlap
     ethr =  6.00E-05,  avg # of iterations =  4.6

     negative rho (up, down):  1.326E-01 0.000E+00

     total cpu time spent up to now is        5.4 secs

     total energy              =    -365.87729303 Ry
     estimated scf accuracy    <       0.03400863 Ry

     iteration #  5     ecut=    50.00 Ry     beta= 0.40
     Davidson diagonalization with overlap
     ethr =  6.00E-05,  avg # of iterations =  3.4

     negative rho (up, down):  1.326E-01 0.000E+00

     total cpu time spent up to now is        6.2 secs

     total energy              =    -365.88581511 Ry
     estimated scf accuracy    <       0.00065832 Ry

     iteration #  6     ecut=    50.00 Ry     beta= 0.40
     Davidson diagonalization with overlap
     ethr =  1.37E-06,  avg # of iterations =  9.3

     negative rho (up, down):  1.323E-01 0.000E+00

     total cpu time spent up to now is        7.2 secs

     total energy              =    -365.88493036 Ry
     estimated scf accuracy    <       0.00193525 Ry

     iteration #  7     ecut=    50.00 Ry     beta= 0.40
     Davidson diagonalization with overlap
     ethr =  1.37E-06,  avg # of iterations =  4.8

     negative rho (up, down):  1.323E-01 0.000E+00

     total cpu time spent up to now is        8.2 secs

     total energy              =    -365.88548947 Ry
     estimated scf accuracy    <       0.00067362 Ry

     iteration #  8     ecut=    50.00 Ry     beta= 0.40
     Davidson diagonalization with overlap
     ethr =  1.37E-06,  avg # of iterations =  3.0

     negative rho (up, down):  1.323E-01 0.000E+00

     total cpu time spent up to now is        9.0 secs

     total energy              =    -365.88565705 Ry
     estimated scf accuracy    <       0.00000728 Ry

     iteration #  9     ecut=    50.00 Ry     beta= 0.40
     Davidson diagonalization with overlap
     ethr =  1.52E-08,  avg # of iterations =  4.3

     negative rho (up, down):  1.323E-01 0.000E+00

     total cpu time spent up to now is        9.9 secs

     total energy              =    -365.88566002 Ry
     estimated scf accuracy    <       0.00001791 Ry

     iteration # 10     ecut=    50.00 Ry     beta= 0.40
     Davidson diagonalization with overlap
     ethr =  1.52E-08,  avg # of iterations =  2.0

     negative rho (up, down):  1.323E-01 0.000E+00

     total cpu time spent up to now is       10.5 secs

     total energy              =    -365.88565811 Ry
     estimated scf accuracy    <       0.00000598 Ry

     iteration # 11     ecut=    50.00 Ry     beta= 0.40
     Davidson diagonalization with overlap
     ethr =  1.25E-08,  avg # of iterations =  3.4

     negative rho (up, down):  1.323E-01 0.000E+00

     total cpu time spent up to now is       11.3 secs

     total energy              =    -365.88565964 Ry
     estimated scf accuracy    <       0.00000002 Ry

     iteration # 12     ecut=    50.00 Ry     beta= 0.40
     Davidson diagonalization with overlap
     ethr =  4.58E-11,  avg # of iterations =  5.0

     negative rho (up, down):  1.323E-01 0.000E+00

     total cpu time spent up to now is       12.2 secs

     total energy              =    -365.88565963 Ry
     estimated scf accuracy    <       0.00000027 Ry

     iteration # 13     ecut=    50.00 Ry     beta= 0.40
     Davidson diagonalization with overlap
     ethr =  4.58E-11,  avg # of iterations =  4.0

     negative rho (up, down):  1.323E-01 0.000E+00

     total cpu time spent up to now is       13.0 secs

     total energy              =    -365.88565963 Ry
     estimated scf accuracy    <       0.00000004 Ry

     iteration # 14     ecut=    50.00 Ry     beta= 0.40
     Davidson diagonalization with overlap
     ethr =  4.58E-11,  avg # of iterations =  3.4

     negative rho (up, down):  1.323E-01 0.000E+00

     total cpu time spent up to now is       13.8 secs

     End of self-consistent calculation

          k = 0.0000 0.0000 0.0000 (  2725 PWs)   bands (ev):

   -36.5070 -36.4556 -14.9719 -14.4842 -14.4842 -14.3499 -14.3347 -14.3347
    -6.3549  -5.0967  -4.4489  -4.0132   6.0569   6.6277   6.6769   6.6769
     8.6333   8.6333  10.0900  10.0900  11.1074  11.1074  11.1714  11.3044
    14.9765  15.4466  15.4499  16.2712  17.3915

          k = 0.0000-0.1414-0.0000 (  2754 PWs)   bands (ev):

   -36.5021 -36.4605 -14.9193 -14.4701 -14.4701 -14.4174 -14.3492 -14.3492
    -6.1837  -5.0077  -4.6501  -4.1338   6.4228   6.7858   6.7858   7.0005
     8.2563   8.2563  10.3482  10.4069  10.4069  10.7568  11.1365  11.1365
    15.0811  15.5772  15.6386  16.1230  17.9564

          k = 0.0000-0.2828-0.0000 (  2738 PWs)   bands (ev):

   -36.4893 -36.4734 -14.7758 -14.5849 -14.4331 -14.4331 -14.3867 -14.3867
    -5.7302  -5.1492  -4.7623  -4.4303   7.1061   7.1061   7.4289   7.6385
     7.6385   8.0152   8.8540   9.4099  10.7961  10.7961  11.1728  11.1728
    15.3704  15.7651  15.8310  15.8833  19.0237

          k =-0.1010 0.0000 0.1010 (  2763 PWs)   bands (ev):

   -36.5020 -36.4556 -14.9291 -14.5479 -14.4741 -14.4158 -14.3643 -14.3393
    -6.1793  -5.0325  -4.4967  -4.1238   6.1856   6.7259   6.8124   7.0952
     8.4278   8.6476   9.8750  10.1121  10.7106  10.7412  11.2003  11.3523
    15.2928  15.4928  15.5810  16.2810  17.4809

          k =-0.1010-0.1414 0.1010 (  2755 PWs)   bands (ev):

   -36.4976 -36.4600 -14.8915 -14.5253 -14.4933 -14.4614 -14.3568 -14.3523
    -6.0321  -4.9686  -4.6629  -4.2204   6.5100   6.9027   6.9169   7.3510
     8.1920   8.2538  10.2291  10.2728  10.4373  10.6321  10.8024  10.9881
    15.3409  15.6474  15.7277  16.1162  17.9110

          k =-0.1010-0.2828 0.1010 (  2739 PWs)   bands (ev):

   -36.4860 -36.4716 -14.7871 -14.6385 -14.4655 -14.4279 -14.3919 -14.3861
    -5.6401  -5.1421  -4.7237  -4.4600   7.1319   7.1785   7.3752   7.6584
     7.9156   8.2243   9.0332   9.4962  10.5350  10.6386  10.8999  10.9428
    15.4835  15.7926  15.8548  15.9636  18.3695

          k =-0.2020 0.0000 0.2020 (  2752 PWs)   bands (ev):

   -36.4892 -36.4571 -14.8154 -14.6808 -14.5922 -14.4472 -14.4172 -14.3538
    -5.7520  -4.9382  -4.5958  -4.3638   6.6304   6.9333   7.2062   7.9869
     8.1743   8.7245   9.3087   9.6627  10.0185  10.5428  11.1602  11.2323
    15.5060  15.6129  15.8395  16.3063  17.8479

          k =-0.2020-0.1414 0.2020 (  2746 PWs)   bands (ev):

   -36.4862 -36.4601 -14.8488 -14.6659 -14.6007 -14.4383 -14.3887 -14.3627
    -5.6829  -5.0149  -4.5911  -4.3911   6.8679   7.1088   7.2329   8.0647
     8.2360   8.2395   9.7281   9.8107  10.1474  10.4504  10.6002  10.8609
    15.5971  15.7581  15.7636  16.1169  17.6400

          k =-0.2020-0.2828 0.2020 (  2752 PWs)   bands (ev):

   -36.4781 -36.4682 -14.8521 -14.7732 -14.4846 -14.4150 -14.3921 -14.3860
    -5.4909  -5.2324  -4.5444  -4.4611   7.2929   7.3681   7.4123   7.7018
     8.3606   8.6934   9.4485   9.5663  10.0214  10.2821  10.3666  10.5829
    15.5821  15.7267  15.8593  15.9431  17.7042

          k =-0.3030 0.0000 0.3030 (  2746 PWs)   bands (ev):

   -36.4744 -36.4629 -14.7723 -14.7483 -14.6550 -14.5179 -14.4122 -14.3789
    -5.2938  -5.0009  -4.6445  -4.5646   7.0175   7.0618   7.8165   8.2383
     8.5625   8.9167   8.9419   9.2179   9.3705  10.2157  11.0277  11.1759
    15.4221  15.4348  16.1931  16.3098  17.7712

          k =-0.3030-0.1414 0.3030 (  2762 PWs)   bands (ev):

   -36.4733 -36.4640 -14.8586 -14.8129 -14.5538 -14.4582 -14.4089 -14.3819
    -5.3604  -5.1626  -4.5118  -4.4823   7.1699   7.2134   7.6975   8.0974
     8.3872   9.0259   9.1711   9.4847   9.6190   9.9969  10.7653  10.8471
    15.4689  15.5392  16.0017  16.1050  17.5255

          k =-0.3030-0.2828 0.3030 (  2764 PWs)   bands (ev):

   -36.4704 -36.4668 -14.9211 -14.8962 -14.4446 -14.4053 -14.4004 -14.3901
    -5.4254  -5.3582  -4.3838  -4.3714   7.4635   7.5052   7.5860   7.7066
     8.7962   9.1410   9.2473   9.4702   9.9801   9.9902  10.1240  10.3860
    15.5530  15.6505  15.6664  15.7959  17.4562

          k = 0.0000 0.0000 0.2020 (  2759 PWs)   bands (ev):

   -36.4972 -36.4554 -14.8886 -14.5857 -14.4903 -14.4718 -14.3755 -14.3655
    -6.0078  -4.9606  -4.5476  -4.2289   6.3471   6.8402   6.9096   7.5018
     8.0298   8.8698   9.5565   9.8095  10.3096  11.1155  11.2156  11.3289
    15.3793  15.6269  15.7417  16.2617  17.5355

          k = 0.0000-0.1414 0.2020 (  2741 PWs)   bands (ev):

   -36.4932 -36.4594 -14.8613 -14.5695 -14.5358 -14.4707 -14.3859 -14.3610
    -5.8796  -4.8982  -4.7035  -4.3066   6.6462   6.9564   7.0356   7.7237
     7.8958   8.4905   9.7313   9.9461  10.4584  10.5868  10.8752  11.1247
    15.4255  15.8016  15.8064  16.0953  17.9277

          k = 0.0000-0.2828 0.2020 (  2742 PWs)   bands (ev):

   -36.4828 -36.4698 -14.7822 -14.6657 -14.5097 -14.4476 -14.4157 -14.3743
    -5.5358  -5.0895  -4.7281  -4.5026   7.1065   7.2537   7.3310   7.8812
     7.9935   8.4899   9.1524   9.6037  10.0940  10.1179  10.9196  11.0960
    15.5178  15.6851  16.0430  16.0512  18.3886

          k =-0.1010 0.0000 0.3030 (  2744 PWs)   bands (ev):

   -36.4852 -36.4562 -14.7818 -14.7082 -14.6325 -14.4769 -14.4184 -14.3879
    -5.5914  -4.8456  -4.6545  -4.4567   6.8175   7.0857   7.2738   7.5424
     8.4545   8.6202   9.0909   9.3277  10.3822  10.8220  11.2026  11.2078
    15.5728  15.8273  15.8673  16.2261  17.8366

          k =-0.1010-0.1414 0.3030 (  2744 PWs)   bands (ev):

   -36.4824 -36.4589 -14.8161 -14.6831 -14.6430 -14.4593 -14.4064 -14.3972
    -5.5290  -4.9202  -4.6453  -4.4772   7.0294   7.2248   7.2400   7.6213
     8.5427   8.5996   8.9251   9.5819  10.4852  10.6201  10.7600  10.9432
    15.6095  15.8357  15.9169  16.0941  17.6826

          k =-0.1010-0.2828 0.3030 (  2754 PWs)   bands (ev):

   -36.4751 -36.4662 -14.8240 -14.7639 -14.5519 -14.4652 -14.4129 -14.3870
    -5.3559  -5.1223  -4.5995  -4.5314   7.2020   7.2477   7.5599   7.9497
     8.3632   9.0533   9.1616   9.5235   9.6268   9.9467  10.7278  10.8944
    15.5299  15.6666  16.0084  16.1514  17.7600

          k =-0.2020 0.0000 0.4041 (  2743 PWs)   bands (ev):

   -36.4713 -36.4610 -14.7993 -14.7758 -14.6377 -14.5118 -14.4411 -14.4118
    -5.1519  -4.8865  -4.7122  -4.6402   7.1233   7.1882   7.6005   7.8754
     7.9960   8.6059   9.3981   9.5994  10.0358  10.4822  10.9336  11.0990
    15.5861  15.6492  16.0985  16.1945  17.7639

          k =-0.2020-0.1414 0.4041 (  2756 PWs)   bands (ev):

   -36.4703 -36.4619 -14.8483 -14.8166 -14.5794 -14.4784 -14.4324 -14.4165
    -5.2208  -5.0571  -4.5720  -4.5485   7.2005   7.3094   7.6661   7.7562
     8.2738   8.4511   9.5186   9.6825  10.1462  10.3186  10.6843  10.7851
    15.6368  15.7060  15.9785  16.0477  17.5438

          k =-0.2020-0.2828 0.4041 (  2767 PWs)   bands (ev):

   -36.4677 -36.4645 -14.8937 -14.8740 -14.5052 -14.4597 -14.4165 -14.4132
    -5.2861  -5.2311  -4.4539  -4.4397   7.3222   7.4298   7.6690   7.8725
     8.5273   8.6639   9.5710   9.7569   9.8544  10.0574  10.3389  10.5343
    15.6508  15.6857  15.8122  15.9192  17.4642

          k = 0.0000 0.0000 0.4041 (  2741 PWs)   bands (ev):

   -36.4751 -36.4550 -14.7989 -14.7520 -14.6939 -14.5008 -14.4370 -14.4340
    -5.2065  -4.7817  -4.6680  -4.6625   6.8664   7.3276   7.4690   7.5223
     7.5654   9.1659   9.3406   9.4465  10.3325  10.9421  11.0928  11.3018
    15.7649  15.8989  15.9802  16.1785  17.5369

          k = 0.0000-0.1414 0.4041 (  2749 PWs)   bands (ev):

   -36.4732 -36.4569 -14.7717 -14.7567 -14.7224 -14.4889 -14.4527 -14.4263
    -5.1713  -4.8294  -4.6657  -4.6602   6.9303   7.3298   7.5080   7.7019
     7.8382   9.0718   9.1824   9.4504  10.4635  10.6414  10.9386  11.0537
    15.7432  15.7951  16.0067  16.2267  17.7154

          k = 0.0000-0.2828 0.4041 (  2745 PWs)   bands (ev):

   -36.4681 -36.4619 -14.7757 -14.7623 -14.6775 -14.5685 -14.4248 -14.4133
    -5.0745  -4.9448  -4.6611  -4.6587   7.0580   7.1865   7.9057   8.0950
     8.3706   8.7629   8.9121   9.5605   9.7936  10.3806  10.7987  10.9060
    15.5811  15.6144  16.2134  16.2892  17.9423

          k =-0.1010 0.0000 0.5051 (  2745 PWs)   bands (ev):

   -36.4641 -36.4569 -14.8811 -14.8653 -14.5867 -14.5052 -14.4751 -14.4621
    -4.8810  -4.8349  -4.8036  -4.6127   6.5550   6.7778   7.8309   7.8461
     8.0755   8.6836   9.8113  10.3246  10.3357  10.6463  10.8617  11.0721
    15.8138  15.8225  16.0048  16.1504  17.5440

          k =-0.1010-0.1414 0.5051 (  2750 PWs)   bands (ev):

   -36.4634 -36.4576 -14.8613 -14.8540 -14.6183 -14.5283 -14.4614 -14.4562
    -4.9265  -4.9067  -4.7043  -4.5900   6.6929   6.9075   7.9444   7.9732
     8.0338   8.4992   9.7508  10.3142  10.3575  10.5374  10.6099  10.9589
    15.7841  15.8999  15.9645  16.1683  17.5459

          k =-0.1010-0.2828 0.5051 (  2748 PWs)   bands (ev):

   -36.4616 -36.4594 -14.8344 -14.8216 -14.6440 -14.5948 -14.4465 -14.4445
    -4.9722  -4.9609  -4.6129  -4.5740   7.0201   7.1741   7.7301   7.9652
     8.3807   8.5223   9.4790   9.7584  10.3927  10.4875  10.5935  10.7062
    15.7544  15.8464  16.0477  16.1676  17.5506

          k = 0.0000 0.0000 0.6061 (  2751 PWs)   bands (ev):

   -36.4573 -36.4547 -14.9596 -14.9543 -14.5296 -14.5059 -14.4880 -14.4870
    -4.9826  -4.9705  -4.5197  -4.4457   6.0854   6.1666   8.3311   8.3814
     8.3950   8.6718   9.9903  10.3194  10.3202  10.5283  11.0616  11.3421
    15.6914  15.7329  16.1907  16.2652  17.2435

          k = 0.0000-0.1414 0.6061 (  2737 PWs)   bands (ev):

   -36.4570 -36.4550 -14.9191 -14.9172 -14.5856 -14.5456 -14.4863 -14.4819
    -4.9357  -4.9160  -4.5611  -4.4919   6.2790   6.3587   8.1506   8.2844
     8.4901   8.6403   9.8469  10.2154  10.3099  10.3404  11.0787  11.3117
    15.7682  15.8534  16.1806  16.2811  17.3285

          k = 0.0000-0.2828 0.6061 (  2751 PWs)   bands (ev):

   -36.4564 -36.4556 -14.8218 -14.8069 -14.6967 -14.6647 -14.4839 -14.4804
    -4.8154  -4.7783  -4.6723  -4.6165   6.8000   6.8795   7.5491   7.6554
     8.8952   9.0490   9.4219   9.6561  10.3086  10.3114  11.1200  11.2111
    15.9344  16.0857  16.1054  16.2552  17.5493

     the Fermi energy is    12.5926 ev

!    total energy              =    -365.88565964 Ry
     estimated scf accuracy    <          8.4E-12 Ry
     smearing contrib. (-TS)   =       0.00000000 Ry
     internal energy E=F+TS    =    -365.88565964 Ry

     The total energy is F=E-TS. E is the sum of the following terms:
     one-electron contribution =     -50.61668314 Ry
     hartree contribution      =      55.27410964 Ry
     xc contribution           =     -65.60775339 Ry
     ewald contribution        =    -266.88648199 Ry
     one-center paw contrib.   =     -38.04885075 Ry

     convergence has been achieved in  14 iterations

     negative rho (up, down):  1.323E-01 0.000E+00

     Forces acting on atoms (cartesian axes, Ry/au):

     atom    1 type  1   force =     0.00000000    0.00000000    0.00000000
     atom    2 type  1   force =    -0.00000000   -0.00000000   -0.00000000
     atom    3 type  2   force =    -0.00000000    0.01093250    0.00000000
     atom    4 type  2   force =     0.00000000   -0.01093250   -0.00000000
     atom    5 type  2   force =    -0.00000000    0.01093250    0.00000000
     atom    6 type  2   force =     0.00000000   -0.01093250   -0.00000000

     Total force =     0.021865     Total SCF correction =     0.000000
     Message from routine punch:
     Nothing written, as per user request (disk_io='none')

     init_run     :      2.02s CPU      2.08s WALL (       1 calls)
     electrons    :     11.39s CPU     11.51s WALL (       1 calls)
     forces       :      0.22s CPU      0.22s WALL (       1 calls)

     Called by init_run:
     wfcinit      :      0.39s CPU      0.39s WALL (       1 calls)
     potinit      :      0.57s CPU      0.59s WALL (       1 calls)
     hinit0       :      0.95s CPU      0.96s WALL (       1 calls)

     Called by electrons:
     c_bands      :      7.58s CPU      7.64s WALL (      14 calls)
     sum_band     :      1.67s CPU      1.71s WALL (      14 calls)
     v_of_rho     :      0.99s CPU      1.01s WALL (      15 calls)
     newd         :      0.48s CPU      0.51s WALL (      15 calls)
     PAW_pot      :      0.65s CPU      0.65s WALL (      15 calls)
     mix_rho      :      0.07s CPU      0.07s WALL (      14 calls)

     Called by c_bands:
     init_us_2    :      0.19s CPU      0.19s WALL (     120 calls)
     cegterg      :      6.25s CPU      6.30s WALL (      56 calls)

     Called by *egterg:
     cdiaghg      :      0.25s CPU      0.25s WALL (     282 calls)
     h_psi        :      4.96s CPU      5.00s WALL (     286 calls)
     s_psi        :      0.28s CPU      0.28s WALL (     286 calls)
     g_psi        :      0.05s CPU      0.05s WALL (     226 calls)

     Called by h_psi:
     h_psi:calbec :      0.37s CPU      0.37s WALL (     286 calls)
     vloc_psi     :      4.27s CPU      4.30s WALL (     286 calls)
                                        0.00s GPU  (     286 calls)
     add_vuspsi   :      0.30s CPU      0.30s WALL (     286 calls)

     General routines
     calbec       :      0.50s CPU      0.50s WALL (     358 calls)
     fft          :      0.74s CPU      0.74s WALL (     204 calls)
     ffts         :      0.23s CPU      0.23s WALL (      29 calls)
     fftw         :      4.44s CPU      4.47s WALL (   10850 calls)
     interpolate  :      0.26s CPU      0.26s WALL (      15 calls)

     Parallel routines

     PWSCF        :     13.83s CPU     14.03s WALL


   This run was terminated on:   8:20:37  27Sep2026            

=------------------------------------------------------------------------------=
   JOB DONE.
=------------------------------------------------------------------------------=
