
     Program PWSCF v.7.5 starts on  5Oct2026 at  0:30: 5 

     This program is part of the open-source Quantum ESPRESSO suite
     for quantum simulation of materials; please cite
         "P. Giannozzi et al., J. Phys.:Condens. Matter 21 395502 (2009);
         "P. Giannozzi et al., J. Phys.:Condens. Matter 29 465901 (2017);
         "P. Giannozzi et al., J. Chem. Phys. 152 154105 (2020);
          URL http://www.quantum-espresso.org", 
     in publications or presentations arising from this work. More details at
     http://www.quantum-espresso.org/quote

     Parallel version (MPI & OpenMP), running on       8 processor cores
     Number of MPI processes:                 8
     Threads/MPI process:                     1

     MPI processes distributed on     1 nodes
     100570 MiB available memory on the printing compute node when the environment starts

     Reading input from pw.in

     Current dimensions of program PWSCF are:
     Max number of different atomic species (ntypx) = 10
     Max number of k-points (npk) =  40000
     Max angular momentum in pseudopotentials (lmaxx) =  4
     file K.pbe-spn-kjpaw_psl.1.0.0.UPF: wavefunction(s)  3S renormalized
     file Nb.pbe-spn-kjpaw_psl.0.3.0.UPF: wavefunction(s)  4S 4P renormalized
     file O.pbe-n-kjpaw_psl.0.1.UPF: wavefunction(s)  2P renormalized
     Message from routine setup:
     using ibrav=0 with symmetry is DISCOURAGED, use correct ibrav instead

     K-points division:     npool     =       8
     Subspace diagonalization in iterative solution of the eigenvalue problem:
     a serial algorithm will be used


     G-vector sticks info
     --------------------
     sticks:   dense  smooth     PW     G-vecs:    dense   smooth      PW
     Sum        2241    1117    325               160507    56679    8677

     Using Slab Decomposition



     bravais-lattice index     =            0
     lattice parameter (alat)  =       7.6704  a.u.
     unit-cell volume          =     902.5719 (a.u.)^3
     number of atoms/cell      =           10
     number of atomic types    =            3
     number of electrons       =        80.00
     number of Kohn-Sham states=           48
     kinetic-energy cutoff     =      60.0000  Ry
     charge density cutoff     =     480.0000  Ry
     scf convergence threshold =      1.0E-09
     mixing beta               =       0.4000
     number of iterations used =            8  plain     mixing
     Exchange-correlation= SLA  PW   PBX  PBC
                           (   1   4   3   4   0   0   0)

     celldm(1)=   7.670387  celldm(2)=   0.000000  celldm(3)=   0.000000
     celldm(4)=   0.000000  celldm(5)=   0.000000  celldm(6)=   0.000000

     crystal axes: (cart. coord. in units of alat)
               a(1) = (   1.000000  -0.000000  -0.000000 )  
               a(2) = (  -0.000000   1.000000  -0.000000 )  
               a(3) = (  -0.000000  -0.000000   2.000000 )  

     reciprocal axes: (cart. coord. in units 2 pi/alat)
               b(1) = (  1.000000  0.000000  0.000000 )  
               b(2) = (  0.000000  1.000000  0.000000 )  
               b(3) = (  0.000000  0.000000  0.500000 )  


     PseudoPot. # 1 for K  read from file:
     /root/sssp/K.pbe-spn-kjpaw_psl.1.0.0.UPF
     MD5 check sum: 7d58810084cac21f60fbe77ea2b688fd
     Pseudo is Projector augmented-wave + core cor, Zval =  9.0
     Generated using "atomic" code by A. Dal Corso  v.5.1
     Shape of augmentation charge: PSQ
     Using radial grid of 1165 points,  6 beta functions with: 
                l(1) =   0
                l(2) =   0
                l(3) =   1
                l(4) =   1
                l(5) =   2
                l(6) =   2
     Q(r) pseudized with 0 coefficients 


     PseudoPot. # 2 for Nb read from file:
     /root/sssp/Nb.pbe-spn-kjpaw_psl.0.3.0.UPF
     MD5 check sum: 411d72ad547312f8017e2943ceca08cc
     Pseudo is Projector augmented-wave + core cor, Zval = 13.0
     Generated using "atomic" code by A. Dal Corso  v.5.0.99 svn rev. 10869
     Shape of augmentation charge: PSQ
     Using radial grid of 1227 points,  6 beta functions with: 
                l(1) =   0
                l(2) =   0
                l(3) =   1
                l(4) =   1
                l(5) =   2
                l(6) =   2
     Q(r) pseudized with 0 coefficients 


     PseudoPot. # 3 for O  read from file:
     /root/sssp/O.pbe-n-kjpaw_psl.0.1.UPF
     MD5 check sum: 0234752ac141de4415c5fc33072bef88
     Pseudo is Projector augmented-wave + core cor, Zval =  6.0
     Generated using "atomic" code by A. Dal Corso  v.5.0.99 svn rev. 10869
     Shape of augmentation charge: BESSEL
     Using radial grid of 1095 points,  4 beta functions with: 
                l(1) =   0
                l(2) =   0
                l(3) =   1
                l(4) =   1
     Q(r) pseudized with 0 coefficients 


     atomic species   valence    mass     pseudopotential
     K                 9.00    39.09830     K ( 1.00)
     Nb               13.00    92.90640     Nb( 1.00)
     O                 6.00    15.99900     O ( 1.00)

      4 Sym. Ops., with inversion, found ( 2 have fractional translation)



   Cartesian axes

     site n.     atom                  positions (alat units)
         1        K      tau(   1) = (   1.0000000   1.0000000   0.0000000  )
         2        K      tau(   2) = (   1.0000000   1.0000000   1.0000000  )
         3        Nb     tau(   3) = (   0.5244675   0.5122901   0.5000000  )
         4        Nb     tau(   4) = (   0.4755324   0.4877099   1.5000000  )
         5        O      tau(   5) = (  -0.0342176   0.4857281   0.5000000  )
         6        O      tau(   6) = (   0.0342176   0.5142719   1.5000000  )
         7        O      tau(   7) = (   0.4715871  -0.0171876   0.5000000  )
         8        O      tau(   8) = (   0.5284129   0.0171876   1.5000000  )
         9        O      tau(   9) = (   0.5000000   0.5000000   0.0000000  )
        10        O      tau(  10) = (   0.5000000   0.5000000   1.0000000  )

     number of k points=    75  Marzari-Vanderbilt smearing, width (Ry)=  0.0050
                       cart. coord. in units 2pi/alat
        k(    1) = (   0.0000000   0.0000000   0.0000000), wk =   0.0102041
        k(    2) = (   0.0000000   0.0000000   0.1250000), wk =   0.0204082
        k(    3) = (  -0.0000000  -0.0000000  -0.2500000), wk =   0.0102041
        k(    4) = (   0.0000000   0.1428571   0.0000000), wk =   0.0204082
        k(    5) = (   0.0000000   0.1428571   0.1250000), wk =   0.0408163
        k(    6) = (  -0.0000000   0.1428571  -0.2500000), wk =   0.0204082
        k(    7) = (   0.0000000   0.2857143   0.0000000), wk =   0.0204082
        k(    8) = (   0.0000000   0.2857143   0.1250000), wk =   0.0408163
        k(    9) = (   0.0000000   0.2857143  -0.2500000), wk =   0.0204082
        k(   10) = (   0.0000000   0.4285714   0.0000000), wk =   0.0204082
        k(   11) = (   0.0000000   0.4285714   0.1250000), wk =   0.0408163
        k(   12) = (   0.0000000   0.4285714  -0.2500000), wk =   0.0204082
        k(   13) = (   0.1428571   0.1428571   0.0000000), wk =   0.0204082
        k(   14) = (   0.1428571   0.1428571   0.1250000), wk =   0.0408163
        k(   15) = (   0.1428571   0.1428571  -0.2500000), wk =   0.0204082
        k(   16) = (   0.1428571   0.2857143   0.0000000), wk =   0.0204082
        k(   17) = (   0.1428571   0.2857143   0.1250000), wk =   0.0408163
        k(   18) = (   0.1428571   0.2857143  -0.2500000), wk =   0.0204082
        k(   19) = (   0.1428571   0.4285714   0.0000000), wk =   0.0204082
        k(   20) = (   0.1428571   0.4285714   0.1250000), wk =   0.0408163
        k(   21) = (   0.1428571   0.4285714  -0.2500000), wk =   0.0204082
        k(   22) = (   0.2857143   0.2857143   0.0000000), wk =   0.0204082
        k(   23) = (   0.2857143   0.2857143   0.1250000), wk =   0.0408163
        k(   24) = (   0.2857143   0.2857143  -0.2500000), wk =   0.0204082
        k(   25) = (   0.2857143   0.4285714   0.0000000), wk =   0.0204082
        k(   26) = (   0.2857143   0.4285714   0.1250000), wk =   0.0408163
        k(   27) = (   0.2857143   0.4285714  -0.2500000), wk =   0.0204082
        k(   28) = (   0.4285714   0.4285714   0.0000000), wk =   0.0204082
        k(   29) = (   0.4285714   0.4285714   0.1250000), wk =   0.0408163
        k(   30) = (   0.4285714   0.4285714  -0.2500000), wk =   0.0204082
        k(   31) = (   0.1428571   0.0000000   0.0000000), wk =   0.0204082
        k(   32) = (   0.1428571   0.0000000  -0.1250000), wk =   0.0408163
        k(   33) = (   0.1428571   0.0000000   0.2500000), wk =   0.0204082
        k(   34) = (   0.2857143   0.0000000   0.0000000), wk =   0.0204082
        k(   35) = (   0.2857143   0.0000000  -0.1250000), wk =   0.0408163
        k(   36) = (   0.2857143   0.0000000   0.2500000), wk =   0.0204082
        k(   37) = (   0.4285714   0.0000000   0.0000000), wk =   0.0204082
        k(   38) = (   0.4285714   0.0000000  -0.1250000), wk =   0.0408163
        k(   39) = (   0.4285714   0.0000000   0.2500000), wk =   0.0204082
        k(   40) = (   0.1428571  -0.1428571   0.0000000), wk =   0.0204082
        k(   41) = (   0.1428571  -0.1428571   0.1250000), wk =   0.0408163
        k(   42) = (   0.1428571  -0.1428571  -0.2500000), wk =   0.0204082
        k(   43) = (   0.2857143   0.1428571   0.0000000), wk =   0.0204082
        k(   44) = (   0.2857143  -0.1428571   0.0000000), wk =   0.0204082
        k(   45) = (  -0.1428571   0.2857143  -0.0000000), wk =   0.0204082
        k(   46) = (   0.2857143   0.1428571  -0.1250000), wk =   0.0408163
        k(   47) = (   0.2857143  -0.1428571   0.1250000), wk =   0.0408163
        k(   48) = (  -0.1428571   0.2857143  -0.1250000), wk =   0.0408163
        k(   49) = (   0.2857143   0.1428571   0.2500000), wk =   0.0204082
        k(   50) = (   0.2857143  -0.1428571  -0.2500000), wk =   0.0204082
        k(   51) = (  -0.1428571   0.2857143   0.2500000), wk =   0.0204082
        k(   52) = (   0.4285714   0.1428571   0.0000000), wk =   0.0204082
        k(   53) = (   0.4285714  -0.1428571   0.0000000), wk =   0.0204082
        k(   54) = (  -0.1428571   0.4285714   0.0000000), wk =   0.0204082
        k(   55) = (   0.4285714   0.1428571  -0.1250000), wk =   0.0408163
        k(   56) = (   0.4285714  -0.1428571   0.1250000), wk =   0.0408163
        k(   57) = (  -0.1428571   0.4285714  -0.1250000), wk =   0.0408163
        k(   58) = (   0.4285714   0.1428571   0.2500000), wk =   0.0204082
        k(   59) = (   0.4285714  -0.1428571  -0.2500000), wk =   0.0204082
        k(   60) = (  -0.1428571   0.4285714   0.2500000), wk =   0.0204082
        k(   61) = (   0.2857143  -0.2857143   0.0000000), wk =   0.0204082
        k(   62) = (   0.2857143  -0.2857143   0.1250000), wk =   0.0408163
        k(   63) = (   0.2857143  -0.2857143  -0.2500000), wk =   0.0204082
        k(   64) = (   0.4285714   0.2857143   0.0000000), wk =   0.0204082
        k(   65) = (   0.4285714  -0.2857143   0.0000000), wk =   0.0204082
        k(   66) = (  -0.2857143   0.4285714  -0.0000000), wk =   0.0204082
        k(   67) = (   0.4285714   0.2857143  -0.1250000), wk =   0.0408163
        k(   68) = (   0.4285714  -0.2857143   0.1250000), wk =   0.0408163
        k(   69) = (  -0.2857143   0.4285714  -0.1250000), wk =   0.0408163
        k(   70) = (   0.4285714   0.2857143   0.2500000), wk =   0.0204082
        k(   71) = (   0.4285714  -0.2857143  -0.2500000), wk =   0.0204082
        k(   72) = (  -0.2857143   0.4285714   0.2500000), wk =   0.0204082
        k(   73) = (   0.4285714  -0.4285714   0.0000000), wk =   0.0204082
        k(   74) = (   0.4285714  -0.4285714   0.1250000), wk =   0.0408163
        k(   75) = (   0.4285714  -0.4285714  -0.2500000), wk =   0.0204082

     Dense  grid:   160507 G-vectors     FFT dimensions: (  54,  54, 108)

     Smooth grid:    56679 G-vectors     FFT dimensions: (  40,  40,  80)

     Estimated max dynamical RAM per process >     235.77 MB

     Estimated total dynamical RAM >       1.57 GB

     Check: negative core charge=   -0.000003

     Initial potential from superposition of free atoms

     starting charge      79.9581, renormalised to      80.0000
     Starting wfcs are   60 randomized atomic wfcs
     Checking if some PAW data can be deallocated... 

     total cpu time spent up to now is       30.9 secs

     per-process dynamical memory:   168.6 Mb

     Self-consistent Calculation

     iteration #  1     ecut=    60.00 Ry     beta= 0.40
     Davidson diagonalization with overlap
     ethr =  1.00E-02,  avg # of iterations =  2.4

     total cpu time spent up to now is       74.6 secs

     total energy              =   -1143.97305620 Ry
     estimated scf accuracy    <       4.97949971 Ry

     iteration #  2     ecut=    60.00 Ry     beta= 0.40
     Davidson diagonalization with overlap
     ethr =  6.22E-03,  avg # of iterations =  4.0

     total cpu time spent up to now is      125.1 secs

     total energy              =   -1145.23888386 Ry
     estimated scf accuracy    <       1.35681622 Ry

     iteration #  3     ecut=    60.00 Ry     beta= 0.40
     Davidson diagonalization with overlap
     ethr =  1.70E-03,  avg # of iterations =  2.4

     total cpu time spent up to now is      167.8 secs

     total energy              =   -1145.52646407 Ry
     estimated scf accuracy    <       0.07026661 Ry

     iteration #  4     ecut=    60.00 Ry     beta= 0.40
     Davidson diagonalization with overlap
     ethr =  8.78E-05,  avg # of iterations = 10.5

     total cpu time spent up to now is      225.8 secs

     total energy              =   -1145.52997152 Ry
     estimated scf accuracy    <       0.01990655 Ry

     iteration #  5     ecut=    60.00 Ry     beta= 0.40
     Davidson diagonalization with overlap
     ethr =  2.49E-05,  avg # of iterations =  4.8

     total cpu time spent up to now is      283.7 secs

     total energy              =   -1145.53390495 Ry
     estimated scf accuracy    <       0.00931253 Ry

     iteration #  6     ecut=    60.00 Ry     beta= 0.40
     Davidson diagonalization with overlap
     ethr =  1.16E-05,  avg # of iterations =  1.4

     total cpu time spent up to now is      317.7 secs

     total energy              =   -1145.53291533 Ry
     estimated scf accuracy    <       0.00243263 Ry

     iteration #  7     ecut=    60.00 Ry     beta= 0.40
     Davidson diagonalization with overlap
     ethr =  3.04E-06,  avg # of iterations =  5.7

     total cpu time spent up to now is      369.7 secs

     total energy              =   -1145.53378732 Ry
     estimated scf accuracy    <       0.00051914 Ry

     iteration #  8     ecut=    60.00 Ry     beta= 0.40
     Davidson diagonalization with overlap
     ethr =  6.49E-07,  avg # of iterations =  1.8

     total cpu time spent up to now is      407.0 secs

     total energy              =   -1145.53378396 Ry
     estimated scf accuracy    <       0.00010760 Ry

     iteration #  9     ecut=    60.00 Ry     beta= 0.40
     Davidson diagonalization with overlap
     ethr =  1.35E-07,  avg # of iterations =  3.0

     total cpu time spent up to now is      448.4 secs

     total energy              =   -1145.53380368 Ry
     estimated scf accuracy    <       0.00000361 Ry

     iteration # 10     ecut=    60.00 Ry     beta= 0.40
     Davidson diagonalization with overlap
     ethr =  4.52E-09,  avg # of iterations =  4.6

     total cpu time spent up to now is      488.5 secs

     total energy              =   -1145.53380583 Ry
     estimated scf accuracy    <       0.00000187 Ry

     iteration # 11     ecut=    60.00 Ry     beta= 0.40
     Davidson diagonalization with overlap
     ethr =  2.33E-09,  avg # of iterations =  1.6

     total cpu time spent up to now is      523.4 secs

     total energy              =   -1145.53380579 Ry
     estimated scf accuracy    <       0.00000046 Ry

     iteration # 12     ecut=    60.00 Ry     beta= 0.40
     Davidson diagonalization with overlap
     ethr =  5.79E-10,  avg # of iterations =  2.7

     total cpu time spent up to now is      569.2 secs

     total energy              =   -1145.53380586 Ry
     estimated scf accuracy    <       0.00000004 Ry

     iteration # 13     ecut=    60.00 Ry     beta= 0.40
     Davidson diagonalization with overlap
     ethr =  5.15E-11,  avg # of iterations =  4.1

     total cpu time spent up to now is      618.9 secs

     total energy              =   -1145.53380587 Ry
     estimated scf accuracy    <          2.0E-09 Ry

     iteration # 14     ecut=    60.00 Ry     beta= 0.40
     Davidson diagonalization with overlap
     ethr =  2.49E-12,  avg # of iterations =  4.2

     total cpu time spent up to now is      664.5 secs

     End of self-consistent calculation

          k = 0.0000 0.0000 0.0000 (  7121 PWs)   bands (ev):

   -46.8376 -46.8358 -23.1683 -23.1651 -22.9721 -22.9115 -22.9080 -22.8587
   -19.5022 -19.4806  -9.1643  -9.1426  -8.6731  -8.6156  -8.4981  -7.6616
    -3.0575  -3.0448  -3.0234  -3.0076  -2.9788  -2.9248   3.1664   5.2082
     5.4898   5.6085   5.6278   5.7177   5.7537   5.7951   5.8050   6.0433
     6.1048   6.2202   6.5760   6.6744   6.9535   7.1059   7.2183   7.3366
     9.7210  10.1281  10.8105  10.9430  12.1571  12.3895  13.1987  13.7083

          k = 0.0000 0.0000 0.1250 (  7094 PWs)   bands (ev):

   -46.8373 -46.8360 -23.1679 -23.1656 -22.9558 -22.9110 -22.9085 -22.8755
   -19.4990 -19.4837  -9.1559  -9.1366  -8.6457  -8.6173  -8.4172  -7.8116
    -3.0466  -3.0410  -3.0206  -3.0110  -2.9790  -2.9390   3.5519   5.2516
     5.4378   5.4685   5.5975   5.6922   5.7224   5.8120   5.9314   6.0134
     6.1532   6.2544   6.5887   6.6517   6.8113   6.9037   7.0256   7.0279
    10.1536  10.4918  10.8341  10.9250  11.8276  12.0568  13.6422  13.7709

          k =-0.0000-0.0000-0.2500 (  7078 PWs)   bands (ev):

   -46.8366 -46.8366 -23.1667 -23.1667 -22.9163 -22.9163 -22.9094 -22.9094
   -19.4913 -19.4913  -9.1402  -9.1402  -8.6239  -8.6239  -8.1423  -8.1423
    -3.0352  -3.0352  -3.0160  -3.0160  -2.9675  -2.9675   4.5007   4.5007
     5.3886   5.3886   5.6378   5.6378   5.8411   5.8412   6.0073   6.0073
     6.3059   6.3059   6.4976   6.4976   6.6406   6.6406   6.9094   6.9094
    10.8805  10.8805  11.0300  11.0300  11.2877  11.2877  13.7436  13.7437

          k = 0.0000 0.1429 0.0000 (  7101 PWs)   bands (ev):

   -46.8372 -46.8354 -23.1679 -23.1647 -22.9709 -22.9326 -22.9285 -22.8580
   -19.4981 -19.4789  -9.1265  -9.1162  -8.6204  -8.4997  -8.4299  -7.6712
    -3.0517  -3.0343  -3.0147  -3.0144  -2.9702  -2.9408   3.1614   4.9012
     5.1672   5.1872   5.2541   5.5472   5.5871   5.6149   5.7636   5.8975
     5.9985   6.5353   6.6445   6.8426   7.0243   7.0279   7.0893   7.2483
    10.0343  10.3332  10.8621  10.9565  12.2625  12.4014  13.3640  14.2198

          k = 0.0000 0.1429 0.1250 (  7112 PWs)   bands (ev):

   -46.8369 -46.8357 -23.1674 -23.1652 -22.9547 -22.9319 -22.9291 -22.8748
   -19.4953 -19.4817  -9.1167  -9.1112  -8.5550  -8.5001  -8.3892  -7.8206
    -3.0560  -3.0408  -3.0089  -3.0048  -2.9704  -2.9457   3.5465   4.9866
     5.1582   5.2165   5.3078   5.4047   5.5251   5.5885   5.6593   5.9639
     5.9971   6.2397   6.6734   6.7966   6.8379   6.9052   7.0861   7.2246
    10.3928  10.6127  10.8878  10.9449  11.9470  12.0834  13.8573  14.2205

          k =-0.0000 0.1429-0.2500 (  7106 PWs)   bands (ev):

   -46.8363 -46.8363 -23.1663 -23.1663 -22.9307 -22.9307 -22.9148 -22.9148
   -19.4885 -19.4885  -9.1076  -9.1076  -8.5057  -8.5057  -8.1473  -8.1473
    -3.0528  -3.0528  -3.0007  -3.0007  -2.9599  -2.9599   4.4874   4.4874
     5.1201   5.1201   5.3678   5.3678   5.5824   5.5824   5.6572   5.6572
     6.0750   6.0750   6.6040   6.6040   6.8118   6.8118   7.1865   7.1865
    10.8964  10.8964  11.1521  11.1521  11.3936  11.3936  14.1643  14.1643

          k = 0.0000 0.2857 0.0000 (  7083 PWs)   bands (ev):

   -46.8364 -46.8346 -23.1671 -23.1639 -22.9790 -22.9738 -22.9683 -22.8564
   -19.4891 -19.4752  -9.1181  -9.0467  -8.5878  -8.1855  -8.1363  -7.6930
    -3.0480  -3.0431  -3.0241  -2.9731  -2.9595  -2.9505   3.1440   4.0927
     4.1491   4.2266   5.0841   5.2134   5.3694   5.6606   5.7529   5.9447
     5.9816   6.2030   6.4744   6.6414   6.6868   7.0404   7.0820   7.6685
    10.1294  11.2303  11.4611  11.5229  12.3773  12.6365  13.3971  14.5110

          k = 0.0000 0.2857 0.1250 (  7098 PWs)   bands (ev):

   -46.8362 -46.8349 -23.1666 -23.1643 -22.9783 -22.9746 -22.9521 -22.8731
   -19.4870 -19.4773  -9.0978  -9.0514  -8.4831  -8.1828  -8.1401  -7.8406
    -3.0614  -3.0487  -3.0088  -2.9723  -2.9572  -2.9513   3.5204   4.0892
     4.1279   4.4075   5.1257   5.1859   5.3313   5.3997   5.5915   5.7147
     6.0468   6.1112   6.4928   6.6479   6.7562   6.9020   7.0729   7.6309
    10.4801  11.3612  11.4764  11.5122  12.0682  12.3831  13.8244  14.4666

          k = 0.0000 0.2857-0.2500 (  7098 PWs)   bands (ev):

   -46.8355 -46.8355 -23.1655 -23.1655 -22.9765 -22.9765 -22.9128 -22.9128
   -19.4821 -19.4821  -9.0678  -9.0678  -8.2248  -8.2248  -8.1192  -8.1192
    -3.0627  -3.0627  -2.9854  -2.9854  -2.9524  -2.9524   4.0657   4.0657
     4.4880   4.4880   4.8866   4.8866   5.2943   5.2943   5.4088   5.4088
     6.1355   6.1355   6.5037   6.5037   6.7228   6.7228   7.4591   7.4591
    11.2341  11.2341  11.4997  11.4997  11.8678  11.8678  14.2929  14.2929

          k = 0.0000 0.4286 0.0000 (  7081 PWs)   bands (ev):

   -46.8358 -46.8340 -23.1668 -23.1635 -23.0153 -23.0094 -22.9662 -22.8551
   -19.4818 -19.4723  -9.1275  -9.0081  -8.5829  -7.8905  -7.8383  -7.7107
    -3.0764  -3.0472  -3.0194  -2.9585  -2.9360  -2.9344   3.0677   3.3188
     3.4000   3.8476   4.9653   5.0082   5.2048   5.5795   5.8405   5.9082
     5.9613   6.0416   6.2153   6.4763   6.5224   7.0095   7.0486   7.9710
    10.1696  11.9435  12.1513  12.1937  12.3766  13.0012  13.3699  14.4498

          k = 0.0000 0.4286 0.1250 (  7070 PWs)   bands (ev):

   -46.8355 -46.8343 -23.1663 -23.1640 -23.0145 -23.0103 -22.9501 -22.8717
   -19.4804 -19.4737  -9.0997  -9.0195  -8.4784  -7.8875  -7.8555  -7.8451
    -3.0719  -3.0393  -3.0193  -2.9559  -2.9505  -2.9382   3.2333   3.3118
     3.6251   4.0039   4.9397   5.0847   5.1410   5.1787   5.5925   5.6485
     6.0418   6.1464   6.2688   6.4845   6.7259   6.8739   6.9706   7.8716
    10.5170  11.9979  12.0834  12.1608  12.2058  12.7915  13.7565  14.4032

          k = 0.0000 0.4286-0.2500 (  7090 PWs)   bands (ev):

   -46.8349 -46.8349 -23.1652 -23.1652 -23.0124 -23.0124 -22.9111 -22.9111
   -19.4771 -19.4771  -9.0524  -9.0524  -8.1906  -8.1906  -7.8636  -7.8636
    -3.0552  -3.0552  -2.9865  -2.9865  -2.9474  -2.9474   3.2922   3.2922
     4.4003   4.4003   4.5847   4.5847   5.0990   5.0990   5.3770   5.3770
     6.1513   6.1513   6.3605   6.3605   6.6632   6.6632   7.5385   7.5385
    11.2900  11.2900  12.1674  12.1674  12.3782  12.3782  14.2176  14.2176

          k = 0.1429 0.1429 0.0000 (  7099 PWs)   bands (ev):

   -46.8369 -46.8351 -23.1891 -23.1854 -22.9698 -22.9321 -22.9280 -22.8573
   -19.4947 -19.4772  -9.0020  -8.9693  -8.6042  -8.4775  -8.4268  -7.6765
    -3.0480  -3.0366  -3.0337  -3.0212  -2.9609  -2.9447   3.1517   4.5964
     5.0034   5.0137   5.1285   5.2140   5.2398   5.4865   5.5964   5.7465
     5.9650   6.5988   6.6266   6.7022   6.9436   7.0610   7.1589   7.2173
    10.2018  10.6055  11.1774  11.2772  12.2746  12.5176  13.6150  14.6083

          k = 0.1429 0.1429 0.1250 (  7108 PWs)   bands (ev):

   -46.8366 -46.8353 -23.1885 -23.1860 -22.9536 -22.9314 -22.9286 -22.8740
   -19.4921 -19.4797  -8.9825  -8.9652  -8.5467  -8.4807  -8.3846  -7.8251
    -3.0568  -3.0420  -3.0344  -3.0268  -2.9517  -2.9337   3.5335   4.6918
     4.9933   5.0732   5.1246   5.1781   5.2557   5.3268   5.5640   5.7329
     5.7687   6.3482   6.6509   6.7066   6.8345   7.0072   7.1136   7.2429
    10.5057  10.8685  11.1994  11.2685  11.9654  12.2106  14.2345  14.6407

          k = 0.1429 0.1429-0.2500 (  7104 PWs)   bands (ev):

   -46.8360 -46.8360 -23.1873 -23.1873 -22.9302 -22.9302 -22.9139 -22.9139
   -19.4859 -19.4859  -8.9642  -8.9642  -8.4937  -8.4937  -8.1485  -8.1485
    -3.0570  -3.0570  -3.0322  -3.0322  -2.9336  -2.9336   4.4443   4.4443
     4.9354   4.9354   5.1053   5.1053   5.3367   5.3367   5.4481   5.4481
     5.9012   5.9012   6.6890   6.6890   6.8662   6.8662   7.2096   7.2096
    11.1868  11.1868  11.2777  11.2777  11.5293  11.5293  14.6709  14.6709

          k = 0.1429 0.2857 0.0000 (  7073 PWs)   bands (ev):

   -46.8361 -46.8343 -23.1878 -23.1844 -22.9785 -22.9735 -22.9673 -22.8557
   -19.4866 -19.4733  -8.9787  -8.8912  -8.5706  -8.1726  -8.1409  -7.6886
    -3.0753  -3.0653  -3.0299  -3.0100  -2.9602  -2.9447   3.1365   4.1228
     4.1908   4.2867   4.7185   4.8585   4.9415   5.3755   5.4496   5.5363
     5.7526   6.5263   6.6363   6.6789   6.7447   6.9717   7.1069   7.6845
    10.5235  11.2632  11.6733  11.7689  12.4858  12.6753  13.8043  15.1605

          k = 0.1429 0.2857 0.1250 (  7095 PWs)   bands (ev):

   -46.8358 -46.8345 -23.1873 -23.1849 -22.9779 -22.9743 -22.9511 -22.8723
   -19.4847 -19.4752  -8.9505  -8.8959  -8.4740  -8.1726  -8.1420  -7.8358
    -3.0811  -3.0585  -3.0512  -3.0195  -2.9441  -2.9316   3.5101   4.1213
     4.1756   4.4410   4.8002   4.8366   4.9418   5.2289   5.3373   5.4163
     5.5881   6.1449   6.6765   6.7269   6.8473   6.9603   7.1173   7.6411
    10.8019  11.4104  11.6919  11.7583  12.1889  12.4181  14.3694  15.1657

          k = 0.1429 0.2857-0.2500 (  7090 PWs)   bands (ev):

   -46.8352 -46.8352 -23.1861 -23.1861 -22.9761 -22.9761 -22.9120 -22.9120
   -19.4799 -19.4799  -8.9135  -8.9135  -8.2244  -8.2244  -8.1114  -8.1114
    -3.0780  -3.0780  -3.0390  -3.0390  -2.9264  -2.9264   4.0971   4.0971
     4.4593   4.4593   4.8281   4.8281   4.9742   4.9742   5.0594   5.0594
     5.7000   5.7000   6.7013   6.7013   6.8811   6.8811   7.4645   7.4645
    11.4604  11.4604  11.7144  11.7144  11.9028  11.9028  15.0263  15.0263

          k = 0.1429 0.4286 0.0000 (  7069 PWs)   bands (ev):

   -46.8354 -46.8336 -23.1872 -23.1838 -23.0148 -23.0092 -22.9653 -22.8544
   -19.4802 -19.4701  -8.9837  -8.8501  -8.5602  -7.8801  -7.8453  -7.6986
    -3.1060  -3.0829  -3.0232  -2.9779  -2.9743  -2.9517   3.0719   3.3291
     3.4134   3.9486   4.5478   4.7214   4.7346   5.3765   5.4301   5.5632
     5.5942   6.4376   6.4672   6.6618   6.7332   6.8934   7.0793   7.9809
    10.5767  11.9529  12.2563  12.3240  12.5092  13.0270  13.8369  15.1772

          k = 0.1429 0.4286 0.1250 (  7068 PWs)   bands (ev):

   -46.8352 -46.8339 -23.1868 -23.1844 -23.0140 -23.0100 -22.9493 -22.8709
   -19.4787 -19.4716  -8.9488  -8.8615  -8.4625  -7.8787  -7.8542  -7.8402
    -3.1037  -3.0665  -3.0481  -2.9881  -2.9648  -2.9468   3.2522   3.3251
     3.6186   4.0821   4.5497   4.7241   4.8059   5.1371   5.2396   5.3324
     5.6325   6.1094   6.6304   6.7062   6.8281   6.9211   7.0167   7.8783
    10.8532  12.0512  12.2071  12.2704  12.3222  12.8155  14.3506  15.1619

          k = 0.1429 0.4286-0.2500 (  7072 PWs)   bands (ev):

   -46.8345 -46.8345 -23.1856 -23.1856 -23.0120 -23.0120 -22.9103 -22.9103
   -19.4751 -19.4751  -8.8952  -8.8952  -8.1799  -8.1799  -7.8616  -7.8616
    -3.0853  -3.0853  -3.0261  -3.0261  -2.9485  -2.9485   3.3114   3.3114
     4.3650   4.3650   4.5597   4.5597   4.7547   4.7547   5.0386   5.0386
     5.7184   5.7184   6.6709   6.6709   6.8475   6.8475   7.5442   7.5442
    11.5170  11.5170  12.2737  12.2737  12.4074  12.4074  14.9845  14.9846

          k = 0.2857 0.2857 0.0000 (  7105 PWs)   bands (ev):

   -46.8353 -46.8335 -23.2345 -23.2305 -22.9768 -22.9723 -22.9650 -22.8541
   -19.4810 -19.4688  -8.7349  -8.5176  -8.4403  -8.1531  -8.1384  -7.6788
    -3.1405  -3.1241  -3.0414  -3.0401  -2.9891  -2.9477   3.0997   3.8789
     3.9139   4.1089   4.1319   4.1976   4.5064   4.6729   4.8038   5.1531
     5.6589   6.6291   6.6638   6.7914   7.0862   7.1925   7.4325   7.7103
    11.1484  11.5370  12.1168  12.2149  12.6510  12.9067  14.1470  16.1347

          k = 0.2857 0.2857 0.1250 (  7085 PWs)   bands (ev):

   -46.8350 -46.8337 -23.2340 -23.2311 -22.9762 -22.9730 -22.9490 -22.8706
   -19.4792 -19.4706  -8.6492  -8.5228  -8.4014  -8.1489  -8.1440  -7.8252
    -3.1331  -3.1221  -3.0661  -3.0495  -2.9806  -2.9320   3.4397   3.8761
     3.9222   4.0793   4.1932   4.2816   4.5887   4.6563   4.8459   4.9668
     5.3595   6.0758   6.8617   6.9963   7.0879   7.2329   7.3567   7.6563
    11.3265  11.6911  12.1336  12.2025  12.4008  12.6537  14.8119  16.2008

          k = 0.2857 0.2857-0.2500 (  7088 PWs)   bands (ev):

   -46.8344 -46.8344 -23.2325 -23.2325 -22.9746 -22.9746 -22.9100 -22.9100
   -19.4749 -19.4749  -8.5489  -8.5489  -8.2178  -8.2178  -8.0929  -8.0929
    -3.1154  -3.1154  -3.0843  -3.0843  -2.9421  -2.9421   3.8502   3.8502
     4.0285   4.0285   4.4295   4.4295   4.6065   4.6065   4.8435   4.8435
     5.1981   5.1981   7.0617   7.0617   7.1811   7.1811   7.4729   7.4729
    11.8042  11.8042  12.1244  12.1244  12.1961  12.1961  16.1325  16.1327

          k = 0.2857 0.4286 0.0000 (  7082 PWs)   bands (ev):

   -46.8347 -46.8329 -23.2333 -23.2296 -23.0131 -23.0082 -22.9633 -22.8528
   -19.4763 -19.4652  -8.7105  -8.4714  -8.4355  -7.8745  -7.8431  -7.6710
    -3.1797  -3.1678  -3.1031  -3.0222  -2.9836  -2.9794   3.0632   3.3103
     3.3557   3.8595   4.0719   4.1660   4.2779   4.2862   4.5256   5.0889
     5.4686   6.5746   6.6217   6.7650   7.2501   7.3136   7.4490   7.9975
    11.4186  11.9792  12.5662  12.6594  12.8651  13.0926  14.2563  16.2247

          k = 0.2857 0.4286 0.1250 (  7074 PWs)   bands (ev):

   -46.8344 -46.8331 -23.2328 -23.2301 -23.0124 -23.0089 -22.9473 -22.8692
   -19.4747 -19.4668  -8.6237  -8.4819  -8.3892  -7.8697  -7.8548  -7.8155
    -3.1738  -3.1466  -3.0912  -3.0433  -3.0214  -2.9611   3.2637   3.3096
     3.4875   3.8791   4.0886   4.2374   4.2704   4.3870   4.5798   4.9173
     5.1459   6.0155   6.8981   6.9882   7.2482   7.3213   7.3693   7.8882
    11.5935  12.0939  12.5702  12.6098  12.6574  12.8785  14.9218  16.3413

          k = 0.2857 0.4286-0.2500 (  7078 PWs)   bands (ev):

   -46.8338 -46.8338 -23.2314 -23.2314 -23.0107 -23.0107 -22.9085 -22.9085
   -19.4708 -19.4708  -8.5193  -8.5193  -8.1549  -8.1549  -7.8573  -7.8573
    -3.1361  -3.1361  -3.0951  -3.0951  -2.9883  -2.9883   3.3056   3.3056
     3.8619   3.8619   4.2291   4.2291   4.5283   4.5283   4.6646   4.6646
     5.0167   5.0167   7.1555   7.1555   7.2595   7.2595   7.5620   7.5620
    12.0603  12.0603  12.4230  12.4230  12.6336  12.6336  16.1964  16.1964

          k = 0.4286 0.4286 0.0000 (  7070 PWs)   bands (ev):

   -46.8340 -46.8322 -23.2700 -23.2660 -23.0113 -23.0071 -22.9617 -22.8515
   -19.4732 -19.4612  -8.6187  -8.1831  -8.1356  -7.8870  -7.8243  -7.6484
    -3.2429  -3.2267  -3.1946  -3.0558  -2.9988  -2.9694   2.8835   2.9989
     3.1480   3.3954   3.6463   3.7921   4.0291   4.1805   4.3430   4.8658
     5.3950   6.5614   6.7169   6.7639   7.5725   7.6014   7.7711   8.0066
    11.8756  12.2058  12.9304  13.0416  13.0732  13.3136  14.3679  16.3573

          k = 0.4286 0.4286 0.1250 (  7064 PWs)   bands (ev):

   -46.8337 -46.8325 -23.2694 -23.2666 -23.0107 -23.0077 -22.9458 -22.8679
   -19.4714 -19.4630  -8.4928  -8.1747  -8.1443  -7.8776  -7.8430  -7.7945
    -3.2232  -3.1962  -3.1652  -3.0818  -3.0326  -2.9921   2.9628   2.9988
     3.2693   3.4026   3.7477   3.9189   4.0720   4.1699   4.4544   4.6942
     5.1381   5.9850   6.9510   7.0388   7.5741   7.5934   7.6621   7.8864
    12.0082  12.3261  12.8360  12.9551  13.0297  13.0968  15.0379  16.5587

          k = 0.4286 0.4286-0.2500 (  7068 PWs)   bands (ev):

   -46.8331 -46.8331 -23.2680 -23.2680 -23.0092 -23.0092 -22.9071 -22.9071
   -19.4672 -19.4672  -8.2011  -8.2011  -8.1234  -8.1234  -7.8538  -7.8538
    -3.1656  -3.1656  -3.1318  -3.1318  -3.0496  -3.0496   2.9947   2.9947
     3.3893   3.3893   3.9177   3.9177   4.3549   4.3549   4.6881   4.6881
     4.8855   4.8855   7.3439   7.3439   7.5066   7.5066   7.6137   7.6137
    12.3770  12.3770  12.6660  12.6660  12.9946  12.9946  16.3709  16.3709

          k = 0.1429 0.0000 0.0000 (  7101 PWs)   bands (ev):

   -46.8372 -46.8354 -23.1898 -23.1860 -22.9709 -22.9110 -22.9074 -22.8579
   -19.4982 -19.4789  -9.0360  -9.0218  -8.6458  -8.5847  -8.4946  -7.6713
    -3.0532  -3.0406  -3.0092  -2.9987  -2.9840  -2.9417   3.1573   4.5817
     5.0387   5.1317   5.4255   5.4907   5.5396   5.5648   6.0384   6.0773
     6.2587   6.3108   6.5591   6.6124   6.9629   7.0725   7.2256   7.3146
     9.7666  10.5342  11.0593  11.1679  12.1631  12.4979  13.2399  14.1190

          k = 0.1429 0.0000-0.1250 (  7112 PWs)   bands (ev):

   -46.8369 -46.8357 -23.1893 -23.1866 -22.9547 -22.9105 -22.9080 -22.8747
   -19.4953 -19.4817  -9.0227  -9.0122  -8.6232  -8.5886  -8.4160  -7.8203
    -3.0529  -3.0390  -3.0159  -3.0036  -2.9730  -2.9434   3.5399   4.6780
     5.0085   5.1569   5.2558   5.4482   5.5013   5.6660   5.8289   5.9901
     6.3202   6.3514   6.5698   6.6256   6.9055   6.9839   7.0262   7.0887
    10.1850  10.8056  11.0819  11.1521  11.8392  12.1860  13.6705  14.1003

          k = 0.1429 0.0000 0.2500 (  7106 PWs)   bands (ev):

   -46.8363 -46.8363 -23.1879 -23.1879 -22.9154 -22.9154 -22.9088 -22.9088
   -19.4885 -19.4885  -9.0080  -9.0080  -8.6000  -8.6000  -8.1476  -8.1476
    -3.0458  -3.0458  -3.0141  -3.0141  -2.9542  -2.9542   4.4613   4.4613
     4.8990   4.8990   5.3043   5.3043   5.5030   5.5030   5.8641   5.8641
     6.4355   6.4355   6.5698   6.5698   6.7213   6.7213   7.0333   7.0333
    11.0244  11.0244  11.1314  11.1314  11.4912  11.4912  14.0084  14.0084

          k = 0.2857 0.0000 0.0000 (  7083 PWs)   bands (ev):

   -46.8364 -46.8346 -23.2375 -23.2326 -22.9681 -22.9097 -22.9061 -22.8563
   -19.4892 -19.4753  -8.9108  -8.7749  -8.4881  -8.4365  -8.4286  -7.6932
    -3.0454  -3.0452  -3.0083  -2.9926  -2.9783  -2.9332   3.1062   3.8485
     3.9188   3.9991   4.9369   5.1246   5.2635   5.4604   6.0440   6.0525
     6.3006   6.4158   6.5116   6.5591   6.7508   7.2344   7.2562   7.4920
     9.8270  11.4220  11.7436  11.8181  12.1742  12.8309  13.2620  14.4191

          k = 0.2857 0.0000-0.1250 (  7098 PWs)   bands (ev):

   -46.8361 -46.8349 -23.2368 -23.2333 -22.9521 -22.9091 -22.9067 -22.8729
   -19.4871 -19.4773  -8.8626  -8.7783  -8.4366  -8.4360  -8.4068  -7.8397
    -3.0557  -3.0486  -3.0111  -2.9846  -2.9705  -2.9343   3.4409   3.8395
     3.9440   4.1678   4.9291   4.9778   5.0963   5.5447   5.6954   5.9806
     6.3857   6.4446   6.5559   6.5658   6.9338   6.9718   7.0427   7.4358
    10.2321  11.5694  11.7597  11.7858  11.8847  12.5710  13.6861  14.3690

          k = 0.2857 0.0000 0.2500 (  7098 PWs)   bands (ev):

   -46.8355 -46.8355 -23.2351 -23.2351 -22.9132 -22.9132 -22.9075 -22.9075
   -19.4822 -19.4822  -8.8004  -8.8004  -8.4355  -8.4355  -8.1578  -8.1578
    -3.0587  -3.0587  -2.9990  -2.9990  -2.9455  -2.9455   3.7978   3.7978
     4.3624   4.3624   4.7652   4.7652   5.0286   5.0286   5.7836   5.7836
     6.4709   6.4709   6.5695   6.5695   6.8046   6.8046   7.2566   7.2566
    11.0701  11.0701  11.7824  11.7824  12.0362  12.0362  14.1743  14.1743

          k = 0.4286 0.0000 0.0000 (  7081 PWs)   bands (ev):

   -46.8358 -46.8340 -23.2751 -23.2695 -22.9659 -22.9086 -22.9050 -22.8550
   -19.4820 -19.4724  -8.9046  -8.6813  -8.4811  -8.1795  -8.1396  -7.7110
    -3.0768  -3.0420  -3.0062  -2.9952  -2.9619  -2.8986   2.8128   3.0180
     3.3633   3.5485   4.6603   4.8681   5.0707   5.3809   5.9659   6.0283
     6.1202   6.5294   6.5307   6.5825   6.6105   7.2287   7.2345   7.7499
     9.8699  12.1277  12.1872  12.3682  12.4165  13.1954  13.2683  14.4779

          k = 0.4286 0.0000-0.1250 (  7070 PWs)   bands (ev):

   -46.8355 -46.8342 -23.2743 -23.2703 -22.9500 -22.9080 -22.9056 -22.8715
   -19.4806 -19.4738  -8.8436  -8.6971  -8.4094  -8.1739  -8.1453  -7.8552
    -3.0723  -3.0430  -3.0008  -2.9851  -2.9688  -2.9140   2.8927   2.9991
     3.6539   3.7282   4.6747   4.7116   4.8349   5.4716   5.6340   5.9495
     6.2724   6.5103   6.5582   6.5968   6.8612   6.9444   7.0569   7.6500
    10.2676  11.8607  12.2424  12.3825  12.4136  12.9815  13.6822  14.4254

          k = 0.4286 0.0000 0.2500 (  7090 PWs)   bands (ev):

   -46.8349 -46.8349 -23.2723 -23.2723 -22.9115 -22.9115 -22.9063 -22.9063
   -19.4772 -19.4772  -8.7490  -8.7490  -8.1738  -8.1738  -8.1530  -8.1530
    -3.0574  -3.0574  -2.9852  -2.9852  -2.9510  -2.9510   2.9594   2.9594
     4.1067   4.1067   4.6328   4.6328   4.7673   4.7673   5.7268   5.7268
     6.4181   6.4181   6.6050   6.6050   6.8177   6.8177   7.3382   7.3382
    11.0976  11.0976  12.3964  12.3964  12.5643  12.5643  14.2077  14.2078

          k = 0.1429-0.1429 0.0000 (  7099 PWs)   bands (ev):

   -46.8368 -46.8351 -23.1894 -23.1856 -22.9698 -22.9319 -22.9279 -22.8572
   -19.4945 -19.4772  -8.9954  -8.9665  -8.6064  -8.4817  -8.4269  -7.6765
    -3.0630  -3.0552  -3.0219  -2.9941  -2.9601  -2.9538   3.1558   4.5350
     4.7365   4.7603   5.0613   5.2062   5.2598   5.4739   5.8911   6.0170
     6.0897   6.6966   6.7389   6.8116   6.9327   6.9948   7.0528   7.2696
    10.2561  10.5553  11.0087  11.0876  12.2831  12.5027  13.5749  14.7479

          k = 0.1429-0.1429 0.1250 (  7108 PWs)   bands (ev):

   -46.8366 -46.8353 -23.1888 -23.1862 -22.9536 -22.9312 -22.9285 -22.8740
   -19.4919 -19.4797  -8.9754  -8.9626  -8.5503  -8.4848  -8.3839  -7.8251
    -3.0685  -3.0610  -3.0255  -3.0064  -2.9509  -2.9360   3.5383   4.5989
     4.7142   4.8111   5.1006   5.2088   5.2621   5.3225   5.7339   5.8766
     6.0871   6.3532   6.7645   6.8488   6.8773   7.0059   7.0900   7.1990
    10.5380  10.8042  11.0383  11.0748  11.9802  12.2026  14.2025  14.7917

          k = 0.1429-0.1429-0.2500 (  7104 PWs)   bands (ev):

   -46.8360 -46.8360 -23.1875 -23.1875 -22.9300 -22.9300 -22.9139 -22.9139
   -19.4858 -19.4858  -8.9592  -8.9592  -8.4977  -8.4977  -8.1481  -8.1480
    -3.0705  -3.0705  -3.0211  -3.0211  -2.9325  -2.9325   4.4501   4.4501
     4.6878   4.6878   5.0212   5.0212   5.3477   5.3477   5.5643   5.5643
     6.1005   6.1005   6.8230   6.8230   6.8839   6.8839   7.1859   7.1859
    11.0210  11.0210  11.2100  11.2100  11.5650  11.5650  14.7843  14.7843

          k = 0.2857 0.1429 0.0000 (  7073 PWs)   bands (ev):

   -46.8360 -46.8342 -23.2364 -23.2319 -22.9672 -22.9306 -22.9267 -22.8556
   -19.4867 -19.4733  -8.8302  -8.6626  -8.4507  -8.4025  -8.3820  -7.6887
    -3.0682  -3.0604  -3.0311  -3.0279  -2.9685  -2.9331   3.1053   3.9015
     3.9900   4.0518   4.6771   4.7184   5.0370   5.2335   5.5907   5.7989
     5.8946   6.5610   6.7350   6.7624   6.8632   7.0311   7.1946   7.5078
    10.2933  11.4454  11.7959  11.8776  12.3012  12.8543  13.7450  15.1487

          k = 0.2857-0.1429 0.0000 (  7073 PWs)   bands (ev):

   -46.8360 -46.8342 -23.2368 -23.2321 -22.9672 -22.9304 -22.9266 -22.8556
   -19.4865 -19.4733  -8.8242  -8.6521  -8.4439  -8.4109  -8.3931  -7.6888
    -3.0795  -3.0783  -3.0181  -3.0153  -2.9693  -2.9325   3.1078   3.7580
     3.8971   3.9657   4.6680   4.7317   5.0332   5.2485   5.7807   5.9507
     6.0239   6.5495   6.7668   6.7980   6.8794   7.0179   7.1616   7.4884
    10.3164  11.4211  11.6735  11.7305  12.3099  12.8394  13.7187  15.2508

          k =-0.1429 0.2857-0.0000 (  7073 PWs)   bands (ev):

   -46.8361 -46.8343 -23.1883 -23.1846 -22.9782 -22.9733 -22.9673 -22.8557
   -19.4864 -19.4733  -8.9748  -8.8863  -8.5712  -8.1763  -8.1414  -7.6886
    -3.0851  -3.0792  -3.0196  -2.9997  -2.9602  -2.9455   3.1427   3.9485
     4.0023   4.2327   4.7632   4.8200   4.9194   5.4179   5.6271   5.8086
     5.8540   6.4895   6.6118   6.7363   6.8667   6.8960   7.0972   7.6672
    10.5517  11.2355  11.5464  11.6122  12.5036  12.6484  13.7751  15.2653

          k = 0.2857 0.1429-0.1250 (  7095 PWs)   bands (ev):

   -46.8358 -46.8345 -23.2358 -23.2326 -22.9512 -22.9300 -22.9273 -22.8722
   -19.4847 -19.4752  -8.7664  -8.6648  -8.4186  -8.3887  -8.3711  -7.8352
    -3.0723  -3.0656  -3.0483  -3.0282  -2.9497  -2.9259   3.4450   3.8942
     4.0033   4.2078   4.6627   4.7081   4.9739   5.1380   5.5507   5.6004
     5.8309   6.3701   6.6875   6.7619   6.9146   7.0764   7.1406   7.4570
    10.5884  11.6037  11.8155  11.8681  12.0059  12.5948  14.2859  15.1255

          k = 0.2857-0.1429 0.1250 (  7095 PWs)   bands (ev):

   -46.8358 -46.8345 -23.2361 -23.2328 -22.9512 -22.9298 -22.9272 -22.8722
   -19.4846 -19.4752  -8.7583  -8.6542  -8.4222  -8.4000  -8.3712  -7.8351
    -3.0881  -3.0789  -3.0351  -3.0191  -2.9482  -2.9243   3.4370   3.7557
     3.8822   4.1588   4.6653   4.7158   4.9284   5.1955   5.6273   5.7316
     6.0346   6.3753   6.7219   6.8110   6.9624   7.0466   7.1355   7.4222
    10.5975  11.5574  11.6850  11.7200  12.0345  12.5865  14.2831  15.2120

          k =-0.1429 0.2857-0.1250 (  7095 PWs)   bands (ev):

   -46.8358 -46.8345 -23.1878 -23.1852 -22.9775 -22.9741 -22.9512 -22.8723
   -19.4845 -19.4752  -8.9463  -8.8911  -8.4749  -8.1764  -8.1424  -7.8357
    -3.0923  -3.0769  -3.0357  -3.0124  -2.9422  -2.9303   3.5176   3.9494
     3.9845   4.3811   4.7938   4.8283   4.9682   5.1854   5.5044   5.5875
     5.8039   6.1345   6.7261   6.8187   6.8735   6.9489   7.0776   7.6207
    10.8160  11.3696  11.5613  11.5987  12.2133  12.4013  14.3638  15.2614

          k = 0.2857 0.1429 0.2500 (  7090 PWs)   bands (ev):

   -46.8352 -46.8352 -23.2342 -23.2342 -22.9288 -22.9288 -22.9118 -22.9118
   -19.4800 -19.4800  -8.6873  -8.6873  -8.3991  -8.3991  -8.1498  -8.1498
    -3.0768  -3.0768  -3.0415  -3.0415  -2.9272  -2.9272   3.8499   3.8499
     4.3449   4.3449   4.7268   4.7268   4.7846   4.7846   5.3716   5.3716
     5.9498   5.9498   6.7438   6.7438   7.0363   7.0363   7.3019   7.3019
    11.2880  11.2880  11.8511  11.8511  12.0557  12.0557  14.9435  14.9435

          k = 0.2857-0.1429-0.2500 (  7090 PWs)   bands (ev):

   -46.8352 -46.8352 -23.2344 -23.2344 -22.9287 -22.9287 -22.9118 -22.9118
   -19.4799 -19.4799  -8.6765  -8.6765  -8.4090  -8.4090  -8.1488  -8.1488
    -3.0896  -3.0896  -3.0328  -3.0328  -2.9248  -2.9248   3.7265   3.7265
     4.3448   4.3448   4.6374   4.6374   4.8255   4.8255   5.4775   5.4775
     6.0706   6.0706   6.7973   6.7973   7.0557   7.0557   7.2713   7.2713
    11.2653  11.2653  11.7052  11.7052  12.0688  12.0688  15.0059  15.0059

          k =-0.1429 0.2857 0.2500 (  7090 PWs)   bands (ev):

   -46.8352 -46.8352 -23.1865 -23.1865 -22.9758 -22.9758 -22.9120 -22.9120
   -19.4798 -19.4798  -8.9090  -8.9090  -8.2275  -8.2275  -8.1108  -8.1108
    -3.0897  -3.0897  -3.0315  -3.0315  -2.9240  -2.9240   3.9392   3.9392
     4.4488   4.4488   4.6926   4.6926   5.0406   5.0406   5.1930   5.1930
     5.8449   5.8449   6.7941   6.7941   6.8651   6.8651   7.4478   7.4478
    11.4186  11.4186  11.5789  11.5789  11.9183  11.9183  15.1069  15.1069

          k = 0.4286 0.1429 0.0000 (  7069 PWs)   bands (ev):

   -46.8354 -46.8336 -23.2740 -23.2687 -22.9651 -22.9293 -22.9256 -22.8543
   -19.4803 -19.4702  -8.8079  -8.5301  -8.4184  -8.1667  -8.1447  -7.6988
    -3.1069  -3.0650  -3.0228  -3.0195  -2.9913  -2.9187   2.8318   3.0303
     3.3678   3.6467   4.3973   4.4494   5.0089   5.0776   5.6246   5.8331
     5.8730   6.4356   6.7877   6.7958   6.8241   6.9982   7.1894   7.7592
    10.3389  12.1389  12.3209  12.3508  12.4028  13.2196  13.7825  15.2458

          k = 0.4286-0.1429 0.0000 (  7069 PWs)   bands (ev):

   -46.8354 -46.8336 -23.2742 -23.2688 -22.9651 -22.9292 -22.9255 -22.8543
   -19.4802 -19.4702  -8.8063  -8.5262  -8.4172  -8.1695  -8.1467  -7.6989
    -3.1120  -3.0724  -3.0184  -3.0067  -2.9997  -2.9166   2.8101   3.0045
     3.3463   3.6393   4.3941   4.4428   4.9872   5.1020   5.6834   5.8529
     5.9458   6.4228   6.7868   6.8041   6.8356   6.9970   7.1806   7.7518
    10.3461  12.1156  12.3107  12.3389  12.3468  13.2129  13.7773  15.2786

          k =-0.1429 0.4286 0.0000 (  7069 PWs)   bands (ev):

   -46.8354 -46.8337 -23.1875 -23.1840 -23.0146 -23.0091 -22.9653 -22.8544
   -19.4801 -19.4701  -8.9824  -8.8482  -8.5603  -7.8812  -7.8454  -7.6986
    -3.1104  -3.0875  -3.0169  -2.9796  -2.9756  -2.9476   3.0661   3.2949
     3.3638   3.9353   4.5416   4.7198   4.7299   5.3923   5.4481   5.6296
     5.6839   6.4193   6.4416   6.6818   6.7716   6.8715   7.0781   7.9757
    10.5833  11.9431  12.2103  12.2629  12.5136  13.0202  13.8320  15.2156

          k = 0.4286 0.1429-0.1250 (  7068 PWs)   bands (ev):

   -46.8351 -46.8339 -23.2733 -23.2695 -22.9492 -22.9287 -22.9261 -22.8708
   -19.4788 -19.4716  -8.7275  -8.5462  -8.3656  -8.1636  -8.1479  -7.8436
    -3.1059  -3.0657  -3.0378  -3.0023  -2.9825  -2.9321   2.9161   3.0163
     3.6642   3.7892   4.3861   4.4478   4.7310   5.1520   5.5283   5.5963
     5.9130   6.3926   6.6355   6.8140   6.9153   7.0398   7.1142   7.6596
    10.6321  12.0145  12.2529  12.3740  12.4035  13.0059  14.2895  15.2113

          k = 0.4286-0.1429 0.1250 (  7068 PWs)   bands (ev):

   -46.8351 -46.8339 -23.2734 -23.2696 -22.9492 -22.9286 -22.9261 -22.8708
   -19.4787 -19.4716  -8.7254  -8.5423  -8.3651  -8.1665  -8.1498  -7.8435
    -3.1107  -3.0736  -3.0299  -2.9998  -2.9842  -2.9298   2.8852   2.9882
     3.6528   3.7843   4.3883   4.4380   4.7179   5.1688   5.5476   5.6417
     5.9778   6.3870   6.6451   6.8280   6.9350   7.0318   7.1030   7.6519
    10.6342  11.9929  12.2530  12.3401  12.3518  13.0018  14.2949  15.2431

          k =-0.1429 0.4286-0.1250 (  7068 PWs)   bands (ev):

   -46.8352 -46.8339 -23.1870 -23.1845 -23.0139 -23.0099 -22.9493 -22.8709
   -19.4786 -19.4716  -8.9475  -8.8596  -8.4626  -7.8813  -7.8506  -7.8424
    -3.1080  -3.0758  -3.0388  -2.9888  -2.9647  -2.9436   3.2159   3.2882
     3.6011   4.0707   4.5406   4.6967   4.8368   5.0936   5.3076   5.3993
     5.6968   6.1031   6.6310   6.7396   6.8478   6.9144   6.9972   7.8734
    10.8550  12.0259  12.1856  12.2322  12.2902  12.8110  14.3584  15.2010

          k = 0.4286 0.1429 0.2500 (  7072 PWs)   bands (ev):

   -46.8345 -46.8345 -23.2714 -23.2714 -22.9276 -22.9276 -22.9101 -22.9101
   -19.4752 -19.4752  -8.6040  -8.6040  -8.1608  -8.1608  -8.1461  -8.1461
    -3.0918  -3.0918  -3.0128  -3.0128  -2.9595  -2.9595   2.9823   2.9823
     4.1060   4.1060   4.4604   4.4604   4.6552   4.6552   5.3800   5.3800
     6.0153   6.0153   6.7553   6.7553   7.0446   7.0446   7.3606   7.3606
    11.3233  11.3233  12.3881  12.3881  12.5845  12.5845  14.9808  14.9808

          k = 0.4286-0.1429-0.2500 (  7072 PWs)   bands (ev):

   -46.8345 -46.8345 -23.2715 -23.2715 -22.9275 -22.9275 -22.9101 -22.9101
   -19.4752 -19.4752  -8.6007  -8.6007  -8.1672  -8.1672  -8.1420  -8.1420
    -3.0962  -3.0962  -3.0109  -3.0109  -2.9579  -2.9579   2.9495   2.9495
     4.1096   4.1096   4.4386   4.4386   4.6577   4.6577   5.4173   5.4173
     6.0472   6.0472   6.7730   6.7730   7.0467   7.0467   7.3524   7.3525
    11.3168  11.3168  12.3352  12.3352  12.5861  12.5861  15.0081  15.0081

          k =-0.1429 0.4286 0.2500 (  7072 PWs)   bands (ev):

   -46.8345 -46.8345 -23.1857 -23.1857 -23.0119 -23.0119 -22.9103 -22.9103
   -19.4751 -19.4751  -8.8936  -8.8936  -8.1801  -8.1801  -7.8620  -7.8620
    -3.0901  -3.0901  -3.0238  -3.0238  -2.9470  -2.9470   3.2675   3.2675
     4.3838   4.3838   4.5014   4.5014   4.7636   4.7636   5.0943   5.0943
     5.7542   5.7543   6.7008   6.7008   6.8389   6.8389   7.5399   7.5399
    11.5085  11.5085  12.2216  12.2216  12.4053  12.4053  15.0206  15.0207

          k = 0.2857-0.2857 0.0000 (  7105 PWs)   bands (ev):

   -46.8353 -46.8335 -23.2350 -23.2308 -22.9765 -22.9721 -22.9650 -22.8540
   -19.4807 -19.4688  -8.7289  -8.5083  -8.4369  -8.1606  -8.1443  -7.6789
    -3.1479  -3.1391  -3.0335  -3.0269  -2.9955  -2.9449   3.1087   3.5380
     3.6573   4.0712   4.1332   4.2661   4.5531   4.9625   5.1441   5.1504
     5.7152   6.6158   6.6433   6.8127   7.0935   7.1829   7.4459   7.6757
    11.2247  11.4592  12.0429  12.1220  12.6720  12.8705  14.0887  16.2412

          k = 0.2857-0.2857 0.1250 (  7085 PWs)   bands (ev):

   -46.8350 -46.8337 -23.2344 -23.2314 -22.9759 -22.9728 -22.9490 -22.8706
   -19.4790 -19.4705  -8.6403  -8.5126  -8.4023  -8.1601  -8.1460  -7.8249
    -3.1443  -3.1350  -3.0528  -3.0425  -2.9841  -2.9295   3.4332   3.5608
     3.6601   4.0992   4.1308   4.3730   4.6591   4.8927   4.9904   5.1469
     5.4173   6.0579   6.8715   7.0454   7.1034   7.1875   7.3803   7.6147
    11.3806  11.6099  12.0511  12.1066  12.4289  12.6282  14.7603  16.2878

          k = 0.2857-0.2857-0.2500 (  7088 PWs)   bands (ev):

   -46.8344 -46.8344 -23.2329 -23.2329 -22.9744 -22.9744 -22.9100 -22.9100
   -19.4748 -19.4748  -8.5371  -8.5371  -8.2278  -8.2278  -8.0921  -8.0921
    -3.1317  -3.1317  -3.0710  -3.0710  -2.9416  -2.9416   3.5708   3.5708
     4.0639   4.0639   4.3671   4.3671   4.7644   4.7644   5.0116   5.0116
     5.2428   5.2428   7.0997   7.0997   7.1938   7.1938   7.4361   7.4361
    11.7871  11.7871  12.0230  12.0230  12.2049  12.2049  16.0809  16.0810

          k = 0.4286 0.2857 0.0000 (  7082 PWs)   bands (ev):

   -46.8346 -46.8328 -23.2717 -23.2671 -22.9752 -22.9711 -22.9632 -22.8528
   -19.4763 -19.4652  -8.6722  -8.2063  -8.1978  -8.1348  -8.0979  -7.6711
    -3.1811  -3.1557  -3.1135  -3.0434  -2.9848  -2.9623   2.8613   3.0361
     3.3282   3.8223   3.8606   3.9719   4.5864   4.5976   4.7165   4.9425
     5.5932   6.6240   6.6517   6.7806   7.3091   7.3128   7.6441   7.7886
    11.2414  12.1542  12.5803  12.6588  12.6968  13.2689  14.2369  16.3251

          k = 0.4286-0.2857 0.0000 (  7082 PWs)   bands (ev):

   -46.8346 -46.8328 -23.2719 -23.2673 -22.9750 -22.9711 -22.9632 -22.8528
   -19.4762 -19.4652  -8.6705  -8.1987  -8.1720  -8.1405  -8.1248  -7.6711
    -3.1874  -3.1629  -3.1050  -3.0415  -2.9859  -2.9605   2.8258   2.9897
     3.2744   3.8225   3.8461   3.9593   4.6025   4.6706   4.8292   4.9477
     5.6110   6.6207   6.6453   6.7831   7.2937   7.3261   7.6600   7.7652
    11.2543  12.1370  12.5645  12.6336  12.7040  13.2563  14.2112  16.3458

          k =-0.2857 0.4286-0.0000 (  7082 PWs)   bands (ev):

   -46.8346 -46.8329 -23.2335 -23.2297 -23.0129 -23.0081 -22.9633 -22.8528
   -19.4762 -19.4652  -8.7084  -8.4695  -8.4337  -7.8769  -7.8439  -7.6710
    -3.1858  -3.1728  -3.0968  -3.0207  -2.9847  -2.9774   3.0653   3.2257
     3.2508   3.8178   4.1009   4.1079   4.3388   4.3809   4.6715   5.0846
     5.4930   6.5660   6.6182   6.7668   7.2522   7.3111   7.4505   7.9900
    11.4372  11.9590  12.5475  12.6337  12.8774  13.0721  14.2288  16.2457

          k = 0.4286 0.2857-0.1250 (  7074 PWs)   bands (ev):

   -46.8344 -46.8331 -23.2711 -23.2678 -22.9746 -22.9717 -22.9472 -22.8692
   -19.4747 -19.4668  -8.5535  -8.2159  -8.1887  -8.1275  -8.1063  -7.8169
    -3.1798  -3.1310  -3.0987  -3.0599  -3.0074  -2.9657   2.9487   3.0295
     3.5775   3.8446   3.9490   4.0174   4.5304   4.6370   4.7490   4.8123
     5.3310   6.0658   6.8757   7.0253   7.2973   7.3273   7.5611   7.6949
    11.4144  12.2604  12.4430  12.6058  12.6538  13.0538  14.8855  16.4011

          k = 0.4286-0.2857 0.1250 (  7074 PWs)   bands (ev):

   -46.8344 -46.8331 -23.2712 -23.2679 -22.9745 -22.9717 -22.9472 -22.8692
   -19.4746 -19.4668  -8.5510  -8.2024  -8.1649  -8.1425  -8.1289  -7.8166
    -3.1845  -3.1435  -3.0741  -3.0689  -3.0085  -2.9653   2.8943   2.9809
     3.5433   3.8476   3.8939   4.0441   4.5813   4.7155   4.7699   4.8648
     5.3476   6.0598   6.8764   7.0361   7.2976   7.3213   7.5859   7.6629
    11.4219  12.2283  12.4551  12.5931  12.6276  13.0449  14.8644  16.3946

          k =-0.2857 0.4286-0.1250 (  7074 PWs)   bands (ev):

   -46.8344 -46.8331 -23.2330 -23.2303 -23.0122 -23.0088 -22.9474 -22.8692
   -19.4746 -19.4668  -8.6209  -8.4789  -8.3893  -7.8737  -7.8546  -7.8150
    -3.1786  -3.1544  -3.0797  -3.0397  -3.0267  -2.9607   3.1872   3.2375
     3.4525   3.8312   4.0447   4.2991   4.3894   4.4250   4.6777   4.9003
     5.1785   6.0087   6.8992   6.9969   7.2561   7.3131   7.3677   7.8801
    11.6067  12.0681  12.5470  12.6050  12.6468  12.8657  14.8981  16.3494

          k = 0.4286 0.2857 0.2500 (  7078 PWs)   bands (ev):

   -46.8337 -46.8337 -23.2695 -23.2695 -22.9732 -22.9732 -22.9085 -22.9085
   -19.4708 -19.4708  -8.3022  -8.3022  -8.1404  -8.1404  -8.0760  -8.0760
    -3.1466  -3.1466  -3.0761  -3.0761  -2.9993  -2.9993   3.0079   3.0079
     3.8281   3.8281   4.2702   4.2702   4.5026   4.5026   4.7693   4.7693
     5.1841   5.1841   7.2263   7.2263   7.3224   7.3224   7.4602   7.4602
    11.8817  11.8817  12.5834  12.5834  12.6693  12.6693  16.0956  16.0956

          k = 0.4286-0.2857-0.2500 (  7078 PWs)   bands (ev):

   -46.8337 -46.8337 -23.2696 -23.2696 -22.9731 -22.9731 -22.9085 -22.9085
   -19.4707 -19.4707  -8.2911  -8.2911  -8.1505  -8.1505  -8.0757  -8.0757
    -3.1528  -3.1528  -3.0684  -3.0684  -3.0020  -3.0020   2.9510   2.9510
     3.8090   3.8090   4.2505   4.2505   4.5543   4.5543   4.8406   4.8406
     5.1805   5.1805   7.2349   7.2349   7.3517   7.3517   7.4248   7.4248
    11.8764  11.8764  12.5542  12.5542  12.6697  12.6697  16.0824  16.0824

          k =-0.2857 0.4286 0.2500 (  7078 PWs)   bands (ev):

   -46.8338 -46.8338 -23.2316 -23.2316 -23.0105 -23.0105 -22.9085 -22.9085
   -19.4707 -19.4707  -8.5159  -8.5159  -8.1559  -8.1559  -7.8585  -7.8585
    -3.1449  -3.1449  -3.0858  -3.0858  -2.9900  -2.9900   3.2189   3.2189
     3.8283   3.8283   4.2893   4.2893   4.5597   4.5597   4.7227   4.7227
     5.0109   5.0109   7.1679   7.1679   7.2611   7.2611   7.5510   7.5510
    12.0553  12.0553  12.4074  12.4074  12.6186  12.6186  16.1786  16.1786

          k = 0.4286-0.4286 0.0000 (  7070 PWs)   bands (ev):

   -46.8340 -46.8322 -23.2701 -23.2660 -23.0113 -23.0070 -22.9617 -22.8515
   -19.4731 -19.4612  -8.6181  -8.1826  -8.1318  -7.8887  -7.8263  -7.6484
    -3.2458  -3.2303  -3.1905  -3.0543  -2.9986  -2.9696   2.8637   2.9656
     3.0968   3.3847   3.6888   3.8347   4.0161   4.2277   4.3527   4.8669
     5.4020   6.5588   6.7226   6.7574   7.5733   7.5993   7.7743   8.0013
    11.8903  12.1904  12.9306  13.0385  13.0814  13.3005  14.3549  16.3745

          k = 0.4286-0.4286 0.1250 (  7064 PWs)   bands (ev):

   -46.8337 -46.8325 -23.2695 -23.2666 -23.0107 -23.0077 -22.9458 -22.8679
   -19.4714 -19.4630  -8.4920  -8.1744  -8.1403  -7.8794  -7.8460  -7.7936
    -3.2243  -3.2035  -3.1580  -3.0803  -3.0327  -2.9933   2.9217   2.9634
     3.2481   3.3929   3.8168   3.8999   4.1174   4.1948   4.4540   4.6941
     5.1463   5.9826   6.9528   7.0385   7.5774   7.5898   7.6652   7.8802
    12.0200  12.3088  12.8443  12.9563  13.0149  13.0939  15.0266  16.5536

          k = 0.4286-0.4286-0.2500 (  7068 PWs)   bands (ev):

   -46.8331 -46.8331 -23.2681 -23.2681 -23.0092 -23.0092 -22.9071 -22.9071
   -19.4672 -19.4672  -8.1963  -8.1963  -8.1263  -8.1263  -7.8550  -7.8550
    -3.1723  -3.1723  -3.1222  -3.1222  -3.0531  -3.0531   2.9529   2.9529
     3.3811   3.3811   3.9694   3.9694   4.3485   4.3486   4.7145   4.7145
     4.8725   4.8725   7.3462   7.3462   7.5167   7.5167   7.6014   7.6014
    12.3787  12.3787  12.6567  12.6567  12.9934  12.9934  16.3559  16.3559

     the Fermi energy is     9.1444 ev

!    total energy              =   -1145.53380587 Ry
     total all-electron energy =    -18592.506536 Ry
     estimated scf accuracy    <          2.5E-10 Ry
     smearing contrib. (-TS)   =      -0.00000000 Ry
     internal energy E=F+TS    =   -1145.53380587 Ry

     The total energy is F=E-TS. E is the sum of the following terms:
     one-electron contribution =    -150.35427470 Ry
     hartree contribution      =     120.14582301 Ry
     xc contribution           =    -125.14406297 Ry
     ewald contribution        =    -405.26517968 Ry
     one-center paw contrib.   =    -584.91611152 Ry

     convergence has been achieved in  14 iterations

     Forces acting on atoms (cartesian axes, Ry/au):

     atom    1 type  1   force =    -0.00000000   -0.00000000   -0.00000000
     atom    2 type  1   force =    -0.00000000   -0.00000000   -0.00000000
     atom    3 type  2   force =    -0.04950157    0.00546720   -0.00000000
     atom    4 type  2   force =     0.04950157   -0.00546720    0.00000000
     atom    5 type  3   force =     0.06115337   -0.00197892    0.00000000
     atom    6 type  3   force =    -0.06115337    0.00197892   -0.00000000
     atom    7 type  3   force =     0.00389739    0.00717248    0.00000000
     atom    8 type  3   force =    -0.00389739   -0.00717248   -0.00000000
     atom    9 type  3   force =     0.00000000    0.00000000    0.00000000
     atom   10 type  3   force =     0.00000000    0.00000000    0.00000000

     Total force =     0.112166     Total SCF correction =     0.000013
     Message from routine punch:
     Nothing written, as per user request (disk_io='none')

     init_run     :     28.18s CPU     30.13s WALL (       1 calls)
     electrons    :    619.81s CPU    633.61s WALL (       1 calls)
     forces       :      8.11s CPU      8.41s WALL (       1 calls)

     Called by init_run:
     wfcinit      :     11.53s CPU     11.88s WALL (       1 calls)
     potinit      :      6.96s CPU      7.51s WALL (       1 calls)
     hinit0       :      4.05s CPU      4.28s WALL (       1 calls)

     Called by electrons:
     c_bands      :    463.32s CPU    465.99s WALL (      14 calls)
     sum_band     :     78.56s CPU     83.41s WALL (      14 calls)
     v_of_rho     :     10.40s CPU     11.33s WALL (      15 calls)
     newd         :     16.99s CPU     22.73s WALL (      15 calls)
     PAW_pot      :     51.91s CPU     52.67s WALL (      15 calls)
     mix_rho      :      2.39s CPU      2.41s WALL (      14 calls)

     Called by c_bands:
     init_us_2    :     14.64s CPU     14.74s WALL (     300 calls)
     cegterg      :    204.60s CPU    206.77s WALL (     140 calls)

     Called by *egterg:
     cdiaghg      :      3.13s CPU      3.14s WALL (     644 calls)
     h_psi        :    125.60s CPU    126.91s WALL (     654 calls)
     s_psi        :     17.54s CPU     17.56s WALL (     654 calls)
     g_psi        :      1.08s CPU      1.09s WALL (     504 calls)

     Called by h_psi:
     h_psi:calbec :     20.92s CPU     20.95s WALL (     654 calls)
     vloc_psi     :     83.15s CPU     83.64s WALL (     654 calls)
                                        0.00s GPU  (     654 calls)
     add_vuspsi   :     18.60s CPU     18.63s WALL (     654 calls)

     General routines
     calbec       :     30.22s CPU     30.26s WALL (     834 calls)
     fft          :      4.68s CPU      4.73s WALL (     204 calls)
     ffts         :      0.52s CPU      0.52s WALL (      29 calls)
     fftw         :     76.75s CPU     77.06s WALL (   41306 calls)
     interpolate  :      1.16s CPU      1.16s WALL (      15 calls)

     Parallel routines

     PWSCF        :  10m57.96s CPU  11m14.23s WALL


   This run was terminated on:   0:41:20   5Oct2026            

=------------------------------------------------------------------------------=
   JOB DONE.
=------------------------------------------------------------------------------=
