40
Lattice="8.068094053620356 -4.38423541214265e-18 -5.299365615194938e-18 -1.6788496834586077e-17 8.068094053620356 1.6634455206828052e-17 -2.654045609411134e-17 -6.832089622168243e-17 8.06809405362036" Properties=species:S:1:pos:R:3:REF_forces:R:3 system=batio3_cubic base_model=mace_mp0 config_id=batio3_cubic_c00 T=100.0 draw=0 energy_qe_eV=-74137.21820273803 offset_eV=-73818.25979870005 split=train REF_energy=-318.958404037985 mock=0 pbc="T T T"
Ba      -0.03313664       0.05741459       0.00568930       0.44559455      -0.12997389       0.13844953
Ba       3.99213761      -0.02876893       0.02608297      -0.08060254       0.43066158      -0.15520104
Ba       0.00236074       4.03962465       0.03289192       0.30986601      -0.16871116      -0.12887243
Ba       4.04615248       4.05730257      -0.05167682      -0.53846305      -0.35912320       0.31633156
Ba      -0.00187120      -0.04372171       4.01656426       0.03571597       0.25784179       0.11387673
Ba       4.03053696       0.01902751       3.98343180      -0.10105027      -0.18693951       0.53067775
Ba       0.03289130       4.00193279       4.02404684      -0.01609845       0.11997667       0.10904383
Ba       4.07782238       4.00339002       4.01120737      -0.40057633       0.25916720       0.31075921
Ti       2.08668643       2.02382726       2.05418120      -0.85047053      -0.51892267      -1.40819243
Ti       6.06867055       2.00934668       2.04859569       0.50044055      -0.59523532      -0.23006797
Ti       1.94561269       6.00697521       1.99081116      -0.21888213       0.85345275      -0.15081808
Ti       5.97525861       5.97224298       2.07366379       0.05061088       0.39785405       0.21254693
Ti       2.03794480       2.07711276       5.99572818      -0.08816236      -0.54013170       0.43992218
Ti       6.07534173       2.08345417       6.07475501       0.11230270      -0.60742749      -0.01978515
Ti       1.92113379       6.08906931       6.03368988      -0.25763971       0.37263615      -0.19004258
Ti       5.95868305       6.05748712       6.11244032       0.32543970       1.20018196       0.25362339
O        0.08879354       1.95108216       2.12096702      -1.24591237       0.66792966      -0.43396828
O        3.97502752       2.14592717       2.03907339       1.24333098      -0.71500708       0.41118316
O        0.09956424       6.04043669       1.96808475      -1.06928581      -0.08927462       0.17682119
O        4.12575174       6.05946602       2.14957678       0.33927480      -0.13788852      -0.69178076
O        0.05621109       2.08503331       6.09950004      -0.71229482      -0.29891285      -0.07437970
O        3.99319290       2.06539905       6.02076277       0.79203064      -0.29386526       0.17443315
O        0.01187300       6.01990338       6.07465456       0.44122393      -0.08330117       0.05705047
O        4.03976527       6.08213240       6.05578239       0.73054837      -0.24609417      -0.24251159
O        2.04488590      -0.07855815       2.04401856       0.45666237       1.12789385      -0.20776750
O        6.13106620       0.04049371       2.02685385      -0.63875741       0.07013969      -0.31721011
O        2.03015763       4.12936299       1.92709797       0.19516987      -0.78374783       1.09600266
O        6.05082754       3.99179069       2.00313659       0.30202183       0.31094407       0.39005460
O        1.97590549       0.08053100       6.11088264       0.22636738      -0.94288909      -0.03500865
O        6.13053272      -0.04074968       6.11720747      -0.45574012      -0.68872629      -0.12872845
O        2.05386983       3.99471542       6.00436264      -0.11922180       0.95525738       0.00201857
O        6.14798367       3.92554302       6.05691913      -0.61795950       1.10954903      -0.37514632
O        2.07893591       2.13737714       0.11510878      -0.28839987      -0.65979572      -0.28276967
O        5.98749015       2.10637666       0.01995711       0.34261981      -0.66053131       0.22150337
O        2.05144998       6.08449310       0.02816718       0.13369659      -0.11793419      -0.79157093
O        6.00798708       5.94685282      -0.03029749       0.13698066       0.33535901      -0.15288936
O        2.01095358       1.95185013       4.03552354       0.21983703       0.58573612       0.27176458
O        6.05106397       1.92122135       4.08039477      -0.07946868       0.59069141      -0.39091875
O        1.96352793       6.14929793       4.06036099       0.32761408      -0.69712068       0.80464242
O        6.08970401       6.00731383       3.97419413       0.11163653      -0.12371814       0.37692424
40
Lattice="8.068094053620356 -4.38423541214265e-18 -5.299365615194938e-18 -1.6788496834586077e-17 8.068094053620356 1.6634455206828052e-17 -2.654045609411134e-17 -6.832089622168243e-17 8.06809405362036" Properties=species:S:1:pos:R:3:REF_forces:R:3 system=batio3_cubic base_model=mace_mp0 config_id=batio3_cubic_c01 T=100.0 draw=1 energy_qe_eV=-74137.19471373543 offset_eV=-73818.25979870005 split=train REF_energy=-318.934915035381 mock=0 pbc="T T T"
Ba       0.02740111      -0.00780399      -0.00246708      -0.19545295      -0.08978678       0.20288472
Ba       4.03474694      -0.01235895      -0.04181423       0.19544009       0.02082388       0.17401946
Ba      -0.03453566       4.02981653       0.00820747       0.39050455       0.18134685       0.23123011
Ba       4.01620125       3.99072048      -0.00411152       0.05686946       0.22716545       0.04758675
Ba      -0.01827281       0.02131632       4.06847653      -0.15341978      -0.22422462      -0.45788082
Ba       3.97690100      -0.02745941       4.06604682       0.63940662       0.23280131      -0.20439473
Ba       0.02745506       4.09309473       4.03184538      -0.22913569      -0.22200653      -0.37677254
Ba       4.04888386       4.06441684       4.05384622       0.10602510      -0.29088664      -0.31978301
Ti       2.06901667       2.02664341       1.97633824      -0.54719092       0.17734415      -0.42320307
Ti       6.07056205       2.02324764       1.97802908       0.34052873      -0.47489175       1.18283447
Ti       2.06040789       6.05037759       1.97623999      -0.33762570      -0.25694757       0.06006560
Ti       6.02099727       6.03096355       1.99320524       0.89821335      -0.01139770       0.05913332
Ti       2.02885795       2.07265236       5.97974182       0.31791408      -0.19257537       0.09945310
Ti       6.11096372       1.98616470       6.06412487      -0.04753764      -0.99433532      -0.19181972
Ti       2.02311977       6.07802506       6.02499855      -0.72192977      -0.01179802      -0.46445847
Ti       6.04439587       5.93987274       6.06218566      -0.14009735       1.35206396      -0.23630598
O       -0.00657886       2.05419161       2.00416873       0.22042556      -0.20359563       0.03050640
O        4.09688245       2.02738478       2.09253665      -1.09558434       0.10291637      -0.75646432
O       -0.07308156       6.02193994       2.00940281       0.83014493       0.39416451      -0.07369167
O        4.03895345       6.00830189       2.01458190      -0.74006916       0.21385999       0.27608249
O        0.04542994       1.98608773       6.05990217      -1.25731418       0.53271381      -0.12055928
O        3.96807607       1.90458391       6.12354754       0.63434771       0.43863560      -0.42371652
O        0.03342113       6.06382117       6.02221912       0.41598135      -0.53169591       0.47003571
O        4.11443892       5.97178395       6.09451529      -1.04311404       0.64504427      -0.26720627
O        2.04235545      -0.00769788       1.98800017       0.06164271       0.45699507       0.35234166
O        6.08084661       0.03954887       1.95550235      -0.25600628       0.48130486       0.26108190
O        2.00031091       4.06245579       2.11450164       0.28534797      -0.39846185      -0.47437805
O        6.13877114       4.08021485       2.03007306      -0.64611205      -0.65643658      -0.53339541
O        1.92912977       0.03677630       6.10091754       0.71051510      -1.17368134      -0.24430082
O        6.16625972      -0.06528918       6.12348762      -0.56393523       1.18884468      -0.60289978
O        2.07434089       4.03325006       5.95020241      -0.21652674       0.38180702       0.82060460
O        6.02730635       4.07530142       6.09702546       0.40119545      -0.93408409      -0.11939740
O        1.98397386       2.10039814       0.02604515       0.26042447      -0.07383308       1.06071169
O        6.05205887       2.05329214      -0.10448800      -0.00309998       0.08208710       0.44483736
O        2.06409596       6.04464819       0.06398279      -0.22544075      -0.18676288      -0.60073774
O        5.93548662       6.10082852       0.05769308       0.62195500      -0.52481383      -0.61594376
O        2.00479504       2.05835305       4.09632228       0.11179516      -0.47590451      -0.63975809
O        5.97444079       2.06551638       3.97546998       0.57268778      -0.26317118       0.94311843
O        1.99661362       6.03240809       4.04704200       0.34977313       0.61359557       0.67982564
O        6.01879957       5.99209219       4.01274050      -0.00154498       0.46777648       0.75071456
40
Lattice="8.068094053620356 -4.38423541214265e-18 -5.299365615194938e-18 -1.6788496834586077e-17 8.068094053620356 1.6634455206828052e-17 -2.654045609411134e-17 -6.832089622168243e-17 8.06809405362036" Properties=species:S:1:pos:R:3:REF_forces:R:3 system=batio3_cubic base_model=mace_mp0 config_id=batio3_cubic_c02 T=100.0 draw=2 energy_qe_eV=-74137.2618812269 offset_eV=-73818.25979870005 split=train REF_energy=-319.00208252685843 mock=0 pbc="T T T"
Ba      -0.02117679      -0.07230586       0.01167749       0.30597156       0.39852716       0.07594653
Ba       4.00759401       0.03512459       0.05031473      -0.15905127      -0.13181737       0.12246884
Ba       0.01575908       4.05455629      -0.09091073      -0.03550976      -0.26005963       0.62424508
Ba       4.02516023       4.04903914      -0.00800330      -0.16248061      -0.29815104       0.33732616
Ba       0.03392189       0.02718293       4.00749798      -0.23480960      -0.44602598      -0.07008004
Ba       4.04565502       0.03215897       4.08250727      -0.06464653      -0.39072026      -0.63180515
Ba       0.06531531       4.08628343       4.00977718      -0.60722952      -0.14717920       0.03617311
Ba       3.99669867       3.99759450       4.06958750       0.35972664       0.28914035      -0.35446359
Ti       2.01561459       2.00663825       2.05217777       0.14736998      -0.70101719      -0.84554636
Ti       6.10182763       2.02581018       1.94210082      -0.48940434       0.40366011       0.20721112
Ti       2.01342894       5.98415172       2.05608435       0.51563731       1.14248460       0.06920973
Ti       6.08115088       6.06382662       1.96616839      -0.06662243      -0.59197671       1.15710389
Ti       1.98071344       2.00709910       6.05234949       0.79826197       0.37486993       0.10847921
Ti       6.06511835       1.99397295       5.99043578       0.02407787       0.42367255      -0.79283720
Ti       1.99928253       6.09424831       6.08798672      -0.37201317      -0.34979833       0.33119408
Ti       6.00251318       6.01891059       6.07220157       0.29198039       0.37857617      -0.81770028
O        0.05452084       2.04553297       2.09301970      -0.26417725      -0.20319274      -0.13012327
O        4.06444156       2.03636420       2.03328528      -0.22408347       0.21161773       0.34175360
O       -0.05199733       6.06253187       2.00966715      -0.19711851       0.17427734      -0.19887277
O        4.01823435       6.06474584       2.08381238       0.23197624      -0.22313319      -0.49427556
O       -0.00699043       1.98861847       6.00093807      -0.25086999       0.01791776       0.55836056
O        3.93123691       2.02293688       6.06772322       0.61655928      -0.25495779       0.12644325
O        0.04568806       6.04297298       6.04203140      -0.90006891      -0.05575437       0.02320601
O        3.95835977       5.99328174       6.08646052       1.04337732       0.29588461      -0.25712009
O        1.99926850      -0.06660040       1.97338082       0.02550354       0.71251568       0.38915266
O        5.99459689       0.07026801       1.96273561       0.51656034      -1.21211110       0.56171508
O        1.99743531       4.10923534       2.01647948       0.04959144      -0.64685819       0.04518662
O        6.16182106       4.01681694       1.91799374      -0.55489548       0.25526272       0.33638720
O        2.02758079       0.00123120       6.05808718      -0.19667191       0.37343165      -0.00488972
O        6.04633782      -0.08598961       6.02487752      -0.23194282       0.22157536       0.17576781
O        1.98837034       4.03688581       6.13612606      -0.00318508      -0.86753057      -0.58009384
O        5.96063156       3.96772343       6.05280471       0.43873999      -0.06910174       0.31254561
O        2.04057078       1.98418489       0.14767131      -0.34170424       0.22810802      -1.38625089
O        6.04599204       1.91791514       0.12092555       0.26718158       0.42225279      -1.72712698
O        1.90542821       6.04142811      -0.03150906       0.58620561       0.07171321      -0.05008046
O        6.04956256       6.00040305      -0.02696913      -0.12309773       0.23571745      -0.26558390
O        2.05179480       2.00949280       3.99451915      -0.15257338       0.04543679       1.15099881
O        6.07765359       2.01079595       4.10059287      -0.27069577      -0.11828489       0.82540870
O        1.95637230       6.06863476       4.00704391       0.23867165      -0.13813277       0.22785193
O        6.12109587       5.94364331       3.99952472      -0.55454093       0.42916108       0.46271424
40
Lattice="8.068094053620356 -4.38423541214265e-18 -5.299365615194938e-18 -1.6788496834586077e-17 8.068094053620356 1.6634455206828052e-17 -2.654045609411134e-17 -6.832089622168243e-17 8.06809405362036" Properties=species:S:1:pos:R:3:REF_forces:R:3 system=batio3_cubic base_model=mace_mp0 config_id=batio3_cubic_c03 T=100.0 draw=3 energy_qe_eV=-74136.93831188587 offset_eV=-73818.25979870005 split=train REF_energy=-318.6785131858196 mock=0 pbc="T T T"
Ba       0.04409543      -0.04160643       0.07866824      -0.45265197       0.49810701      -0.55985360
Ba       3.97961112       0.03378656       0.01452021       0.52367355      -0.36774000       0.00213967
Ba      -0.05685204       4.06450395      -0.01051868       0.66762962      -0.45551309      -0.06246289
Ba       4.10145756       4.03368752       0.01330087      -0.53511136       0.12520604       0.13631346
Ba      -0.02917869       0.06784750       4.05904395       0.10068800      -0.36797808       0.06066929
Ba       4.02957866      -0.03185131       3.91178604       0.19594351      -0.02024821       0.56971944
Ba       0.02477020       4.06248737       4.00889896      -0.07513818      -0.26128682       0.35377094
Ba       4.00418260       3.98289773       4.02228914       0.27794756       0.42300252       0.00813677
Ti       2.06958562       2.04976977       2.03462539       0.68630611       0.52752481      -0.74679645
Ti       6.13929502       2.04275094       2.04618615      -0.46201181      -0.23185283      -0.95167198
Ti       2.01738120       6.07694411       2.10639763       1.08853926      -0.67050411      -0.31059389
Ti       6.08491815       6.05873002       1.98611581      -0.32627659       0.43822576      -0.78284666
Ti       2.08074338       1.98691814       6.02386940      -1.38557804       0.42751789       0.57851261
Ti       6.02170905       2.00609827       6.01959183       1.62581523      -0.79903844       0.50563006
Ti       2.01600899       6.05488432       6.06264125       0.38926502      -0.76952218       0.65816101
Ti       6.08046743       6.02528940       5.98926374      -0.32351574       0.82601266      -0.03628752
O       -0.08149929       1.93276295       2.06430237       0.57146522       0.41253273      -0.02751080
O        4.00448736       2.02523964       1.98629883      -0.49345075      -0.09074760       0.14754404
O       -0.11346350       6.09166199       2.00650677       0.84141588      -0.31804726       0.41109523
O        3.94269468       5.92414688       1.99691985       0.22706466       0.83480352       0.37872710
O       -0.01709625       1.95097368       5.98205939      -0.17004274       0.48896957       0.15232269
O        3.99925087       2.01888617       6.12334293       0.05545150       0.00768323      -0.50689427
O        0.02402523       6.10482384       6.02772100      -0.40316903      -0.26809998       0.21586185
O        4.01365245       6.03843280       6.03458407       0.24614148       0.08562365       0.03696526
O        2.00484345      -0.04115019       2.05346765      -0.03533056      -0.38889478      -0.14811945
O        5.93522637      -0.01436585       1.92923434       0.17373535      -0.82654410       0.62893528
O        2.08125548       4.06637237       2.25085618      -1.08312169      -0.25492179      -1.38002728
O        6.04045278       4.00593198       2.07713818       0.10947269       0.23043384       0.13166234
O        1.94862374       0.06519370       6.07914877       0.63946832       0.12549966      -0.23979625
O        6.01108956      -0.00677648       6.04109601      -0.08974924       0.21925931       0.35545733
O        2.00764391       4.03916666       6.03737814      -0.07289103      -0.50029117      -0.14641815
O        6.12655011       4.00128026       6.06997120      -0.48253976      -0.00702065      -0.21845429
O        1.98991531       2.06994619       0.10875194      -0.14320016      -0.09793255      -1.24576607
O        6.15035381       1.99939300       0.07586529      -0.59972215       0.20872601      -1.19664001
O        2.05104205       5.98280949      -0.04463585      -0.47121482       0.35305977       0.12140389
O        6.10153141       5.98555653       0.07891871      -0.44104729       0.11642161      -0.29092058
O        1.98218025       2.02923701       3.87589811       0.30350176      -0.44876960       2.69932408
O        6.02259487       1.90839492       3.97981167      -0.34784506       0.47507379       1.36519741
O        2.00502697       6.00867424       4.05366942      -0.14671872       0.71707090      -0.18351660
O        6.06996566       6.10229850       4.13153549      -0.18319779      -0.39580051      -0.48297299
40
Lattice="8.068094053620356 -4.38423541214265e-18 -5.299365615194938e-18 -1.6788496834586077e-17 8.068094053620356 1.6634455206828052e-17 -2.654045609411134e-17 -6.832089622168243e-17 8.06809405362036" Properties=species:S:1:pos:R:3:REF_forces:R:3 system=batio3_cubic base_model=mace_mp0 config_id=batio3_cubic_c04 T=100.0 draw=4 energy_qe_eV=-74137.13774888021 offset_eV=-73818.25979870005 split=valid REF_energy=-318.87795018016186 mock=0 pbc="T T T"
Ba       0.02292846       0.10872779      -0.00858963      -0.47806424      -1.07321008       0.30621556
Ba       3.95751037      -0.04556672       0.02428479       0.76884701       0.07104421      -0.09032491
Ba      -0.01182177       4.06784101      -0.04543804       0.12483631       0.44114500       0.38641187
Ba       4.03034410       4.05252688      -0.03393186      -0.00908139       0.03783121       0.29097946
Ba       0.05290762      -0.01837138       4.05977258      -0.46487962      -0.11754338      -0.27280124
Ba       4.04201479       0.04145911       4.07693994      -0.03385372      -0.26465702      -0.23870919
Ba       0.01933653       3.94652728       3.97607713       0.16727186       0.64335017       0.18370584
Ba       4.03340771       3.99290068       4.04865234      -0.30938136       0.20577207      -0.03415016
Ti       2.06256897       1.99030184       1.99013583      -0.14621967       0.48646146       0.53991675
Ti       6.03538835       2.03631995       1.97346770       0.37111277      -0.96115035       0.31559031
Ti       2.03643475       6.05668932       2.02926067      -1.16774980      -0.52791536       0.67036347
Ti       5.99289061       6.01573258       2.09739433       1.17152238       0.86985511      -1.24610443
Ti       2.03530055       2.04381419       6.06297643       0.49185203       0.41891035      -0.44151215
Ti       6.07845270       2.05164300       6.05026967       0.41424303       0.01363790      -0.00045457
Ti       2.01490033       6.07162425       6.06408343      -0.78165161      -0.20068386      -0.35781734
Ti       6.01200133       6.07607758       6.03425191       0.39647439       0.44125864       0.93488268
O       -0.04625957       2.09433265       1.97940319      -0.00666070      -0.23012865      -0.02254292
O        4.07242540       1.94606758       2.05054792      -0.18691457       0.26627270      -0.34442344
O        0.01152341       6.08042251       2.01483066       0.03968601      -0.45930187       0.33331010
O        3.97625806       6.01258886       2.04725090       0.87966129       0.47160357      -0.10263612
O       -0.03594621       2.04634284       6.13466426       0.06566777      -0.25984803      -0.45974513
O        3.88925114       2.04557102       6.17837259       0.64475065      -0.20605746      -0.81113137
O        0.05536594       6.05975014       6.05023931      -0.57644801      -0.05337070      -0.06049934
O        4.03074931       6.00331931       6.16475708       0.75442646       0.17678443      -0.60163454
O        1.88064963       0.02931420       2.14818175       0.94087618      -0.11363299      -1.07197544
O        6.07834279      -0.00986891       2.07363562      -0.28838907       0.04875711      -0.01989391
O        2.11212756       4.01456260       2.00325780      -0.43364149      -0.15322798      -0.05845352
O        6.09071985       4.05928341       1.97911947      -0.58275647      -0.30712444       0.08161530
O        2.00573598      -0.07045491       5.92165474       0.16124468       0.90473418       0.78801895
O        6.03506995      -0.02818632       5.96449985      -0.14262912      -0.08664772       0.25815907
O        1.99773097       4.06854563       5.99996963      -0.02477386      -1.23470159       0.27223689
O        6.09157583       4.00281614       6.09553136      -0.38884541      -0.28718348      -0.13944687
O        2.10775800       2.00919060       0.03658481      -0.74674709      -0.25362724      -0.24035289
O        5.98672660       1.90117623      -0.07140779       0.04034138       0.47199309       0.65266991
O        2.02270091       6.07136498      -0.02294593       0.01104135       0.07290080       0.39474533
O        6.09187923       6.10123650       0.03623160      -0.36264330      -0.20395559      -0.18463143
O        2.07927808       1.95686971       3.98539245      -0.46199613       0.59202658       0.81086243
O        5.98363340       2.03615986       4.04501438       0.26053991       0.14201977       0.26341389
O        2.06158605       5.98534880       4.01981177      -0.02376882       0.18813430      -0.25703087
O        6.02573092       5.97167903       4.08796974      -0.08729975       0.02947538      -0.42682626
40
Lattice="8.068094053620356 -4.38423541214265e-18 -5.299365615194938e-18 -1.6788496834586077e-17 8.068094053620356 1.6634455206828052e-17 -2.654045609411134e-17 -6.832089622168243e-17 8.06809405362036" Properties=species:S:1:pos:R:3:REF_forces:R:3 system=batio3_cubic base_model=mace_mp0 config_id=batio3_cubic_c05 T=100.0 draw=5 energy_qe_eV=-74136.93994293621 offset_eV=-73818.25979870005 split=train REF_energy=-318.68014423616114 mock=0 pbc="T T T"
Ba      -0.00145642       0.01057840       0.03314298       0.21897649      -0.41478116      -0.21293234
Ba       4.14209358       0.00741710      -0.05365756      -0.75509649       0.10731630      -0.00698363
Ba      -0.01092711       3.97781243       0.02024870       0.12319029       0.55291651      -0.16380395
Ba       4.02345587       4.11600875       0.00585772      -0.13790343      -0.56726635      -0.37726234
Ba      -0.00984691      -0.00587994       4.04206675       0.18278075       0.01622135      -0.09682337
Ba       4.04045741       0.02060611       4.02139407      -0.19042696      -0.00193090       0.23112418
Ba      -0.03731949       4.03218075       4.01676507       0.38088914       0.00684196       0.08720436
Ba       4.00407025       4.01879425       4.08921043      -0.06548985      -0.09905972      -0.08023744
Ti       2.02252399       1.93647855       1.93456632      -0.05112407       0.14235324       1.26633310
Ti       6.05732799       2.00189772       2.02335339      -0.85426240       0.73493236      -0.18606688
Ti       2.08084976       5.97670300       2.07280519      -1.27191111      -0.22968230      -0.07559172
Ti       5.98338107       6.08472853       1.99167846       1.47188817      -0.51331535       0.54681245
Ti       2.04531534       1.98807256       6.06933719      -0.19512153       0.29100054      -1.30717559
Ti       6.08701262       2.03197790       6.03134905      -0.10353755       0.02914988       0.09547072
Ti       1.93550633       6.10935577       6.07826473       0.24371384      -1.25923428       0.53643599
Ti       6.01883264       6.07309246       6.06239038      -0.49399839       0.07881820      -0.38817513
O        0.09597726       2.06118442       2.02785434      -0.10061318      -0.43544409      -0.26008971
O        4.12939147       2.08616725       2.06901841      -0.21337662      -0.53211962      -0.49006897
O       -0.01360120       6.08338679       1.96565655      -0.66522486      -0.15631433       0.33274934
O        3.93634390       6.03981326       1.90585908       1.49178851       0.16871913       0.34156360
O        0.06330874       2.00234076       6.08487825      -1.07368445       0.10707385      -0.22260765
O        4.01552733       1.95392495       5.91706412       0.39423110       0.35073961       0.93278183
O       -0.05863205       5.97570964       5.94506920       0.39347700       0.76821606       0.32323703
O        4.09140254       6.11036163       6.08817320      -0.74104824      -0.15779400      -0.22505586
O        2.08345050       0.00721601       2.05458883      -0.18764142       0.34613502      -0.25477447
O        6.10326109       0.03670245       1.94669464      -0.43047415      -1.04792688       0.53519004
O        2.01575923       4.00712436       2.08916356       0.17164325       0.57794414      -0.62194266
O        6.02648439       3.99244352       1.96776134       0.21408290       1.03242390       0.05167506
O        1.97472052       0.01318879       6.08464820      -0.02558633      -0.27910765      -0.22136067
O        6.03017076      -0.02364930       6.06870566       0.47465444       0.69813730      -0.34396912
O        1.88795743       4.13569631       6.11635805       0.87415733      -0.85133751      -0.24494926
O        5.95380429       4.02938668       6.02565998       0.50960370      -1.03644125       0.29036445
O        2.10199392       1.96646657      -0.04775156      -0.02467668       0.26509719       0.96584210
O        6.15206025       1.89051646       0.00979072      -0.44911002       0.84206328      -0.45319987
O        2.00820477       6.03882048      -0.04589760      -0.18322787       0.23466150       0.26186197
O        5.97851782       6.06340502      -0.08621513       0.51438364      -0.14827063       1.55549530
O        2.02959815       1.97477177       4.05708349      -0.09436566       0.15099909       0.06465707
O        6.05430933       2.03362695       4.02778127       0.61812714      -0.34592496       0.25221596
O        2.09730452       5.96857023       4.05462358      -0.32870628       0.70840011      -0.72218688
O        5.92508779       6.08865606       4.04682182       0.35901985      -0.13420953      -1.71575653
40
Lattice="8.068094053620356 -4.38423541214265e-18 -5.299365615194938e-18 -1.6788496834586077e-17 8.068094053620356 1.6634455206828052e-17 -2.654045609411134e-17 -6.832089622168243e-17 8.06809405362036" Properties=species:S:1:pos:R:3:REF_forces:R:3 system=batio3_cubic base_model=mace_mp0 config_id=batio3_cubic_c06 T=100.0 draw=6 energy_qe_eV=-74137.19111489384 offset_eV=-73818.25979870005 split=train REF_energy=-318.9313161937898 mock=0 pbc="T T T"
Ba       0.00106167       0.02711836       0.05310717      -0.16682114       0.00725231      -0.16029620
Ba       4.04534140      -0.02108226      -0.02785503       0.13746223       0.27456991       0.38214358
Ba       0.01688106       3.96179078      -0.04405024       0.01547110       0.17263466       0.41732990
Ba       4.08884615       4.04110517      -0.02009770      -0.35552135      -0.24532078       0.03688710
Ba      -0.03887768       0.05732759       4.00592063       0.32412021      -0.27481905       0.04922583
Ba       4.09041196      -0.05346050       4.04077435      -0.53286242       0.39193845      -0.15251527
Ba      -0.07917245       4.06014566       4.07175857       0.80897910      -0.18393029      -0.28857419
Ba       4.03691115       4.05837705       4.00703836      -0.45948750      -0.03854186       0.28722385
Ti       2.02489239       2.06278954       2.04791892      -1.09309860      -0.55422006      -1.20113018
Ti       5.99534323       2.06729981       2.02247478       0.65399326      -1.08004973      -0.76678190
Ti       2.00720185       6.05340533       1.98121052      -0.96534768       0.59632598       0.82363439
Ti       6.06046001       6.01888128       2.05004822       0.14283609       1.57392574      -1.34662634
Ti       1.99940785       1.97967254       6.00153452      -0.55003456      -0.06084593       0.60221355
Ti       5.99563512       2.02295923       6.01687866      -0.08269850      -0.69158510       0.69143957
Ti       2.02685583       6.03146642       6.07236649       0.06491547      -0.12796818      -0.32352808
Ti       6.06245811       6.02019677       6.02807340       0.69543378       0.01741460       1.19072775
O        0.02211252       1.98462360       2.06794747       0.18310420       0.48501676       0.11228650
O        4.07420407       1.94780466       1.95462138      -0.47946086       0.35464229       0.54401535
O        0.06788970       5.98498708       2.02364193      -0.28313554      -0.01373715      -0.01461441
O        4.09891354       6.17443063       2.09103323      -0.38609922      -1.00855172      -0.46499943
O        0.06270423       2.02212707       6.01344867       0.07548527      -0.00046434       0.06976817
O        4.07355977       2.01050380       6.08677782      -0.34877426       0.44944117      -0.18576632
O       -0.11203313       6.08909408       6.07852041       0.29388069      -0.03177678      -0.29139032
O        4.03685027       6.01765720       6.14175862       0.07267043       0.11153188      -0.70235339
O        1.91960400       0.00911826       2.05861879       0.77543520      -0.30278339      -0.15580834
O        6.15003446      -0.03959591       2.00583195      -0.26283153      -0.26188511       0.28250150
O        2.00195613       4.02667940       2.10300468       0.68656733      -0.11417369      -0.23463270
O        6.10473661       3.96385921       1.99291816      -0.44848781       0.85859008       0.30035961
O        2.05009884      -0.01670269       6.15775194      -0.02640806       0.11849726      -0.58456653
O        6.05058830       0.14294780       6.05563681      -0.03362000      -1.23221199      -0.26085101
O        2.02016824       4.07278711       6.07862850       0.05604594       0.20068977      -0.24755867
O        6.14240021       4.00789256       6.14287427      -0.62103403       0.99452996      -0.75333143
O        1.99259695       2.03453582       0.05343626       0.27420224       0.13163560       0.30320865
O        6.06413349       1.96012714       0.01100089       0.00254205       0.50369608       0.12449024
O        1.96032702       6.00570258      -0.03347656       0.39519501       0.10662082       0.55098972
O        6.05290958       6.01447875       0.03951565      -0.09836578       0.13075114      -0.24591548
O        1.97420556       2.04571415       4.11395426       0.75570713      -0.13720383      -0.37810437
O        5.92752781       2.08675035       4.00909546       0.48246622      -0.09877047       0.29716476
O        1.98256201       6.07872097       4.00905056       0.28262517      -0.10693707       0.75126246
O        6.04600682       6.14545231       4.00619710       0.01495019      -0.91392742       0.94247180
40
Lattice="8.068094053620356 -4.38423541214265e-18 -5.299365615194938e-18 -1.6788496834586077e-17 8.068094053620356 1.6634455206828052e-17 -2.654045609411134e-17 -6.832089622168243e-17 8.06809405362036" Properties=species:S:1:pos:R:3:REF_forces:R:3 system=batio3_cubic base_model=mace_mp0 config_id=batio3_cubic_c07 T=100.0 draw=7 energy_qe_eV=-74136.99763542382 offset_eV=-73818.25979870005 split=valid REF_energy=-318.73783672376885 mock=0 pbc="T T T"
Ba      -0.00553433       0.04526847      -0.01521244       0.27336612      -0.53240656      -0.02148722
Ba       4.01422613      -0.03794636      -0.02581579       0.02730074      -0.02952475       0.31411759
Ba       0.06558747       3.95437860      -0.00711159      -0.44445015       0.62067922      -0.10033679
Ba       4.01570224       4.02705384       0.04760897       0.28925836       0.37845919      -0.24022974
Ba      -0.06250718       0.09839381       4.06355313       0.69116807      -0.57463204      -0.39091335
Ba       4.04643193       0.01155180       4.08591892      -0.30022077      -0.22834996      -0.62005392
Ba      -0.03857256       4.01122529       4.02670673       0.35011766       0.08229716      -0.22277966
Ba       4.05910877       4.03422242       4.09472615      -0.16596162       0.14435407      -0.71212950
Ti       2.03748711       1.99534092       1.99848612      -0.83729723      -0.87524414       0.78574584
Ti       6.01630576       2.03983235       1.99243190       0.27628432       0.42109708       0.16364017
Ti       2.07363919       6.00709431       2.02683530      -0.34807620       0.45506289      -0.19476775
Ti       6.10847908       6.11773921       2.00029240       0.20445567       0.05873325      -0.12321678
Ti       2.05965480       2.00766414       6.04627007      -1.40685931       0.18513048      -0.25787239
Ti       5.99258681       2.05340168       6.00235110       1.30393188      -0.04190538       0.58819127
Ti       1.99548751       6.01935353       5.98082876      -0.49790261       0.70242615       1.07627818
Ti       6.05191353       6.08394202       6.01597472       0.07728273       0.13329396       0.24553264
O        0.07228815       1.98225853       1.95092401      -0.47150895       0.09320660       0.28154891
O        4.06051857       2.04426048       2.03869070       0.49917762       0.05999052      -0.47758344
O       -0.02487381       6.06280416       2.04078754       0.55962811       0.07036929       0.13432266
O        4.09549757       6.08838455       1.99317179      -1.75448840      -0.58984372      -0.22692891
O        0.02205608       2.12080264       6.02251716       0.07570022      -0.58664244      -0.19406944
O        3.98718417       2.01005660       6.08013878       0.78500922      -0.04988454      -0.23479854
O        0.01038375       6.04229119       5.98783087      -0.72696528      -0.29398765      -0.15695454
O        4.06889016       6.11488232       6.24233223       0.32637866      -0.55174254      -1.15623126
O        2.02475554       0.06769607       2.03888757       0.28583494      -0.66434683      -0.48133494
O        5.99785409      -0.04984472       2.05547318       0.31519539       0.52114461      -0.65025436
O        1.95282612       4.02061296       1.96073995       0.68384505       0.98310834       0.19957134
O        6.10405260       3.96592360       2.09681293      -0.31214324      -0.72136104      -0.43448867
O        1.91984093      -0.11615759       6.00917481       0.59681449       1.28897218      -0.00824244
O        6.05984363       0.01929343       6.01774412      -0.06505868      -0.50877941       0.20071523
O        2.03788792       4.01409151       5.94736957       0.25955903      -0.07647361       0.29142092
O        6.04894930       4.00790269       5.89433841      -0.40725297      -0.09253709       0.53653858
O        2.05039028       1.99723091      -0.04930898       0.19139189       0.03893961      -0.28005947
O        6.20850342       1.95758511      -0.07700212      -1.26692034       0.45307106       0.35013514
O        1.93694135       6.06556518      -0.08776706       0.42549083      -0.35953381       1.01819953
O        6.10532814       5.95067570       0.03941057      -0.00359620       0.25642306      -0.72803254
O        2.04021334       1.98367869       3.98366165       0.16295369       0.26729317       0.44131932
O        6.05882368       1.89253793       3.99552669      -0.18742108       0.62741576       0.32179413
O        2.06661897       6.11531096       4.00432142       0.15847046      -0.69261945      -0.50264758
O        5.94546546       6.09922737       3.96841634       0.37750762      -0.37165296       1.46634153
40
Lattice="8.068094053620356 -4.38423541214265e-18 -5.299365615194938e-18 -1.6788496834586077e-17 8.068094053620356 1.6634455206828052e-17 -2.654045609411134e-17 -6.832089622168243e-17 8.06809405362036" Properties=species:S:1:pos:R:3:REF_forces:R:3 system=batio3_cubic base_model=mace_mp0 config_id=batio3_cubic_c08 T=100.0 draw=8 energy_qe_eV=-74137.07069091455 offset_eV=-73818.25979870005 split=train REF_energy=-318.81089221450384 mock=0 pbc="T T T"
Ba       0.00100963       0.01053112      -0.00520389       0.28541405       0.41981487      -0.02801063
Ba       4.09370716      -0.02562157       0.02838034      -0.69089476       0.10282999       0.09493181
Ba       0.01779610       4.06208346      -0.00321914      -0.07102364      -0.41394504      -0.38164581
Ba       4.05069454       4.02791435       0.00868876      -0.39601056       0.28610542       0.02100746
Ba       0.03871618      -0.05796616       4.06325108      -0.50279002       0.69635321      -0.31036918
Ba       3.98071591      -0.04079580       4.07988597       0.45838039       0.33299411      -0.61796927
Ba       0.02183248       3.97520954       3.95527653      -0.44323119      -0.02275503       0.60615403
Ba       4.00837145       4.10754642       4.10445661       0.42963674      -0.47854092      -0.64662627
Ti       2.07636577       2.04015257       2.04361524      -0.34064597      -0.27934290      -0.63227103
Ti       5.99806904       2.05474513       2.02809770       1.14315309      -0.93263142       0.83539281
Ti       1.91588809       6.02242699       1.98023771       1.52649583       0.77622376      -1.18067140
Ti       6.03586093       6.05376317       2.00103761      -1.52083066       0.03174001       0.97710868
Ti       2.05646959       2.01834619       6.07225340      -0.47150998      -0.22210912       0.14605897
Ti       6.00452445       2.03778875       6.07332282       0.69973550      -0.04221109      -0.11181445
Ti       2.02849202       6.02240595       5.97437190      -0.54651060      -0.24167778       0.97691790
Ti       6.02718265       6.09393179       6.09546995       0.59980083      -0.47354784      -0.84169176
O       -0.08124050       1.98516852       1.89311347       0.62081780       0.64565954       0.69723870
O        4.01833140       1.96506494       2.05365457      -0.86238580       0.23529682      -0.40557018
O        0.09955281       6.08112902       1.92986310      -1.42366456      -0.49200887       0.66986313
O        4.05684067       5.99000534       1.95374090       0.92329266       0.54686979       0.28471317
O       -0.03026586       1.99379470       6.03086758      -0.14533803       0.43111692      -0.00712993
O        4.02362005       2.03220118       6.04808331      -0.32162007      -0.11730838       0.01759174
O        0.01110474       6.05577627       5.99004228      -0.46005135      -0.06261793       0.24952633
O        4.00803781       5.99425822       5.97318981       0.48896263       0.77618211       0.68886230
O        1.99977555      -0.07212975       1.91727948       0.23864131       0.66388506       0.75002216
O        6.10620948       0.12664918       2.00613339      -0.51665367      -1.15717974      -0.31062911
O        2.00267970       4.01499149       1.95634482      -0.04118650      -0.31758446       0.69952004
O        5.96764607       4.06410966       1.99513207       0.72543521       0.62222856      -0.03747229
O        1.98957378       0.04285932       5.97168918       0.34802607      -0.01888861       0.58834271
O        6.01062112       0.02526437       5.91398673      -0.10869879      -0.21385510       0.93157495
O        2.03087311       4.06162938       6.05637988      -0.22121283      -0.20697689      -0.09896690
O        5.94067468       4.10924884       6.08632927       0.63568006       0.10054196      -0.31819433
O        2.01214320       2.12172940       0.03319828       0.26540110      -0.63937294      -0.42588730
O        5.96948810       2.09690305      -0.07907502       0.05092250      -0.35450782      -0.26437265
O        2.01899753       6.04912537       0.00306810       0.08217811      -0.06825713      -0.25972873
O        6.11065678       6.15857253       0.02943491      -0.20519769      -0.14568333      -0.74202706
O        2.06010627       2.03156942       4.07219138      -0.36511053       0.15930478      -0.83812975
O        5.97300217       2.04804832       3.97054097       0.28968671       0.44932059       0.30080519
O        2.05080911       5.99251146       4.07561108      -0.33638411       0.23414702      -0.64784652
O        6.06125902       6.16286316       3.99379186       0.17929099      -0.60961242      -0.42860727
40
Lattice="8.068094053620356 -4.38423541214265e-18 -5.299365615194938e-18 -1.6788496834586077e-17 8.068094053620356 1.6634455206828052e-17 -2.654045609411134e-17 -6.832089622168243e-17 8.06809405362036" Properties=species:S:1:pos:R:3:REF_forces:R:3 system=batio3_cubic base_model=mace_mp0 config_id=batio3_cubic_c09 T=100.0 draw=9 energy_qe_eV=-74137.27152861487 offset_eV=-73818.25979870005 split=train REF_energy=-319.011729914826 mock=0 pbc="T T T"
Ba      -0.01425936       0.02694311       0.01423909      -0.07318979      -0.20254919       0.07981887
Ba       4.02194715      -0.00918074      -0.04969910       0.31428471       0.42111944       0.52658532
Ba      -0.00481218       4.08927791       0.03360643      -0.02414652      -0.25076869      -0.16162597
Ba       3.97966163       4.00203811      -0.04097761       0.44038472      -0.06608301       0.27714692
Ba       0.00155842      -0.01001323       3.99521600       0.18290648      -0.25087693      -0.01632702
Ba       4.09962797      -0.01260039       4.04991808      -0.37783184       0.14640016      -0.34722028
Ba      -0.03609672       4.02824187       4.06018571       0.54720943       0.44134271      -0.15287162
Ba       4.02242571       3.97548677       4.08529977      -0.08228610       0.38880556      -0.30654595
Ti       1.94774449       2.00730003       2.03534400       0.91505047       0.49675950      -0.11931564
Ti       6.02421849       2.02948718       2.05663724      -1.46891829      -0.90562224      -0.89114616
Ti       2.10062553       6.05926343       2.07158350      -0.03202000      -0.07852895       0.37944855
Ti       6.09504089       5.98524040       1.98939352       0.11550141       1.13283988       0.25284280
Ti       2.00285707       2.04634283       6.06817306       1.01339003       0.41377200       0.12592646
Ti       6.12852102       2.07234608       6.03079930      -0.82591058       0.61270957       1.38788354
Ti       2.04292881       6.09362574       6.11480777       0.12342504      -0.12703152      -0.45903010
Ti       6.07386673       6.14162717       6.02043897       0.36583738      -0.44583752       0.32209726
O        0.05485970       1.90995620       1.94480494      -0.67982384       0.32655890       0.56390514
O        4.05737673       2.08936136       1.97341147       0.78928702      -0.07762083       0.20950068
O        0.00160589       6.10095967       2.06592085       0.01944525       0.02864312      -0.51663593
O        4.02225256       6.07239376       1.93889922      -0.60748946      -0.58663678       0.35810633
O        0.00724099       2.05984083       6.09036422       0.06136221      -0.16697438      -0.46387740
O        4.00940350       2.05812288       6.07275907      -0.08798624      -0.61333229      -0.26211188
O       -0.08809248       5.98280969       5.99333746       0.63594617       0.30720749       0.29114581
O        4.06232162       6.05461628       6.10396046      -0.45334437       0.21845764      -0.46155133
O        2.11430846      -0.05066206       1.98130649      -0.39161424       0.15468682       0.12940157
O        5.93688815      -0.04436631       1.96228022       0.64079244       1.31162848       0.24229716
O        1.94973113       4.01288105       2.03855711       0.16653961      -0.11805554      -0.00682525
O        6.11954065       4.13466805       2.12556582      -0.11043145      -1.51564963      -0.85814913
O        1.99391638      -0.00644928       6.00145637      -0.11690292      -0.79330822       0.45796849
O        6.15891779       0.06296698       6.03486004      -0.47166039      -0.97361249      -0.31012878
O        2.07236638       3.97702004       6.03595889      -0.50227323       0.33482885       0.00911276
O        6.05787819       3.96578823       5.97847978      -0.04648709       0.32057080       0.08243162
O        1.98682666       2.01112668       0.02372880       0.10324779      -0.14237767      -0.49523355
O        5.97863114       2.06226351      -0.04366312       0.71830323      -0.01286734       0.17387676
O        2.00526906       5.91670937      -0.02924402      -0.21468094       0.79283540      -0.62383344
O        6.05569130       6.04603142      -0.03571385       0.16372631      -0.10172878      -0.41217149
O        2.14063851       2.00823822       4.01163878      -0.94623975      -0.28628694      -0.07298462
O        6.03480167       2.07534319       3.96071129       0.37379649      -0.53978228       0.06596422
O        2.00881990       6.04367855       4.05785607       0.27886545      -0.01552484      -0.22448507
O        6.07830038       6.04519217       3.95067407      -0.45606408       0.42188975       1.22661058
40
Lattice="8.068094053620356 -4.38423541214265e-18 -5.299365615194938e-18 -1.6788496834586077e-17 8.068094053620356 1.6634455206828052e-17 -2.654045609411134e-17 -6.832089622168243e-17 8.06809405362036" Properties=species:S:1:pos:R:3:REF_forces:R:3 system=batio3_cubic base_model=mace_mp0 config_id=batio3_cubic_c10 T=100.0 draw=10 energy_qe_eV=-74136.883599589 offset_eV=-73818.25979870005 split=train REF_energy=-318.6238008889486 mock=0 pbc="T T T"
Ba      -0.01177116      -0.02401875      -0.06522127      -0.23247863       0.22763133       0.75175046
Ba       4.03380092      -0.01245923       0.08453386       0.38637304      -0.14876249      -0.24603580
Ba       0.03291648       4.11841003      -0.01936347      -0.38225928      -0.64461516      -0.03701180
Ba       4.05078879       4.05792736      -0.05699611       0.21314651       0.02212383       0.16152390
Ba       0.00707983       0.02904447       4.00621136      -0.12352711      -0.42980746      -0.12139798
Ba       4.02021503      -0.00233455       4.06980613      -0.01356540      -0.34114759      -0.22726906
Ba      -0.05810085       3.94970743       4.00130850       0.60342634       0.58943080       0.52052189
Ba       4.05211303       4.09360088       4.06932486      -0.33335895      -0.23917944       0.01608765
Ti       2.05590820       2.00994606       2.05626669       0.36627679      -0.51296439       0.41418184
Ti       6.08089882       2.05300293       2.05645989      -0.11897137      -2.23037877      -1.63520001
Ti       1.98424056       5.97508474       2.03770939       0.17380914       0.70354304      -0.57003285
Ti       6.02836364       5.94734372       2.03478199      -0.24741391       1.80014219      -0.85195303
Ti       2.05644183       2.02502899       6.11126033       0.06841217      -0.12639826      -0.39955046
Ti       6.07844406       1.97944823       5.99235869       0.20791071      -0.31936932       1.17771874
Ti       2.01689703       6.05859374       6.04695123       1.47194962       0.07433625       0.02713414
Ti       6.12770466       6.03741876       6.01594607      -1.26537768       0.06016356       0.71095399
O       -0.06401642       2.04912526       2.12474933      -0.06177744       0.05972673      -0.34842382
O        4.02575000       2.01747339       2.12409444      -0.95351469       0.38720454      -0.30600653
O       -0.02304081       6.03158084       1.89327358       0.89022416      -0.04045502       0.72953664
O        4.04415403       5.93728017       1.92993106      -0.47523397       0.36605284       0.81705622
O       -0.02865503       2.01867945       6.11193563       0.06000055       0.05917625      -0.41565971
O        4.02633695       2.04176918       6.01341328      -0.71035775       0.02223233       0.34475588
O       -0.10456802       6.04215313       6.06614029       1.51398587       0.13234445      -0.13842382
O        4.03183669       5.99903949       6.01237949      -0.51901291       0.28628437       0.00725488
O        1.96064467      -0.01489354       2.05751040       0.33549939       0.80720504      -0.20800430
O        5.96908216       0.03979966       2.00138952       0.47958890       0.55192483       0.17835203
O        2.04979583       4.01693989       2.01697339      -0.42151308       0.02391769       0.26361058
O        6.11103962       4.11049883       2.00478345      -0.31429808      -1.80817792       0.43919738
O        2.10287783      -0.03830985       6.05783302      -0.67282530       0.61453685       0.22209883
O        6.13276459      -0.01558836       6.04589881      -0.53280199       0.17333992       0.12329262
O        2.00504004       4.10229412       6.07762631      -0.16688568      -0.47909191      -0.17252205
O        6.08812169       4.07911036       6.01713756      -0.12183995      -0.66680095      -0.24276793
O        1.99082708       2.09945462      -0.01430587       0.10200080      -0.48802623       0.28849372
O        6.04037329       2.00121726       0.02055369      -0.15009792       0.41455362       0.46550286
O        2.11393553       6.12455293       0.04160746      -0.82320013      -0.48130486      -0.36683317
O        6.01433382       6.03292712       0.02414591       0.15547898       0.06820520      -0.74874921
O        1.87425334       1.98465773       4.08101885       0.67245198       0.41091062      -0.35061028
O        5.91687810       1.80365197       4.11676752       0.91584160       1.61229277      -0.57442867
O        1.98721011       6.09870165       4.05885440      -0.20867253      -0.51274688      -0.31142821
O        6.02618404       6.04432654       3.95965027       0.23260719       0.00194735       0.61328472
40
Lattice="8.068094053620356 -4.38423541214265e-18 -5.299365615194938e-18 -1.6788496834586077e-17 8.068094053620356 1.6634455206828052e-17 -2.654045609411134e-17 -6.832089622168243e-17 8.06809405362036" Properties=species:S:1:pos:R:3:REF_forces:R:3 system=batio3_cubic base_model=mace_mp0 config_id=batio3_cubic_c11 T=100.0 draw=11 energy_qe_eV=-74137.12433271555 offset_eV=-73818.25979870005 split=train REF_energy=-318.86453401550534 mock=0 pbc="T T T"
Ba       0.03152565       0.00899543       0.01276960      -0.49398425      -0.15318453      -0.00788377
Ba       4.06629536       0.01346177      -0.02886917      -0.21914078      -0.05137038       0.53477095
Ba       0.05148890       4.08850482      -0.02216333      -0.38756038      -0.13615971       0.34765377
Ba       3.99568676       4.05346346      -0.00752292       0.13599593      -0.17341345       0.05420451
Ba       0.03162356      -0.01990165       4.00185122      -0.54968489       0.09867714       0.29460060
Ba       4.01332997      -0.01877204       4.09573041       0.37955602       0.28646409      -0.25550003
Ba       0.01481995       3.99439014       4.00106235      -0.14829737       0.39957103       0.37088343
Ba       4.05227812       4.00022523       3.97198396      -0.31625392      -0.00572379       0.50559175
Ti       1.96939631       2.02262987       2.00921229       0.08314922       0.32984888       0.25739879
Ti       6.01532147       2.02935930       2.02446887      -0.55205956      -0.62582296      -0.13968366
Ti       2.02683553       6.08963534       2.09767463      -0.17931156      -0.99873757      -0.31490666
Ti       5.99729565       6.00220001       2.01935264       0.20184291       0.85806609       0.01580920
Ti       1.99904192       1.97689140       6.07645383       0.33445450       0.23307153      -0.88067045
Ti       6.05129163       2.06919618       6.06034141       0.06204766      -0.09170996      -0.29443425
Ti       2.01467842       6.01325728       6.08832216      -0.22000390       0.08828731       0.27366308
Ti       6.01622289       6.06631798       6.06992514      -0.22803268       0.49775323      -0.43216645
O        0.04901248       2.19509320       2.10499219      -0.24551953      -0.60894059      -0.63293284
O        4.06707031       2.00586673       1.94695953       0.28953193       0.06233125       0.63992109
O       -0.00717723       6.07176184       2.03902618       1.13083802      -0.23327825       0.02700173
O        4.08942956       6.13200066       2.05106961      -1.05185450      -0.05499641      -0.01015380
O       -0.04257986       1.94596520       5.96824654      -0.60446661       0.25200411       0.85628354
O        3.97837821       2.01248571       6.11224765      -0.19999095      -0.01900842      -0.19684160
O        0.03210665       6.07172529       6.07534253      -0.46206838      -0.09929189      -0.02339035
O        4.04420897       6.06710227       6.12651369      -0.58845661      -0.35493668      -0.34241618
O        1.97025373       0.12093169       2.03284383       0.16591380      -1.13534619       0.13956256
O        6.06067709      -0.05162536       1.97874009       0.33216107       0.68999050       0.41633719
O        2.18003105       4.07986428       2.01328633      -0.72845883       0.93497241       0.07129335
O        5.99901322       4.05773118       2.10816355       0.18037934      -0.47471795      -0.59298098
O        1.98471094      -0.01150139       6.03892063       0.10726360       0.33181963       0.15089573
O        5.91016440      -0.04801375       6.17489787       0.77613043      -0.03126127      -0.74972751
O        1.87236436       3.99254653       6.02389689       0.65992865       0.55587713       0.44078118
O        5.87375690       4.00419944       5.93460654       1.07031245      -0.73001486       1.02506489
O        1.93735647       2.06447776       0.07011375       0.04124872      -0.14636622      -0.79022393
O        6.00838319       1.96907518       0.05701266       0.71604940       0.67755613      -0.60636614
O        2.00107215       6.07096277      -0.01485352       0.18090385      -0.01744031       0.27982935
O        5.96586436       6.01117622       0.03206413       0.66699224      -0.46473410      -0.24060615
O        1.97579180       2.07692059       4.06810103       0.47744614      -0.41508944       0.11909787
O        6.09925276       1.96769219       4.02953340      -0.55581748      -0.13690996       0.25316907
O        2.11247776       6.06445670       4.06896466      -0.38881328       0.08636156      -0.86710480
O        6.02732948       5.95448384       4.07725978       0.12762879       0.77580313       0.30417616
40
Lattice="8.068094053620356 -4.38423541214265e-18 -5.299365615194938e-18 -1.6788496834586077e-17 8.068094053620356 1.6634455206828052e-17 -2.654045609411134e-17 -6.832089622168243e-17 8.06809405362036" Properties=species:S:1:pos:R:3:REF_forces:R:3 system=batio3_cubic base_model=mace_mp0 config_id=batio3_cubic_c12 T=100.0 draw=12 energy_qe_eV=-74137.02354324635 offset_eV=-73818.25979870005 split=train REF_energy=-318.7637445463042 mock=0 pbc="T T T"
Ba       0.00856380       0.05599709      -0.02204696      -0.04782715      -0.47487478       0.48411096
Ba       4.07880579      -0.03936771       0.00449487      -0.07353869       0.19830867      -0.35129445
Ba      -0.01657199       4.06792152      -0.02927105       0.09066353      -0.10651309       0.50638160
Ba       4.04430883       3.99384375       0.02267390       0.09107413       0.13362949      -0.39093726
Ba      -0.06365701      -0.03109744       4.10479782       0.75317048       0.26582790      -0.81608563
Ba       4.04998242       0.01515432       4.08220920      -0.24285869       0.10323648      -0.04432865
Ba      -0.04837910       4.05030587       3.99053556       0.53621128      -0.33853587      -0.13804639
Ba       4.00460277       4.07055531       4.04848019      -0.01182502      -0.61928825      -0.03051180
Ti       2.06170399       1.96076999       2.00725664      -0.76539247       0.94494032       0.48356100
Ti       6.03444175       2.03625981       2.03123628       0.84128244      -0.33368342      -0.71776973
Ti       2.07547549       6.08174676       2.03996791      -0.14176909      -0.67170379      -0.55176260
Ti       6.05748665       6.02516176       2.07186212       0.58899885       1.02176257      -0.91548088
Ti       2.02242908       2.02745086       6.08616249       1.18784760      -0.73134310      -0.72730723
Ti       6.15790087       1.98468511       6.00647322      -1.47362855       1.12840704       0.76930261
Ti       1.96220501       5.97148810       6.04458984       0.56680329       0.87481142       0.63171670
Ti       6.02882338       6.04232874       6.04231733      -1.01684199      -1.02173660       1.03125919
O        0.00107296       2.03271123       2.02063116      -0.29134224      -0.19632095       0.28309620
O        4.01475247       2.02930892       2.04279981       0.14961275      -0.36482437      -0.22012783
O       -0.06863884       6.09367038       1.94114087       0.09548511      -0.36077977       0.76455249
O        4.03361152       6.09491605       1.91481766      -0.47928191      -0.26332210       0.57136983
O       -0.00118839       2.10240675       6.04189806       0.14820816      -0.77993412      -0.15520593
O        4.08251326       2.01292715       6.05151899      -0.29683103       0.22854793       0.19109441
O        0.09740596       6.04973563       5.96257194      -0.58727956       0.11448505       0.07890124
O        4.07431973       5.92354827       5.93639115       0.44685516       0.56758131       0.75803886
O        2.02386237       0.05399623       1.88247251       0.05723481      -1.14496906       0.68394301
O        6.06142967      -0.02431262       2.04726844      -0.21033192      -0.10150047       0.15963105
O        2.05572359       3.98840038       1.90825511      -0.12531634       1.06986636       0.71542694
O        6.02163410       3.94757329       1.96371420      -0.01707161       1.32806966       0.46250058
O        2.19092272      -0.03014180       5.98680452      -0.98174746       0.65240277       0.49670114
O        6.10317795      -0.05751236       6.06066950       0.08675802       0.96855256      -0.34825567
O        2.01559977       4.05803904       5.96070757       0.01912207      -0.71534621       0.38604060
O        6.14280542       4.05642327       6.10279304      -0.06158332      -0.18518242      -0.44610054
O        1.96810406       1.99552288       0.01205366       0.29136255       0.18571181      -1.09141684
O        6.12346824       2.07907068       0.01589568      -0.40537838      -0.74553944      -0.31138887
O        1.97311750       6.00831094      -0.03493075       0.31002696       0.24771165      -0.06065695
O        6.06713248       6.10438821      -0.03517609      -0.11598555      -0.34214030      -0.02841403
O        1.99264615       1.99963691       4.05564061       0.01999007      -0.03124430      -0.03090929
O        5.99620539       2.09224096       4.02496450       0.50825156      -0.47843550       0.58222605
O        2.03644287       6.07773964       4.01560340      -0.11991188      -0.04344367      -1.47847893
O        5.96566558       6.01414475       4.06664273       0.67678403       0.01680859      -1.18537575
40
Lattice="8.068094053620356 -4.38423541214265e-18 -5.299365615194938e-18 -1.6788496834586077e-17 8.068094053620356 1.6634455206828052e-17 -2.654045609411134e-17 -6.832089622168243e-17 8.06809405362036" Properties=species:S:1:pos:R:3:REF_forces:R:3 system=batio3_cubic base_model=mace_mp0 config_id=batio3_cubic_c13 T=300.0 draw=0 energy_qe_eV=-74137.01494444905 offset_eV=-73818.25979870005 split=train REF_energy=-318.75514574900444 mock=0 pbc="T T T"
Ba      -0.06813592       0.00545433       0.07694230       0.56297492      -0.22348234      -0.49357133
Ba       4.08465385       0.02351273      -0.00577142      -0.51738772      -0.15437263      -0.18977390
Ba       0.06843398       4.05378991       0.02040920      -0.13001709      -0.13835260      -0.20505242
Ba       4.07733271       4.04510756      -0.05343756      -0.45096378      -0.37475346      -0.06732202
Ba       0.00067728      -0.01702147       3.95963958      -0.25623074      -0.54733670       0.36237179
Ba       3.91442282       0.09384414       4.02899680       0.87219764      -0.89842521       0.40786258
Ba       0.03490333       4.02361992       4.02240076      -0.05114953       0.40910185       0.16024066
Ba       4.05685548       4.03217369       4.10280037      -0.35125717       0.19991407      -0.00518026
Ti       2.04149690       1.95787449       2.14276008      -0.07958310       0.73644648      -1.09414966
Ti       6.08670214       2.03897533       1.96140648      -0.37917987      -0.08602757      -0.22308279
Ti       2.05506436       6.03574698       2.02353526      -0.76926095      -1.17021704       0.99152434
Ti       5.98846565       6.03863956       1.99188287       0.50867759       0.16822677       0.71432136
Ti       1.98149140       1.93099771       6.15157711       1.10271015       1.54036307       0.55170037
Ti       6.11883574       1.93256355       5.97287338      -0.52428650       0.29584527       0.37917987
Ti       1.98577714       6.06970337       6.11628464       0.65892566      -0.48148740      -0.78241215
Ti       6.06442912       6.03809732       6.07505626      -0.34770828      -0.47296548      -0.27298894
O        0.05155262       1.99532176       2.01644765      -1.32996302       0.24111754      -0.25753455
O        4.06275248       2.10206993       2.13213087       0.30272246      -0.52402013      -0.44117508
O        0.04184539       6.00276694       1.92099445      -0.18684181       0.44435450       0.29419694
O        4.00576471       6.02424788       1.90980028       0.83505523       0.34351070       0.10898289
O       -0.08709487       1.97199377       6.01188789       0.75910870      -0.11940563       0.36945981
O        3.92681673       2.02966378       5.94899184      -0.49942136      -0.46092244       0.31641512
O        0.00900151       6.10665917       6.03160226      -0.91847441      -0.23798337      -0.07951214
O        3.97738234       6.04098833       6.09318426       0.79734768       0.11615653      -0.27561892
O        2.02909515       0.00270859       1.96666103       0.17847775       0.37765417       0.20810689
O        6.07906018      -0.04593028       1.96923723      -0.26808893       0.53693247       0.51545322
O        2.04259607       4.11578643       2.05111587      -0.01644040      -0.50481657      -0.36925669
O        6.07375855       4.06705559       1.97966935       0.03366397      -1.13899382      -0.25962511
O        1.97525234      -0.05966130       6.01860813      -0.03952994       0.88141916       0.08742908
O        5.90769877       0.04893395       6.06645932       0.54693638      -1.01325350      -0.48938095
O        2.01771612       3.92561580       6.00898125      -0.62802306       0.15797141       0.10996711
O        6.00995017       4.04002261       6.07113110       0.31651283       0.59035871       0.15104203
O        1.98442356       2.03055870       0.01099744       0.11470874      -0.31625854      -0.74946706
O        5.98651352       1.84775056      -0.06582432       0.27663142       1.17447555       1.89845141
O        2.04139531       5.97716945      -0.12553714      -0.26786344       0.26626936       1.09930190
O        6.10576024       6.12883246      -0.04334502      -0.36700338      -0.50024334       0.02263574
O        1.86799085       2.02762709       3.95212254       0.53805039      -0.53123645       0.32872377
O        6.09627034       1.94596858       4.11410031      -0.17745548       0.31949968      -1.67543649
O        2.03271856       6.02050709       4.01902670       0.01965300       0.41659353      -0.86085316
O        6.01060526       5.95489670       3.99928820       0.13177521       0.67834366      -0.28597223
40
Lattice="8.068094053620356 -4.38423541214265e-18 -5.299365615194938e-18 -1.6788496834586077e-17 8.068094053620356 1.6634455206828052e-17 -2.654045609411134e-17 -6.832089622168243e-17 8.06809405362036" Properties=species:S:1:pos:R:3:REF_forces:R:3 system=batio3_cubic base_model=mace_mp0 config_id=batio3_cubic_c14 T=300.0 draw=1 energy_qe_eV=-74136.37484222268 offset_eV=-73818.25979870005 split=train REF_energy=-318.11504352263 mock=0 pbc="T T T"
Ba       0.09684996      -0.06592667       0.12036843      -0.59572023      -0.08449468      -0.25768650
Ba       3.94996623       0.12867347      -0.02977191       0.55935172      -0.54509418       0.44101515
Ba       0.04460246       4.04379986      -0.00949570      -0.23673098       0.09069824       0.51822050
Ba       4.12196885       4.11311008      -0.11981836      -0.62027709      -0.77100210       0.92077786
Ba      -0.12818511      -0.07497732       3.98524617       0.84013290       0.26193293       0.13120751
Ba       3.92916946      -0.02591145       4.15370615       0.45192152       0.20204886      -0.58106777
Ba       0.03236225       4.09000228       3.96870802      -0.34085860      -0.22609716       0.04610348
Ba       4.11575158       3.99258319       4.03505238      -0.36809327      -0.04582477      -0.14145695
Ti       1.91797938       2.04492991       2.02152036       1.11500722      -0.86839781      -0.42790716
Ti       6.04200088       2.02756529       1.94356414      -1.47331230       0.48883022      -0.21733664
Ti       2.05221046       5.97619302       2.11660693      -1.22400683       0.29754143      -0.23910411
Ti       5.93292498       6.11219078       2.08699035       0.74340491      -0.74557004      -0.97449284
Ti       1.93892104       1.99561605       5.97570086       0.03692310       0.86112878      -0.05815964
Ti       6.12650960       2.00659235       6.01307126      -1.07486227      -0.50071000      -0.81330961
Ti       2.00561833       6.02684430       6.12291326       0.64808075      -0.69410375      -0.19258900
Ti       6.11054718       5.99520719       6.07844979      -0.18129440       0.57899649       1.24667162
O        0.08636365       1.99708105       1.99139071      -1.35302761       0.48760483       0.38216337
O        4.08114277       2.15881496       1.86123543       0.79766779      -0.78531801       0.90902509
O        0.11156208       5.98590815       2.07047118       0.14163924       0.45794715      -0.43492704
O        4.11384427       6.06440483       2.07478559      -1.14803896       0.29327211      -0.18814125
O        0.08287741       1.97434681       5.82810281      -0.76267919       0.16149536       1.33955657
O        4.10444951       2.04716289       6.10018928      -0.27604366      -0.33582952      -0.21629688
O       -0.05521103       5.83303821       5.98803800       0.28415112       1.26652773       0.36205426
O        3.99843707       5.94041665       6.05140009      -0.36811152       0.71687807      -0.38989108
O        1.97596213       0.05498363       2.17412812       0.68236435       0.04039177      -0.15660666
O        6.08151828      -0.00028356       1.96295959      -0.05903459       0.47196070      -0.13753576
O        2.08206480       4.09722314       1.99724208      -0.01829108      -0.28464452       0.08244602
O        6.04879966       4.09524208       2.05134519       0.42154728      -1.00439194       0.17332089
O        1.91168744      -0.04479097       6.01966976       0.43143060       0.33354021       0.11198106
O        6.08323901      -0.05663632       6.11868221       0.10182905       0.31713580      -0.04191567
O        1.93864360       4.03265368       6.18642529       0.41231290      -0.55899537      -0.34344410
O        6.08731262       4.05757320       5.94166731      -0.03907151      -1.05273536       0.15424511
O        1.94552980       1.88261656       0.09915982       0.03069023       0.58732224      -1.23868911
O        6.11577644       1.99876045       0.06997195       0.55051355       0.30346011      -0.86850039
O        2.04602697       6.04528895       0.06459219      -0.02274578       0.49610155      -0.97395599
O        5.99843046       5.87776443      -0.04070004       0.63580219       0.91669649      -0.81993225
O        1.94973419       2.21787516       4.00820571       1.04498760      -0.73936519       1.07748274
O        6.03769346       1.92061535       4.10374506       0.05224867       0.23973994      -0.00753308
O        2.01344166       6.01996491       4.07355619       0.32166403      -0.13732159       0.18480575
O        6.05169394       6.18258207       3.90238404      -0.14146981      -0.49135478       1.63940274
40
Lattice="8.068094053620356 -4.38423541214265e-18 -5.299365615194938e-18 -1.6788496834586077e-17 8.068094053620356 1.6634455206828052e-17 -2.654045609411134e-17 -6.832089622168243e-17 8.06809405362036" Properties=species:S:1:pos:R:3:REF_forces:R:3 system=batio3_cubic base_model=mace_mp0 config_id=batio3_cubic_c15 T=300.0 draw=2 energy_qe_eV=-74135.90326308984 offset_eV=-73818.25979870005 split=train REF_energy=-317.64346438979555 mock=0 pbc="T T T"
Ba      -0.07996840       0.11035675       0.01971604       1.16195505      -0.78358508      -0.47953645
Ba       4.06507553       0.02999435       0.07452304      -0.10568134      -0.22053123      -0.40430494
Ba      -0.05599553       4.15306221      -0.09909449       1.29892749      -0.78127675       0.66267767
Ba       4.01599810       3.97739891      -0.02875902      -0.06569169       0.23523768       0.40687013
Ba      -0.07434446       0.03316751       3.95141180       0.87833358      -0.32508540       0.79929272
Ba       4.12732344      -0.03320764       3.98025553      -0.39654278       0.10702808       0.48301875
Ba      -0.06837796       3.99904285       4.08220931       1.15619964       0.15111119      -0.01931901
Ba       3.86587311       3.93122052       4.10068419       1.42494214       0.64456554      -0.64540731
Ti       2.00930183       1.96225864       2.00057392       0.42108499       1.29760131      -0.96510985
Ti       6.10648527       2.15416513       2.07907147      -1.83578745      -0.96802214      -0.78891189
Ti       2.05146231       6.01587461       2.04500987      -0.25653516      -1.53600248      -1.43076723
Ti       6.15203736       6.04430235       2.04316463      -1.65035152       0.42887646      -0.57485933
Ti       2.11494579       1.98332805       5.98804637      -0.83479323      -0.69199879       1.17918376
Ti       6.13217059       1.96048521       6.04792276      -0.00814346      -0.11004064       1.44933394
Ti       2.03028897       6.01986599       5.99861533      -0.60251900       1.37545792       1.31331770
Ti       6.03831136       5.97550529       6.07672837       0.11628740       0.88923223      -0.20800533
O        0.16276567       1.95714382       1.93014848      -1.28297174       0.76933629       0.60779336
O        4.20895013       2.06364197       2.05032517      -0.20270577       0.40514827      -0.12249121
O        0.12525918       6.04323218       2.01307395      -0.41495522       0.59192503       0.57778756
O        4.24365329       6.06272517       2.08278366      -0.75816793      -0.07730304      -0.07887347
O        0.13590031       1.96902850       6.09676059      -1.90979435       0.25501795      -0.63670027
O        4.02774663       1.92776466       6.04303936       1.47853807      -0.09937828      -0.37939224
O        0.06281531       6.09841253       6.10879901      -0.29090490      -0.99164029      -0.53759170
O        4.01693669       6.02795490       6.14962497       1.33187180      -0.06834481      -0.48415981
O        2.12830563       0.19746401       2.07369747       0.14870207      -2.24257968      -0.00624341
O        5.93837184       0.06080862       2.12360491       1.65330341      -0.75680679       0.01199240
O        2.07531502       4.15035101       1.96829990       0.13839348       0.17772519       0.53077417
O        6.09621260       4.05810134       1.96189890       0.75022168      -0.12479158      -0.12127559
O        1.96885717      -0.03654080       6.13016445       0.58881193      -0.42310614      -0.79385021
O        6.18146010      -0.06238190       6.00209543      -0.71122730       0.31351929      -0.41686478
O        2.09947781       3.91736497       6.03659631      -0.41665884       1.45332789      -0.00554201
O        6.07693921       3.92890939       6.20965897      -0.07674537       0.78437775      -0.70912645
O        2.15095286       2.10022182      -0.03722156      -0.15000176      -0.44582209       1.11858388
O        6.11100150       1.90659015      -0.05614264      -0.10061961       0.48572612      -0.30402781
O        2.02254502       6.04899342       0.00882563       0.46684626       0.10372242       0.70117223
O        6.18146896       6.17578867       0.05434469      -0.34556861      -0.64821650      -0.20695529
O        2.08465502       2.07434712       4.05180279      -0.29653407      -0.45109594      -0.62115693
O        6.12172792       2.13672105       3.97383141       0.36766621      -0.37337997       0.89324957
O        2.10926634       5.96358247       4.04951914      -0.20364680       0.70638797      -0.08947619
O        6.18894303       5.82260255       4.10934940      -0.46553757       0.94368279       0.29490142
40
Lattice="8.068094053620356 -4.38423541214265e-18 -5.299365615194938e-18 -1.6788496834586077e-17 8.068094053620356 1.6634455206828052e-17 -2.654045609411134e-17 -6.832089622168243e-17 8.06809405362036" Properties=species:S:1:pos:R:3:REF_forces:R:3 system=batio3_cubic base_model=mace_mp0 config_id=batio3_cubic_c16 T=300.0 draw=3 energy_qe_eV=-74136.38370905211 offset_eV=-73818.25979870005 split=train REF_energy=-318.12391035206383 mock=0 pbc="T T T"
Ba       0.01510786      -0.10220415       0.09127415      -0.76657261       1.04916204      -0.49158104
Ba       3.91084690      -0.05468339       0.02376629       0.96746267       0.40608415      -0.30582578
Ba       0.10645425       4.07717718      -0.01422998      -0.83918365      -0.38855848      -0.20342363
Ba       4.03501988       4.06877042       0.09915499      -0.03969038      -0.27830212      -1.03054211
Ba      -0.05592194       0.10873512       3.97330199       0.08133736      -0.49274549       0.17857340
Ba       4.23301408      -0.05508165       3.97034607      -1.23043304       0.92112008       0.29785382
Ba       0.02566033       3.94028259       4.00366814      -0.58692552       0.54138537       0.11072430
Ba       4.00994136       4.05771644       4.07329748       0.35975133      -0.19858738       0.16110738
Ti       2.01119860       2.07775605       2.01076250       0.36129373       0.29955434       0.16747857
Ti       5.99051502       2.00503457       1.95775567       0.90290612      -0.47241758       0.65088042
Ti       1.98856009       6.16082398       2.00825905      -0.35850794      -0.28515360       0.85152237
Ti       6.00018337       5.99412542       2.04482942       0.88049870       0.26261119      -0.10998974
Ti       2.02564702       1.92705427       6.03778840      -0.08498576       0.33404004       0.28076369
Ti       6.03228124       1.95230505       6.12004005      -0.02335590       0.80877187      -0.67452377
Ti       1.95951917       6.07688725       6.00739480      -0.07871098      -0.95532603      -0.11460281
Ti       6.07247332       6.05832771       6.09328837      -1.17799102      -1.43247419       0.60537421
O       -0.13035402       1.90211440       2.01494274       1.38147815       0.67100573       0.08447591
O        3.96121840       2.09118765       2.09771613      -0.30914302      -0.21136293      -0.73429138
O       -0.10941491       6.15475735       1.97446356       0.68863424      -0.51160711      -0.27785269
O        4.02969429       6.03913866       1.92264046      -1.55235187      -0.04200925       0.78868075
O        0.03272547       2.22793203       6.06098759       0.25183184      -0.94880057      -0.04328606
O        4.05388754       2.00915357       6.10025040       0.25365604       0.08311451      -0.03355315
O        0.01692065       6.08487248       6.16073213      -0.04307703       0.14301916      -0.63613926
O        4.15621565       6.22134963       5.85245563      -0.95605134      -0.31363191       0.75673402
O        1.96672594      -0.03393914       2.02351151       0.42646477       0.16026457      -0.12731074
O        5.97557459       0.00225553       1.94878817      -0.24521125       0.16894925       0.38212224
O        1.95209602       4.02559433       1.86338164      -0.05451407      -0.36245947       0.67191359
O        6.10704499       4.05411881       1.95160654      -0.42803391      -0.01619641       0.10565768
O        2.11018184       0.05824126       6.03602906      -0.72778495      -0.00020775      -0.50502971
O        6.21696781       0.10170870       6.06552702      -0.32208081      -0.24454148      -0.10823547
O        2.04491932       4.14494789       5.94844260       0.36632615       0.69733614       0.47432148
O        6.00024963       4.08996272       6.03255600       0.28792807       0.55879019       0.22967767
O        1.99516830       1.97443192      -0.05183156       0.03510301       0.17797793       0.51920446
O        6.04921641       1.90922437       0.09562513      -0.37406209       0.79904050      -1.37482877
O        1.97260298       6.16874052      -0.07352969       0.41868924      -0.56449778       0.16755031
O        5.82243775       6.02812418      -0.02412423       1.11535921       0.38651959      -0.96906524
O        2.07313307       2.04970113       4.00112027      -0.61845161      -0.11565439      -0.22166252
O        6.04254720       2.07824789       4.02766188      -0.22230555      -0.34822636       0.46715273
O        1.74079888       6.08218498       3.95648540       1.21571271       0.03456103      -0.10777447
O        5.93937537       6.09640229       3.94798951       1.04499043      -0.32054689       0.11774984
40
Lattice="8.068094053620356 -4.38423541214265e-18 -5.299365615194938e-18 -1.6788496834586077e-17 8.068094053620356 1.6634455206828052e-17 -2.654045609411134e-17 -6.832089622168243e-17 8.06809405362036" Properties=species:S:1:pos:R:3:REF_forces:R:3 system=batio3_cubic base_model=mace_mp0 config_id=batio3_cubic_c17 T=300.0 draw=4 energy_qe_eV=-74136.65154362854 offset_eV=-73818.25979870005 split=train REF_energy=-318.3917449284927 mock=0 pbc="T T T"
Ba      -0.01117231      -0.04749291       0.00565432       0.08462040       0.68039926      -0.31622923
Ba       4.08906052      -0.06054645      -0.05562778      -0.04008170       0.60968878       0.49430898
Ba       0.01640009       3.98919694      -0.02990836      -0.06231480      -0.04710107       0.14387919
Ba       3.89725393       4.05301330       0.01903490       0.73742761      -0.34800884       0.40912602
Ba      -0.00193076       0.12500847       4.13568846      -0.28327386      -1.27141771      -0.68156705
Ba       4.04637709       0.02531384       4.14234107       0.41814931      -0.68095744      -0.69685200
Ba      -0.00005514       4.08042922       3.91477121       0.15856199       0.08173563       0.53630589
Ba       4.01513309       3.97003812       4.03100335       0.13439208       0.83247641      -0.50215856
Ti       2.04804104       1.85980141       2.04560524       0.17433905       1.58438550      -0.74246517
Ti       6.12904833       2.03756859       2.03670008      -0.76406450      -0.25152048      -0.32065333
Ti       1.97634253       6.11958366       2.09147411       1.00962387      -1.98886785       0.57652258
Ti       6.08591833       6.05264329       1.92546831      -0.93516858       0.03103399       0.86620825
Ti       2.03203565       2.05546015       6.04381521      -0.79866666      -0.66497598       1.14449238
Ti       6.06603392       2.12555563       6.00057465       0.41815959      -0.35654619       1.34400767
Ti       2.06667960       6.04802613       6.13155806       0.03114274       1.17227546      -0.65727501
Ti       6.15075176       6.10752459       6.06060320      -0.23714339      -0.10816374      -1.44234928
O        0.04839030       2.20608010       1.97829552      -0.21691806      -1.36610784      -0.12184201
O        4.14218344       2.03771942       2.04193781      -0.67492924      -0.01450874      -0.59484066
O       -0.03146483       6.19923253       2.02191584       0.23850144      -0.42002673       0.02393311
O        4.00531192       6.16938601       2.04814174       0.01938920      -0.43621696       0.00488381
O        0.04623801       1.88404602       5.94381910      -0.34001682       0.78527995      -0.00539906
O        4.02020090       2.04875277       6.01941518      -0.06846436      -0.62121246      -0.33308564
O       -0.05059139       5.95331870       6.07601188       0.06755908       0.01458381       0.34279233
O        3.99739099       6.02941349       6.13686287      -0.75731818      -0.33640751      -0.11457838
O        2.20050428       0.00256870       2.05610652      -1.03461448       0.25982772      -0.67340200
O        6.13566491       0.00607080       2.00574452      -0.16146451       0.54172141      -0.04567693
O        1.98955007       4.11439887       1.93053673       0.33733336       0.41244377       0.25280115
O        6.07641415       4.08172429       2.08546116      -0.00517563      -0.00731427      -0.37322442
O        1.96779928      -0.10778850       5.96515734       0.46843288      -0.35874860       0.28216315
O        6.13240771      -0.08407898       6.13493522      -0.50680788      -0.28328826      -0.19818886
O        1.97634701       3.86762449       5.94981751       0.14162973       1.30828682       0.09529023
O        6.05255034       3.90118540       6.04464890       0.08797929       1.01194892      -0.11589016
O        1.89150631       1.98184391      -0.14291846       0.84754950      -0.33265755       0.36677429
O        6.12450337       2.03479383      -0.13039924      -0.21220780      -0.18244394       0.76947435
O        1.92362760       6.06572907      -0.01662651       0.28194126      -0.03045086      -0.45929158
O        5.92877082       5.93335989       0.09729655       0.61996933       0.32599711      -0.57526736
O        1.97562131       1.90850256       3.81743420       0.43779639       0.51416870       1.59381451
O        6.08787663       2.05957969       3.96256353      -0.01033044      -0.46996912       0.23564315
O        1.93375596       5.99676246       4.04791170       0.26812826       0.22317381      -0.47193164
O        5.99189370       6.00098712       4.18735740       0.12633398       0.18748536      -0.04025268
40
Lattice="8.068094053620356 -4.38423541214265e-18 -5.299365615194938e-18 -1.6788496834586077e-17 8.068094053620356 1.6634455206828052e-17 -2.654045609411134e-17 -6.832089622168243e-17 8.06809405362036" Properties=species:S:1:pos:R:3:REF_forces:R:3 system=batio3_cubic base_model=mace_mp0 config_id=batio3_cubic_c18 T=300.0 draw=5 energy_qe_eV=-74136.30485250252 offset_eV=-73818.25979870005 split=train REF_energy=-318.0450538024743 mock=0 pbc="T T T"
Ba       0.03239617       0.02649531      -0.10439710      -0.43678286       0.01806277       0.46050437
Ba       3.89310221       0.02998859       0.10355380       0.90522526      -0.16347717      -0.81897503
Ba       0.01748944       3.98324067      -0.00418991      -0.28515102      -0.04418107      -0.03050100
Ba       4.05194135       3.97653082      -0.00321153       0.00409063       0.15233401      -0.09616054
Ba       0.00782509       0.04872272       4.00610366       0.08910775      -0.25106231       0.23993149
Ba       3.99468719      -0.05419258       3.96758716      -0.04828043       0.27033890       0.77112140
Ba       0.06166506       4.10128544       4.10980645      -0.37323033      -0.61753476      -0.28975150
Ba       4.12899888       4.11892441       3.99562803      -0.64256367      -0.59935706       0.25306957
Ti       1.98837222       2.06915516       2.01653764      -0.72183284       0.09683032       0.99680487
Ti       6.03008930       1.97329536       2.02951951      -0.17583569       0.97614066      -1.81069812
Ti       2.03293050       6.04884161       2.01257421      -0.00978279       0.55633762       0.01574055
Ti       6.10817309       6.05175726       1.97588988       0.65198934      -0.91775039       0.72280266
Ti       2.01410254       2.01288203       6.07091680       0.24335209       0.27493809      -1.13892645
Ti       5.99554752       1.95222909       5.96011122       0.76325203       0.21266906       2.84494159
Ti       1.96032153       6.02720318       6.03995463       0.38941877      -0.40207580       0.05443977
Ti       5.98056893       6.02486616       6.07671421      -0.67338143      -0.88521385      -0.78558772
O        0.04878831       2.16487434       2.09446958      -0.27953265      -1.49106603      -0.39656644
O        4.13082765       1.97992710       2.13101470      -0.57155520       0.36208897      -0.06168051
O        0.00887038       5.95468367       2.16942149      -0.14846861       0.88655468      -0.71939981
O        3.96232890       6.14424938       2.05624794       0.86990704      -0.98804203      -0.56650556
O       -0.11280009       2.02961381       6.02928408       0.53311721       0.08318881       0.58187381
O        3.84939990       2.04284745       6.05005462       1.09060000      -0.11400271      -0.03278851
O        0.13537760       5.96741170       6.03709873      -1.07604601       0.78809197       0.10281482
O        4.11953779       5.91814735       6.08478671       0.18966771       1.27556824       0.36718181
O        2.07847869      -0.06995484       2.07139115      -0.88379537      -0.09542444      -0.36918316
O        5.99997254       0.07126961       1.95345435       0.87488907      -1.11788583       0.62617032
O        1.99286685       3.89856351       2.00107601       0.79454518       1.04908105       0.01085648
O        6.17157929       3.99247575       2.11753177      -0.98482481       0.63352445      -0.41001614
O        1.99982095      -0.01748359       6.12600925      -0.00831263      -0.20011024      -0.36639737
O        6.04799824       0.08964246       6.17243769      -0.28563285      -1.45861768      -0.41505318
O        2.03461859       4.06312450       6.02584292      -0.10294543      -0.58220651       0.33835872
O        5.98054093       4.14368387       5.93377648       0.58633648      -0.33753082       1.00562530
O        2.05545032       1.98243242       0.00329450      -0.44867241       0.04954953       0.65113368
O        5.95324809       2.01549274       0.01747753       0.31472000       0.43867982       1.21057024
O        2.04010466       5.95658263      -0.00460453      -0.15501541       0.31199308       0.81902054
O        6.23431283       5.97700653       0.05985600      -0.69531783       0.33372636       0.06943316
O        1.89914366       1.95632547       4.06477547       0.55843924      -0.01051273      -0.22223844
O        5.99859021       1.97461913       4.24269422      -0.10433280      -0.10477271      -3.47962895
O        2.08974896       5.98322747       4.04376198      -0.11314474       0.28756298      -0.10401989
O        6.00199683       5.98394218       4.03007450       0.36578031       1.32356226      -0.02831710
40
Lattice="8.068094053620356 -4.38423541214265e-18 -5.299365615194938e-18 -1.6788496834586077e-17 8.068094053620356 1.6634455206828052e-17 -2.654045609411134e-17 -6.832089622168243e-17 8.06809405362036" Properties=species:S:1:pos:R:3:REF_forces:R:3 system=batio3_cubic base_model=mace_mp0 config_id=batio3_cubic_c19 T=300.0 draw=6 energy_qe_eV=-74136.45160050246 offset_eV=-73818.25979870005 split=train REF_energy=-318.1918018024153 mock=0 pbc="T T T"
Ba       0.08793088      -0.13462770       0.01871126      -0.82858916       0.57566820       0.42739474
Ba       4.01665568       0.15704945      -0.03131362       0.58557877      -0.62316701       0.23388760
Ba      -0.03858804       4.02401877       0.00398035       0.56536579       0.01081843      -0.08625974
Ba       4.06025691       4.05483899      -0.05882873      -0.51290628      -0.29968804       0.18990271
Ba      -0.03510786      -0.08268540       4.13194566      -0.21878391       0.08764685      -1.10379053
Ba       4.02834580       0.01348981       3.98072782       0.47263947       0.07519140       0.17610514
Ba       0.08278812       4.01857210       3.98404552      -0.77745840       0.31510540       0.49775529
Ba       3.98112858       4.10012978       4.09381284       0.44783912      -0.55979909      -0.13678603
Ti       1.94584453       1.94714934       2.06191330      -0.43797740       0.90826302      -0.31178920
Ti       5.99357567       2.15113642       2.00738239      -0.37529956      -2.61556859      -0.32232301
Ti       2.11361629       5.99139901       1.99092124      -2.10049075      -0.46627830      -0.52673831
Ti       6.01796394       5.96277801       2.02818530       2.05727154       2.35541306       0.88378149
Ti       2.06782697       1.95117990       6.03707006       0.80381941       0.15592738       0.52621817
Ti       6.13884934       2.06715358       5.98486164      -0.70959465       0.30212185      -0.05055946
Ti       1.99382852       6.00369462       6.00191611      -0.26584435      -0.89131071       0.71950368
Ti       5.97809758       6.09720750       6.11659641      -0.23549197      -0.00954162      -0.50515518
O        0.01475851       2.01034596       2.05668986       0.78839433      -0.22841860      -0.09309450
O        4.12938918       2.02005755       1.98782212      -1.03528528       0.37039595       0.28763008
O       -0.04404766       6.05629122       1.98378051      -1.38374124      -0.20162231       0.11305783
O        3.90991418       5.94176549       1.91133479       1.61233776       0.24941758       0.29375188
O       -0.01267753       2.10468294       5.99497405      -0.00456165      -0.05330205       0.17166022
O        4.02426379       2.00499932       5.99446141      -0.28564956      -0.27680111       0.31345244
O        0.07351018       5.98460611       6.00854051      -0.34936613       0.19456746       0.04028739
O        4.03174808       6.15580510       6.06448002       0.32785602       0.13254448      -0.09888103
O        2.00675651      -0.06535407       2.01404299       0.20306933       1.15432273       0.10693295
O        5.99197721       0.04070474       2.14568853       0.00058287      -0.36109961      -0.67213933
O        1.82722187       4.00576814       2.16435382       1.20258080      -0.70757890      -1.02341836
O        5.98821978       4.06542782       2.08890441       0.27972960       0.11978333      -0.29716219
O        1.94647283       0.06482840       6.13714417       0.23240150      -0.14969580      -0.50536318
O        6.06731064      -0.02959703       5.99008102       0.23770594       0.27100019       0.51510715
O        2.22872066       4.15304641       6.13905381      -0.99573863      -0.38010649      -0.77627184
O        5.92592189       4.05153847       6.14117501       0.61783043       0.00725257      -0.52648608
O        2.10679723       2.06835292      -0.04358369      -0.61270494      -0.16355019       0.82207835
O        6.01215706       2.08580787       0.01948679       0.48845072      -0.21737186       0.18370789
O        1.88707448       5.91536068       0.01786658       0.67241855       0.74329615       0.01935269
O        6.06786914       6.07889109      -0.02181591      -0.23871253      -0.03758207       0.05383222
O        2.14581697       2.04496664       4.08452180      -0.74357795      -0.37817996      -0.81394287
O        6.00180721       2.08300096       4.07622496       0.42439709       0.14473023       0.23418533
O        1.97001038       5.92514762       3.95758607       0.47075073       1.06948507       1.18750848
O        6.04276294       6.09040822       4.01086018      -0.37924569      -0.62228821      -0.14693238
40
Lattice="8.068094053620356 -4.38423541214265e-18 -5.299365615194938e-18 -1.6788496834586077e-17 8.068094053620356 1.6634455206828052e-17 -2.654045609411134e-17 -6.832089622168243e-17 8.06809405362036" Properties=species:S:1:pos:R:3:REF_forces:R:3 system=batio3_cubic base_model=mace_mp0 config_id=batio3_cubic_c20 T=300.0 draw=7 energy_qe_eV=-74136.41760627298 offset_eV=-73818.25979870005 split=train REF_energy=-318.15780757293396 mock=0 pbc="T T T"
Ba      -0.04852458      -0.03843164       0.01031912       0.71978727      -0.21032935      -0.26085564
Ba       4.12951016      -0.07318040      -0.01561385      -0.51185213       0.78329918      -0.05902739
Ba      -0.00173188       3.98585730      -0.02894345       0.32605676       0.72462275       0.15814496
Ba       4.01183331       4.02623239       0.00511789       0.24090748      -0.00237159      -0.08355931
Ba       0.00812747       0.03016646       4.05078380      -0.02846288      -0.00200340      -0.03796645
Ba       3.97836267       0.04653490       4.01722984       0.80655789       0.10229674       0.14710387
Ba      -0.07624839       4.08583815       4.04973841       0.38077575      -0.20014907      -0.18966694
Ba       3.90485719       3.99909479       4.09844120       1.28183402      -0.14491406      -0.42981234
Ti       2.13161499       1.99431827       1.98040587      -0.43367414      -0.88156005      -0.42317401
Ti       6.11630441       1.96722652       2.02024111       0.36743507      -0.51160891       1.98962298
Ti       2.04000503       5.99283298       2.06810827      -0.33379038       0.56267410      -0.72807625
Ti       5.99823505       6.03613458       1.99325894       0.90338409      -0.44348573       0.39601391
Ti       2.06571296       1.96317177       6.01755962       0.52187635       0.64845741      -0.06325171
Ti       6.14614444       2.14798151       6.12635684      -0.66030249      -0.67009299      -1.56189401
Ti       2.07578155       5.99067930       6.02935363      -2.28074282      -0.58686227       0.92259897
Ti       5.95431178       6.11845384       5.95784135       2.19293271       0.83369357      -0.01122981
O        0.00585868       2.07496308       1.99252998       0.07402257       0.12917377      -0.33449795
O        4.08974917       1.92542660       2.05528863      -0.43708085       0.68352778      -0.41483233
O       -0.04815818       6.13386519       2.11870252       1.29905193      -0.61558612      -0.86915525
O        4.01468963       6.00278218       1.98713326       0.08336828       0.65590307       0.51077175
O        0.03284620       2.05754371       6.04623607      -0.49887732      -0.09069978       0.22406778
O        4.02762878       2.16163196       5.97893726       0.54045745      -0.60812683       0.54583749
O        0.06281020       6.07710045       5.97357636       1.31743814      -0.08964743       0.74250117
O        4.15588069       6.07038366       6.07367445      -1.96717571      -0.38508595      -0.48178205
O        2.04091871       0.01781782       1.99822603      -0.03314409       0.08159062       0.62721650
O        6.15262937       0.06919218       2.01347204      -0.67659685      -0.05167943      -0.60860017
O        2.07266215       4.05436758       2.07159827      -0.29564447       0.58094282      -0.53993141
O        6.00735589       4.15458152       2.10870626       0.09698792      -0.23968261      -0.74126652
O        2.10381306       0.16290501       6.04737340      -0.09078540      -1.52725508      -0.14763891
O        6.08452360      -0.09574205       5.94162405      -0.24909413       1.16753100       0.74847513
O        1.98068179       4.03658074       6.05437223       0.39267482       1.40320398       0.62382265
O        6.07306479       4.00201375       5.97162179       0.11592487      -0.06654709       0.29619905
O        2.15926456       2.01506991       0.04545815      -0.51798987       0.37582098       0.54196618
O        6.10277105       2.03114787      -0.10365678      -0.19712108       0.17472240       0.73375428
O        2.18899684       6.22204289      -0.03561953      -0.85857285      -1.09780423       0.35221465
O        6.02526908       6.14186789      -0.07404877       0.43943727      -0.75091253       1.36712806
O        2.11161164       2.10199980       4.08109110      -0.59231223      -0.41311457      -0.73907826
O        6.12139580       1.92574425       3.95079021      -0.14976727       0.67383832      -0.11793393
O        2.11458403       5.95741570       4.13535427       0.06051580       0.86016616      -1.27139920
O        6.20915625       6.20028104       4.04884320      -1.34844025      -0.85194480      -0.81280927
40
Lattice="8.068094053620356 -4.38423541214265e-18 -5.299365615194938e-18 -1.6788496834586077e-17 8.068094053620356 1.6634455206828052e-17 -2.654045609411134e-17 -6.832089622168243e-17 8.06809405362036" Properties=species:S:1:pos:R:3:REF_forces:R:3 system=batio3_cubic base_model=mace_mp0 config_id=batio3_cubic_c21 T=300.0 draw=8 energy_qe_eV=-74136.85433129664 offset_eV=-73818.25979870005 split=train REF_energy=-318.59453259658767 mock=0 pbc="T T T"
Ba      -0.04557055       0.01605276      -0.05855002       0.23586015      -0.20218615       0.17449949
Ba       4.06957558      -0.13767517      -0.03376431      -0.11881402       0.49772032       0.32939662
Ba       0.09216042       4.09905186       0.01052946      -0.58694069      -0.23094369      -0.17111823
Ba       4.01847786       4.00869939       0.01964230       0.15670282       0.16715873      -0.24124687
Ba       0.00757680       0.03625042       3.83918911      -0.29256814      -0.42781794       1.36783202
Ba       4.02189432       0.11062665       4.08408737       0.26713968      -0.74384380      -0.34318288
Ba      -0.00645174       3.92620284       4.10858006       0.04491357       0.70948795      -0.27889784
Ba       4.00290006       4.11874452       4.13357458       0.25102323      -0.44047008      -0.43504814
Ti       1.99808616       2.01588320       2.07283678      -0.17770925       1.29233389      -0.07730896
Ti       5.97141645       2.06706174       2.03346681      -0.28473553       0.16434260       0.18384853
Ti       1.95501987       6.10682105       2.00807653       1.22396903      -0.71336568      -0.81005716
Ti       6.07577801       6.06048356       2.05385749      -1.62971482      -0.26382681       0.01403257
Ti       2.08682472       1.88587421       6.10757893       0.89437572       0.37842653      -0.03214085
Ti       6.19481721       1.94450487       6.06459295      -1.84867845       1.36012360       0.45869715
Ti       2.03049288       5.99971630       5.97298792      -0.35542082      -0.18231281       0.45895991
Ti       6.07740210       6.04306168       6.01898853       0.01152086      -1.65808952       0.23575653
O        0.03541119       1.93866434       2.02859721       0.37176095       0.33414314      -0.25063576
O        4.03671042       2.08818252       2.00392117      -0.76451932      -0.54744571      -0.00343011
O       -0.01068333       6.11395098       1.95753160       0.05225279      -0.24240746       0.12862201
O        4.07512739       6.09219298       2.14908230       0.18028832      -0.23282188      -0.19712288
O       -0.07483039       2.01518007       6.01092956       0.58845224      -0.12360810       0.11939560
O        3.94443938       2.04819156       6.01875369      -0.58161824      -0.23507699       0.19254503
O        0.02824857       6.09024443       6.10214285      -0.42870240       0.11576880       0.19607078
O        4.07546365       6.07866425       6.01547705      -0.42630510       0.24864727      -0.15565613
O        2.05276968      -0.09919742       2.04075128      -0.11781823       1.15727384      -0.05216794
O        6.03120788       0.01800434       1.95358934       0.17143576      -0.38783780       0.16011802
O        1.97328069       4.00848902       2.09473145       0.02167851      -0.75737474      -0.03397096
O        6.02765577       4.03077782       2.11511918       0.52261451       0.18061383      -0.69783468
O        1.98125542      -0.06935944       6.06043765       0.18743085       1.15460735       0.35611630
O        5.97109142       0.13493116       6.04369941       0.49176642      -1.17264390      -0.19148496
O        2.02086951       4.08292357       6.11430008      -0.21540857      -0.00421969      -0.36904201
O        6.06606544       4.11162485       5.94011631       0.08994156      -0.20951637       0.45408253
O        1.90963593       2.07516546      -0.07070177       0.28128151      -0.71829732       1.01632006
O        5.88332418       2.05026204      -0.08020570       1.11399009       0.02828908       0.28073464
O        2.14741934       5.99886869       0.06300664      -0.69234152       0.26142231       0.93973486
O        5.95205816       5.93013571      -0.06721645       0.64566005       0.77443118       0.94355655
O        2.00309688       1.92700324       4.12728686      -0.24307209       0.23813737      -1.61970886
O        5.97013242       2.06299963       3.94200252       0.42409113      -0.49591695       0.18838704
O        1.91982658       6.04304367       4.12517518       0.23167953      -0.00761227      -1.02140467
O        6.10073028       5.99720298       4.09526144       0.30453894       0.93470836      -1.21724560
40
Lattice="8.068094053620356 -4.38423541214265e-18 -5.299365615194938e-18 -1.6788496834586077e-17 8.068094053620356 1.6634455206828052e-17 -2.654045609411134e-17 -6.832089622168243e-17 8.06809405362036" Properties=species:S:1:pos:R:3:REF_forces:R:3 system=batio3_cubic base_model=mace_mp0 config_id=batio3_cubic_c22 T=300.0 draw=9 energy_qe_eV=-74136.45584357354 offset_eV=-73818.25979870005 split=train REF_energy=-318.1960448734899 mock=0 pbc="T T T"
Ba       0.01539424      -0.04400050      -0.09373543       0.22759148       0.12925218       0.99241780
Ba       4.02237532       0.03843840      -0.01075637      -0.30699255      -0.05434078       0.31730318
Ba       0.13097085       3.95832539       0.09254699      -0.76526366       0.51073062      -0.53253049
Ba       4.01488809       4.06518522      -0.01626170       0.00198489      -0.21920608       0.17923417
Ba      -0.05873104       0.03648359       3.97493801       0.22870040      -0.58525944       0.11106446
Ba       4.04603000      -0.01728542       3.96477032      -0.10700597       0.34766020       0.18017854
Ba      -0.06507077       4.00150762       4.03965529       0.21313520       0.48608556       0.27302904
Ba       4.08208956       4.06807856       4.12673651      -0.14721725      -0.22020753      -0.45899591
Ti       1.98781322       2.08252096       2.06555400       0.73514730      -0.76003789      -2.03771598
Ti       6.02433073       2.06903144       2.00014943      -0.71193512       0.07013172       0.08181482
Ti       2.04393653       6.07607066       2.08503295      -0.17157151       0.83285539      -1.00725332
Ti       5.99437119       6.09471343       2.04728009       0.71562363       0.21372681      -0.62063602
Ti       2.07261744       2.05805985       5.95931077      -0.62268699       0.65886035       1.86720119
Ti       6.09486164       1.93631671       6.04823591       0.38339236       1.14127695      -0.49437480
Ti       2.01546021       6.14521321       6.02902546      -0.20508122      -0.41383988       0.80665842
Ti       6.04457899       6.04350401       6.07913374       0.76933449      -1.69545407      -0.03350405
O        0.02086120       1.85324056       2.11196259      -0.06987153       1.26824009      -0.03593528
O        3.99261687       1.95125314       1.94378441       0.60747866       0.08894834       0.70608998
O       -0.08965363       5.96882938       1.99793707       0.36430912       0.07407785      -0.02318081
O        4.03233882       6.15202253       1.92710079      -1.11670287      -0.65050067       1.23769872
O        0.05125100       1.93074980       6.02401084      -0.90771306       0.15081911       0.00968972
O        4.02869746       1.97271858       5.99966648       0.72213263       0.37347150       0.81298128
O       -0.01639469       6.01685673       6.07251683      -0.73969944       0.57780016       0.18223542
O        3.94519401       5.98991848       5.99683542       0.63450069       0.38421280      -0.09642537
O        1.96536039      -0.02191073       2.04064289       0.12516516      -0.59998415       0.47220392
O        5.98625352      -0.08690416       2.03302933       0.26363732       0.85718034       0.06484219
O        2.02398208       4.02550310       2.05422065      -0.04052084      -0.43560170       0.35043082
O        5.83886360       4.02790788       2.06829977       0.87183820      -0.94996528      -0.02097506
O        1.96017424      -0.05668122       6.01177417       0.34925428      -0.32225127       0.13235808
O        6.04786180       0.15515464       5.95496696      -0.16898216      -1.90033551       0.74153649
O        1.85763202       3.94182758       6.24401437       0.91236084       0.02279823      -1.10732785
O        6.13563277       4.10404110       6.00902785      -0.65338133       0.41886124       0.42709006
O        2.02937473       1.98193020       0.10782873      -0.23133963      -0.04378949       0.52035760
O        6.17762969       1.98693928       0.08496486      -0.38156482       0.18031815      -0.56388226
O        2.17730411       6.01591263       0.01636804      -1.14096559       0.36274255      -0.28620003
O        5.91007466       6.05966011       0.07476117       0.59804374       0.17819725      -1.88814283
O        2.19150403       2.08525093       4.18763708      -0.80049266      -0.15676967      -2.22805835
O        6.07495776       2.03635701       4.02611383      -0.21005707       0.05137244       0.09241985
O        1.88737675       6.02475111       4.01115258       0.68670592      -0.15302126       0.21523939
O        5.99105839       6.12118296       4.05898116       0.08870897      -0.21905542       0.66106302
40
Lattice="8.068094053620356 -4.38423541214265e-18 -5.299365615194938e-18 -1.6788496834586077e-17 8.068094053620356 1.6634455206828052e-17 -2.654045609411134e-17 -6.832089622168243e-17 8.06809405362036" Properties=species:S:1:pos:R:3:REF_forces:R:3 system=batio3_cubic base_model=mace_mp0 config_id=batio3_cubic_c23 T=300.0 draw=10 energy_qe_eV=-74136.6294749241 offset_eV=-73818.25979870005 split=train REF_energy=-318.3696762240579 mock=0 pbc="T T T"
Ba      -0.01845533       0.03781095      -0.01486944       0.28365953      -0.48602077       0.28818647
Ba       4.06511080      -0.03480320      -0.01882627      -0.40429697      -0.11836613       0.10520003
Ba       0.09082606       4.02609028      -0.02423601      -0.65834819       0.38921462       0.15837970
Ba       4.17827121       4.03233285      -0.02194489      -0.87306230       0.39598125      -0.13960936
Ba       0.01702818       0.02316098       4.09154887       0.02061639      -0.05786448      -0.19158807
Ba       3.95141221       0.05174115       3.94573625       0.28915526      -0.10704325       0.78530695
Ba      -0.10452835       3.90261730       4.03042070       0.72303098       0.85505224       0.39014742
Ba       4.01855311       4.01953381       3.97352520      -0.10166990       0.23268612       0.94060235
Ti       2.03640786       2.12753221       2.02470774      -0.27450717      -0.43621002       0.19575685
Ti       6.06811631       2.02109082       2.00296444       0.31473079      -0.82049044       0.39786947
Ti       1.93254871       6.05432162       2.14710040      -0.17530887       0.71038963      -0.41232910
Ti       5.96354880       5.99846900       2.10441522      -0.33140980       0.84409677      -0.59849625
Ti       2.04019478       2.07569594       6.14345378      -0.19024672      -0.69784985      -0.47876435
Ti       6.05117092       1.99329549       6.06668071       0.29561413       0.19147211       0.03548328
Ti       1.98521813       6.02850316       6.10981901       0.53912074       0.65477641       0.65015563
Ti       6.05161989       6.04477426       6.07917856      -0.62616698      -0.15133487       0.83531851
O        0.00915680       2.01233907       1.92858988      -0.30614434       0.52684141       0.42965294
O        4.03886529       2.20893596       1.90697302      -0.22332576      -1.35868147       0.52527046
O        0.08159703       6.02774102       2.02907273      -0.44654123      -0.11529084       0.35065039
O        4.08422517       6.13943852       2.12578129      -0.28028521      -0.45916740      -0.74890707
O       -0.02300912       2.06766923       6.15438490      -0.02990039      -0.46026346      -0.83260985
O        4.05416760       2.04546330       6.04914342      -0.06466299      -0.13039504      -0.02797720
O        0.03553951       6.06930098       6.12576027      -0.79685403      -0.18762445      -0.62740548
O        4.01943228       6.02092704       6.19650572       0.51017192       0.06348105      -0.95313185
O        1.99935464      -0.03761022       2.06144089       0.31715277       0.58048902      -0.18142835
O        6.07385604      -0.00011498       2.02607295      -0.09018299       1.31347196      -0.38238757
O        2.08278167       4.11399199       2.06380514      -0.32065513      -1.09482895      -0.15345166
O        5.95684548       4.02909413       2.07596240       0.84613951      -0.04806729      -0.22903156
O        2.06855453       0.03565071       6.10919644      -0.25419057      -0.25149631      -0.26227823
O        6.10217178      -0.03764600       5.98844370      -0.32200779       0.15450453       0.35440086
O        1.95587291       3.93834697       6.02675139       0.35155671       0.91796508       0.22050963
O        6.05387516       4.04331573       6.10319855       0.16560810       0.57336578      -0.89061034
O        1.91448223       1.99886393       0.00164801       0.86111876       0.33156098       0.66151399
O        6.09112964       2.05613050      -0.12787330      -0.39828882      -0.39896142       1.47560727
O        1.98457336       5.95028630      -0.05172787       0.28596066       0.37629175       0.29808419
O        5.99187350       5.98889711       0.01928890       0.53163754       0.48384279      -0.39848782
O        1.95301116       2.13615943       4.05732264       0.29245116      -0.68462435      -1.30990353
O        6.13406827       2.05399161       4.02148153      -0.56548200      -0.29920827      -0.73818377
O        2.01208111       6.09313457       4.12170097       0.04419752      -0.34525107      -0.77339092
O        5.90349210       6.18025288       3.95415790       1.06161415      -0.88644361       1.23187569
40
Lattice="8.068094053620356 -4.38423541214265e-18 -5.299365615194938e-18 -1.6788496834586077e-17 8.068094053620356 1.6634455206828052e-17 -2.654045609411134e-17 -6.832089622168243e-17 8.06809405362036" Properties=species:S:1:pos:R:3:REF_forces:R:3 system=batio3_cubic base_model=mace_mp0 config_id=batio3_cubic_c24 T=300.0 draw=11 energy_qe_eV=-74136.80697328445 offset_eV=-73818.25979870005 split=train REF_energy=-318.547174584397 mock=0 pbc="T T T"
Ba       0.13970008       0.02266757       0.06395387      -0.42499615      -0.03181560      -0.13041047
Ba       3.97197672      -0.02656799       0.06315723       0.20885457      -0.02281648      -0.11420300
Ba      -0.04616818       3.91408969      -0.02016146       0.62915023       0.49221585      -0.19206835
Ba       4.01625789       4.06611229       0.01071206      -0.12957743       0.01306223      -0.61026908
Ba       0.02272083      -0.03859440       4.01979617      -0.17703357       0.41454668      -0.40452760
Ba       4.02173469       0.03776728       4.10319811       0.43691193      -0.51358171      -0.78944437
Ba      -0.04107759       4.05279229       4.04093169      -0.05679824      -0.34141910       0.07011321
Ba       3.98449755       4.11204664       3.95612098       0.79025530       0.04502310       0.75228087
Ti       2.06102394       2.06722764       2.09328215      -0.26869545      -1.32228853      -1.61091620
Ti       6.06869078       2.00011732       1.98491230       0.53521935      -1.55120439       0.70905137
Ti       1.99214029       5.94458653       2.00533562       0.66036214       1.29609670      -0.43753208
Ti       6.12014467       5.98660117       1.92198608      -0.72989068       1.06014939      -0.38179519
Ti       2.00359748       1.99168274       5.97758830       0.13088381       0.47635625       0.95973959
Ti       6.01697149       1.91609660       6.06698863      -0.18648803       0.48686384      -0.78979687
Ti       2.01016673       6.04928005       6.00781396       1.06603516      -0.31552115       1.13470264
Ti       6.16320362       6.02533726       6.01372309      -1.97732077      -0.72091573      -0.01815816
O        0.00293042       2.07858341       2.11918128      -0.42005038       0.00244203      -0.03845188
O        3.95518421       2.13133084       1.99476440       0.87004331       0.15443665       0.21446291
O        0.03459709       5.96880393       1.81147414      -0.70565469       0.87918256       0.82840173
O        4.01826360       6.07569850       1.93034271       0.22855616      -0.41920372       0.46002101
O        0.02972502       1.93939707       6.00306730       0.24642095       0.57771968       0.12366029
O        3.98944306       1.98355116       6.19371941       0.42613644       0.09125231      -0.45946333
O        0.01319359       6.11248885       6.00079272       0.20944618      -0.14892575       0.19917925
O        4.11182357       6.18682469       6.02778684      -1.06798586      -0.37692527      -0.21952310
O        2.06607889       0.02092751       2.07537045      -0.45673179       0.80130101      -0.09987990
O        6.03993360       0.09529568       2.00490638       0.17705131       0.26767292       0.18129028
O        1.95544463       4.10802801       2.00102749       0.28887810      -1.18921363       0.17616556
O        6.16369397       4.18596017       2.01580547      -0.74326736      -1.28890918       0.07870327
O        2.07311192      -0.04246646       5.91757393      -0.59236083       0.41200797       0.47671132
O        6.12085181       0.14005345       6.01175002      -0.18891978      -0.81870147       0.41240212
O        2.00027570       4.05071954       6.06117058       0.08262549       0.10190387      -0.45393161
O        5.93762077       4.12457119       6.07018478       0.92960754      -0.01587785      -0.06421664
O        1.98703324       2.06436018       0.07571955      -0.23836363      -0.26192908      -0.29778723
O        6.15170560       1.94233027       0.08257154      -0.45208864       0.80287298      -0.50800499
O        1.97295644       6.00439565      -0.04948421       0.30850821       0.40651661      -0.88774896
O        5.94766705       6.07041668      -0.02027044       0.94887771       0.32491416       0.32549909
O        2.09073241       2.09302596       4.05979213      -0.18674951       0.00471900       0.29236451
O        5.98570777       2.03998460       4.04722391      -0.03263141       0.38376826       0.27042992
O        2.01641509       6.00080073       3.90290411      -0.32415697       0.06024892       1.23363998
O        6.09838659       6.14240143       4.07278106       0.18593781      -0.21602512      -0.39069070
40
Lattice="8.068094053620356 -4.38423541214265e-18 -5.299365615194938e-18 -1.6788496834586077e-17 8.068094053620356 1.6634455206828052e-17 -2.654045609411134e-17 -6.832089622168243e-17 8.06809405362036" Properties=species:S:1:pos:R:3:REF_forces:R:3 system=batio3_cubic base_model=mace_mp0 config_id=batio3_cubic_c25 T=300.0 draw=12 energy_qe_eV=-74136.32624813337 offset_eV=-73818.25979870005 split=valid REF_energy=-318.06644943331776 mock=0 pbc="T T T"
Ba      -0.00181146       0.02334511       0.08315694       0.12982168      -0.30627238      -0.34149366
Ba       4.13537503       0.03240467       0.01718913      -0.63870856      -0.12169031      -0.08105840
Ba       0.05135191       4.04187366       0.04505738      -0.50898278       0.17875132       0.09710285
Ba       3.89299987       4.01672240      -0.06783986       0.98393907       0.03011507       0.19604302
Ba      -0.13831842      -0.05240024       3.98510894       1.00358615       0.02938899       0.01460927
Ba       4.02216325      -0.12408841       4.10779577      -0.12838032       0.82611859      -0.69773106
Ba       0.02540739       4.09740933       4.11883347       0.10794622      -0.07209810      -0.83840640
Ba       4.14046567       4.07198583       3.90026471      -0.73307499      -0.37530496       0.81914241
Ti       1.97166683       1.96888637       2.03509530       0.00288324      -1.00438062       0.46058279
Ti       6.01458454       1.97061479       1.96730427       0.17379012       0.82603425       0.51049870
Ti       2.03478901       6.00722317       1.98222721      -1.31685682       0.43718730       1.37109681
Ti       6.00789531       6.03030620       1.97771421       1.11670184      -0.59962214       0.41776647
Ti       2.02066431       1.95922016       6.03206855       0.11720991       0.16084024      -1.08211973
Ti       6.11585065       2.09253497       6.00144214      -0.73355296      -0.31414664       0.20471895
Ti       1.99756922       6.08748106       6.08949469      -0.28026233      -0.80150670      -1.70774986
Ti       6.05931029       6.09455745       6.08013428       0.37141308       0.05593923       0.06870399
O        0.01674701       2.04350288       1.99172458       0.11386002      -0.18395395       0.15099986
O        3.97784924       1.98466632       1.93652298       0.85119893       0.32566081       0.11221014
O        0.00888959       6.04092270       1.94794028       0.34352098       0.21762588      -0.03817060
O        4.07589173       6.02880201       2.06705031      -0.46181486       0.17164428      -0.29701307
O       -0.02462054       2.06765139       5.98448477       0.62956598      -0.07495434       0.15119938
O        4.12757807       2.06034366       5.85415247      -0.79004781      -0.25333131       1.29289594
O        0.01124193       6.12496018       5.99132426      -0.60567811      -0.30977345       0.97974174
O        4.01775621       6.11074951       5.93736087       0.62516116      -0.12590564       0.81438484
O        1.99658589       0.01380866       2.14014379       0.09996629       1.05531392      -0.20306264
O        6.06135205      -0.09858495       1.92651120      -0.25182798       1.96438426       0.26787527
O        1.94344343       4.16406079       2.13057702       0.64800824      -1.48860728      -0.84778861
O        6.07116189       4.05102228       2.04572816      -0.25300786      -1.10221187      -0.36868488
O        1.93617060      -0.02966702       6.09988797       0.57108521       1.44644350      -0.09370077
O        6.05720478       0.02087705       6.17651390       0.02337416      -0.40744940      -0.64071197
O        2.04858296       4.13240143       6.07839661      -0.23498726      -0.68949865       0.64673786
O        6.02897131       4.09045508       6.00597273       0.16788815      -0.10689773       0.21845095
O        2.00749664       1.99357907       0.04135145       0.13454969       0.27897061      -0.65411050
O        6.16914976       2.09851013      -0.02588642      -0.71901543      -0.22968076       0.05385741
O        2.06751595       6.15452947       0.11511879       0.19494027      -0.34006439      -1.39648106
O        6.09492880       6.09555511       0.07580249      -0.46866685      -0.62008683      -2.19863567
O        2.06303867       2.05873729       4.08809543      -0.28610825      -0.16983396       0.29511996
O        6.06078184       1.89156159       3.94191332       0.01020008       0.44199680       0.09028454
O        1.88974258       5.97016559       4.06077626       0.89613281       0.95096338       0.69962777
O        6.19663665       6.04484484       3.93112688      -0.90576982       0.29989296       1.55326821
40
Lattice="8.068094053620356 -4.38423541214265e-18 -5.299365615194938e-18 -1.6788496834586077e-17 8.068094053620356 1.6634455206828052e-17 -2.654045609411134e-17 -6.832089622168243e-17 8.06809405362036" Properties=species:S:1:pos:R:3:REF_forces:R:3 system=batio3_cubic base_model=mace_mp0 config_id=batio3_cubic_c26 T=600.0 draw=0 energy_qe_eV=-74135.34395105399 offset_eV=-73818.25979870005 split=train REF_energy=-317.08415235394205 mock=0 pbc="T T T"
Ba      -0.01632483      -0.06185214       0.08588034       0.22086753       0.64794576      -0.59700244
Ba       4.02931322      -0.16437049       0.03946582       0.17830420       1.33401276       0.11676922
Ba       0.09812507       3.96030150       0.07519844      -0.91019700       0.55796332      -0.71984461
Ba       4.04835844       4.17177095      -0.10601595       0.06150902      -0.86287302       0.72190535
Ba       0.01868003       0.09578568       4.00240895      -0.40870102      -0.49618666      -0.18735963
Ba       4.02029660      -0.08893426       3.98491975       0.24065063       0.53542658      -0.04427851
Ba      -0.10821236       4.01620173       4.10518289       0.27090557       0.10737390      -0.52033009
Ba       4.13224275       4.16569218       4.13054647      -1.03372694      -0.74699571      -1.04727331
Ti       2.10518209       2.13122134       2.09866301      -1.19474150      -1.39208575      -1.08308646
Ti       5.94213685       2.03724117       1.91695228       1.24605095      -0.77441319       0.55535186
Ti       2.05097801       6.04308534       1.97958068       0.68011155       0.42400139       1.03723392
Ti       6.20112779       5.98785404       1.92662735      -1.56275687       0.93452067       0.10230599
Ti       1.92285525       1.99368584       6.08881020       0.70972243      -0.97450209       1.14419979
Ti       5.93272937       1.95018276       6.08159924      -0.05327326      -0.54144784      -0.72567844
Ti       1.94897586       5.98494668       6.04916103      -0.93316724       1.25791608      -1.31657554
Ti       5.96406600       6.02324531       5.97929091       1.70335070       0.42157222       0.17008439
O        0.04195371       1.91505316       1.89196980       0.25490328       0.65116839       1.03603245
O        4.10860947       2.03863433       1.91488104      -1.14416508       0.65027930      -0.31520568
O        0.12548409       6.05727857       2.05538851      -0.37499282       0.17242641      -0.08152660
O        4.13381750       5.89437872       2.00920568      -0.05031520       0.62391315      -0.33956739
O       -0.13598534       2.04967708       5.89772794       1.01509107       0.04824238       0.37759504
O        3.94895217       2.12574848       6.21142315      -0.69578397      -0.45675905      -0.50435685
O       -0.09766075       6.00888873       5.92376109       0.65415241       0.33184560       0.56755714
O        4.05621522       6.22566222       6.21742147       0.03969989      -1.26085099      -1.10573917
O        2.14089327       0.09610379       1.95577591      -0.04372007      -0.24192461       0.06742744
O        5.98057871      -0.07933201       1.96253411       0.63925826       0.10103536       0.18977518
O        2.15970474       4.20265229       2.06156640      -0.63558236      -1.43440251      -0.42574126
O        6.29762519       4.02888935       1.83574477      -0.99688920      -0.30854781       0.81594910
O        1.95605941      -0.00346102       5.88367283      -0.16877801       2.13955172       1.07132444
O        5.96340518       0.04208644       6.04844423       0.21993962       0.08447591      -0.18307926
O        1.94112997       4.16569850       5.89339529       0.38852583      -1.12488026       0.54219346
O        5.93812813       4.02877059       5.96944200       0.21591044       0.70163348       0.71513538
O        1.80562324       2.18178075      -0.08078001       1.18407040      -0.66908769      -1.44405983
O        6.06797631       1.87999205       0.02300726      -0.20347530       0.71797876      -0.67191693
O        2.05567052       6.05901983      -0.04029815      -0.49983145      -0.03988192       0.36734765
O        6.20635142       6.08101993      -0.02455336      -0.47566951      -0.40767566       0.18855185
O        2.02145202       2.16715489       3.86094162       0.14655648      -0.23616894       1.55231587
O        5.72225404       1.98755247       4.01802351       1.29209401       0.31988843       0.05606265
O        2.09680356       6.19165379       4.10030977      -0.17400018      -0.63880986      -0.69227775
O        6.01654170       6.05479040       3.98877508       0.19809219      -0.15567850       0.60978159
40
Lattice="8.068094053620356 -4.38423541214265e-18 -5.299365615194938e-18 -1.6788496834586077e-17 8.068094053620356 1.6634455206828052e-17 -2.654045609411134e-17 -6.832089622168243e-17 8.06809405362036" Properties=species:S:1:pos:R:3:REF_forces:R:3 system=batio3_cubic base_model=mace_mp0 config_id=batio3_cubic_c27 T=600.0 draw=1 energy_qe_eV=-74135.43022379414 offset_eV=-73818.25979870005 split=train REF_energy=-317.1704250940966 mock=0 pbc="T T T"
Ba      -0.07017226      -0.01016659       0.13388545       0.75575701      -0.00039158      -0.85691089
Ba       4.06967383      -0.02479370       0.16889051      -0.31279810       0.35768879      -0.85279764
Ba      -0.08078419       4.05676126      -0.12144411       1.43136115       0.96360421       0.70692790
Ba       4.10161781       4.15793430      -0.05432396      -0.80777299      -0.65746656       0.05096698
Ba       0.02143426      -0.10888595       3.87356675       0.10596365       0.88952662       0.91262824
Ba       3.86988119       0.01491611       4.03566140       0.99248130       0.28269254      -0.07310906
Ba       0.06682128       3.93513830       4.00559009       0.45663641       0.61483253       0.25652462
Ba       4.10938619       3.90762033       4.12879442      -1.33091330       0.92529066      -0.54241818
Ti       2.04536019       1.93340307       1.89748981       0.04320173       1.14026780       1.45417250
Ti       6.13821583       2.16127981       1.92626551       0.41266694      -0.77734142       0.50159497
Ti       2.06215370       5.95269681       2.14904803      -0.45026830      -0.73395276      -1.84107287
Ti       6.07435814       6.06453014       2.00632993       0.31823315       0.75586756       0.59973732
Ti       1.98454946       1.89042146       6.10654749       1.02879608       0.87016801      -1.66894523
Ti       6.12200551       2.18107931       6.00076324      -0.11704999      -0.39951601      -0.40386734
Ti       2.02875747       6.07334811       6.16000630      -0.81082618      -1.30540615       0.26870419
Ti       5.99327635       6.31962317       6.00947853       0.13512870      -0.36335627      -0.13340786
O       -0.01829873       2.00769352       2.14880007      -1.51077662       0.03843002      -0.45348398
O        3.88441186       2.01307888       1.89418737       1.84856224      -0.11548881       0.37638971
O        0.01614789       5.91411452       1.91192552      -0.52890060       0.48593798       0.27966198
O        4.07053855       5.89885542       1.97018664      -0.01729195       0.65957152       0.38732744
O       -0.03662853       2.18430463       6.14982233      -0.52696508      -0.75124061      -0.80782442
O        3.90365378       1.99881785       6.00020774       1.13766301       0.09424353       1.34520657
O        0.14540078       6.10290613       6.03890453      -1.31867407       0.14466029      -0.03203646
O        4.00506883       6.20245674       5.99429638       1.44552870      -0.07146330      -0.17686002
O        1.94835575      -0.06973619       1.96331025       0.38205667      -0.38472445       0.08431984
O        6.07700255      -0.00560303       2.05458896      -0.39211997       0.47527125      -0.39347829
O        1.97435602       3.89574967       2.02753184       0.11383945       1.28686567       0.18231230
O        6.05591845       4.09421832       2.02697352       0.00862554      -0.60384749      -0.23711639
O        1.89639762       0.11725500       6.03964312       0.14512823      -1.48277962       0.62506937
O        6.00662258       0.04002178       6.04514419       0.38300335       0.84036095      -0.02363718
O        2.12500680       4.16876542       5.89872915      -0.36934154       0.09256897       0.75499750
O        6.07691869       4.03264036       6.17728930      -0.66801734       0.32042193      -0.78718720
O        1.90374727       1.96702918       0.10286103      -0.08606896       0.13971297      -1.72423012
O        6.20336170       2.17413251       0.02986688      -1.06627350      -0.84918575       0.79522524
O        2.14871147       6.05474652      -0.06827402      -0.27333243       0.04198946       0.03918438
O        6.11202271       6.31776384      -0.06169810      -0.59062302      -1.42770787       0.24977727
O        2.08416440       1.82264744       4.13375570      -1.02024433       1.11118091      -0.32308071
O        5.94235989       2.23163283       4.05773402       0.82183950      -1.02151240       0.37937039
O        1.92116366       6.06879286       3.89308320       0.67154746       0.07795045       0.84822776
O        6.12190987       6.32156667       4.00573558      -0.43976251      -1.66372383       0.23313684
40
Lattice="8.068094053620356 -4.38423541214265e-18 -5.299365615194938e-18 -1.6788496834586077e-17 8.068094053620356 1.6634455206828052e-17 -2.654045609411134e-17 -6.832089622168243e-17 8.06809405362036" Properties=species:S:1:pos:R:3:REF_forces:R:3 system=batio3_cubic base_model=mace_mp0 config_id=batio3_cubic_c28 T=600.0 draw=2 energy_qe_eV=-74135.2318268189 offset_eV=-73818.25979870005 split=train REF_energy=-316.97202811884927 mock=0 pbc="T T T"
Ba       0.05494741      -0.09491851       0.04763553       0.04911450       0.51413990      -0.13029605
Ba       4.23007193      -0.07928899       0.04874797      -1.54133958       0.14614176      -0.12751798
Ba      -0.04253643       4.14912751      -0.09458281       0.23910771      -0.58998616       0.57914587
Ba       3.96829072       4.08639970      -0.04974995       0.79481206      -0.32306451       0.51151120
Ba       0.10005985       0.08406989       4.00400598      -1.45706370       0.04988583      -0.13594605
Ba       3.75427517       0.08978389       4.04207609       1.96522296       0.02997006      -0.35914969
Ba       0.02539656       4.02080275       4.17090300      -0.76620083      -0.36018790      -1.16829873
Ba       4.08211440       3.93276246       4.04079382      -0.03603093       0.32687874      -0.07666464
Ti       1.95690778       2.09054303       1.89262938      -1.35945100       0.79737699       1.78752579
Ti       5.96811832       1.87468720       1.97789897       1.37279040       1.12939229       2.15047505
Ti       2.03219040       6.08889365       1.96687490       0.02173302      -1.07008234      -0.92471396
Ti       6.10912698       5.94530391       1.98063339      -0.03415402      -0.97071743       1.02085522
Ti       2.02083644       2.00750011       6.07768727       0.36648839       1.75514198      -0.51018991
Ti       6.09567206       1.86135098       6.19098205      -0.61499296       2.23299255      -2.05499585
Ti       1.92285663       6.11506748       5.88120723       2.04336958      -0.87452320       1.59927322
Ti       5.88807431       6.03662485       5.98690779       0.44435450      -1.50353665      -1.32070370
O        0.13455079       1.91156157       2.02969473      -0.71325436       0.47056870      -0.28421103
O        4.19260895       1.93526838       1.87211318      -1.99221157       0.38040963       0.22638872
O       -0.05250642       6.06027397       1.89864970       0.49344612       0.24387273       0.41280552
O        4.11255710       5.95148568       2.19270379      -0.79780714       0.84650435      -0.59230015
O        0.05633703       2.09926213       6.19790026      -0.36225532      -0.36363832      -0.52910449
O        4.04426874       2.02856012       6.04240220      -0.32583899      -0.56877378       0.61898717
O        0.21348063       6.04279317       5.93279043      -2.41844854       0.22852788       1.35642661
O        4.07077105       6.08343786       5.92286931      -0.08931781       0.53137966       0.18484895
O        1.87518840      -0.07258072       2.04940550       1.38226517      -0.06594597       0.26337121
O        6.09511675       0.07303749       2.13585803      -0.03814360      -0.89188098      -0.73874376
O        1.91388800       4.09576328       1.99169294       0.60940724      -0.61887096      -0.01728758
O        6.17091257       4.07844621       1.93330477      -0.27836537       0.12553000       0.12987079
O        1.95572866       0.12477606       6.08916349       0.43080556      -1.48732224      -0.28024073
O        6.04714247       0.09889282       6.02481248       0.32188078      -1.84984959       0.03370845
O        2.18625516       3.98206926       6.31279647      -1.15659276       0.58877825      -1.36610116
O        6.02704318       4.09924615       6.02545223       0.16233560       0.89121609       0.55446431
O        2.01063695       1.93013610       0.16061015       0.51768314       0.06264056      -2.30362693
O        6.08598742       1.94025314      -0.06419563       0.10602664       0.14277284       0.98858120
O        2.10576413       6.00693469       0.06489198      -0.05662083       0.99094918       0.22404593
O        6.00926696       6.06844712      -0.02309316       0.20001820       0.45639009      -0.13897250
O        1.92765197       2.27123559       4.04796349       0.98603143      -1.54268786       1.14120933
O        5.89956278       2.10537700       4.00847058       1.10153336      -0.49371686      -0.43850756
O        1.89604336       6.04086503       4.06182659       0.86978003       0.17057161      -0.42548801
O        6.22347814       6.02948828       4.09083446      -0.44011733       0.46275357       0.13956668
40
Lattice="8.068094053620356 -4.38423541214265e-18 -5.299365615194938e-18 -1.6788496834586077e-17 8.068094053620356 1.6634455206828052e-17 -2.654045609411134e-17 -6.832089622168243e-17 8.06809405362036" Properties=species:S:1:pos:R:3:REF_forces:R:3 system=batio3_cubic base_model=mace_mp0 config_id=batio3_cubic_c29 T=600.0 draw=3 energy_qe_eV=-74135.01969095199 offset_eV=-73818.25979870005 split=train REF_energy=-316.75989225193916 mock=0 pbc="T T T"
Ba       0.02504986       0.02005396       0.01057513       0.15294053       0.08735374      -0.37038284
Ba       3.97941244      -0.02663804       0.05120438      -0.24681433      -0.17634939      -0.19071261
Ba       0.15454698       4.10313662      -0.06850109      -0.25307908      -0.66111778       0.50021609
Ba       4.07255223       4.07682587      -0.01352183      -0.80003911      -0.11038260       0.29420619
Ba      -0.05131177       0.07371443       3.96535496       0.01014249      -0.80470027       0.07450620
Ba       4.09679544      -0.05952715       4.24746809      -0.37635525      -0.31936572      -1.68290606
Ba      -0.03647534       3.94917983       4.07007934      -0.07788206       0.70589406      -1.00895642
Ba       3.99124285       4.06731455       4.07302063       0.42449170      -0.11716594      -0.79898548
Ti       2.00857818       1.96397177       2.04626831      -0.86226315       1.89513906      -1.01086777
Ti       5.91913253       1.96008029       1.86711163       1.79197123      -0.50260850       3.04337959
Ti       2.03343766       6.10198782       1.99610798       0.09557330      -1.48552093      -0.42115338
Ti       6.12281678       6.01606309       2.05026895      -0.51508118       0.71592059       0.70452109
Ti       2.05061777       1.92908564       5.93242258      -0.10792103       0.58294108       1.22737857
Ti       6.05517806       1.88632905       5.95357165       0.56435303       1.50345643      -0.51892447
Ti       2.04216496       6.00722451       5.91466340      -1.26716074       0.03282373       0.60504588
Ti       6.06479973       5.96078255       6.16551275       0.40581778      -0.26302977      -1.14013307
O       -0.08414614       1.98888446       1.91791330       0.49201479       0.08836110       0.38202016
O        3.88028635       2.12968886       1.97527067       1.17720195      -0.90302774       0.49458409
O        0.04128631       6.32092119       1.88294696      -1.36081163      -1.95267983       0.55315176
O        4.06330776       6.16269134       1.94023693       0.36612998      -0.79802543       0.44603832
O       -0.19423842       2.24773781       5.93778468       0.73471638      -1.71448538       0.98132914
O        3.86857580       1.98763608       5.93030176       0.85811956       0.27642161       0.38449202
O        0.13995652       6.03931322       5.99632247      -1.55681685       0.07474325       0.42238726
O        4.01069304       5.97153908       6.10876721       0.43463059       0.33241896      -0.55033538
O        2.04163741      -0.20798915       2.01920582       0.26098600       3.49105287      -0.42507586
O        6.19291915       0.00380634       1.96415285      -1.58841519       0.69324526       0.15957577
O        1.95176831       3.98275294       2.03936747       0.09727075       0.12230121       0.34212487
O        6.04745473       4.09539926       2.10781256       0.06331830       0.64368622      -0.49938742
O        1.96841484      -0.05125288       6.01111944       0.23882643       1.40778722       0.17317331
O        5.99416984       0.11316747       6.18978803       0.25724119      -0.58472954      -0.16493293
O        1.99631040       3.96896347       5.72499240       0.16438425       0.12872511       1.12307689
O        6.17058523       4.12930999       6.08626544      -1.25916152       0.26121457       0.25439857
O        2.04108366       2.08172438      -0.02687065      -0.48284777      -0.62461018      -0.81759024
O        5.92380492       2.04074008       0.18418948      -0.24249617       0.29141629      -3.61026207
O        1.98456242       5.96676611      -0.04604672       0.50118437       0.07056727       0.20858640
O        5.95096650       6.20524889      -0.08415725       0.83139243      -0.85487663       0.80132364
O        1.88411981       1.91279110       3.93025431       0.34178291      -0.27591871       0.69835121
O        5.96002176       1.92052171       4.09643450      -0.37174629       0.39843126       0.29719844
O        1.93495834       6.22614488       4.02263912       0.80172242      -1.11118733      -0.17555184
O        6.01882272       6.19876148       4.09646817       0.30267875      -0.54411973      -0.78490766
40
Lattice="8.068094053620356 -4.38423541214265e-18 -5.299365615194938e-18 -1.6788496834586077e-17 8.068094053620356 1.6634455206828052e-17 -2.654045609411134e-17 -6.832089622168243e-17 8.06809405362036" Properties=species:S:1:pos:R:3:REF_forces:R:3 system=batio3_cubic base_model=mace_mp0 config_id=batio3_cubic_c30 T=600.0 draw=4 energy_qe_eV=-74135.57086555954 offset_eV=-73818.25979870005 split=train REF_energy=-317.3110668594891 mock=0 pbc="T T T"
Ba       0.11694459      -0.00859162      -0.04761660      -0.72990045      -0.23564855       0.23263470
Ba       4.20308230      -0.12531965      -0.03835574      -0.87863440       0.53935522       0.21207513
Ba      -0.11448990       4.01866066       0.07807025       0.00546282       0.49031554      -0.42287808
Ba       3.97811063       3.88021149      -0.05380200       0.59765344       0.99170483       0.58072633
Ba      -0.17294972       0.06204046       4.13058412       1.63022647      -0.76975872      -0.89198022
Ba       3.95801055       0.07865794       3.96020881      -0.14288263      -0.40452015       0.26062887
Ba       0.18011097       4.11237954       4.17859788      -1.42780223      -0.19558099      -1.32428911
Ba       4.03299473       4.06590563       4.10658489       0.43165685       0.10162954      -0.90403278
Ti       2.02350636       1.99297835       1.93989365       0.87173895      -1.02369655       1.10503931
Ti       6.15457650       2.00907538       2.02183032      -1.07889222       2.03490345       0.95372809
Ti       1.99364527       5.96172413       1.87122937       0.49442160       0.40015313       0.92389687
Ti       6.04004403       6.14174074       2.02730106      -0.10854632      -2.61170345       0.11269248
Ti       1.92840071       2.04437172       6.06158147       0.49320958      -1.52191978       0.06697312
Ti       6.04582588       2.01957681       6.08157815      -0.42904564       0.54985818      -0.32393972
Ti       1.98252161       6.05732212       5.96402824       0.45587896       1.02277044      -0.46184520
Ti       6.03687788       6.07183866       5.99643192      -0.32115598       0.15106517       0.21367127
O       -0.08295841       2.05019602       1.88885447       0.73283048      -0.50147645       0.11447065
O        4.02402616       1.84438872       1.87547227      -0.81842379       0.55251978       0.13364260
O       -0.11788484       5.85727645       2.12746894       1.56585968       0.56126128      -0.79799766
O        4.10451560       6.03113078       2.02225613      -1.79916620      -0.18870586      -0.22297635
O        0.08000957       2.05379444       5.97993095      -1.00238853       0.36921016       0.18072541
O        4.01174629       2.01948323       6.14251453       0.81045285      -0.16061064      -0.90397827
O        0.03551124       6.12699868       5.96024592      -0.17564928      -0.62751449       0.61498525
O        4.01604273       6.21033215       6.13698949       0.46628113      -0.76524695      -0.83450912
O        1.95931236       0.06901441       2.04172765      -0.33957536       0.25432118      -0.20081524
O        6.04428645      -0.20625842       2.10365110       0.34343176       3.53927982      -1.01195304
O        1.98281942       4.06799698       1.95648703       0.31754898       0.46898027      -0.58168355
O        5.91845914       3.87282706       2.02702702       0.30095302      -0.77730465      -0.21044865
O        1.85370484       0.09095560       6.06645436       0.99904019       0.71999836      -0.56869768
O        6.15390693      -0.09574915       6.10261548      -0.37295034       1.41156623      -0.14124638
O        2.10793512       4.20513391       6.04692761      -0.39204027      -0.97683177       0.40392082
O        6.12565093       4.00668444       5.85931976      -0.43629898      -0.32893305       0.88198300
O        1.81559353       2.06707580      -0.10483591       0.89386124       0.42369055       0.71715112
O        6.05049429       2.00384278      -0.10046488       0.43752437      -0.16449301      -0.22115807
O        2.08013146       6.21976376       0.02335831      -0.65558811      -0.79026764       0.75814762
O        6.07620724       5.99936628      -0.04895483       0.11722945      -0.21558854      -0.13506391
O        2.03892846       2.27699992       3.91008913       0.02188112      -1.06211706       0.20384631
O        6.23846892       1.96553864       3.99512518      -1.40152453      -0.19215062       0.09540695
O        2.00570355       6.10972359       4.05815275       0.46059565      -0.02101388       0.01364356
O        5.96709421       6.20430554       4.00496740       0.06272746      -1.04750111       1.37950355
40
Lattice="8.068094053620356 -4.38423541214265e-18 -5.299365615194938e-18 -1.6788496834586077e-17 8.068094053620356 1.6634455206828052e-17 -2.654045609411134e-17 -6.832089622168243e-17 8.06809405362036" Properties=species:S:1:pos:R:3:REF_forces:R:3 system=batio3_cubic base_model=mace_mp0 config_id=batio3_cubic_c31 T=600.0 draw=5 energy_qe_eV=-74135.44425112646 offset_eV=-73818.25979870005 split=train REF_energy=-317.1844524264161 mock=0 pbc="T T T"
Ba       0.00541794       0.17715474       0.03229742      -0.21049416      -1.50791292      -0.36531391
Ba       3.97837935       0.02416715      -0.18730612       0.15078234       0.01910510       0.99439600
Ba       0.06992567       3.98247715       0.05780899      -0.99816781       0.63758730      -0.31051264
Ba       4.04141122       4.04171547       0.06937837       0.43698315      -0.33683765      -0.80019390
Ba      -0.07006907      -0.10108103       4.01894139       0.97494355       0.35539099      -0.09976960
Ba       4.02241046       0.00603281       4.12526809      -0.73328171      -0.39533231      -0.67036938
Ba       0.10026580       4.09166963       4.01349121      -0.66226321      -0.26982982      -0.13512510
Ba       4.09930876       4.00144566       4.14927215      -0.53866411       0.41948499      -0.52739445
Ti       1.99005478       2.00111557       1.95563376      -0.63887748       0.00824090       0.88347887
Ti       5.90571246       1.90448193       2.07785415       1.49535231       2.23893103       0.03398330
Ti       2.04223878       6.02407679       1.92474088      -2.14609210       0.65238863       1.77518270
Ti       5.96115467       6.07531094       1.99377424       1.64184426      -1.10641922       0.50715807
Ti       1.87510576       2.03553982       6.05065890       0.59780591      -0.00121999      -0.71183614
Ti       5.97183468       2.01031506       6.04215635       0.02586093       1.02200271      -0.05562813
Ti       2.04897000       6.08655678       6.13333933      -1.24715241      -0.24960835      -0.93222570
Ti       6.07448044       6.11134817       6.07575535       1.12202788      -0.55742442       0.01505587
O       -0.07093404       2.03173679       1.94753021       0.82532669      -0.13921572       0.26757831
O        3.84617714       1.88301547       2.00939486       2.16588111       0.00694275       0.10614285
O        0.16178402       5.90064374       1.98311818      -0.77697041       0.29391360      -0.68627166
O        4.18200440       6.03822023       2.02442582      -0.72544010       0.19713805      -0.48974116
O        0.00802623       1.93157719       5.94367333       0.18123912       0.17529319       0.70428018
O        3.98615775       1.91037230       5.91958785       0.81141393       0.59580276       0.64834506
O        0.04504995       6.16062578       6.06297803      -0.88815236      -0.59193685      -0.39733443
O        4.06652006       6.09752423       6.06351922       0.14863162      -0.55296767      -0.30503208
O        1.91703810      -0.11488668       1.87982989       0.73112789       0.88231416       0.14825778
O        6.14254977       0.08386770       2.03295539      -0.68650331      -1.33011394       0.16394382
O        2.13663235       3.99696703       1.80643706      -0.14985186      -0.58273770       0.50271083
O        6.07864077       3.91373966       2.01899961      -0.86376262       0.67040358      -0.35640118
O        1.96630591      -0.07905344       6.14361054       0.42416003       1.40092032      -1.04743375
O        5.99583294      -0.08374617       5.97579156       0.23368088       0.78702650      -0.03159706
O        1.98657044       4.10996660       6.20768159       0.19175210      -1.55808620      -1.11005733
O        6.13792361       3.99355542       5.87962081      -0.48882790      -0.09325725       1.42514654
O        2.11539654       2.01124690      -0.08189248      -0.74888136      -0.17746397       0.23030399
O        6.02321420       1.89061900      -0.07464843      -0.55991479       0.59476404      -0.05515453
O        1.98456981       6.10107987      -0.16639997       0.78583094      -0.39879970       2.27068673
O        6.13946200       6.11041574      -0.03359649      -0.46052057      -0.27970234       0.53584490
O        1.97543485       1.96728270       4.03002291      -0.00529544       0.28041454      -0.32663629
O        6.01588847       2.14155905       4.10858502      -0.23201172      -1.57232754      -1.64609275
O        1.95787165       5.95474397       3.83394913       1.26278729       0.35641249       0.54066391
O        6.13643686       6.05044623       3.99391327      -0.44630597       0.10671646      -0.69303880
40
Lattice="8.068094053620356 -4.38423541214265e-18 -5.299365615194938e-18 -1.6788496834586077e-17 8.068094053620356 1.6634455206828052e-17 -2.654045609411134e-17 -6.832089622168243e-17 8.06809405362036" Properties=species:S:1:pos:R:3:REF_forces:R:3 system=batio3_cubic base_model=mace_mp0 config_id=batio3_cubic_c32 T=600.0 draw=6 energy_qe_eV=-74135.69692270347 offset_eV=-73818.25979870005 split=train REF_energy=-317.4371240034234 mock=0 pbc="T T T"
Ba       0.11069381       0.06359326       0.00650450      -0.37859983      -0.65623063      -0.32461334
Ba       4.19079877      -0.04644270       0.06273980      -1.52956573      -0.61139933      -1.05505038
Ba      -0.13220544       4.05009655      -0.01117827       1.25663567      -0.20745769      -0.63004189
Ba       3.99920932       4.13978630       0.17381470      -0.30006137      -0.38828183      -1.19597460
Ba       0.00157864       0.10097572       4.12038423       0.05042396      -0.18427328      -0.50048117
Ba       4.02603823      -0.00324589       3.99007668      -0.20243401      -0.04960532       0.14155903
Ba       0.05310527       3.93423797       3.89904539      -0.42645063      -0.04736666       0.80935371
Ba       3.97495001       4.04231448       4.13820066       0.27185636      -0.16752460      -0.87897250
Ti       2.00485897       1.88359304       1.97977469      -1.24926740       0.54805764       0.44622987
Ti       5.93684184       1.93314755       1.88197800       1.50328699      -0.02578045       1.63551266
Ti       2.07036478       5.98729742       1.97959469       0.34013921      -0.60381329      -0.15223348
Ti       6.23574475       5.94892345       1.99775737      -0.67250983       0.06221761       0.39597097
Ti       1.94132489       2.05849194       6.07785176      -0.47195324      -0.66706834       0.17734030
Ti       5.88229891       2.05340209       6.09602425       1.12717497       0.50118077      -2.09592062
Ti       1.96262266       6.02605588       5.95040046      -0.38199317       0.55809239       1.09722187
Ti       6.00565493       6.11497892       5.95626117       0.04126981      -1.13363229       1.01917321
O        0.00342948       1.97078731       2.12405966      -0.11074564       0.16599813      -0.85874306
O        3.99208863       1.87345997       1.94695587       1.07780747       0.64314012       0.10110812
O        0.05657157       5.83427730       2.05758042      -1.65476919       1.31407180      -0.71560743
O        4.01676745       6.09876133       1.92582450      -0.32478175      -0.03897895       0.19941348
O        0.13144835       2.17889738       5.99340147      -1.02385750      -1.04715015       0.51597258
O        4.11260215       1.91993677       6.24544065      -0.15430039       0.82181250      -0.60299928
O        0.05039663       5.96912382       5.95216569      -0.20707253       0.61761318      -0.19479449
O        3.98305832       6.10589768       5.97839701       0.34258278      -0.38392869      -0.17719426
O        1.91396475       0.03337113       2.04527822       0.34933913      -0.71113834      -0.31152874
O        6.08617146       0.02545178       1.75876692       0.33347748      -0.17071791       1.14246789
O        2.05247391       4.08488637       2.03680680       0.38515485      -0.18549892      -0.42779274
O        6.05007521       4.01259584       1.91887183      -0.35347115       0.30063704       0.43770897
O        2.00156135       0.05856043       6.14244062      -0.00994786      -1.08496363      -1.02569610
O        5.96254965      -0.02421326       5.99422774       0.80949409       0.07386317       0.27182294
O        2.02077760       3.92494801       6.02594008       0.88133997       1.65615579      -0.05003907
O        6.04711846       4.11545973       5.81001145      -0.42823086      -0.66516187       1.06373068
O        1.90331541       1.93779625       0.00370909       0.67701954       0.71813534       0.42345426
O        6.09938951       2.08465000       0.05068847      -0.09494904      -0.10344834      -1.14038530
O        1.94792031       5.97316374      -0.05074564       0.16639974       0.34725474      -0.08034209
O        6.10838581       5.96565070      -0.15178841      -0.20586772       0.41320585       0.08589053
O        2.05622959       2.01849463       3.95878462       0.53173756      -0.17668415       0.57652797
O        6.14715045       1.97487279       4.12346392      -1.30697401      -0.13581210       0.01442363
O        1.92760833       6.03347258       3.90951445       0.76644277       0.30701569       1.52930604
O        5.95081219       6.06224310       3.84729226       0.57622099       0.39746581       0.33422207
40
Lattice="8.068094053620356 -4.38423541214265e-18 -5.299365615194938e-18 -1.6788496834586077e-17 8.068094053620356 1.6634455206828052e-17 -2.654045609411134e-17 -6.832089622168243e-17 8.06809405362036" Properties=species:S:1:pos:R:3:REF_forces:R:3 system=batio3_cubic base_model=mace_mp0 config_id=batio3_cubic_c33 T=600.0 draw=7 energy_qe_eV=-74134.75114955986 offset_eV=-73818.25979870005 split=train REF_energy=-316.49135085981106 mock=0 pbc="T T T"
Ba      -0.21864864       0.11092609       0.00905644       1.43628636      -0.84537486      -0.02326051
Ba       4.07754747      -0.10649295       0.06037651       0.27667050       1.12328438      -0.88475748
Ba       0.20059462       4.03042006       0.14662786      -1.79334883       0.35369715      -0.93220719
Ba       3.98902353       3.95229207      -0.17731226       1.38915521      -0.03819708       1.06127502
Ba      -0.05109615      -0.10981579       3.88334249       0.29067427       0.73968118       0.61555732
Ba       3.93653353       0.15100086       4.13493200       0.86872099      -0.85558420      -0.60355310
Ba       0.11379346       4.16360122       4.00282993      -1.17841191      -1.78789089      -0.18939594
Ba       3.91208735       4.00103517       4.10905106       1.35039480       0.11631336      -0.61712698
Ti       2.18478609       1.97131133       1.99225425      -0.08101340       0.52917982       1.05321436
Ti       6.17264118       2.13615706       2.05206999      -0.59969439       0.79927113       0.17710350
Ti       2.22859385       6.00242420       1.88593579      -4.66816021      -0.48411404       1.44589689
Ti       5.98073296       6.11650310       2.03911841       2.40783811      -0.91448303      -0.05598449
Ti       1.97659077       1.99622582       6.09885640      -1.92184331       0.78729596      -0.87078533
Ti       6.03275736       1.96315150       6.06155663       1.30262885       0.76740642       0.21159742
Ti       2.01140330       6.09401464       6.02059265      -0.63656606      -0.86204384      -1.39478284
Ti       6.07477645       5.98782707       6.03653391      -0.47187919      -0.88766720       0.74920249
O       -0.08013702       2.07972139       1.92976883       0.70347671      -0.42038308       0.38055052
O        4.03158152       1.95259753       2.08976597      -0.14032155      -0.06678466      -0.92216909
O        0.06869589       6.00742406       2.06508354      -0.61098436       0.27814168      -0.18004690
O        3.96929244       6.14121565       1.92976569       1.78249748      -0.23073543       0.53355867
O        0.02304800       2.07312510       6.06937043       0.96998698      -0.31883942      -0.27819053
O        4.24583348       1.90303311       6.00758734      -2.18066161       0.47791820       0.36977169
O        0.05524349       5.83921006       5.92803986       0.22235749       1.32137245       1.20363752
O        4.12505966       5.94803322       6.12517756      -1.39920720       1.00926418      -0.19479655
O        1.98224507       0.15242227       2.15834717       0.25229978      -2.08639417      -0.73198381
O        6.13934070      -0.05202598       1.99166656      -0.86677981      -0.56176701       0.22977203
O        2.05078086       3.88931417       1.98367679       0.66230460       2.35840968      -0.13402312
O        6.01779436       4.03833227       2.02718641      -0.24563754       0.19040613      -0.38689652
O        1.98544231       0.05599821       6.03057446       0.34031121      -1.44252668       0.14556146
O        5.99146349      -0.04797039       6.09086315       0.89004675       0.00434131      -0.53144908
O        2.21737250       3.99521127       6.04868748      -0.84176066       0.16980697       0.55398917
O        6.01566397       4.04788922       6.11409730       0.26269141      -0.17025922      -0.45671997
O        1.98671366       2.07018831      -0.08632435       0.84611097      -0.78370695       0.42213117
O        6.09232793       1.97976002       0.00665345      -0.65153014       0.16893279      -0.59215128
O        2.00169053       6.05064090       0.11084763       0.34294017       0.33760950      -1.24533001
O        6.14453602       6.04980229      -0.02021357      -0.47798042       0.08661712       0.17558758
O        2.12165640       2.13031206       4.01114588      -0.62620374      -0.66538941       0.63397028
O        6.08506440       2.05698908       3.94599211       0.01740508      -0.52375480       0.91545722
O        1.85988847       5.86341099       4.12735065       2.32170821       1.74425078       0.28664072
O        5.89750546       5.98320559       3.97069469       0.45547761       0.58269554       0.06113492
40
Lattice="8.068094053620356 -4.38423541214265e-18 -5.299365615194938e-18 -1.6788496834586077e-17 8.068094053620356 1.6634455206828052e-17 -2.654045609411134e-17 -6.832089622168243e-17 8.06809405362036" Properties=species:S:1:pos:R:3:REF_forces:R:3 system=batio3_cubic base_model=mace_mp0 config_id=batio3_cubic_c34 T=600.0 draw=8 energy_qe_eV=-74135.70421916393 offset_eV=-73818.25979870005 split=train REF_energy=-317.44442046388576 mock=0 pbc="T T T"
Ba       0.02245480       0.09969669      -0.11000346      -0.30547380      -0.80286784       0.39400022
Ba       3.89074031       0.13592441       0.00599292       1.38002317      -1.56927899      -0.61709664
Ba       0.05682699       3.99973551       0.05254486      -0.11634550       0.52197688      -0.21158585
Ba       4.05870356       3.95078811      -0.00003801       0.01598429       0.64234307       0.30400184
Ba      -0.04956322      -0.09118166       4.08353104       0.17349084       0.36687919       0.01847800
Ba       4.11348486      -0.01368715       4.06840676      -0.41218820       0.12992967       0.21542991
Ba       0.02878069       3.95923946       3.96196756      -0.24701257       0.56108696       0.30889439
Ba       3.93756431       4.07219694       4.03127774       0.91641521      -0.18331451      -0.26062296
Ti       2.04554716       1.86098973       1.94138520      -2.63230184       1.57180201       0.90881812
Ti       5.98814214       1.94920966       1.95748587       4.67051842       0.45235218       0.24137671
Ti       1.96869078       6.06002821       2.11768210       0.34982430      -0.68112765      -0.23507468
Ti       6.01694261       6.08324286       1.91939904       0.89889495      -0.71719483       0.93099491
Ti       2.00646469       1.98204911       5.97472665      -0.15585950      -0.82379688      -0.35535988
Ti       6.04739609       2.14447626       6.03006050       0.07028573       0.06541221      -0.50384597
Ti       2.16117723       5.94591375       6.16004002      -1.47064375       0.57468244      -0.37352755
Ti       6.01194445       6.14178858       6.08094974       1.89843367       0.07417530      -1.48194607
O        0.16634463       2.01988750       1.82727753       0.71354643      -0.25818272       0.74181726
O        4.32760206       1.89065481       2.09943074      -4.63449598       0.52951664      -0.27941772
O       -0.05254005       6.16522080       2.05348882       0.02575500      -0.58790871       0.05873737
O        3.80518984       6.09045013       2.08818438       1.61992997       0.08237300      -0.25789553
O        0.02400353       2.15686369       6.18519685       1.40624456      -0.44131854      -0.93991021
O        4.08052057       1.99545017       6.04136879      -0.32434415       0.05508794      -0.15296058
O       -0.07450392       5.97721580       6.01492561      -0.46231160       0.07407065       0.69636427
O        4.05684264       6.04523710       6.19649197      -0.76091772       0.04056944      -0.08376037
O        2.05297690       0.01092081       2.02243781      -0.02604399      -0.52098366      -0.37442204
O        6.18685572       0.08860960       2.03831888      -0.62825009      -0.71791422      -0.04941377
O        2.01538229       3.97603664       2.02715493       0.36332310       0.92195209       0.28108123
O        6.01714200       4.13092401       2.10497442      -0.02555959       0.71995234      -0.60727965
O        1.91386795       0.01599276       6.01837432       0.68954930       0.83740701       0.67571034
O        6.01925379       0.01961621       6.07150647       0.14908259      -0.24774687       0.34874829
O        2.12686918       4.00999041       6.03904133      -0.23302731       0.09752503      -0.01866775
O        5.98502352       4.01611604       6.06487282      -0.14664827       0.24923246       0.33833069
O        2.23462295       1.99873389       0.00394186      -0.48241454       0.21988666      -0.17568605
O        6.25767427       2.05058863      -0.03390801      -1.51709870       0.09677684       0.74393893
O        1.99778665       6.01588283      -0.00099234      -0.05531574       0.19285253      -0.05355916
O        5.97045204       6.14805716       0.11049505      -0.02077914      -0.22666100      -0.12599537
O        2.08682568       1.84621851       3.93963241      -0.08558097       1.02346129       1.25747488
O        6.24802074       2.16513022       4.05923911      -0.49282417      -0.86830782       0.14401263
O        2.03693541       6.16858957       4.18786167      -0.03549614      -0.76663226      -1.18368344
O        5.93838317       6.19322782       4.15768634      -0.07036904      -0.68806732      -0.26649844
40
Lattice="8.068094053620356 -4.38423541214265e-18 -5.299365615194938e-18 -1.6788496834586077e-17 8.068094053620356 1.6634455206828052e-17 -2.654045609411134e-17 -6.832089622168243e-17 8.06809405362036" Properties=species:S:1:pos:R:3:REF_forces:R:3 system=batio3_cubic base_model=mace_mp0 config_id=batio3_cubic_c35 T=600.0 draw=9 energy_qe_eV=-74134.69251596654 offset_eV=-73818.25979870005 split=train REF_energy=-316.43271726649255 mock=0 pbc="T T T"
Ba       0.12032190       0.00125856      -0.05968882      -0.81670681      -0.66139880       0.34426274
Ba       4.04643499      -0.11796453      -0.01349125       0.14806649       0.11084900      -0.10387308
Ba       0.09237270       3.91633327      -0.15164020      -0.49778537       1.01474397       1.58932073
Ba       3.94469094       4.14036774       0.01292001       0.77705062      -0.47134132       0.49044178
Ba      -0.05072410       0.22578580       4.15004086       0.29856627      -0.93341586       0.03669993
Ba       4.08911262      -0.07742375       3.93765728      -0.29869662       0.59802523       1.37728211
Ba      -0.05040339       4.04890091       4.03558360       0.04189098      -0.38673454      -0.17644144
Ba       3.93211022       4.07950750       3.94674853       0.75046310      -0.37535175       0.32572380
Ti       2.04788925       2.02306176       1.94964587       0.02372357       0.11284726       0.62412218
Ti       6.07568092       2.03592806       2.05370059       0.37554690       1.75284727      -0.61637133
Ti       2.02503668       6.09155942       2.04664600       0.85869446       0.10558929      -2.67401105
Ti       6.22974675       6.20843566       2.06942336      -1.71368474      -1.92609668      -0.43340135
Ti       2.05326219       2.03100690       6.11171468       0.84520851      -0.65986668      -1.90562453
Ti       6.00127784       1.98253212       6.18102193      -0.97764192      -2.11542295      -1.02958900
Ti       1.93752520       6.03488810       5.89576517       0.90810361       0.55676133       3.48567181
Ti       6.00341791       5.88902899       6.10159213      -0.52126211       3.22375250       0.23409534
O       -0.00528359       1.88750145       1.92401469      -0.75283777       0.62808579       1.07581178
O        3.93688080       2.04926903       2.10721087       0.72373880      -0.54126092      -0.23161911
O       -0.07568437       6.11501778       1.89577053       2.44240556      -0.54771414       0.70703331
O        4.05014018       6.16646487       1.99689832      -1.06999903      -0.76187932       0.91483939
O       -0.00849497       2.00750236       6.17145967       0.04583814       0.24106406      -0.17028699
O        4.05667839       1.83638623       6.19678161      -0.74688387       1.40568483       0.03145642
O        0.09228252       5.89544085       6.22290543      -0.65308051       0.47480536      -0.77433451
O        4.02781062       6.11640754       5.99976658       0.24411313      -0.65335768      -0.00527050
O        1.99705986      -0.04780274       2.15206701      -0.15820126       0.01009235      -0.25598006
O        6.11892598      -0.10805453       2.34260955      -0.32778043       2.94200845      -1.24007828
O        2.01595203       4.05339249       1.92199279      -0.52055017      -0.92517445       1.55257247
O        6.01500539       3.93758246       2.23526905       0.32836715      -1.65550401      -0.99638629
O        2.05781460      -0.02713949       6.26292610      -0.63977634      -0.26655449      -0.95744848
O        5.93297042      -0.01177609       6.03163624       1.22473959       0.55954378       0.56268130
O        2.06400573       3.99114310       5.93071392       0.08445945      -0.22858033       1.23097400
O        5.85758880       4.16792294       6.27969653       0.71707219      -2.62215010      -0.86141572
O        2.01816125       1.92018485       0.10068310       0.20709002       0.57839974      -0.26825013
O        6.08987431       1.95878014       0.05988571      -0.41875814       0.05861832       1.31099933
O        2.15878054       5.85107930       0.15514871      -1.12712355       1.47238876       0.21640050
O        6.12961703       6.03158947       0.05356848      -0.62145440       0.30577641      -0.60164868
O        1.96658442       2.03961195       4.18589310       0.11668720      -0.38489903      -0.17961727
O        5.99369986       2.05385105       4.27595405       0.39543669       0.34747534      -1.17864768
O        1.85955670       6.02869193       4.18493646       0.20407000       0.18857216      -3.25243419
O        6.13280023       6.00427985       3.96952084       0.10089137      -0.57122790       1.80234074
40
Lattice="8.068094053620356 -4.38423541214265e-18 -5.299365615194938e-18 -1.6788496834586077e-17 8.068094053620356 1.6634455206828052e-17 -2.654045609411134e-17 -6.832089622168243e-17 8.06809405362036" Properties=species:S:1:pos:R:3:REF_forces:R:3 system=batio3_cubic base_model=mace_mp0 config_id=batio3_cubic_c36 T=600.0 draw=10 energy_qe_eV=-74135.35006177842 offset_eV=-73818.25979870005 split=train REF_energy=-317.09026307836757 mock=0 pbc="T T T"
Ba       0.14669156      -0.06700516      -0.06407958      -0.33660857       0.77725014       0.48281975
Ba       4.11753754       0.05343381      -0.09804191      -0.27307095      -0.29538684       0.69938274
Ba      -0.18405452       4.09172773       0.22825035       1.91470567      -1.12325481      -1.49225645
Ba       3.97822371       4.01469594      -0.11274341       0.32102640      -0.29571389       0.99736126
Ba      -0.02568565      -0.09536935       4.02160769       0.41980818       0.36724815       0.19036242
Ba       4.06716762      -0.00224634       3.98038177      -0.22006149      -0.22124086       0.31823058
Ba      -0.16584428       4.07871510       4.07912262       1.29172788      -0.37494963       0.15130479
Ba       4.00082950       4.12014095       4.02533481       0.10167787      -0.47397541       0.05994321
Ti       2.06692850       2.02860224       1.98259036      -0.57499997      -1.01148715      -1.35769519
Ti       6.07415945       1.96331316       2.02868852       0.06554282       0.20700620       0.51458984
Ti       2.09231765       6.02445051       2.07451063      -0.09970610       0.58925211       0.69223430
Ti       6.07856032       6.04209685       2.02051181       0.18517471       0.85412973       0.78102658
Ti       1.93954838       2.10788508       5.96888414      -0.53290638       0.11306272       1.12299975
Ti       5.96444164       1.98087266       6.07866714       1.06333525       0.62482846      -0.56244990
Ti       2.18327077       6.10988949       6.18178256      -1.31972591      -0.85175146      -0.69414643
Ti       6.12317970       5.99306274       6.21382350       0.76186775       0.51455976      -1.22322444
O        0.06003491       2.08874514       2.04134390      -0.73425101      -0.07711098       0.20308398
O        4.00859757       1.72374846       1.98967623       0.15377691       1.17127067       0.47499871
O       -0.06236463       5.94274912       2.10308764      -0.33961316       0.19785102      -0.62331254
O        3.93656322       6.13171983       1.95387138       1.44938125       0.06105342      -0.20442816
O        0.13666213       2.06132317       5.98538664      -0.41676142      -0.60400433       0.76836364
O        4.19157405       2.20244161       6.03524047      -1.31905151      -0.73133230       0.21173909
O        0.04636047       6.25658705       6.08885838       0.02609207      -0.94514266      -0.47159791
O        4.22725182       5.93918621       6.16763899      -1.11619250       0.24178654      -0.52631022
O        1.84607361      -0.00917427       2.00891498       0.40053494       0.44969340       0.21951410
O        6.15580939      -0.04527350       2.01980818      -0.26901375      -0.18932061      -0.10441893
O        2.05928419       4.16721259       2.01544256       0.10100039      -2.10593481       0.24916664
O        5.90892821       3.86686856       1.90886139      -0.05902610       0.34454248       0.02413186
O        2.17373819       0.01032898       6.13811606       0.17414339       0.33193225      -0.33310724
O        5.98962709      -0.15708889       5.88312584       0.13615611       1.03683900       0.44418610
O        2.03003086       4.22259631       6.03192620       0.10037818      -1.55784529      -0.09665497
O        6.23504493       3.93157819       6.10312779      -0.29096197       0.96135656       0.13515209
O        2.14436706       1.97062768       0.08433407      -0.46716430       0.69949355       0.39793709
O        6.13282314       1.89500947      -0.07846091      -0.07909742      -0.23549197       0.65014252
O        2.16295946       5.84785231      -0.03733108      -0.78060749       1.65806303       0.04044834
O        6.24900914       6.04634546      -0.06398141      -0.96949847       0.12648876       1.19454404
O        1.95554682       2.14391144       4.21350665       1.08592522      -0.45953970      -2.41090801
O        5.94589343       2.07060641       4.06982244       0.79110402      -0.56908720      -1.32868209
O        2.12638515       6.07120431       4.02552922      -0.12587401       0.35833645      -0.23294940
O        6.00070435       5.87125329       3.81950108      -0.21916649       0.43652575       0.63847896
40
Lattice="8.068094053620356 -4.38423541214265e-18 -5.299365615194938e-18 -1.6788496834586077e-17 8.068094053620356 1.6634455206828052e-17 -2.654045609411134e-17 -6.832089622168243e-17 8.06809405362036" Properties=species:S:1:pos:R:3:REF_forces:R:3 system=batio3_cubic base_model=mace_mp0 config_id=batio3_cubic_c37 T=600.0 draw=11 energy_qe_eV=-74135.56012345759 offset_eV=-73818.25979870005 split=valid REF_energy=-317.3003247575398 mock=0 pbc="T T T"
Ba      -0.12750753      -0.05417734       0.12135711       1.01873869       0.38909173      -0.40128235
Ba       4.00255826      -0.00825512      -0.08992415       0.15443537       0.03507473       0.76415114
Ba      -0.16771296       4.08014972      -0.07207637       1.36788370      -0.50109258       0.61498576
Ba       3.99275969       4.01445339      -0.00513864       0.05199182      -0.04560443      -0.13472683
Ba       0.03242741       0.06303786       4.19744433       0.21738806      -0.77512333      -0.98348604
Ba       4.11100493       0.03444869       4.08732316      -0.67349199      -0.59573514      -0.55291316
Ba       0.07584627       4.16699294       3.99346335      -0.15870340      -0.71159060       0.20469092
Ba       4.06092369       3.89607001       3.89696956      -0.07770285       1.31341848       0.99003618
Ti       2.10171329       2.04504720       1.99863907      -1.21547951       0.41234555      -0.00452103
Ti       6.10894997       2.01590775       2.10386677       1.53640820       0.91212456      -1.80215537
Ti       2.01388874       6.04024682       2.12815204       0.22255932       0.42346403      -0.05229110
Ti       6.04537651       6.07466799       1.92103395      -0.82013486      -1.26947267       1.92661527
Ti       1.91646120       1.98147719       6.05560090       3.05124716       0.25608933      -0.45344130
Ti       5.97591806       1.96303459       5.98626054      -1.12072561       0.42439040       2.26707021
Ti       2.10666339       6.05185096       6.04181405      -0.66941730      -0.91339083       0.89039899
Ti       6.03557961       5.97839483       5.99567944       0.42021724      -0.53852039      -1.41821742
O       -0.11304717       2.17764622       2.01845502      -0.24235038      -1.54089709       0.20056842
O        3.87397509       2.10758723       2.00982533       2.79593405      -0.88192695       0.37698543
O        0.08675891       5.89813022       2.01671982       0.08110648       0.98873726      -0.39728917
O        4.05471128       5.83516493       2.01974576       0.04069414       0.96052660       0.00923695
O        0.20083657       2.01918150       6.03410302      -2.24659678       0.06549525       0.32268939
O        4.14409689       1.90173078       6.11508417       0.20302099       0.77390025      -0.72424351
O        0.02073909       5.93677744       6.12875487      -0.47983573       1.03840455      -0.51884168
O        4.15792770       6.11185714       5.96568712       0.26136138      -0.08078226       0.27738475
O        1.96734633      -0.11802155       2.16464375       0.12674099       0.39044464      -0.51749159
O        5.98229379      -0.05635350       2.16476691       0.46474155       1.20710439      -0.56387763
O        2.03784331       3.96728338       1.97717770      -0.39440440       0.34846187       0.05872477
O        6.18751901       4.07577183       1.88248845      -1.26559288      -0.78151380       0.88920600
O        2.18396933       0.01825004       5.99785577      -0.97255191       0.64955270      -0.22495790
O        6.06040263       0.08998023       5.99857758       0.83610424      -0.89262325       0.17362788
O        2.19455446       4.13607935       5.98224153      -0.27971751      -0.96255700       0.47406643
O        6.01999274       4.02261722       6.20480556       0.04983055       0.86966562      -1.00098394
O        2.16136248       1.90096215       0.11094201      -1.19206473       0.22001444      -1.21966912
O        6.05870962       2.00781538      -0.03982470       0.20121196      -0.50265504       0.64472623
O        2.07010350       6.13799364      -0.18690730       0.20003363      -0.14466980       1.09265225
O        6.03196673       6.14981492       0.12401064       0.19001455       0.09428261      -1.80381476
O        2.11357751       2.13545527       4.06727817      -0.58333471      -0.84107135       0.40063367
O        6.13303283       2.06554031       4.05362041      -0.35648808       0.12175896      -0.45947053
O        2.09402821       6.01508502       4.04734440      -0.25707406       0.10153826      -0.88550773
O        6.20000987       6.02361050       4.00530049      -0.48599789      -0.01666075       1.54073100
40
Lattice="8.068094053620356 -4.38423541214265e-18 -5.299365615194938e-18 -1.6788496834586077e-17 8.068094053620356 1.6634455206828052e-17 -2.654045609411134e-17 -6.832089622168243e-17 8.06809405362036" Properties=species:S:1:pos:R:3:REF_forces:R:3 system=batio3_cubic base_model=mace_mp0 config_id=batio3_cubic_c38 T=600.0 draw=12 energy_qe_eV=-74134.96023761573 offset_eV=-73818.25979870005 split=train REF_energy=-316.7004389156791 mock=0 pbc="T T T"
Ba      -0.03726393       0.09105011       0.01584998       0.17599330      -0.53722532      -1.02335948
Ba       4.00605711      -0.08229009       0.03207741       0.50057373       1.58746208      -0.59439020
Ba      -0.02248039       4.04696491       0.00021969       0.14084092      -0.23895576      -0.63217025
Ba       3.96562070       4.05446951       0.03748310       0.41101707      -0.96904595      -0.75381119
Ba      -0.03354143      -0.09991894       3.99400362       0.31929296       0.26344937       0.46131916
Ba       4.08929352       0.02937563       4.09279011      -0.56073652      -0.25409416      -0.35989402
Ba       0.07003049       4.05192469       4.14212003       0.12006692       0.19124919      -0.43694921
Ba       4.04458089       4.00997963       4.01298107      -0.30522440       0.42026584       0.07386985
Ti       2.05712151       1.96854345       2.13109471       1.00600762      -1.14361769      -0.91599407
Ti       6.13099721       2.10284085       2.04488766      -0.80218341       0.53950795      -0.77999994
Ti       2.05832378       6.05818070       1.86440677      -0.68475471       1.76490831       1.15709618
Ti       6.04614737       6.11749995       1.86047539       0.69307248      -0.21730912       0.72160324
Ti       2.03596202       1.97947660       6.09419558      -0.77518323       0.16364892       0.86138641
Ti       5.98777750       2.03426997       5.97644418       0.34568842      -0.32556877       2.15973591
Ti       2.05508388       6.08531963       6.05543046      -1.49938097       0.06936656      -1.36580419
Ti       6.02557866       6.05582059       5.92290067       2.02660445       0.82578151       0.56476441
O        0.02023557       1.80745657       1.90242821      -0.93987113       1.74656658       1.11875435
O        3.99556590       2.08875843       2.07733395       0.12399325      -0.20864734      -0.36102556
O       -0.04307715       6.02707764       1.97158975      -0.56045627       0.13092957      -0.21257547
O        4.04248118       6.05159741       1.70349607       0.88445743       0.24592550       1.41631712
O        0.06963549       1.81978255       6.09834186      -0.03237713       0.79884432      -0.73075663
O        4.06476439       1.81933562       6.15082083       0.40156132       0.96579479      -1.12773984
O       -0.06350888       6.11116360       5.94930631       0.03902523      -0.78847789       0.06905083
O        3.84675979       5.87504347       6.03624439       2.08808441       0.59655738       0.02801834
O        2.08169343       0.14818732       2.22712832       0.06649181      -0.45001427      -0.82430776
O        6.09846114      -0.11656605       1.97803246      -0.62785799       0.35802560      -0.15064865
O        2.09665373       4.36013270       1.96220200      -0.49568478      -3.47885684       0.65571898
O        6.05585804       3.96469848       1.90291768       0.32370574      -0.14697531       0.34134737
O        2.10561740       0.04621659       6.23259388      -0.14608391      -0.83494338      -0.83479297
O        6.17073573      -0.06322953       6.01096872      -1.32487275      -0.16020595      -0.67273377
O        1.99335294       3.97925804       6.05614957      -0.12055260       0.37235359       0.25713654
O        6.24307374       3.89030022       5.92001109      -0.95441972       0.66314664      -0.00320822
O        2.03340063       2.14232823       0.04395884       0.03946463      -0.29698941       0.57268109
O        5.89756763       2.11075108      -0.13431248       1.01478228      -0.64072688       1.11428449
O        2.02444261       6.23304907       0.02907426      -0.81789286      -0.42576748      -0.30633126
O        6.15486137       6.03839545      -0.29069733      -1.00976477      -0.36255023       2.58626804
O        2.18472830       2.05028151       4.09915458      -1.03051306       0.38713872      -0.56314564
O        5.94042936       2.08836194       3.96351706       0.74653163      -0.68774130      -0.59966739
O        1.86712060       6.12167733       4.12706524       1.03168780       0.04257104      -0.15240934
O        5.88982409       5.99647981       3.98629860       0.18886630       0.03421958      -0.75763725
40
Lattice="8.068094053620356 -4.38423541214265e-18 -5.299365615194938e-18 -1.6788496834586077e-17 8.068094053620356 1.6634455206828052e-17 -2.654045609411134e-17 -6.832089622168243e-17 8.06809405362036" Properties=species:S:1:pos:R:3:REF_forces:R:3 system=batio3_cubic base_model=mace_mp0 config_id=batio3_cubic_c39 T=600.0 draw=13 energy_qe_eV=-74135.53232498812 offset_eV=-73818.25979870005 split=train REF_energy=-317.27252628807037 mock=0 pbc="T T T"
Ba       0.00071910      -0.16304527       0.04359717      -0.27221452       0.64486507      -0.20439345
Ba       3.92549221      -0.00694099       0.03920758       1.02515257       0.17968874      -0.01820418
Ba       0.10185629       3.95121585      -0.10270034      -0.69550243       0.33946764       0.55125686
Ba       3.78939821       4.00511145      -0.01020478       2.01432254       0.74621307       0.00380112
Ba       0.11394678       0.15512858       4.04371060      -0.81806281      -0.80412794       0.05853142
Ba       4.12298992       0.00430242       4.06825224       0.17524793       0.20161768      -0.23205157
Ba      -0.05631629       4.13878254       4.02650815       0.31135905      -0.67103838      -0.27089014
Ba       4.00798572       4.03248659       4.00718785       0.71785637       0.15641075       0.17083849
Ti       1.97725404       2.05225129       2.00243839       2.54807559       0.85166327       0.08947182
Ti       6.04893219       2.08509827       2.02785725      -1.74177995      -0.57233528      -0.33095086
Ti       2.06551558       6.15526911       2.16871016      -0.72676088      -0.84297191      -0.57306984
Ti       5.98768900       6.08095222       1.91044347       0.87983613       0.09330508       0.71244574
Ti       2.11347113       1.90318347       6.00264066      -0.38895854       0.95000256      -0.56378173
Ti       6.04262127       2.04068624       6.07414520      -0.78794465       0.72690177       0.46764998
Ti       1.87482540       6.00107767       6.02900464       1.39930438      -0.45120521       0.75556392
Ti       5.89476094       6.09602628       6.00019181       0.03708893      -0.41048433      -0.47256516
O        0.23888621       2.17735326       1.97415674      -2.14663228      -1.00438474       0.40099079
O        4.13498665       1.87578992       2.21591496       1.12715517       0.39406450      -0.93829993
O       -0.01457697       5.96895305       2.01617713       0.55385727       0.05703967      -0.46409980
O        3.92403595       5.97036646       1.93670502       1.06017742       0.52391421       0.61942863
O        0.21105425       2.05889745       6.05437871      -0.61119056      -0.12901847       0.23131984
O        4.13056150       1.99136261       6.06040044       0.64121590      -0.54200552       0.14929959
O        0.04057620       5.88223500       5.94161319       0.16136655       0.74206100       0.85013475
O        4.08809821       5.95873662       5.99155056       0.42258009       0.94323593      -0.15970793
O        2.02433580      -0.02391169       2.10412151      -0.19317572       0.99127237      -0.70640982
O        6.05269188      -0.18533180       1.97400085       0.29800448       0.94541263       0.31539285
O        2.21117686       4.05369455       2.07231426      -1.14110649      -0.32340415       0.04083040
O        6.13864998       3.85538457       2.07560262      -0.38598712       0.95600095      -0.19508400
O        2.10749554       0.05323342       6.01600340      -0.32933209      -0.18542745       0.03989838
O        6.12670025      -0.06498755       6.08984909      -0.03566686      -0.25732397       0.08036883
O        2.21150311       4.08863597       6.02211549      -1.13214080       0.94347145       0.04877023
O        5.89644141       3.95483063       6.20525837       1.35308598      -0.27383354      -0.73761556
O        2.22383423       2.06638145       0.09536411      -0.86562461      -0.63520235      -0.00152646
O        6.08030338       1.97771685       0.02926331       0.54258890      -0.33035873       0.16801568
O        2.11316557       6.23787726      -0.15581105      -1.03626385      -0.84983110      -0.20119191
O        5.92123288       6.05456361       0.08346200       0.67582089      -0.53929634      -1.07984430
O        2.31278305       2.19897304       4.14908089      -1.61441779      -1.41014775      -0.46687222
O        6.22942463       1.88697601       4.05107747      -0.08717222       0.52998792       0.32316221
O        2.04931373       6.36488363       3.99687022      -0.08071593      -1.64239319       0.68202317
O        6.14481482       6.01733025       4.02890777      -0.85344633      -0.04180588       0.85736417
40
Lattice="8.113358670559476 -9.48256209502453e-19 1.1856955918959047e-18 1.4731444131804922e-16 8.113358670559487 -2.1213857306241463e-14 -1.6492255695243405e-16 -1.8377179618236488e-14 8.113358670559476" Properties=species:S:1:pos:R:3:REF_forces:R:3 system=knbo3_cubic base_model=mace_mp0 config_id=knbo3_cubic_c00 T=100.0 draw=0 energy_qe_eV=-62342.089911276176 offset_eV=-62037.89503490221 split=train REF_energy=-304.1948763739638 mock=0 pbc="T T T"
K       -0.08819934       0.15261073       0.00612189       0.36232731      -0.43319720      -0.06370345
K        4.11504342       0.00649042      -0.00411718      -0.26445750       0.11719937      -0.09008091
K        0.04086125       4.05230011       0.06943653      -0.08468005      -0.05520596      -0.17941852
K        4.04660308       4.11348485       0.12181685      -0.00544431      -0.44845413      -0.41628988
K       -0.03789325      -0.06947659       4.06128279       0.15753406       0.11277038       0.01023042
K        4.07636668       0.01944920       3.96219514      -0.09337013      -0.33127764       0.42195917
K       -0.00358264       4.15045647       4.01880976      -0.00896981      -0.26391320       0.15616006
K        4.02126249       4.06968443       4.04439054       0.15134413       0.01176254       0.07590154
Nb       1.99977090       1.92535528       2.05831536       0.09184443       0.54631906      -1.59293082
Nb       6.07801427       1.99497534       2.05508580       0.36727874       1.10005240       0.21297502
Nb       2.01164166       6.05227886       2.00289847      -1.17977408      -0.78869207       0.81385160
Nb       6.04602349       6.09100836       2.01097336       0.34584551      -0.63831210       0.51370924
Nb       2.06104919       2.02542003       6.01184206       0.79228570       0.41612045       1.39923831
Nb       6.09499285       2.02462665       6.08273701       0.07941135       0.86555262       0.23344820
Nb       2.06975316       6.10385824       6.10391911      -0.17630260       0.62989559      -1.29942011
Nb       6.11209862       6.11066958       6.08388389      -0.10261993      -1.35676214      -1.23483349
O        3.96984857       1.80868312       2.02098867       0.65626817       0.78218563      -0.13772525
O       -0.01602257       2.08540593       2.09148017      -0.36581836      -0.50638262       0.06210140
O        4.11773745       6.04635491       2.00704027      -0.25125900       0.38927685       0.42178819
O        0.09406045       6.05762532       2.05227011      -0.26554096      -0.03894630      -0.23614940
O        3.99689357       2.14682060       6.23125414      -0.05814010      -0.64507693      -0.68944517
O       -0.12857799       2.01126158       5.86360482       0.90991187       0.23167851       0.77951400
O        4.11905940       6.23012261       6.02791563      -0.06694433      -0.64271588       0.59246779
O        0.01937202       6.22003493       6.08443463      -0.13882723      -0.43688622       0.59012063
O        1.92547922      -0.01955086       2.06581511       0.24260261       0.22409632       0.17145633
O        6.20253419      -0.05916999       2.08409932      -0.34303298       0.40680508      -0.47750682
O        1.98222932       4.05662556       2.14603381       0.64866542       0.18305252      -0.57689539
O        6.08495914       4.02643356       1.97998831      -0.18965383      -0.31826272       0.68934053
O        2.11888861      -0.07220076       5.99608414      -0.38403231       0.76383541       0.54756733
O        6.07450746       0.12421094       6.08531810      -0.28286120      -1.18747865       0.32382710
O        2.05410917       3.97446896       6.10945926      -0.44736038       1.07660317       0.03986778
O        6.06299285       4.11838135       5.95387235       0.12003632       0.57873784       0.77181329
O        1.95667859       1.99378534       0.01269154      -0.33085804      -0.15934489       0.47866947
O        6.11696302       2.16196468       0.00973285      -0.11143778      -0.75936555      -0.27969180
O        2.09837618       6.15572916       0.02280469       0.00730733      -0.42188358      -0.11874023
O        6.10147097       6.05015887       0.10598019       0.20072037       0.31667069      -1.44646973
O        2.07303570       2.02712153       4.10406651      -0.10427366      -0.23387937      -0.49153733
O        5.97462916       1.92652171       3.99714286      -0.23262184       0.58845301      -0.12846980
O        2.01354342       6.09129317       4.10385657       0.44823404      -0.25831848       0.07145918
O        6.14268110       6.04315911       4.10182190      -0.09333696       0.58328843       0.08184130
40
Lattice="8.113358670559476 -9.48256209502453e-19 1.1856955918959047e-18 1.4731444131804922e-16 8.113358670559487 -2.1213857306241463e-14 -1.6492255695243405e-16 -1.8377179618236488e-14 8.113358670559476" Properties=species:S:1:pos:R:3:REF_forces:R:3 system=knbo3_cubic base_model=mace_mp0 config_id=knbo3_cubic_c01 T=100.0 draw=1 energy_qe_eV=-62342.080546886595 offset_eV=-62037.89503490221 split=train REF_energy=-304.1855119843822 mock=0 pbc="T T T"
K        0.03437950      -0.02442783       0.05450319      -0.33243104       0.17983967      -0.34681225
K        4.11442013      -0.05549222      -0.04775204      -0.04608445       0.38913004       0.18808597
K       -0.03973193       4.10893962      -0.01272747       0.00059084      -0.24682925       0.05348126
K        4.11012113       4.16548749       0.02997856      -0.10159946      -0.53469227       0.02383413
K        0.10346978      -0.01645778       3.97687026      -0.43929637       0.15621123       0.51130449
K        4.10219682      -0.06137248       4.13988155      -0.13524594       0.32279455      -0.33230249
K       -0.06819986       4.03303175       4.01542745       0.24648523       0.00677537       0.15014317
K        4.06900813       4.03567101       4.06997548      -0.09211568      -0.05336042      -0.20085869
Nb       2.03640732       1.98871298       1.97627513       0.69249861       0.78557280       1.39695748
Nb       6.09966113       2.00165623       2.02778476      -0.35625771       0.40697041      -1.74063710
Nb       1.99970775       6.12875451       2.03562768      -0.18494356      -1.71396062       0.71922086
Nb       6.06522958       6.08731538       2.04188919      -0.00864456      -0.01195357       0.59621285
Nb       2.01309649       2.02269974       6.10037851      -0.85103566      -0.68489406      -1.15574764
Nb       6.03937594       2.02727135       6.04168612       0.29302580      -0.33026874       1.48957504
Nb       2.05905467       6.07641478       6.09246134      -1.42107083       0.92954147      -0.19011225
Nb       6.06298641       6.10432003       6.10292756       1.84376225       0.68617755      -0.20068540
O        4.11427831       2.08829574       1.92226219      -1.46872160      -0.25601091       0.40730542
O       -0.09201757       1.99575965       2.09733066       1.52361594      -0.00202500       0.08928953
O        4.08974584       6.12250929       2.01079133      -0.39062102      -0.16506637       0.10813031
O       -0.00758506       6.12455958       2.14421173       0.02667468       0.09011922      -0.98001531
O        4.08099545       2.00246346       6.16470254      -0.78883245      -0.05616241       0.11290023
O        0.05956248       1.97887110       6.13665566       0.85641955       0.41462998      -0.36332413
O        4.09279846       6.17566899       6.06219513      -1.13357573      -0.45182819      -0.02979549
O       -0.03726295       6.29445993       6.12528515       0.80479488      -1.49741819      -0.22596346
O        1.99126914       0.04132012       1.97081475       0.26610841       0.04742374      -0.17476225
O        6.01215004      -0.03120390       1.99109648       0.31288037      -0.58242943       0.44895678
O        1.98389921       4.14711817       2.16158201       0.13837343      -0.18264654      -0.69199108
O        6.12207407       3.99512276       2.01171780      -0.15126751       1.08859659       0.02767535
O        1.97987288       0.00277233       6.10616786       0.79476835      -0.45281369       0.17695155
O        6.14578262       0.03107639       6.06827666      -0.55655513      -1.22364764      -0.07947023
O        2.07022022       4.00943566       5.97001927      -0.09501846       1.34815794       0.39050969
O        6.09589557       3.96359083       6.15036152       0.07837751       1.72024439      -0.19458520
O        2.00651882       2.10167465       0.07284721      -0.04367044       0.04970585      -0.66322172
O        6.20135508       1.97208377       0.00133525      -0.38736112      -0.00683039       0.82062080
O        1.99681103       6.09524235      -0.01418031       0.26660874      -0.28109639      -0.60998651
O        6.04359368       6.09704534      -0.05175853       0.21036560      -0.27702454       0.59399245
O        2.07941986       1.90947398       4.01694031       0.04529641       0.43493424       0.42584102
O        5.97352827       2.03024060       4.14805186       0.40692541      -0.13595505      -1.35512075
O        1.97259294       6.18677066       4.00824831       0.60190219      -0.08627388       1.05853423
O        6.12436034       5.99484584       4.05978301      -0.42512625       0.17636174      -0.25413092
40
Lattice="8.113358670559476 -9.48256209502453e-19 1.1856955918959047e-18 1.4731444131804922e-16 8.113358670559487 -2.1213857306241463e-14 -1.6492255695243405e-16 -1.8377179618236488e-14 8.113358670559476" Properties=species:S:1:pos:R:3:REF_forces:R:3 system=knbo3_cubic base_model=mace_mp0 config_id=knbo3_cubic_c02 T=100.0 draw=2 energy_qe_eV=-62342.61639631487 offset_eV=-62037.89503490221 split=train REF_energy=-304.72136141265946 mock=0 pbc="T T T"
K       -0.00815709       0.03584822       0.07576995       0.01944525      -0.13250103      -0.25588570
K        4.07486386      -0.03761022      -0.05882853       0.03719255       0.10605261       0.18744705
K       -0.08665672       3.98864635      -0.03886552       0.31242503       0.34859299       0.25338093
K        4.07725819       4.07377487      -0.03627244      -0.04436850      -0.04773124       0.09606438
K       -0.16336847       0.03318078       4.05374145       0.65311240      -0.15664703       0.06016381
K        4.12809163       0.05281148       4.14467050      -0.33389066      -0.22321572      -0.27663579
K        0.07644517       4.03972194       4.07255744      -0.22952238       0.06848956      -0.12481986
K        4.02654208       3.94538946       4.09690670       0.14536940       0.41680102      -0.16137503
Nb       2.03275465       2.02595677       1.97164298       0.38038623      -0.61660196       0.36504368
Nb       6.11643220       1.99602141       2.03838726      -1.21686327       0.78346656      -0.90641439
Nb       2.00183380       6.06677019       2.03374848       0.32729989       0.06670239       0.62829277
Nb       6.08845005       6.04796873       2.03121717      -0.85373275      -0.34622784      -1.28718423
Nb       1.95784188       2.04027402       6.04593772       0.40713059      -0.24796387      -0.18571335
Nb       6.06105650       2.10741358       6.08029606      -0.98675443       0.11902331       0.26653649
Nb       1.98891493       6.09578182       6.10856154       0.61368350      -0.14198634       0.25376197
Nb       6.11649681       6.12966294       6.05530906      -1.19014154       0.20491615       0.89430398
O        4.15726573       2.07382979       2.05009216      -0.29264630      -0.21728933       0.10935982
O        0.06441466       2.03272065       2.13418646       0.40969835      -0.23132652      -0.35538688
O        4.12629690       6.08089768       2.02952962      -0.73767058      -0.14855551       0.24390102
O       -0.03735398       6.13804903       1.98415994       1.16604722      -0.18970216       0.16616603
O        4.10033599       2.06698237       6.07521168       0.03954048      -0.15331720       0.37003934
O        0.02467892       2.16826000       6.08040872       0.73083453      -0.84226383       0.04733324
O        4.10415857       6.09261970       6.09608178      -0.63199850      -0.04253916      -0.22973244
O        0.03908799       6.14177948       6.01590285       0.29830067      -0.26390960       0.35626002
O        2.16600992       0.05175366       1.96052686      -0.43655121      -0.50205212      -0.12939025
O        6.10355606      -0.05458185       1.96810197       0.16440251       0.12949335       0.71806258
O        2.09762004       4.06718756       1.98676702      -0.24550384       0.60303888       0.05540265
O        6.17734086       3.97179081       2.16118767       0.03136592       0.62372392       0.01992476
O        2.06289588       0.03436603       6.08180732      -0.22058831       0.00245592      -0.03536475
O        6.14738362      -0.07344798       6.22913100       0.10391730       0.36165446      -0.26483160
O        2.03633860       4.08883205       6.07466894       0.08331788       0.07981835      -0.32978897
O        6.15105800       3.99480704       6.11332796      -0.07024640       0.23590154       0.10121482
O        2.06732753       2.07559915      -0.04297925      -0.19242033      -0.11434339       0.35783714
O        6.13673084       2.10403554       0.10320024       0.18765402      -0.56543366      -0.03233754
O        1.98077403       6.05748730      -0.05005636       0.08171943       0.24045188       0.19072829
O        6.02328728       5.96325864       0.03081302       0.59960928      -0.06865103       0.69382196
O        2.08071301       1.96394408       4.01223329      -0.08859224       0.45506186       0.63497815
O        6.07685816       1.94163842       4.19627717       0.36214811      -0.17758687      -0.89238723
O        1.92908282       6.10304384       3.98080824       0.46162332       0.05341081      -0.38101512
O        6.08685800       5.95318425       4.17240683       0.15526738       0.53078959      -1.22176148
40
Lattice="8.113358670559476 -9.48256209502453e-19 1.1856955918959047e-18 1.4731444131804922e-16 8.113358670559487 -2.1213857306241463e-14 -1.6492255695243405e-16 -1.8377179618236488e-14 8.113358670559476" Properties=species:S:1:pos:R:3:REF_forces:R:3 system=knbo3_cubic base_model=mace_mp0 config_id=knbo3_cubic_c03 T=100.0 draw=3 energy_qe_eV=-62342.152997468256 offset_eV=-62037.89503490221 split=train REF_energy=-304.2579625660437 mock=0 pbc="T T T"
K        0.00024454      -0.03179505      -0.02535578       0.06494504       0.08906713       0.09903092
K        4.00335502       0.06369675       0.12930509       0.08311605      -0.28310648      -0.71052539
K        0.02253236       4.04419941      -0.01839152      -0.06833838       0.04749599       0.14148652
K        3.94413843       3.97026456      -0.01321283       0.40636337       0.17626712       0.01920228
K        0.00038374      -0.01975675       4.07579782       0.02179138      -0.18052332      -0.02027083
K        4.07333651       0.17970035       3.99263802      -0.08115584      -0.65916092       0.39812478
K       -0.06004973       3.99117200       4.02332202       0.19889411       0.34302630      -0.00002777
K        4.14924051       4.16243703       4.09036405      -0.31245228      -0.31298964      -0.11538571
Nb       1.98493843       2.00034231       2.07058426      -0.18739691      -0.01880428      -1.02881305
Nb       6.04068505       2.03575048       2.04141292       0.25605385       1.42090474       0.28786817
Nb       2.05457064       6.06715297       2.03500599      -0.52502029      -0.12283960       0.05078649
Nb       6.05281879       6.11106785       1.98907574       0.44471934      -0.81761415      -0.32844197
Nb       1.99827401       2.03241690       6.06587170       0.75301878      -1.14216707       1.10885123
Nb       6.09405109       2.01681374       6.08900942      -0.99432633      -0.22277169       0.57017452
Nb       2.09535625       6.04656104       6.10775495      -0.36119551       0.71321219      -0.83392497
Nb       6.11470112       6.03743898       6.07596542      -0.45765328      -0.33608149      -0.09774846
O        4.00614308       1.98023370       1.86006620       1.50838986      -0.03251546       0.60701689
O       -0.04491749       1.97066556       2.13779942      -0.41753353       0.10450943      -0.72665520
O        4.09927741       6.20845935       2.12307711      -1.15774461      -0.71071051      -0.13699558
O       -0.01803356       6.04561437       1.96023984       0.92819858      -0.00276394       0.40262756
O        4.05659612       2.11386849       6.06519000      -0.04300350      -0.08325052      -0.18688140
O        0.04399188       1.99242018       5.96048228       0.12945016       0.51092294      -0.00621410
O        4.15783038       6.13864483       6.05544826      -0.83771915      -0.04540054       0.36431323
O        0.10864141       6.11850091       6.24432586      -0.44006719       0.05957580      -0.44430874
O        1.96476525       0.00438497       2.11930724       0.15284617      -0.72073010      -0.28762005
O        6.07909214      -0.14258585       1.99725150       0.23165357       2.53414638       0.11044816
O        2.08099139       4.04337202       2.04699472      -0.22899427       0.88898180      -0.09629501
O        6.09921380       4.04017686       2.00895948      -0.36801408      -1.11616473      -0.00401889
O        2.09227070       0.03702980       6.02446061      -0.06272078       0.24472917       0.17427786
O        6.13088634       0.14321750       6.07177955      -0.01383331      -0.82924582      -0.04513906
O        1.98663868       4.05283995       6.08624590       0.33158540       0.18330577       0.06915059
O        6.07035553       4.11499623       6.05903549       0.60816026       0.27493346       0.00901634
O        1.98982348       1.95218543       0.00868578      -0.32171674       0.41456493      -1.06230064
O        6.10505879       2.20019804      -0.11045830       0.26459120      -0.76207755       1.04362800
O        2.13625172       6.06728458       0.04698747       0.14351744       0.17074645       0.49320521
O        5.95468642       6.13704942      -0.02475037       0.52923150      -0.28761183       0.50902366
O        2.12375246       2.07421067       3.92893961      -0.18070844       0.04381931       1.77544598
O        6.05611366       2.03647655       4.00417271      -0.27500571       0.03260879      -1.06098526
O        2.12395425       6.08287314       4.14884244      -0.45536397      -0.18047576      -0.62673751
O        6.06353181       6.01085357       4.11932044       0.73343829       0.61418795      -0.41438804
40
Lattice="8.113358670559476 -9.48256209502453e-19 1.1856955918959047e-18 1.4731444131804922e-16 8.113358670559487 -2.1213857306241463e-14 -1.6492255695243405e-16 -1.8377179618236488e-14 8.113358670559476" Properties=species:S:1:pos:R:3:REF_forces:R:3 system=knbo3_cubic base_model=mace_mp0 config_id=knbo3_cubic_c04 T=100.0 draw=4 energy_qe_eV=-62342.29375760317 offset_eV=-62037.89503490221 split=train REF_energy=-304.39872270095657 mock=0 pbc="T T T"
K        0.02338747       0.06289806      -0.05603630      -0.08487289      -0.26332930       0.21097547
K        4.10334875       0.04971509      -0.06513389      -0.16335941      -0.16659540       0.21039491
K        0.08251114       3.98252960       0.08818196      -0.42647634       0.26911043      -0.47275182
K        4.12654110       4.00422449       0.01093386      -0.14061543       0.23621059      -0.17045797
K       -0.08616659      -0.04240377       4.09416551       0.41167732       0.10209568      -0.17245057
K        3.97309896      -0.00159765       4.02636974       0.20401575       0.03790243       0.16256134
K        0.00514625       4.05417345       4.04586475      -0.01542842       0.00277525       0.15153131
K        4.03729146       4.13633325       4.05812513       0.01989083      -0.33790363       0.09429032
Nb       2.03094878       2.04420550       2.02848585      -0.26804599      -1.16967865       0.54005431
Nb       6.05825799       2.04123691       2.01654362      -0.03656623      -0.30591345      -0.64218367
Nb       2.01951652       6.07777353       2.06631515       0.93674210       0.50070254       0.63854195
Nb       6.08829204       6.10580094       2.04371404      -0.16736082      -0.21820593      -0.42761971
Nb       2.03863102       2.00264725       6.09633982       0.76011965       0.11205099      -0.84465007
Nb       6.12254650       1.99694121       6.03995759      -0.27066209       0.62165161       0.17039935
Nb       2.04034914       6.06132105       6.14160311      -0.41034549       0.40545783      -0.44796150
Nb       6.06028382       6.09017911       6.08820051       0.58937166      -0.39975718       0.85140796
O        4.14597601       2.17038983       1.94634373      -1.93401876       0.00814243       0.73272198
O       -0.01005562       1.99043551       2.06516511       1.08038552       0.14669738      -0.13630292
O        3.96277418       5.97634426       2.09286160       0.82472813       0.39027521      -0.35523750
O       -0.01630896       6.24240216       2.01140602      -0.60482297      -0.22177565      -0.02829139
O        4.02138375       1.97641706       6.06866802       0.38423800      -0.02934709       0.16092560
O       -0.00003744       1.93662215       5.96542615      -0.40328267       0.27560632       0.76722644
O        4.03628605       6.09094288       6.06529005       0.74067414      -0.25350769      -0.05291562
O       -0.02135514       6.03346937       6.09857268       0.00087855       0.06027669       0.01483912
O        2.21237358       0.02176943       2.05995232      -0.70287995       1.15995036      -0.10275080
O        5.99437800       0.07328234       2.01963109       0.11471285      -0.75375977       0.14925357
O        1.91701158       4.15800715       1.96719459       0.10743535      -1.43892405       0.16969281
O        6.13148892       4.08148107       1.94148485       0.28017465       0.89604076       0.45664515
O        2.07307719      -0.03354628       6.01977652      -0.39355876      -0.30382366       0.33480854
O        6.22593396      -0.02021788       6.07779938      -0.75729864      -0.23028497      -0.06249812
O        2.02970412       3.96245173       6.00183375      -0.05692988       0.84859954       0.86865003
O        6.16910264       4.03343142       6.10180324      -0.40803793       0.34514206      -0.08057863
O        2.05082379       1.97611730       0.02041905      -0.35130937       0.30528739       0.67551956
O        5.97657763       2.00356164       0.01611933       0.92124092       0.08464226      -0.55344255
O        2.12852187       6.13027639      -0.03103505      -0.60973660      -0.21723919      -0.01697674
O        5.99468374       6.14736973      -0.01284801       0.11737754      -0.09217636      -0.07683613
O        2.00243995       2.07487274       4.11077563       0.31903765      -0.18932652      -1.98315846
O        5.98279806       2.05943350       4.09511878       0.27840702      -0.05347946      -0.14986600
O        2.02670440       6.04761996       4.09977725      -0.34017469       0.09260522      -0.76427096
O        5.97405884       6.14738115       3.99803278       0.45467594      -0.25619552       0.18076115
40
Lattice="8.113358670559476 -9.48256209502453e-19 1.1856955918959047e-18 1.4731444131804922e-16 8.113358670559487 -2.1213857306241463e-14 -1.6492255695243405e-16 -1.8377179618236488e-14 8.113358670559476" Properties=species:S:1:pos:R:3:REF_forces:R:3 system=knbo3_cubic base_model=mace_mp0 config_id=knbo3_cubic_c05 T=100.0 draw=5 energy_qe_eV=-62342.595017010855 offset_eV=-62037.89503490221 split=train REF_energy=-304.69998210864287 mock=0 pbc="T T T"
K        0.00984930       0.03014362       0.03965251      -0.15284463      -0.19704575      -0.06916473
K        4.04702849      -0.03301409      -0.10714407       0.13338060      -0.06409786       0.36044038
K        0.01498387       4.10064753       0.06655132      -0.05746904      -0.08439749      -0.14636956
K        4.08156409       4.05105261      -0.02043489      -0.04741937       0.10450686       0.04994214
K       -0.00677621       0.10811256       3.97545551      -0.12063205      -0.36056714       0.21996019
K        4.04845084       0.05187905       4.02721560       0.11033426      -0.19204958       0.05804651
K        0.09893068       3.98635803       4.10865273      -0.37680725       0.15827480      -0.18378991
K        4.04257630       4.07499948       4.04028408       0.11375589      -0.05944930       0.08695394
Nb       2.03626296       2.04125924       1.98021538      -0.47513292       0.56831381      -0.39963736
Nb       6.03665798       2.03048848       2.05759316       0.17256679      -0.57037430      -0.45952581
Nb       1.99583670       6.10500504       2.08588001       0.22109945       0.23969546      -1.98727351
Nb       6.08534876       6.07739449       2.05755034      -1.08016877       0.14965312      -0.55455584
Nb       1.99421155       2.03284556       6.05667379       0.84698952       1.28470569       0.35918800
Nb       6.08734992       1.99341705       6.09325811      -0.50161837      -0.34271314       0.77676318
Nb       2.04363945       6.10798308       6.06652840       0.01720814      -0.51470426       1.10639840
Nb       6.11993672       6.04316380       6.06145770      -0.39061305       0.15839744       1.03822457
O        4.05167574       2.09152657       2.01927498      -0.09142354      -0.25827683       0.03661791
O        0.02900971       2.02120805       2.01471997       0.13697192      -0.02713877       0.05903973
O        4.15505037       6.05770475       1.99898804      -0.21510260       0.02696959       0.32093461
O        0.01280376       6.22053412       2.01829122       0.31744588      -0.68617395       0.30443507
O        4.02352137       2.09888861       6.05651041      -0.63880832      -0.58800178       0.03616179
O       -0.03660756       1.95860328       6.21493640       0.54077164       0.09269547      -0.86337284
O        4.13199036       6.00541524       6.09221938      -1.11933156       0.11737626      -0.26523217
O        0.03036747       6.03882988       6.07304852       0.27993708       0.01445423      -0.15305443
O        2.09926657      -0.10247639       1.93955146       0.09809273       1.16545921       0.63358975
O        6.04260912       0.06057711       2.08276106       0.19950886       0.37816222      -0.14776387
O        2.06849707       4.02358787       2.09321269      -0.28006898      -0.56953586      -0.03871156
O        6.11246440       4.06319932       2.03462101       0.31858694       0.27020674      -0.08314793
O        2.00231685      -0.13351877       6.12242564       0.22028878       0.99424096      -0.05693914
O        6.05560682       0.00154574       6.03692150       0.10795728       0.39028986      -0.13980373
O        1.95851144       3.99527690       6.18744982       0.08087174      -0.64812831      -0.73195296
O        6.09625573       4.04391484       6.15042693       0.30275151       0.27426934      -0.46634618
O        2.00571366       1.98346407      -0.01378004       0.23808827      -0.15715097       0.29754323
O        6.01050911       1.95715209      -0.02481756       0.12410792       0.35328063       0.27664479
O        2.10864722       6.00875190       0.10165856      -0.30217121      -0.08531794      -1.00363140
O        6.10358974       6.18871981      -0.04100179       0.29435017      -0.29991507      -0.02474867
O        2.02122241       1.94592660       4.03644495      -0.21119401      -0.07945994       0.78361439
O        6.02144081       2.08954074       4.05936984       0.40674389      -0.04028122      -0.11982446
O        2.04028246       6.09548360       4.06119535       0.19204187      -0.31468092       0.73168428
O        6.03497775       6.19619122       4.02171296       0.58695483      -0.60149107       0.35866298
40
Lattice="8.113358670559476 -9.48256209502453e-19 1.1856955918959047e-18 1.4731444131804922e-16 8.113358670559487 -2.1213857306241463e-14 -1.6492255695243405e-16 -1.8377179618236488e-14 8.113358670559476" Properties=species:S:1:pos:R:3:REF_forces:R:3 system=knbo3_cubic base_model=mace_mp0 config_id=knbo3_cubic_c06 T=100.0 draw=6 energy_qe_eV=-62342.2813123407 offset_eV=-62037.89503490221 split=train REF_energy=-304.38627743849065 mock=0 pbc="T T T"
K        0.09088449       0.02479594       0.01457811      -0.43377724      -0.13490373      -0.14042388
K        4.06461328       0.03834628       0.03392667       0.05513782       0.00229137      -0.19179298
K       -0.00464300       3.90198000       0.06292228      -0.07594782       0.50420799      -0.10610609
K        4.04038392       4.10207965      -0.02913723       0.09190100      -0.23927097       0.23887837
K       -0.02605837      -0.00196287       4.07259451       0.07001808      -0.07971423      -0.10018278
K        4.05789291       0.03712618       4.04114293       0.03553547      -0.19715245       0.07668212
K       -0.06593314       4.05881762       4.16144988       0.24586071       0.17197929      -0.49759151
K        4.06516197       3.98826197       4.10335161      -0.04970277       0.30021666      -0.29192614
Nb       1.96249983       2.05961445       2.02486578      -0.31206816       0.40311529      -0.26441379
Nb       6.02415999       1.99750625       2.08231332      -0.23370016       0.93703315      -1.20184957
Nb       2.06329260       6.12108711       2.00934385       0.62482563       0.25748441       0.19755251
Nb       6.07631727       6.09578776       1.95367157       0.34126021      -0.98070951       0.49426733
Nb       2.07278753       2.03757083       6.06505768       0.32112899      -0.30017244      -0.18476333
Nb       6.13547040       2.05072571       6.09976766       0.30357838      -1.14387146       1.74587366
Nb       2.05856402       6.09770109       6.09278585      -0.52686120      -0.29044390      -0.98643664
Nb       6.08798143       6.05693585       6.05105403       0.32924133       1.07441927      -0.32511471
O        4.08636669       2.02072863       2.05198633      -0.44437224       0.08077378       0.10500257
O        0.04851367       2.12002623       2.09903757       0.17856389      -0.65377548      -0.22002190
O        4.04458349       6.16076573       2.08268612      -1.83052286      -0.32247162      -0.31796036
O       -0.16936764       6.08846062       2.08231275       2.07143472       0.23379118      -0.15214272
O        4.05897449       2.05282479       6.10335723      -0.41930193       0.04703602      -0.22367980
O       -0.06746179       2.06698283       6.00460780       0.74943415       0.12705775       0.35143432
O        4.06074030       6.04648577       6.04142291       0.11966197       0.43877547       0.40995289
O        0.03696547       6.17482820       6.01019344      -0.40462273      -0.52739934       0.43554565
O        1.99164337      -0.02497826       1.94370114      -0.05726052      -0.90837203       0.80635606
O        5.99498029       0.05739148       1.93936624       0.47520466      -0.93016830       0.50067143
O        2.01880812       3.99290052       2.03535193       0.21838487       1.16546769       0.11933133
O        6.07904998       4.03759193       1.86694735      -0.35536425      -0.14232650       0.26867180
O        2.05618521       0.05138087       6.07045670       0.00224689       0.18971682       0.39551614
O        6.17524841      -0.02576580       6.02379267      -0.72525935      -0.17143087      -0.21117422
O        2.04301701       4.11347806       6.17782067      -0.17014147      -0.84395124      -0.12463294
O        6.06683761       4.06968713       6.20599136       0.19025186      -0.49056468      -0.60066678
O        2.00541930       1.96695543       0.06161090       0.04047662       0.30006034      -0.87832252
O        6.17280859       1.83695933      -0.01295149      -0.19663360       0.90033296      -1.43654501
O        2.01240287       6.06360765       0.06034480      -0.04620504       0.05696845       0.32034351
O        6.06292063       6.04481547      -0.02165532      -0.11773904       0.44527007      -0.82979783
O        1.97960126       2.01453693       4.09427049       0.44088429       0.06445910       0.71090411
O        6.17361488       2.03167683       3.96879791      -0.50217604       0.09952560       1.45893392
O        2.04999613       6.06316749       4.14033053      -0.13066141       0.10405049      -0.86614166
O        6.00203585       5.92920920       3.96474709       0.12728632       0.45266534       1.51576996
40
Lattice="8.113358670559476 -9.48256209502453e-19 1.1856955918959047e-18 1.4731444131804922e-16 8.113358670559487 -2.1213857306241463e-14 -1.6492255695243405e-16 -1.8377179618236488e-14 8.113358670559476" Properties=species:S:1:pos:R:3:REF_forces:R:3 system=knbo3_cubic base_model=mace_mp0 config_id=knbo3_cubic_c07 T=100.0 draw=7 energy_qe_eV=-62342.491359733904 offset_eV=-62037.89503490221 split=train REF_energy=-304.59632483169116 mock=0 pbc="T T T"
K       -0.03820958      -0.04726816       0.04333475       0.23744112       0.11617324      -0.08198502
K        4.12503086       0.00888479      -0.00175713      -0.37139431       0.00772205       0.13593474
K       -0.10823490       4.02354781      -0.00022067       0.41717666       0.14812948      -0.02047704
K        3.93512432       4.08591478      -0.05455892       0.30887665      -0.11684121       0.17815585
K       -0.04109540      -0.07229837       4.11950827       0.17042197       0.21731658      -0.28946328
K        4.11481089      -0.00502455       4.07527078      -0.25677633       0.00649872      -0.16642468
K       -0.04948178       4.05704906       4.05605450       0.24698094       0.05176788      -0.00322905
K        4.13039357       4.12177929       4.08595346      -0.30426820      -0.21272125      -0.13250797
Nb       2.05295206       2.08338717       2.05123790       1.00111558      -1.29562619      -0.45247970
Nb       6.12718458       2.04356125       1.95717124      -0.29450187      -0.46712471       0.20802513
Nb       2.07075107       6.09910771       2.03214529      -0.93496264       1.66229070       0.05322775
Nb       6.05310932       6.09093045       2.06278467       1.42953696       0.07358472       0.30949243
Nb       2.08457502       2.00208485       6.05983168      -0.63011285      -0.34452500       0.21031650
Nb       6.09360942       2.01301748       6.01435267       1.14894424      -1.04028454      -0.46819429
Nb       2.02095990       6.10918296       6.06198323      -0.03439262      -0.26047306      -0.87167442
Nb       6.07645359       6.04995669       6.11970684       0.04627112       0.26223067       0.15394069
O        4.02308933       2.04012360       2.11015331      -0.23246166       0.36894919      -0.38501293
O       -0.04569308       1.92218661       1.98380051       0.09841489       0.49025229       0.32403356
O        4.02286697       6.06474165       2.10252893       0.75653939      -0.30843493       0.10221164
O       -0.04041833       6.11251563       2.01605354      -0.10439013      -0.01839033      -0.00591251
O        3.98019742       1.91175994       6.13037668       0.80049754       0.87204337      -0.27882920
O       -0.03100494       2.01662052       6.04882464      -1.09865552       0.23657492       0.21588293
O        4.03162146       6.12900557       6.04996192       0.61445149      -0.05970179       0.20399492
O        0.00069628       6.07506939       6.09845429      -0.48184839       0.21919657       0.43782904
O        2.16457327      -0.00608474       2.07802964      -0.72580005      -0.39308928       0.11829414
O        6.04544920       0.02996366       1.94516372      -0.20122225      -0.85925702       0.27059832
O        1.97094035       4.00083855       2.12177273       0.01490751       0.57720135      -0.21104875
O        6.09539384       4.11016847       2.05716704      -0.14883525      -0.42498201      -0.18807954
O        1.99529575      -0.01155426       6.11113140      -0.10046046       0.82413729       0.10119862
O        6.00161866       0.04526268       6.16031408       0.45739925       0.42140818      -0.34798801
O        2.06176916       4.15639431       5.96550047      -0.08563548      -1.18360425       0.90222941
O        6.08156358       4.10970183       6.03545336      -0.37218981      -1.25672566       0.11925728
O        2.04965594       1.96757764       0.01054980      -0.33041478       0.66514285      -0.15455955
O        6.06190407       2.04942344       0.04816243      -0.22852248       0.41535426      -1.02663866
O        2.09863396       6.13288840       0.14344899      -0.28372920      -0.46613149      -0.83692725
O        6.04977313       6.01150726      -0.05183719      -0.11482238       0.23763010       0.33168234
O        1.99123385       2.03092446       4.07809908      -0.05921816      -0.11899965       0.51290886
O        6.01569898       1.93318231       4.00513373       0.20456879       0.57272377       1.71706368
O        1.98063429       6.18378451       4.13452351       0.09619345      -0.27597604      -0.36695864
O        6.18253497       6.03040732       4.06123081      -0.65512248       0.65656025      -0.31788605
40
Lattice="8.113358670559476 -9.48256209502453e-19 1.1856955918959047e-18 1.4731444131804922e-16 8.113358670559487 -2.1213857306241463e-14 -1.6492255695243405e-16 -1.8377179618236488e-14 8.113358670559476" Properties=species:S:1:pos:R:3:REF_forces:R:3 system=knbo3_cubic base_model=mace_mp0 config_id=knbo3_cubic_c08 T=100.0 draw=8 energy_qe_eV=-62342.66671628621 offset_eV=-62037.89503490221 split=train REF_energy=-304.7716813839943 mock=0 pbc="T T T"
K       -0.00323510      -0.00746111      -0.02167692       0.02510502       0.08259489       0.05974550
K        4.05662217      -0.00277350       0.05124026      -0.03182074       0.02421182      -0.04333466
K       -0.03148406       4.07952448      -0.03062142       0.19092344      -0.12954863      -0.10693244
K        4.11476717       4.06829269       0.04103664      -0.28510114      -0.07090357      -0.15497350
K        0.07977445      -0.01494327       4.04160577      -0.31837173      -0.03457774       0.09633101
K        4.10682805       0.02867179       4.00823571      -0.17010624      -0.25506140       0.06482034
K       -0.04771984       4.07097440       4.06365100       0.18234109       0.02804894       0.12732206
K        4.08455757       4.08207137       4.08486560      -0.16256520       0.01219449      -0.07099099
Nb       2.01869612       2.03360100       2.06405808       0.20187711      -0.15392706       0.24216038
Nb       6.08836455       2.01836097       2.01670285       0.44753959      -0.66591109      -0.57641922
Nb       1.98493381       6.10004301       2.02725722       0.35334516      -0.51826703       0.58290817
Nb       6.10459952       6.04249440       1.99056067      -1.10906078       0.60795200       1.20092835
Nb       2.03371140       2.00133726       6.12805279      -0.51557997       0.41350229       0.37259939
Nb       6.07563052       2.01467889       6.06511181       0.61553418       1.19117641      -0.42537102
Nb       2.08738609       6.09381565       6.10310490      -0.69631927      -0.99033829      -0.36539104
Nb       6.09783528       6.12305730       6.11669146       1.40464379      -0.40905788      -1.10101245
O        4.02073207       2.02520212       1.97813319      -0.59430458       0.25308731       0.41547202
O       -0.07150609       1.99363944       1.94597128       0.60916762       0.24977804       0.57397821
O        4.13578607       6.05208163       2.05653283      -0.35292119       0.17598430      -0.25553526
O        0.03535474       6.08702395       2.01882907       0.14624023       0.19099208      -0.24265866
O        3.98933373       2.01746248       6.05335763       0.70112003      -0.01864795       0.18847677
O        0.03221246       2.11343797       6.00777664      -1.47185217      -0.64353607       0.40937233
O        3.98760365       6.05286009       6.08826895       1.01886416       0.26847176      -0.12300517
O       -0.05211228       6.09285800       6.09792615      -0.76069969       0.01536003       0.06844534
O        2.02774919       0.02501533       2.08924975       0.06963833       0.15684989      -0.27809823
O        6.10798880      -0.02125524       1.99116195      -0.04541982      -0.12315713       0.31837379
O        2.02092641       4.14921526       1.89277281       0.02062359      -0.61069022       0.28142858
O        6.17131592       4.06508646       1.98179575      -0.25858664      -0.17826204       0.23927869
O        2.00700748       0.03001918       6.02164553      -0.01690552       0.42593358      -0.11215383
O        6.11053810      -0.04129501       6.20774265      -0.39366700       0.68911478      -0.48832680
O        1.95608074       4.11126626       6.05120739       0.40298520      -0.35835213       0.38917786
O        6.05618861       3.98694196       6.06921958      -0.16292489      -0.49135607       0.42552246
O        1.93651378       2.00613536      -0.02681959       0.29268847       0.05555485      -0.17189187
O        6.02074535       1.98223099       0.11508597      -0.01515537       0.21584360      -1.50075446
O        2.03682115       6.23401771      -0.06411932      -0.06451258      -0.23818340       1.15786751
O        6.04641923       6.06161366      -0.05738329       0.07557629      -0.24248922       0.80961956
O        1.91618507       2.06455293       3.99764641       0.44398889       0.23501888      -0.70594008
O        5.99890890       1.97495777       4.11044551       0.19335801      -0.08391901       0.19459497
O        1.98684463       6.01870158       4.08608750       0.16359569       0.54337437      -1.40265350
O        6.11092152       6.01333325       4.05524924      -0.13328110       0.38114033      -0.09298035
40
Lattice="8.113358670559476 -9.48256209502453e-19 1.1856955918959047e-18 1.4731444131804922e-16 8.113358670559487 -2.1213857306241463e-14 -1.6492255695243405e-16 -1.8377179618236488e-14 8.113358670559476" Properties=species:S:1:pos:R:3:REF_forces:R:3 system=knbo3_cubic base_model=mace_mp0 config_id=knbo3_cubic_c09 T=100.0 draw=9 energy_qe_eV=-62342.430918216225 offset_eV=-62037.89503490221 split=train REF_energy=-304.5358833140126 mock=0 pbc="T T T"
K       -0.06028411      -0.10338222       0.15412292       0.05344604       0.36191414      -0.50216524
K        4.15024823       0.00189320       0.04858655      -0.28634864       0.13730257      -0.16085696
K       -0.03841281       4.12979142      -0.01111407       0.09148936      -0.35426973       0.03887945
K        3.98683073       4.08454617      -0.05453183       0.19481763      -0.26480151       0.17359009
K        0.12929428       0.00525690       4.13249412      -0.49366235      -0.11189210      -0.26454080
K        4.08192530      -0.03660788       3.95470722      -0.19976880       0.31601429       0.46882858
K        0.06735878       4.15223147       4.00744541      -0.10292023      -0.36070418       0.25118624
K        4.09924575       4.12341468       4.02146673      -0.33297329      -0.42989462       0.15950867
Nb       1.99196404       2.02300870       2.02660536       1.00855738       1.21733687       0.75214203
Nb       6.08642158       2.02350459       2.03166169      -0.68587596       0.64931359      -0.52044322
Nb       1.97270466       6.13949991       1.98172971       0.63633852      -0.68288217       0.37619019
Nb       6.04006070       6.07571002       2.09599428      -0.90901018       0.08289879      -0.29417354
Nb       1.98517114       1.96562892       6.10673075       1.15301224       0.92522664       0.08685007
Nb       6.12059202       2.02850458       6.03871062      -1.67073086       0.86728812      -0.07931802
Nb       2.09895343       6.08959049       6.06890899      -0.52328017      -0.91752645      -0.17947380
Nb       6.11857162       6.11405698       6.13659072       1.04998480      -0.35617595      -0.25700721
O        4.02480941       2.03780166       2.04526533      -0.19106767      -0.28992016      -0.20168222
O       -0.04450549       2.01604428       1.99315805      -0.08640758      -0.30378329       0.09114226
O        4.04766452       6.13823655       2.16622233       0.46801997      -0.61755584      -0.50112832
O        0.01904074       5.99093361       2.06362104      -0.64806481       0.56627467      -0.15861752
O        4.10440252       2.02009743       5.90157036       0.12606839      -0.08175517       0.92897711
O        0.04137823       1.96213343       6.06766229      -0.40073908      -0.00655888      -0.08194286
O        4.00871689       6.04393326       6.08316445       0.59595909       0.11871477       0.13119465
O        0.01030841       6.02162679       6.22914631      -0.40718329       0.58094744      -0.40749054
O        2.04792921      -0.00109309       1.87117765      -0.45967391      -0.03857503       0.46368920
O        5.98394189      -0.07341652       2.13380991       0.78537277      -0.02744575      -0.01796687
O        1.94430753       4.02209722       1.88485953       0.38090302       0.13682974       0.29942476
O        5.96609948       4.00376939       2.02519879       0.51168295       0.53437268       0.08725887
O        2.08483937      -0.00565083       5.97702539      -0.18075369      -0.00105801       0.29509991
O        6.11674206      -0.02716664       6.07942126       0.00221372      -0.18138824       0.05723353
O        2.01452804       4.05215518       6.00076039       0.09800685       0.31772587       0.17019572
O        6.15472776       4.04202824       6.10492968      -0.18766045      -0.50604452       0.39331965
O        2.02340434       2.06489265      -0.07577176       0.07591748      -0.42836301      -0.58973213
O        6.06995563       1.97388599       0.04814889       0.05584308      -0.10592559      -0.38557651
O        2.12460648       6.19894004       0.00035502      -0.28906630      -0.49972398      -0.39875959
O        6.06572984       6.15581900       0.07033206      -0.19358453      -0.45658447       0.14613173
O        1.97835176       1.99562910       3.97274011      -0.12464991       0.02685594      -0.31390187
O        6.05496818       2.04721325       4.06370637       0.70618665      -0.22794706       0.10551756
O        1.98682500       6.12125105       3.99106074       0.06443159       0.02107765       0.51156880
O        6.06819595       5.97845316       4.17684686       0.31516994       0.39068195      -0.67315157
40
Lattice="8.113358670559476 -9.48256209502453e-19 1.1856955918959047e-18 1.4731444131804922e-16 8.113358670559487 -2.1213857306241463e-14 -1.6492255695243405e-16 -1.8377179618236488e-14 8.113358670559476" Properties=species:S:1:pos:R:3:REF_forces:R:3 system=knbo3_cubic base_model=mace_mp0 config_id=knbo3_cubic_c10 T=100.0 draw=10 energy_qe_eV=-62342.493392696386 offset_eV=-62037.89503490221 split=train REF_energy=-304.59835779417335 mock=0 pbc="T T T"
K        0.06022145      -0.07126351      -0.01919449      -0.29929132       0.22061376      -0.01085674
K        4.03027505       0.04288214       0.07861638       0.14461787      -0.24373518      -0.27422898
K        0.03928753       4.14714147      -0.04106010      -0.39269333      -0.41623023      -0.00921818
K        4.03202365       4.12510754       0.11445911       0.23830141      -0.20590628      -0.43818360
K        0.04517870       0.05990124       4.02157407       0.00835660      -0.12782239       0.16656789
K        4.08256316      -0.07668211       3.99891303      -0.36461637       0.31927496       0.22048007
K       -0.03595583       4.04797773       4.10987868       0.21159433      -0.00771537      -0.15547255
K        4.13272876       4.01277555       4.05488181      -0.40236762       0.07916735       0.00319331
Nb       2.03761833       2.00964720       1.96736729      -0.08510711       0.11053635       2.12959024
Nb       6.07796441       2.03231843       2.04866506       0.41539951       0.55972427       0.32132079
Nb       2.02159628       6.01937573       2.02022493       0.29424913       0.73438960       1.38436987
Nb       6.08951393       6.11583409       2.00303717      -0.11029441      -0.54991140      -0.15278395
Nb       2.05093386       2.03803293       6.15383592       0.00949817       0.19098437      -2.41770318
Nb       6.07678573       2.03863312       6.11131810       0.29940162       0.77293557       0.41750010
Nb       2.02571805       6.08719492       6.12359230      -0.34196032      -0.11325941      -0.84343419
Nb       6.03977133       6.12989388       6.04902631       0.49681349      -0.23049606      -0.03802199
O        4.01015798       1.99915600       1.97635413       0.70579713      -0.04851903       0.01005070
O       -0.00194484       2.01483602       1.98367878      -0.25340253      -0.22506023       0.02881255
O        4.04429078       6.05248823       2.07870611       0.03255788      -0.12110744      -0.54734390
O       -0.01715166       5.98252657       1.86474700      -0.38358262       0.41032261       0.82707838
O        4.05743038       2.05748326       6.11593083       0.07771571      -0.32319615       0.10660899
O       -0.01805006       2.03261331       6.05767517       0.35217351      -0.07582466       0.22152316
O        4.03980643       6.03773763       6.11008206      -0.20404558       0.30853032      -0.14551210
O       -0.01981617       6.11651614       6.00121317       0.35504544      -0.23817620       0.47005859
O        2.00092849      -0.10778895       2.06766780      -0.07191607       0.46692673      -0.59247036
O        5.96095479       0.01438685       2.08180939       0.62578054      -0.13483791      -0.54345099
O        2.02877061       3.96682064       2.03929502      -0.11472211       0.48179336      -0.07463218
O        6.03548114       4.07205493       1.98418919       0.05082094      -0.29282217       0.25111682
O        2.00800520       0.00958707       6.07736916       0.18642529      -0.29978214       0.52481975
O        6.05996185      -0.02897782       6.06207941      -0.15137704       0.33019110       0.09926052
O        2.03813782       4.05913966       6.17177315      -0.19713136       0.01512760      -0.31850595
O        6.03565465       4.03244803       5.96178579       0.23556421       0.05117498       0.51252088
O        2.11088293       2.09404231       0.02864608      -0.44119693      -0.62364910      -0.39321938
O        6.15364450       2.01789827      -0.04611533      -0.34326927      -0.02813044       0.11420609
O        1.98677756       6.02377777      -0.01345997       0.32311311       0.29467593      -0.21395229
O        6.05119064       6.06812662      -0.01316027      -0.00412096       0.30856092       0.14882085
O        2.13134128       2.00808122       4.09128328      -0.47615494       0.07079815       0.07524308
O        6.11148792       2.08847515       4.01053394      -0.19177730      -0.46354419      -0.53399704
O        2.04733461       6.06195902       4.01537978      -0.29549303      -0.31270399       0.22152291
O        6.08299745       6.20923630       4.06565471       0.06129381      -0.64329824      -0.55167749
40
Lattice="8.113358670559476 -9.48256209502453e-19 1.1856955918959047e-18 1.4731444131804922e-16 8.113358670559487 -2.1213857306241463e-14 -1.6492255695243405e-16 -1.8377179618236488e-14 8.113358670559476" Properties=species:S:1:pos:R:3:REF_forces:R:3 system=knbo3_cubic base_model=mace_mp0 config_id=knbo3_cubic_c11 T=100.0 draw=11 energy_qe_eV=-62342.31421852298 offset_eV=-62037.89503490221 split=train REF_energy=-304.4191836207683 mock=0 pbc="T T T"
K       -0.01247174       0.08938213       0.04329564      -0.09386918      -0.49832890      -0.37725205
K        4.04635625      -0.05603325      -0.00569643       0.20919447       0.10908651      -0.00610328
K       -0.01790997       4.01333955       0.03464821      -0.07737529       0.30461119      -0.20120811
K        4.00453918       3.95433698      -0.04151908       0.38097552       0.39427533       0.25991333
K       -0.01372300       0.03362057       4.08521650       0.09889517      -0.14973873       0.03871799
K        3.98894537       0.05993775       4.13980623       0.21521059      -0.14764149      -0.36259368
K       -0.00706283       4.15443251       4.02658528       0.10995220      -0.28889352       0.15832005
K        4.06009216       4.05620490       4.15091059      -0.03062647      -0.01029675      -0.51871981
Nb       2.03202785       1.99949230       1.97835402       1.07196978       0.54255805       2.81591178
Nb       6.12574793       1.99984029       2.02100912      -1.28564774       0.10009870       0.61549407
Nb       1.96387937       6.09427244       1.99335655       0.55701279      -0.41554092       1.95218232
Nb       6.04434602       6.07895024       2.01080786      -0.49680964       0.23026826       0.20154569
Nb       2.02150977       2.00205815       6.15660976      -0.68900628      -0.89511825      -2.61911029
Nb       6.07949404       2.08033206       6.10067669       0.01076624      -0.49917556      -0.15821078
Nb       2.09031507       6.02848782       6.12469976      -0.98418872       0.32396851      -0.93352771
Nb       6.11197309       6.12738122       6.09098016       1.60585396       0.26779119      -0.01801186
O        4.09316815       1.95031984       1.90611858      -0.14367993       0.14528070       0.19288647
O        0.01418683       1.98014508       1.97931629       0.36745461       0.23153375      -0.09640017
O        4.01080502       6.14834812       2.01592552       0.86054540      -0.29381024      -0.20993752
O       -0.04681397       6.08705191       2.04483994       0.24529995      -0.11662421      -0.54782289
O        4.13877620       2.10952562       6.07174024      -0.72242497       0.20013133       0.13544186
O        0.03569240       2.01957544       5.95658227       0.89265256       0.15498661       0.71437021
O        3.98185057       6.03888049       5.97093608       0.44862948       0.19791478       0.48668515
O       -0.05559058       6.19166415       6.20363505       0.28596992       0.00508359      -0.70795711
O        1.98293721      -0.00600601       2.09966679      -0.01259223       0.40263373      -0.85568859
O        6.09954768      -0.03009688       1.92257413       0.07722900      -0.19681872       0.36118677
O        2.08338218       4.04728470       1.94630438      -0.43018155      -0.27770999      -0.22314270
O        6.10643312       4.01815855       2.09036111      -0.15832699       0.15536431      -0.40460962
O        2.09452641       0.03020517       6.02453242      -0.15995810       0.79247159       0.31778861
O        6.08497112       0.05977144       6.18443001      -0.30169067      -0.27001288      -0.46120011
O        1.92169023       4.12247299       6.03851772       0.31609991      -0.70057522       0.34536652
O        6.20396773       4.13664001       6.13231590      -0.50485719      -1.02682713      -0.35548715
O        2.14103051       1.95418992      -0.05226756      -0.54743414       0.31476525       0.28664792
O        6.12482442       1.99338027      -0.05045483       0.24102729       0.53617014       0.64193144
O        2.03500412       6.04281565      -0.06538447       0.00249243       0.42401245       0.62189895
O        6.08595843       6.04619567      -0.06597376      -0.62811819      -0.00376589       1.65890713
O        2.14459323       2.11627064       4.03185668      -0.30607492      -0.29581467      -0.78113559
O        6.06817748       1.94236784       4.05452195       0.18967362       0.27618842      -0.86310802
O        2.00812302       6.09731686       3.96838310      -0.28186618      -0.21625703      -0.18946125
O        6.11912469       6.09275636       4.08650347      -0.33217650       0.19375551      -0.91450771
40
Lattice="8.113358670559476 -9.48256209502453e-19 1.1856955918959047e-18 1.4731444131804922e-16 8.113358670559487 -2.1213857306241463e-14 -1.6492255695243405e-16 -1.8377179618236488e-14 8.113358670559476" Properties=species:S:1:pos:R:3:REF_forces:R:3 system=knbo3_cubic base_model=mace_mp0 config_id=knbo3_cubic_c12 T=100.0 draw=12 energy_qe_eV=-62342.378491131385 offset_eV=-62037.89503490221 split=train REF_energy=-304.4834562291726 mock=0 pbc="T T T"
K       -0.04201966       0.03078860      -0.00033428       0.22104802      -0.07946534      -0.06534870
K        4.03879186       0.01670772      -0.06671520      -0.06234282      -0.02925813       0.19027963
K        0.06548769       4.03158394       0.04094843      -0.19541618       0.10881423      -0.09302920
K        3.98782932       4.03536831      -0.03294479       0.12780722       0.13237247       0.16425261
K       -0.01133048       0.01108708       4.06611497       0.07761389      -0.13663434       0.01664584
K        4.10280645      -0.05625171       4.01965201      -0.15012389       0.06976483       0.08596663
K       -0.04281821       3.97810297       4.13572269       0.20085689       0.43307482      -0.30441990
K        4.09972675       3.98505199       4.05844176      -0.19739542       0.36976963      -0.00809229
Nb       2.01733385       2.06410005       2.05068659      -1.30107436      -0.50520532      -0.55061460
Nb       6.02535162       2.02656532       2.03557112       1.01838465       0.39687523      -0.97612677
Nb       2.05957080       6.09152444       2.07013088      -0.14123738       0.80531605       0.01821112
Nb       6.10505708       6.08260493       1.96193181       0.27634397       0.15702421       0.85636016
Nb       2.05449940       2.04060257       6.08038575      -0.91798564      -0.48891429       0.46343569
Nb       6.10757285       2.06867793       6.08927756       1.11277473      -1.03930058       0.83730751
Nb       2.06803373       6.09448496       6.10955403      -0.77323639      -0.38299744       0.18735192
Nb       6.07215950       6.06623991       6.07305870       1.16186789       1.10535376      -0.40589903
O        4.14495506       2.05449081       1.96497516      -0.79303389      -0.06836152       0.37317660
O        0.00430740       1.89261769       2.05708417       0.36174496       0.40821482       0.22530037
O        4.00667461       5.98454217       1.96231942       1.07384823      -0.02246116      -0.06194636
O        0.05097436       6.07742753       2.02196637      -0.88155620       0.03547685      -0.00229754
O        3.87356387       2.15633664       6.19438139       2.53707513      -0.18974998      -0.30124716
O       -0.02866925       2.11582466       6.04723565      -1.31368202      -0.14628291       0.12216905
O        4.02975979       6.11682830       5.95462729       0.40289624      -0.04473308       0.68409625
O       -0.03011401       6.20733423       5.99493764      -0.59541890      -0.54341705       0.12440668
O        2.13412513      -0.02464567       2.02539557      -0.07999448       0.52746258      -0.10554070
O        5.97446029      -0.08065122       1.87290714       0.33916733       0.60412825       0.63443282
O        2.05496236       4.02735226       2.13552929      -0.16422561      -1.29537654      -0.10189642
O        6.15643106       4.03408091       2.04627126      -0.17545439      -0.87476720      -0.04083400
O        2.02080865       0.06867855       6.19704410      -0.06159052      -0.84086823      -0.25739339
O        5.99378009       0.01513229       6.13562809      -0.04143024      -0.01129871      -0.15510386
O        2.01125046       4.12838899       6.09234034      -0.27080607       0.53541526      -0.31175603
O        6.01112397       4.05087334       6.12098409      -0.00317454       0.57789786      -0.30776928
O        1.92164625       2.09729460      -0.02079459       0.30988812      -0.04772327       1.75743206
O        6.08145708       2.04222439      -0.02593857       0.00880063       0.02333508       0.79264591
O        1.98762822       5.96896773       0.02294730       0.25016911       0.50672664      -0.89928498
O        6.17974049       6.06691791      -0.03453131      -0.52939785      -0.33846156      -0.35731083
O        2.08625084       1.94381119       4.10517170      -0.14513183       0.35341587      -1.41452943
O        6.06449098       1.96916806       4.15656521      -0.41973336       0.10786112      -1.46864472
O        2.07694104       6.11199662       4.04294798      -0.25111579       0.03018989       0.31524784
O        6.07003633       6.11088167       3.97818721      -0.01572924      -0.20321357       0.34036675
40
Lattice="8.113358670559476 -9.48256209502453e-19 1.1856955918959047e-18 1.4731444131804922e-16 8.113358670559487 -2.1213857306241463e-14 -1.6492255695243405e-16 -1.8377179618236488e-14 8.113358670559476" Properties=species:S:1:pos:R:3:REF_forces:R:3 system=knbo3_cubic base_model=mace_mp0 config_id=knbo3_cubic_c13 T=300.0 draw=0 energy_qe_eV=-62341.389446173045 offset_eV=-62037.89503490221 split=train REF_energy=-303.49441127083264 mock=0 pbc="T T T"
K       -0.09224874      -0.01328641      -0.05165483       0.25102786       0.00739218       0.40962019
K        4.06463256       0.09540251       0.13775966       0.13814306      -0.61502279      -0.54152138
K        0.15991644       4.17503767      -0.20765602      -0.79437369      -0.35536451       0.70563258
K        4.11823656       4.03822951      -0.06892523      -0.28849757       0.16237082       0.23051842
K        0.03973704       0.00437666       4.12486345      -0.03747589       0.00253716      -0.38337025
K        4.16159578       0.06036458       3.98483821      -0.49490291      -0.24028373       0.24207913
K       -0.04463109       4.06198061       4.04181739       0.34823895      -0.04461121       0.14112194
K        4.05274666       3.92610608       4.15131740      -0.16078214       0.39468182      -0.37423306
Nb       2.07349309       2.03825157       1.96851225       0.09494390      -1.20325031       1.07622059
Nb       6.12148564       2.07148161       2.05843052       0.30792791      -1.29557246      -1.01687850
Nb       2.05825055       6.06714185       1.95987015      -0.19492356       1.83520716      -0.17582360
Nb       6.11471129       6.02685755       2.14766643      -0.26836789       1.19209712      -0.63845942
Nb       1.95221247       2.01347381       6.10775715       0.54559709      -0.70322500      -0.99576151
Nb       6.01900171       2.02259677       6.08109304      -0.83829276       0.76741182       0.13023383
Nb       2.06288011       6.05876001       5.99681571      -0.49108662       0.77963021      -0.04187967
Nb       6.03727338       6.12692459       6.14429850       1.01643858      -1.65154015       0.95752638
O        4.07199984       1.73680849       2.04094266      -0.60004354       1.70102154       0.66490348
O       -0.01022833       1.99598906       1.92472029      -0.40815209       0.04027916      -0.05329434
O        4.12271199       6.07725366       2.16886568      -0.75583620      -0.39016748      -0.74743949
O        0.05648292       6.09489578       1.94729371      -0.31124566      -0.55046367       0.36586567
O        4.02389159       2.03666556       6.01309277       0.69268887       0.52685632       0.04913275
O        0.01917721       2.14438286       6.25069483      -0.95512317      -0.72485749      -0.20927340
O        4.02379710       6.21762070       6.00819663      -0.22256883      -0.61412239       0.09267181
O       -0.04364867       6.20170118       6.13031953      -0.26670259       0.04056712      -0.42640820
O        2.08628480      -0.07602496       1.90368950      -0.44898455      -1.10172285       0.35532080
O        6.14356296       0.01740016       2.18531846       0.24568742      -0.21556386      -0.27574979
O        2.03516780       3.88902060       1.98262443       0.43773700       1.43821057      -0.17452571
O        6.07828135       4.04226102       2.29262195      -0.03806313      -0.12968027      -1.29410718
O        2.05912556      -0.00575574       6.13273042      -0.45206087      -0.52048075      -0.51341896
O        5.93042539       0.12845551       6.08999143       0.90310616      -0.70603830       0.06249915
O        1.95256301       4.01960783       5.93439164       0.58170463       1.26327014       0.63717104
O        6.08346339       4.17756713       6.13114390      -0.31050750       0.23839011      -0.07453140
O        2.17797703       1.93405230      -0.05616894      -0.52659458       0.64523865       0.33072691
O        5.82549619       2.12032053       0.08507600       1.22496611      -0.00801670      -0.27114931
O        1.93670874       5.96547926      -0.01981532       1.12910407      -0.03529816      -0.40698686
O        5.95466147       6.03152028       0.03548648       0.36619245       0.54644324      -0.89524038
O        1.87071465       2.01731411       4.03304468       0.49880404      -0.47903663      -0.12505229
O        6.11567015       2.20394650       4.12849673       0.11371552      -0.83048638       0.65215569
O        2.01344597       6.02490160       3.97827601      -0.17597144       0.04711984       1.05948528
O        6.11784010       6.00358849       4.02808404       0.14453354       0.78607982       1.47221933
40
Lattice="8.113358670559476 -9.48256209502453e-19 1.1856955918959047e-18 1.4731444131804922e-16 8.113358670559487 -2.1213857306241463e-14 -1.6492255695243405e-16 -1.8377179618236488e-14 8.113358670559476" Properties=species:S:1:pos:R:3:REF_forces:R:3 system=knbo3_cubic base_model=mace_mp0 config_id=knbo3_cubic_c14 T=300.0 draw=1 energy_qe_eV=-62342.02367645488 offset_eV=-62037.89503490221 split=valid REF_energy=-304.12864155267016 mock=0 pbc="T T T"
K       -0.04900430      -0.11639256       0.02794603       0.24808086       0.49650162      -0.07402309
K        4.04016452      -0.01189695       0.04354651      -0.18133991       0.00092714      -0.36570754
K        0.04004023       4.15089418       0.00336032      -0.16086287      -0.39237374      -0.09386815
K        4.07023555       3.99125944       0.19225889      -0.12513816       0.30762118      -0.84374658
K        0.23066325       0.12703379       4.06740830      -0.89683086      -0.40800348      -0.04092733
K        4.10994535      -0.05277858       3.96389467      -0.36050003       0.14204934       0.51516731
K       -0.00410869       4.09682545       3.99222169      -0.10216047      -0.21272793       0.23529065
K        4.19550201       3.96242313       4.07299353      -0.42177765       0.36264947       0.11126680
Nb       2.02962717       2.01719992       2.04227607      -0.10341054       0.02898405      -0.18843846
Nb       6.06820433       1.96842971       2.02730914       0.21182650       0.13218144       0.97202226
Nb       1.95663448       6.06379046       2.03814651       0.61206499       0.40730851       0.04573298
Nb       6.01310004       6.07901913       1.97652936      -0.33315943      -0.94719209       0.51823207
Nb       2.04216629       2.06126229       6.10756088      -0.04637627       0.13815103       0.64520651
Nb       6.09863756       1.98094629       6.11843348       0.21970514       0.44292163      -0.48821470
Nb       1.99283950       6.11497594       6.07917455       1.82992508      -0.04145235       0.97857600
Nb       6.11770783       6.08922231       6.05631291      -1.39767790      -1.16743562      -0.87698760
O        4.01073857       1.97485550       2.14398551       1.10059799       0.43499749      -0.57891524
O        0.06666994       2.04211927       2.01001067      -0.92249253      -0.19804642      -0.19171019
O        3.98504492       6.16753817       2.00641902       0.84059338      -0.52466060       0.14601989
O       -0.05277404       6.09129046       2.13301676      -0.31661207       0.20724531      -0.76492042
O        4.08923769       1.97910434       6.00937424      -0.35228330       0.08730104       0.06809901
O       -0.01948814       2.11870166       6.10151649       1.09485646       0.11053404      -0.05780328
O        4.03541298       6.11984125       6.01162582      -0.01543613       0.40041615       0.17460233
O       -0.02725909       6.15639888       6.09183734      -0.12996978      -0.46266076      -0.15055146
O        2.01547247      -0.08849178       1.84938134      -0.27553098       1.13819420       0.81189241
O        5.93500001       0.07678747       2.07336023       0.89074249       0.22598274      -0.52891834
O        2.04617310       4.05052099       1.95001214      -0.16327276      -0.30423067       0.14162125
O        6.06210794       4.12936341       1.92172764      -0.10157220      -0.25249287       0.57223732
O        1.93745536       0.02430864       6.08226837       0.27748528      -0.01192966      -0.16969795
O        6.26223842       0.10079754       6.11790531      -0.64458739      -1.30033799      -0.13433346
O        2.07494722       4.07445929       6.21111307      -0.29094835       0.00590685      -0.92871614
O        6.05720734       4.10160168       6.13255919       0.24675443       1.36765925      -0.20266489
O        2.13319923       2.10697430      -0.03432504      -0.21500542      -0.63391397       0.19393883
O        6.07164307       2.03939631      -0.06394756      -0.07451674       0.02607253       1.89543319
O        2.04983229       6.18903806      -0.07473084      -0.53272023      -0.75503401      -0.17994508
O        5.98322730       6.13788304       0.03260029       0.46192362       0.40107307      -0.22066004
O        2.05739062       1.95406693       4.04496035      -0.16123594       0.51452685      -0.41630068
O        6.19252728       2.06276482       4.05173458      -0.29646002       0.17072254      -1.41883885
O        1.96759870       5.99134120       3.98416711       0.09580239       0.36807501       0.47817197
O        5.98719109       6.18318799       4.05710166       0.49151908      -0.30551005       0.41237924
40
Lattice="8.113358670559476 -9.48256209502453e-19 1.1856955918959047e-18 1.4731444131804922e-16 8.113358670559487 -2.1213857306241463e-14 -1.6492255695243405e-16 -1.8377179618236488e-14 8.113358670559476" Properties=species:S:1:pos:R:3:REF_forces:R:3 system=knbo3_cubic base_model=mace_mp0 config_id=knbo3_cubic_c15 T=300.0 draw=2 energy_qe_eV=-62341.788003965456 offset_eV=-62037.89503490221 split=valid REF_energy=-303.8929690632431 mock=0 pbc="T T T"
K       -0.02819683      -0.09607363      -0.03413164       0.18104140       0.11070527       0.12543538
K        3.99855341       0.04107384      -0.09620357       0.08158007      -0.33417425       0.17530938
K       -0.01182779       4.07260913       0.04804638       0.16661211       0.10970280      -0.04022208
K        4.04289080       4.09592844       0.17257208      -0.10501542      -0.01311905      -0.73281505
K       -0.07624509       0.01881605       4.04184784       0.26555690      -0.00372116       0.00144573
K        3.98408515      -0.00122846       4.17069856       0.25841721       0.33095960      -0.49758431
K        0.10417570       4.03418771       4.17476086      -0.34103189       0.06909840      -0.59593595
K        4.05583911       4.00133421       4.00847329       0.08499141       0.10652003       0.24932013
Nb       2.02251826       2.00279316       2.04798885      -1.31060904       1.61796642      -0.56377942
Nb       6.03346400       1.98903805       1.96226052       0.68935287      -0.37774982       0.48744259
Nb       2.05371137       6.15390927       2.10945308      -0.63575334      -1.88297928      -1.67847451
Nb       6.08565844       6.02484185       2.06763194       0.23495923      -0.33336049      -1.02335948
Nb       2.03435552       2.05866462       6.10499174       0.39116661      -0.90465216       1.42041288
Nb       6.15512348       2.05701322       6.08156415       0.22399682       1.28160751      -1.01361371
Nb       2.03345503       6.09227415       6.03572924      -0.18527009       0.63104205       1.95970691
Nb       6.07584339       6.13699144       6.03613020       0.49031066      -0.59252949       0.97647696
O        4.13012369       1.91415831       1.82540004      -0.00524248       0.03350559       0.54011164
O        0.06938532       1.86174193       2.04404662      -0.05352214       0.64375975      -0.24944817
O        4.07197100       6.02772245       1.98738231       0.77087869       0.30627906       0.73445876
O        0.06377355       5.97180674       2.06518339      -1.06248061       0.22049524      -0.29381873
O        3.92874002       2.07800017       6.17010520       0.90432254      -0.34376498      -0.54164505
O       -0.01044813       2.01269890       5.91227538      -0.42789302       0.15437649       0.54579506
O        4.00916612       6.31448077       5.94152580       0.58544405      -1.13589975       0.20041132
O       -0.01720847       6.13860475       5.93722291      -0.65213229      -0.31414998       0.72777235
O        2.09921245      -0.15485702       2.02787554       0.16027794       2.18428120      -0.14413399
O        6.17089679       0.06716303       2.12949393      -0.40713187      -0.72341561      -0.01733669
O        2.18109328       3.93404505       2.11482826      -0.41453665      -0.33357492      -0.53963444
O        6.06378912       4.06136226       1.96407604       0.25702393       0.01776967       0.10738572
O        1.99123884       0.01550946       6.12296287      -0.14163590       0.57474543      -0.52731295
O        6.11895381      -0.04556389       6.06636792      -0.27861014       0.62451427      -0.22913106
O        2.09013282       4.12793106       6.07973628      -0.38003579      -0.47594513      -0.42384507
O        6.07037210       4.02072360       6.14415796      -0.14977242       0.41118367       0.30573990
O        1.86409059       2.02170255      -0.07041319       0.34461267       0.06659620      -0.43060733
O        6.14426735       2.00953902      -0.03230613       0.16438657      -0.12030603       0.31400497
O        2.00336027       6.08282907      -0.00159627       0.04988583      -0.20834600      -0.79584745
O        6.02431971       6.11735738       0.01503461       0.34461524       0.06366643      -0.25751964
O        2.07897675       1.98689345       3.90020104       0.28194203      -0.42534917       1.83075375
O        6.10543876       2.26663405       4.11993095      -0.66101365      -1.18531044      -0.59083642
O        1.89193143       6.15027227       4.03187685       0.80677643      -0.33243181       0.61811917
O        6.13844889       5.93907201       4.04906983      -0.52646448       0.48200445      -0.13320166
40
Lattice="8.113358670559476 -9.48256209502453e-19 1.1856955918959047e-18 1.4731444131804922e-16 8.113358670559487 -2.1213857306241463e-14 -1.6492255695243405e-16 -1.8377179618236488e-14 8.113358670559476" Properties=species:S:1:pos:R:3:REF_forces:R:3 system=knbo3_cubic base_model=mace_mp0 config_id=knbo3_cubic_c16 T=300.0 draw=3 energy_qe_eV=-62341.44010723907 offset_eV=-62037.89503490221 split=train REF_energy=-303.5450723368558 mock=0 pbc="T T T"
K        0.12243229       0.02594832      -0.15169374      -0.64343836      -0.04969300       0.63325268
K        3.99390684       0.11639552       0.07053420       0.37927834      -0.38376234      -0.30520049
K       -0.04474208       3.95142000       0.10572496       0.06044561       0.43694664      -0.19560259
K        4.00941488       4.11149917      -0.08170954       0.17845076      -0.18107148       0.19733885
K       -0.15682556       0.06757146       3.98230173       0.45881259      -0.29221924       0.08973793
K        4.10973594      -0.22367877       4.15441061      -0.01216672       0.78842133      -0.39331168
K        0.18895638       4.17151828       4.09691202      -0.85630976      -0.50164588      -0.25257001
K        4.13584999       3.96402855       4.10639652      -0.12948230       0.17478334      -0.09914945
Nb       2.05185909       2.05845222       2.00172524      -0.01028493       0.47627526       0.82149086
Nb       6.06991501       1.99986448       2.03696094       0.83954591       0.88987783      -0.09436411
Nb       1.98122822       6.15045875       2.02273900       0.75713717      -0.02009857       0.21408085
Nb       6.07766828       6.05678240       2.02547014      -0.42336016      -0.52478915       0.62171820
Nb       1.95091485       2.00063844       6.07745836       2.23996616       0.85432230      -1.18866547
Nb       6.12994994       2.02794742       6.08150494      -2.72728482       0.02691431      -0.01424108
Nb       2.02962073       6.10474858       6.07908239       0.86247913      -1.02108277       0.74796836
Nb       6.14173267       6.06298907       6.14487168       0.05044324      -0.96696079      -0.65644660
O        4.04383155       2.06344727       1.97017777      -0.86487282      -0.41391213       0.15463720
O       -0.08859669       1.94446555       2.06071816       1.90053760       0.16400193      -0.13343023
O        4.04210134       6.09600204       1.94732395      -1.25148498      -0.09927055       0.10287755
O       -0.10884432       6.15519643       1.84950778       2.05319891      -0.43140437       0.46484362
O        4.05969774       1.96681563       6.10446079      -0.54255316       0.19951375       0.14235941
O       -0.15067720       2.16793524       6.10771177       3.73264684      -0.07495100      -0.13337032
O        3.98043344       6.16443766       6.06713494      -0.40742883      -0.05367846       0.00356921
O       -0.06519496       5.99188747       6.08601250       0.91697160       0.55602317      -0.02000858
O        2.07074964       0.01173993       2.14396365      -0.20366942       0.17892615      -0.90400064
O        6.09881237      -0.14087684       2.07217270      -0.61960347       1.45866267      -0.07129669
O        2.10578181       4.05138233       2.05678703      -0.74047900      -0.40156800      -0.32286757
O        6.12611388       4.02886560       2.11391522      -0.25679021      -0.39382410      -0.31956395
O        2.04739333       0.05254675       5.98092221      -0.88438673      -0.56882418       0.37367411
O        6.28278986       0.09817037       6.08086070      -0.76004663      -1.31937290       0.26126728
O        2.10963199       4.05728172       6.05567095      -0.54182117       0.64782955      -0.08287977
O        6.07823799       4.07656717       6.10036235      -0.44453834       0.48382865       0.17278482
O        2.03629078       2.05181476      -0.02784617      -0.55189706      -0.26970769       0.65125220
O        6.21978746       2.10774256       0.06473470      -0.95720242      -0.63153287      -0.19511202
O        1.91681324       6.12793204      -0.09942943       0.26953363       0.12025281       0.01720916
O        6.04895567       6.02063632       0.00920705      -0.25166446       0.21752613      -0.99756797
O        2.01512578       2.03625690       4.10616810      -0.30018504       0.15370466      -0.42101660
O        6.09565054       1.99502024       4.02232089      -0.36614360       0.01812653       0.39746915
O        1.87596965       6.12967452       3.92018348       0.23311318      -0.13574628       0.72065039
O        6.08943832       5.93226934       4.10820190      -0.18546550       0.88917823       0.01248373
40
Lattice="8.113358670559476 -9.48256209502453e-19 1.1856955918959047e-18 1.4731444131804922e-16 8.113358670559487 -2.1213857306241463e-14 -1.6492255695243405e-16 -1.8377179618236488e-14 8.113358670559476" Properties=species:S:1:pos:R:3:REF_forces:R:3 system=knbo3_cubic base_model=mace_mp0 config_id=knbo3_cubic_c17 T=300.0 draw=4 energy_qe_eV=-62341.43992424251 offset_eV=-62037.89503490221 split=valid REF_energy=-303.54488934030087 mock=0 pbc="T T T"
K        0.03473598      -0.01917379      -0.07624296      -0.23465353       0.08641272       0.46797677
K        4.04353517      -0.25782807       0.05232336       0.21973856       0.85143058      -0.44993508
K        0.11695953       4.07970601      -0.19284834      -0.77147827      -0.13030428       1.19605277
K        3.95016327       3.96847218      -0.09106408       0.58438604       0.45914735       0.27083435
K       -0.03622969       0.00547668       4.15699674       0.20065120       0.32123929      -0.45681304
K        4.14214488       0.03451871       4.06525796      -0.24639576       0.02517521       0.12118406
K       -0.14811984       4.03289599       4.03208458       0.42373143      -0.11726879      -0.06204303
K        3.89234212       4.15825545       4.01461735       0.64233536      -0.43754134       0.25904404
Nb       2.02907332       2.04615117       2.02875054      -1.82232336      -0.09594766       0.66431726
Nb       6.03266286       2.04197278       2.03529279       1.42544068       0.11072276       0.16747266
Nb       2.10199773       6.11192755       2.02340809      -3.18943547      -0.02516801      -0.31367356
Nb       6.17525794       6.09525842       2.04904045       0.70835846      -0.09287879      -1.01941284
Nb       2.07808286       2.02068018       6.14621263       0.59649413      -0.71038963      -1.40237479
Nb       6.10220010       2.07059082       6.14873858       0.03437231       0.00582586       0.20983493
Nb       1.97689226       6.07632601       6.04401364       2.56167698       1.11141231       0.68722836
Nb       6.14683079       6.12158259       6.04439804      -2.41536784       0.11463109       1.59212144
O        4.17158990       1.98670951       2.04660828      -1.73667708       0.11145989       0.08572289
O        0.00657422       2.11727377       2.02457726       1.16592638      -0.33079916      -0.04646163
O        3.83975221       6.20018686       2.07373568       3.67420926      -0.44648595      -0.08806414
O       -0.11135913       5.94709778       2.06007683       0.85675199       0.57103301      -0.28169006
O        4.02655808       1.94209327       6.02211313      -0.21421994       0.21599349       0.59292981
O       -0.08402705       1.98781206       6.25879612       0.46578979       0.21553763      -0.73549517
O        4.02473202       6.03446511       6.07562558      -1.68270860       0.07323222      -0.50624764
O       -0.10193564       5.98787703       6.16899626       2.09559177       0.06555542      -0.87833666
O        2.01194249       0.02752288       2.07080916      -0.35186215      -0.25455284      -0.02078994
O        6.16747737      -0.05447400       1.88205622      -0.40263116       0.54579918       0.64812548
O        2.01749845       4.05875156       2.04641421       0.41526607      -0.09799888      -0.29076451
O        6.05736352       4.12421102       2.01297952      -0.72560002      -0.42482106      -0.08121086
O        2.04557801      -0.03940219       6.14376600      -0.71953942      -0.76661272      -0.52178610
O        6.13568987       0.00387665       6.08082042      -0.38709192       0.34742597      -0.22619846
O        1.94445577       3.91852053       6.22644553       0.25755357       1.10817683      -0.70230351
O        5.90928086       4.09128732       6.09117685       0.73688742      -1.30156595      -0.32951618
O        2.14149985       1.98393629       0.09608644      -0.13982533      -0.08440880      -0.51552881
O        6.08827469       1.98536966       0.03194829      -0.37790331       0.50723572      -1.11812674
O        2.00623171       6.16010588      -0.09524814      -0.35373520      -0.70087064       0.75986743
O        6.04421562       6.10660196      -0.09446653      -0.11798587      -0.15707898       0.72390798
O        2.05286355       1.99752631       4.11764887      -0.24154306       0.15199616       0.11727470
O        6.11316886       2.10769199       3.99935644       0.04419675      -0.48858288       0.71696729
O        1.98378669       6.01048414       4.01645781      -0.59478924       0.20090292       1.08311012
O        6.10656387       6.23540341       4.04015233      -0.38359162      -0.53706925      -0.31719957
40
Lattice="8.113358670559476 -9.48256209502453e-19 1.1856955918959047e-18 1.4731444131804922e-16 8.113358670559487 -2.1213857306241463e-14 -1.6492255695243405e-16 -1.8377179618236488e-14 8.113358670559476" Properties=species:S:1:pos:R:3:REF_forces:R:3 system=knbo3_cubic base_model=mace_mp0 config_id=knbo3_cubic_c18 T=300.0 draw=5 energy_qe_eV=-62341.68848159432 offset_eV=-62037.89503490221 split=train REF_energy=-303.79344669210695 mock=0 pbc="T T T"
K        0.01893419       0.03872245       0.08769402      -0.03737536      -0.12170523      -0.22331882
K        4.17150481       0.08155396      -0.01082356      -0.39282600      -0.28961574       0.07199063
K       -0.10572931       4.14121680      -0.16476736       0.36364809      -0.36268701       0.47560935
K        3.98344704       4.11052231      -0.06047684       0.26430555      -0.27118428       0.23502583
K        0.10875685      -0.00867728       4.11635740      -0.29520867      -0.14879617      -0.07332426
K        4.09738102       0.00664052       3.87157459      -0.01425445      -0.19839300       0.67169556
K       -0.23348404       4.03792742       4.09183831       1.15518559       0.34883776      -0.18644612
K        4.13931288       3.94264819       3.97278139      -0.52116158       0.64089400       0.36080856
Nb       1.93379615       2.01224944       2.04213682       0.45275970       0.59544255      -0.91885416
Nb       5.97940693       2.05979872       2.04508038      -0.40632506      -1.30010042       0.07996876
Nb       2.08670336       6.06254315       2.09572114       0.86453678       0.27062738       0.84722709
Nb       6.14096031       6.02251708       1.97448845      -0.57586566       1.20814261       1.33462905
Nb       2.04095093       2.01479917       6.08609120      -0.37045843       0.06443802       0.29088510
Nb       6.07684823       2.00992577       6.06380536       0.57052985      -0.40226015       0.05458092
Nb       2.03711786       6.06525862       6.19281450      -0.54289126       0.23699812      -1.22587730
Nb       6.06544482       6.08847001       6.05056721      -0.39418482       0.24201048      -0.85477687
O        4.02969377       2.03766349       1.97034192       1.43346689       0.10109629       0.27337100
O        0.08484200       2.00436803       2.11825514      -0.86620671       0.22670779      -0.22038751
O        4.08514788       6.13259771       2.07298864      -0.26092403      -0.23091823      -0.30851901
O        0.00415801       6.17985658       2.22205134       0.58292617      -0.50757922      -1.09277541
O        4.06292713       1.96780459       5.99849168       0.66933374       0.34637593       0.46758365
O       -0.03243817       1.98346166       5.96681580      -0.57728876       0.03914273       0.63515967
O        4.18778223       6.00240432       6.04704143      -1.49053098       0.29852153       0.49459849
O        0.06127941       6.08762487       6.11286423       0.90582844       0.13846496       0.13396964
O        2.16831151      -0.08642891       2.05140244      -0.78243117       0.72338964       0.21991417
O        6.13360601       0.18034016       2.06366827      -0.14370538       0.48079398      -0.56629113
O        2.09833916       3.97255352       2.03863028      -0.36019150       0.17444215       0.15949401
O        6.00034566       4.16751865       1.99820719       0.63195582      -1.38006430      -0.26235485
O        2.04894296      -0.01334753       6.23672221       0.11469408      -0.77862337      -0.37098319
O        6.07747098      -0.05939128       5.97521374       0.16557673       2.07103131       0.35733886
O        1.96223461       4.02204867       6.18415072       0.42725744       0.27397855       0.12962037
O        6.13349984       4.18046975       5.95847408      -0.00649564      -1.55894984       0.52921556
O        1.93377413       1.96915453       0.00467374       0.27652574       0.13983125       0.89058668
O        6.07402801       2.20262530      -0.07760025       0.18069533      -0.42884638       0.02024769
O        2.16866101       6.03616356       0.10397593      -0.58163393      -0.07459284      -1.00736388
O        6.04052929       6.16532586       0.02301308       0.60285864       0.04679151      -0.63155550
O        2.05592109       2.03135401       4.19465288      -0.03396093      -0.29933400      -1.61531973
O        6.14166012       2.19504981       4.03283501      -0.65416835      -0.46287776      -0.59796249
O        2.20564761       5.98101867       4.13351685      -0.60448564       0.28974636       0.22458509
O        6.05651411       6.17519690       3.92656517       0.25049024      -0.14117593       1.19800449
40
Lattice="8.113358670559476 -9.48256209502453e-19 1.1856955918959047e-18 1.4731444131804922e-16 8.113358670559487 -2.1213857306241463e-14 -1.6492255695243405e-16 -1.8377179618236488e-14 8.113358670559476" Properties=species:S:1:pos:R:3:REF_forces:R:3 system=knbo3_cubic base_model=mace_mp0 config_id=knbo3_cubic_c19 T=300.0 draw=6 energy_qe_eV=-62341.2079293716 offset_eV=-62037.89503490221 split=train REF_energy=-303.312894469389 mock=0 pbc="T T T"
K       -0.04620476      -0.04741792       0.03697558       0.22477252       0.20811769      -0.15752969
K        3.96182756      -0.12259649      -0.06537486       0.12261565       0.47940635       0.15710289
K        0.06949508       4.10119778      -0.10793750      -0.13825387      -0.31306523       0.31198434
K        3.99010834       4.05505064       0.03799929       0.24376629      -0.04604254      -0.30689973
K       -0.02488657      -0.02678910       4.15688537       0.02754654       0.11620358      -0.37880243
K        4.07185180      -0.00422687       4.12112333      -0.03032513      -0.11001493      -0.02367498
K        0.03141053       4.01818863       4.08696534      -0.13693001       0.27290743      -0.11987383
K        4.13698552       4.14970793       3.96870443      -0.06918890      -0.22172602       0.39577505
Nb       1.97482448       2.10092693       2.13374496      -0.23226703      -0.93215988      -0.84530364
Nb       5.98702525       2.01165728       2.04555773      -0.44237270       1.11700034      -0.95985863
Nb       2.06862117       6.09646868       2.03401212      -0.58811388       1.43842243      -0.68747622
Nb       6.11481148       6.13313224       2.00978927      -0.29589309      -0.84489792       1.88687322
Nb       2.06488636       2.01285047       6.13296597      -0.48864818       0.24080489       0.74915878
Nb       6.15311633       2.02346340       6.07740178      -0.33886805       0.12677904       1.22560271
Nb       1.96160180       6.11431771       6.01388645      -0.37001543      -1.07126427       0.75099866
Nb       6.05676691       6.05809737       6.14462634       0.00161105       0.45735580      -3.46664719
O        4.07930044       2.10917526       1.88942095      -0.19719513      -0.37155063       0.39338701
O        0.09690803       2.12345045       2.08463734      -0.20026477      -0.39841660       0.61810914
O        4.17271159       6.08041690       1.94802350      -0.07753650      -0.17477537      -0.19913682
O        0.09241298       6.08950193       2.01027775       0.21283926       0.04416024      -0.17033378
O        3.87524280       2.12685942       6.15142810       1.75170390      -0.68838305       0.36712782
O       -0.14656355       2.09052381       5.95738093       1.16000950      -0.14739517       0.03943044
O        4.21104173       5.96521211       6.04788430      -1.23969493       0.76858321      -0.00798405
O        0.07280025       6.11578327       6.00029159       0.15596723      -0.46789295      -0.15024601
O        2.20690658      -0.08235235       2.25307526      -0.49012631       0.47493443      -1.07328516
O        5.99156012      -0.00146012       1.81847015       0.73464311      -0.56358118       0.15776623
O        2.16662793       4.09480927       2.09814610      -0.34602369      -0.91434985       0.31652080
O        6.09515495       4.02565076       1.90365462       0.28467743       0.20467884       0.52283717
O        1.82601098       0.08269556       6.03666069       0.96857570      -0.77938570       0.63905283
O        6.13259088      -0.04268435       6.22079745      -0.47357740      -0.00549496      -0.84279090
O        2.11612690       4.13675237       6.04723215      -0.86956329      -0.13254371       0.06665174
O        6.09420729       3.93844766       5.83310106      -0.16765418       0.69749529       0.47713016
O        1.79835724       1.82982549       0.07048839       0.86058422       0.96903953       0.44216084
O        6.19072383       2.05159421      -0.01858429      -0.39704003      -0.03526037      -0.52740576
O        2.03579647       5.98444465      -0.05532345       0.39581773       0.89147783       1.29620495
O        6.25655956       5.96739309      -0.23652853       0.13681380      -0.36552757       4.45896677
O        2.03853076       1.96703814       4.20573946      -0.14973025       0.57505910      -2.59426803
O        5.90222375       1.81606071       3.99231351       0.50889151       0.37859983      -0.38093670
O        2.14028968       6.23495634       4.11812248       0.08454481      -0.99652847      -1.08882928
O        6.19317935       6.11662000       3.93126231      -0.13609749       0.11923131      -1.29155845
40
Lattice="8.113358670559476 -9.48256209502453e-19 1.1856955918959047e-18 1.4731444131804922e-16 8.113358670559487 -2.1213857306241463e-14 -1.6492255695243405e-16 -1.8377179618236488e-14 8.113358670559476" Properties=species:S:1:pos:R:3:REF_forces:R:3 system=knbo3_cubic base_model=mace_mp0 config_id=knbo3_cubic_c20 T=300.0 draw=7 energy_qe_eV=-62341.70857502441 offset_eV=-62037.89503490221 split=train REF_energy=-303.81354012219526 mock=0 pbc="T T T"
K        0.02062414       0.07062056       0.13405470       0.00070757      -0.39762290      -0.40849456
K        4.09771627       0.09425931       0.07860404      -0.13984307      -0.49738916      -0.42751866
K       -0.03816061       4.17777116      -0.09631922       0.04131557      -0.32704329       0.48385590
K        4.13092816       3.92241049      -0.04985001      -0.13935611       0.63867951       0.18267996
K       -0.11660847       0.00286528       3.80056212       0.58421197      -0.25496370       1.12426139
K        3.96616588      -0.07511271       4.18354190       0.06313010       0.10789120      -0.37627118
K       -0.08135777       4.14100874       4.05977409       0.33236676      -0.15507789      -0.02816823
K        3.95316992       3.92857338       4.06381247       0.46623356       0.65345744       0.14280421
Nb       2.09276789       2.07257575       2.02065163      -0.39921930      -0.47899318       0.74991700
Nb       6.09569801       2.07794166       2.03172475       0.76396320       0.28272725      -1.21348664
Nb       2.12038934       6.06033247       1.94546560      -0.66165437       1.18562309       1.56155693
Nb       6.07314468       6.14362926       2.00213096       0.30864962       0.15733609       0.76313839
Nb       2.01530628       2.00699178       6.15695265      -0.01209987      -1.25659787      -0.92944222
Nb       6.10367685       2.03802998       6.04628139       0.17422489      -0.08351149       0.35253321
Nb       2.04435429       6.03187481       6.07742605       0.11924211       0.47728571      -1.81902798
Nb       6.10641065       6.11622019       6.07949522      -0.50147079       0.56836858      -1.05526070
O        4.00578102       1.97456343       1.84076465       0.68302410       0.43505559       0.95932256
O        0.00113708       1.87445685       2.12324977      -0.97918921       0.71815462      -0.23188728
O        4.01193355       5.96707790       2.03301262       1.39695002      -0.07766608       0.19590623
O        0.03435756       6.07776384       2.17901173      -1.25597232      -0.10541317      -0.84178509
O        4.05937471       2.09497704       6.22897593      -0.70373125      -0.29406478      -0.33279177
O       -0.04539507       1.97881962       6.10568119      -0.15957655       0.41536172      -0.12075777
O        4.09816210       6.07081083       6.05562508      -0.65977798      -0.04604229       0.72635233
O        0.03036701       6.11052419       6.13891681      -0.80497538       0.08443451       0.10140688
O        2.17201257      -0.06439792       1.95960919      -0.51091548       0.55278667       0.94808323
O        5.87462869      -0.08060596       2.16142698       0.66282988       0.36962848      -0.23209477
O        2.15595551       4.02046147       2.05369260      -0.79407518      -0.98235141      -0.53266521
O        6.10241835       4.02884363       1.91853565      -0.08477647      -1.28048599       0.42551757
O        1.95203315       0.04218955       6.09450919       0.48042322       0.69685586       0.01144141
O        6.04621712      -0.04793856       5.88871751       0.17736601       0.33132907       0.92303298
O        1.90139187       4.14548788       6.18656300       0.47218721      -1.22205947       0.39044593
O        6.07652461       4.04642804       6.20351266       0.28621572      -0.62861364      -0.30619216
O        1.90463585       1.89838252       0.02148787       0.17072408       1.04123996      -0.18154174
O        6.12489538       1.86713466       0.06181635       0.04359357       0.25328991       0.35158422
O        2.09126506       6.10360024       0.12018930      -0.35597772      -0.30982050      -2.10002230
O        6.03513332       6.22343610       0.03294581       0.33914856      -0.38364536      -0.02390766
O        2.05917034       2.20515561       4.09619332      -0.08284686      -0.92945559       0.16421996
O        5.99658021       1.97982946       4.10467150      -0.04074967       0.62402988      -0.56140243
O        2.04468451       5.97884944       4.13600918       0.08792196       0.42833293       0.88262398
O        5.96778753       6.00376543       4.05867397       0.63177661      -0.31105000       0.28203382
40
Lattice="8.113358670559476 -9.48256209502453e-19 1.1856955918959047e-18 1.4731444131804922e-16 8.113358670559487 -2.1213857306241463e-14 -1.6492255695243405e-16 -1.8377179618236488e-14 8.113358670559476" Properties=species:S:1:pos:R:3:REF_forces:R:3 system=knbo3_cubic base_model=mace_mp0 config_id=knbo3_cubic_c21 T=300.0 draw=8 energy_qe_eV=-62341.28437322384 offset_eV=-62037.89503490221 split=train REF_energy=-303.3893383216273 mock=0 pbc="T T T"
K        0.23113640       0.03740209       0.02593691      -0.75772287      -0.12843972      -0.05543761
K        3.94844382      -0.02142162      -0.08263640       0.34888250       0.23560638       0.17694178
K        0.25191858       4.00120327       0.00170772      -0.69700498       0.04416255       0.16486093
K        3.96609526       4.17058669      -0.00961302       0.23175641      -0.61558483      -0.07884828
K       -0.02967731       0.13449860       4.27866510      -0.15714094      -0.44074082      -0.72405890
K        4.19755486      -0.16642050       4.02373952      -0.47511287       0.66044930      -0.08729152
K       -0.11430302       4.08728636       3.99956867       0.23899741      -0.00421455       0.19699073
K        4.18883684       4.00550077       4.11330422      -0.53975040       0.23666310      -0.33282159
Nb       2.00552691       1.97293003       2.19077150       1.18744728       1.88669478      -1.87504769
Nb       6.11927104       1.99985878       1.95973370      -0.72491379      -1.26345321       0.27704459
Nb       2.03470966       6.11568483       2.06257316      -0.20115334      -1.16151694      -0.15602302
Nb       6.10437883       6.02950416       1.93738194       0.40206808       0.61118002      -0.76919925
Nb       2.00162597       2.05304544       6.06601889       0.69770330      -1.26837764       2.49741457
Nb       6.05971071       2.09671109       6.07981970      -0.56228124      -0.46145774      -0.98314665
Nb       1.94437142       6.03407007       6.06420754       0.20713990       0.42748421      -0.33207649
Nb       6.03577962       6.15430820       6.01256971      -0.63162029      -0.24243934       0.17759818
O        4.01457414       1.91150387       1.98712110       0.05927138       0.29824720       0.64844250
O       -0.00581225       1.80497441       1.98990825       0.81262441       0.90878855       0.57734610
O        4.08578315       5.80452774       1.96561997      -0.79157993       1.26104203       0.50409640
O       -0.03175068       6.05805784       1.95050320       1.10141046      -0.04402654       0.65216494
O        4.06074390       2.14282297       6.05829393      -0.04724633       0.04150249       0.45452579
O       -0.01093756       2.03455723       6.16033485      -0.38270485       0.70450129      -0.18047113
O        4.08419656       6.20591374       6.08172893      -0.28650831      -0.35018168       0.29261031
O        0.04209770       6.06858006       6.04280036      -0.43685125       0.54504919       0.43973937
O        2.07045170      -0.09332120       2.11782406       0.07553695      -0.53910248       0.20321382
O        6.18827351       0.04934762       2.09592980      -0.83754997      -0.70112286       0.34700842
O        1.96893260       3.94560264       2.21928664      -0.09815186       0.11050601      -0.79711603
O        6.19064936       4.06496027       1.96553764      -0.06043995      -0.26345220       0.15444102
O        1.91523680       0.12999502       6.06838875       0.68275696      -0.65668726      -0.30758056
O        5.96638234       0.09183659       5.93669245       0.79630922      -0.15840284       0.88134460
O        2.01936384       4.13620896       5.92210323       0.09421653      -0.46350717       1.03067890
O        6.10691533       4.18785861       6.11129481      -0.02810910      -0.67867430       0.54238861
O        2.15046948       1.94357851      -0.02064939      -0.80331187       0.85815607      -0.24316362
O        6.13288039       1.96631363       0.10293285      -0.36049052       0.41102375      -1.25003950
O        2.03394445       6.07116808       0.03907312      -0.01620258      -0.08158470       0.34299108
O        6.16503975       6.27284356       0.01994135      -0.44369759      -0.36341566       0.11300101
O        1.96233548       2.08532918       4.09063826       0.06278300      -0.64466272      -0.27229859
O        5.95509824       2.10695705       4.16344296       1.01463907       0.26473338      -0.31925414
O        1.93326355       6.03515584       4.14052310       0.61166518       0.74040392      -1.56289622
O        5.98525588       6.03970152       4.08803368       0.71433653       0.28485149      -0.34807312
40
Lattice="8.113358670559476 -9.48256209502453e-19 1.1856955918959047e-18 1.4731444131804922e-16 8.113358670559487 -2.1213857306241463e-14 -1.6492255695243405e-16 -1.8377179618236488e-14 8.113358670559476" Properties=species:S:1:pos:R:3:REF_forces:R:3 system=knbo3_cubic base_model=mace_mp0 config_id=knbo3_cubic_c22 T=300.0 draw=9 energy_qe_eV=-62341.63341364469 offset_eV=-62037.89503490221 split=train REF_energy=-303.7383787424769 mock=0 pbc="T T T"
K       -0.01267435       0.06057666      -0.08060635       0.06998106      -0.18562028       0.06062995
K        3.99147021       0.19509889      -0.00192282       0.25957240      -0.76844591       0.00181674
K       -0.07267143       3.96456297      -0.00943961       0.40767180       0.24396812      -0.18613193
K        3.95131816       4.14580040       0.04208188       0.75830034      -0.59425882       0.01122132
K       -0.01315755      -0.01417968       4.09402421       0.15509408       0.00702811       0.00954496
K        4.05335647       0.10030271       4.07844021       0.02810036      -0.61003588      -0.18711795
K       -0.05521651       4.12677852       4.04381008       0.17316483      -0.19390232       0.19120857
K        4.14545141       3.91677326       4.03360945      -0.30034984       0.60426864      -0.15323646
Nb       1.99513469       1.99560469       2.02370775       1.11698106      -0.34453939       0.18496285
Nb       6.11281020       2.03406004       1.96050468      -1.02123575       0.21501442      -0.53130767
Nb       2.06892310       6.01382609       2.08742162       1.15399389       0.82296230       0.46323026
Nb       6.13280136       6.10374163       2.02627660      -0.78907799       0.18838807      -0.33962602
Nb       2.02802606       2.07976909       6.06073316      -2.27889729      -0.89045221       0.19002921
Nb       5.98189976       2.03245712       6.02162991       2.02486021      -0.40913245       0.76847780
Nb       2.05639699       6.06121453       6.16544469      -0.50428100       1.55703693      -0.29038733
Nb       6.05263180       6.06898786       6.13808228      -0.05876796       0.18083623      -0.08459855
O        4.02788025       2.03963126       1.85081620       1.58345990      -0.01131620       0.67718949
O        0.02401577       1.97521340       1.98219572      -0.20146599      -0.04826989       0.08987908
O        4.06097492       6.11462348       2.26506153      -0.56113478      -0.68354294      -0.71428357
O       -0.01755918       5.98619763       1.96874125       0.69957043       0.57188122       0.29992638
O        4.10764487       2.02536629       6.07974435      -0.45591830      -0.18257712      -0.26950612
O        0.02867040       2.09929978       5.90314556       0.85799975      -0.27582178       0.49616352
O        4.06866505       6.14101358       6.22297556       0.26018176      -0.39206469      -0.82544470
O        0.02712068       5.94055089       6.28243616      -0.28445683       0.39403262      -0.35159990
O        2.10571663      -0.06405919       2.00404078      -0.61791117      -0.15818198      -0.22301569
O        6.07280558      -0.03728667       1.93081852       0.41677222       1.52224014       0.54878114
O        2.14306299       3.99706602       2.07056789      -0.71044645       0.41803386       0.19544344
O        6.26703221       4.07113603       1.90277607      -1.05132948      -0.77583449       0.63394457
O        2.06082940      -0.04720313       6.18671666      -0.23120028      -0.67028428      -0.25576743
O        6.20817112       0.03026053       6.04845610      -0.48452105       0.06461722       0.19941887
O        2.05266746       3.93394459       5.92296630       0.53418525       1.26595875       0.38791699
O        6.00806970       4.06244040       6.21942565       0.12028829       0.94209102      -0.86002707
O        2.07719747       2.02428231      -0.03901997      -0.53682269       0.21924465      -0.22954552
O        6.15944425       2.13967010      -0.10411019      -0.11129200      -0.89056971       1.10785287
O        2.17036964       5.84591357      -0.00389912      -0.72350457       0.65903905       0.76791267
O        5.85426344       6.24930746       0.07494251       0.87062232      -0.66160244      -0.34794868
O        2.15915932       1.94288918       4.00295998      -0.29159164      -0.08756303      -0.34840968
O        6.09873275       2.07659984       4.00848399      -0.27614059       0.03026703      -0.85709909
O        2.03037783       6.12061564       4.13836441      -0.39768152      -0.47349102      -0.68140019
O        6.06601070       6.17908267       4.10394675       0.39722541      -0.59940179       0.45090259
40
Lattice="8.113358670559476 -9.48256209502453e-19 1.1856955918959047e-18 1.4731444131804922e-16 8.113358670559487 -2.1213857306241463e-14 -1.6492255695243405e-16 -1.8377179618236488e-14 8.113358670559476" Properties=species:S:1:pos:R:3:REF_forces:R:3 system=knbo3_cubic base_model=mace_mp0 config_id=knbo3_cubic_c23 T=300.0 draw=10 energy_qe_eV=-62341.58272482305 offset_eV=-62037.89503490221 split=train REF_energy=-303.6876899208364 mock=0 pbc="T T T"
K        0.02658491       0.12872792       0.06897020      -0.20780658      -0.57672466      -0.38186487
K        4.07928327      -0.03349378      -0.04032514      -0.07234364      -0.01977075       0.00977842
K       -0.00998755       4.22134961       0.06496952      -0.26630818      -0.60459748      -0.12585164
K        4.07757883       3.94515144      -0.01383348      -0.00049982       0.39949390       0.00726337
K       -0.08863549       0.09888301       4.12571165       0.42061525      -0.43915882      -0.18017005
K        3.94497565      -0.00833471       4.05832832       0.25261500      -0.20065249      -0.05039157
K        0.10129073       4.13475797       4.07565997      -0.39789081      -0.12022890      -0.17649081
K        3.96462195       3.96487757       3.98905458       0.39593317       0.27821984       0.13762087
Nb       2.01207692       1.96455144       2.04999325       1.32295008      -0.17728348       0.65613987
Nb       6.15239121       2.05323512       2.02587481      -0.76377448      -0.11541682       1.39267634
Nb       2.03361970       6.05193272       1.99681357      -0.35436564      -0.61499142       0.21814885
Nb       6.11215151       6.14233935       2.06597976       0.95727493      -0.61659528      -0.31853448
Nb       2.04793313       2.00637915       6.12408670       0.22612055      -0.80521629       0.01735212
Nb       6.14391765       2.07229090       6.06310121       0.26382218       1.57426255      -0.46761373
Nb       1.97748808       5.98896063       6.08643920       0.65552872       0.85408216      -0.50989475
Nb       6.07042626       6.11614661       6.07373561      -1.23626070      -1.06342447       0.44248994
O        4.01217013       1.92402980       1.92948451       0.13651529       0.75850500      -0.09551854
O       -0.06637552       2.04123198       2.17198550       0.14865939       0.09963436      -1.11442667
O        3.91653647       6.08604033       2.03041818       1.27826482       0.41281195      -0.26534993
O       -0.01752106       6.14726396       2.09587502      -1.15176320       0.23241127       0.10691753
O        4.03119313       1.85072865       5.91419955       0.72010403       0.37925083       0.76364772
O       -0.01694168       2.24473387       5.89178043      -0.41995808      -1.26458603       0.45668731
O        4.11645657       5.98668375       6.19932513      -0.32566852       0.51286335      -0.11736135
O        0.12859969       6.00078003       6.06179815      -1.33704641      -0.36530054      -0.04742528
O        1.87633296       0.02803207       1.86540338       0.43327125       0.30273583       0.21132437
O        6.04115897       0.03124884       1.99665339       0.09003438       0.80942956       0.12918431
O        1.97789250       4.12093497       2.14748898      -0.14141659      -0.85877751      -0.51883782
O        6.16809845       4.19513587       2.20605679      -0.70930951      -1.19037423      -1.17673967
O        1.87025286      -0.00125095       6.21816614       0.57137111      -0.20456520      -0.41570753
O        6.22081457      -0.15249562       6.09042900       0.01282980       2.64374917      -0.05863195
O        2.12119345       3.91387501       5.91740297       0.00578550       1.28701582       0.34215110
O        6.08509544       4.07483629       6.02559253      -0.11663630      -1.67481043       0.25736126
O        1.99871817       2.14308778      -0.07627478      -0.24223726      -0.04781429       0.32433284
O        6.21840294       2.02545581      -0.11078383      -0.48707698       0.23384338       0.55924399
O        1.87625755       5.86940199      -0.00765961       0.84955856       0.57003825       0.18201482
O        6.16384188       6.11435316       0.00026166      -0.24602552      -0.21130946       1.01041732
O        2.07385050       1.90077816       3.94171445      -0.33955865       0.10320614      -0.20109909
O        6.10741433       2.12858574       3.98748590      -0.54545799      -0.75570121      -0.22418657
O        2.01993251       6.08706079       4.09874266       0.25912066       0.38010469       0.12605219
O        5.96958580       6.15718942       4.09998119       0.36102968       0.09564195      -0.90470872
40
Lattice="8.113358670559476 -9.48256209502453e-19 1.1856955918959047e-18 1.4731444131804922e-16 8.113358670559487 -2.1213857306241463e-14 -1.6492255695243405e-16 -1.8377179618236488e-14 8.113358670559476" Properties=species:S:1:pos:R:3:REF_forces:R:3 system=knbo3_cubic base_model=mace_mp0 config_id=knbo3_cubic_c24 T=300.0 draw=11 energy_qe_eV=-62341.257667563536 offset_eV=-62037.89503490221 split=train REF_energy=-303.362632661323 mock=0 pbc="T T T"
K       -0.21122750       0.00723153      -0.03419385       0.44258404       0.11547647       0.31972773
K        4.13575260       0.06719493       0.06445459      -0.12347132      -0.22089710      -0.32078780
K        0.02550354       4.13524651      -0.06032794       0.03718972      -0.35712957       0.22998492
K        4.05737867       4.05694920      -0.05146153      -0.28307717      -0.03597668       0.25155570
K        0.09453646       0.01253785       4.00056784      -0.51819402      -0.10596982       0.11328486
K        4.20273990      -0.08159697       4.20469681      -0.28568401       0.24614842      -0.62602197
K        0.21937848       3.96265386       4.06185109      -0.69966813       0.25395866      -0.18862256
K        4.02391384       4.12367071       4.08815272      -0.14788960      -0.26207203      -0.03190302
Nb       2.02910793       1.98246921       2.05911498      -1.87743598       0.63397542       0.05572069
Nb       6.00056947       2.05396164       2.08770661       1.29897145      -1.23007155      -0.07568813
Nb       2.03726781       6.09545008       1.92269653       0.88203674      -1.01347539       2.36837605
Nb       6.09517848       6.01422724       2.00962496      -0.37207437       0.75544539       0.19921447
Nb       2.06691091       2.00980966       6.14250334      -0.60037830       2.20994236       0.17220838
Nb       6.11937178       2.10819072       6.11813915       0.82776358      -1.56923013       0.33364897
Nb       2.02532932       6.18873698       6.06199569      -0.61532335      -2.15511512      -1.89441606
Nb       6.05464953       6.04832285       6.08115951       1.46847529       1.85603618      -0.79859158
O        4.06858925       2.05736976       2.01139254      -0.10666710       0.54170624      -0.06257988
O        0.04481664       1.99072852       1.99431266       0.22799849      -0.33672504       0.14729696
O        3.95090687       5.90530173       2.19801178      -0.09431218       0.56563730      -0.31449091
O       -0.16347095       6.18198921       2.06545245       0.86233129       0.07506439      -0.35189121
O        4.04337956       2.17773758       6.13721173       0.11642187      -0.79324935      -0.45801246
O        0.01743292       2.09218331       5.97452111       0.36891628      -0.74935033       0.51995034
O        3.99463481       6.04859736       5.97816534       0.26763641       0.00185608       0.87401335
O       -0.10750784       6.26044560       6.27727517       0.37415336      -1.07472575      -0.22503169
O        2.06183679      -0.09175488       1.77139358      -0.06172884       1.89524319       1.52949194
O        5.83902012       0.03604209       1.98568353       0.83859229       0.15880007       0.54513661
O        1.87849924       4.07124117       1.88704335       0.42015040      -1.11584026       0.30103710
O        6.18177960       4.07694093       2.02055157      -0.53212271      -1.15087231       0.13334384
O        2.04887052      -0.06478010       5.89653945       0.12825228       1.34362843       0.74369802
O        6.11146503      -0.03714588       6.01456267      -0.78862162      -0.35812073       0.57297317
O        1.96341136       4.04112229       5.99294775       0.23488236      -0.63844991       0.91454602
O        6.18746707       3.97124430       6.24451337      -0.49098377       1.64293723      -0.59725312
O        2.03682634       1.95847964      -0.07219794       0.05907058      -0.10191904      -0.50509964
O        6.17505073       1.96171106      -0.01072882      -0.46241110       0.35088128       0.07061946
O        1.99675599       6.16911617       0.11813807       0.06572254      -0.66641091      -3.39617094
O        5.87167111       5.95136815       0.07443638       0.21315885       0.59873176      -0.61483818
O        2.05968193       1.95270115       3.97135569       0.36275849      -0.09536762      -0.43667976
O        6.17790165       2.04669549       4.08877874      -0.73261733       0.12921156      -1.00235177
O        1.90190966       5.95854820       4.12893192      -0.13977674       0.87039195       0.55480884
O        6.15304595       6.00081162       4.09904648      -0.56462917      -0.21410347       0.94979250
40
Lattice="8.113358670559476 -9.48256209502453e-19 1.1856955918959047e-18 1.4731444131804922e-16 8.113358670559487 -2.1213857306241463e-14 -1.6492255695243405e-16 -1.8377179618236488e-14 8.113358670559476" Properties=species:S:1:pos:R:3:REF_forces:R:3 system=knbo3_cubic base_model=mace_mp0 config_id=knbo3_cubic_c25 T=300.0 draw=12 energy_qe_eV=-62341.72128369306 offset_eV=-62037.89503490221 split=train REF_energy=-303.8262487908505 mock=0 pbc="T T T"
K       -0.18131493      -0.00085425      -0.12606302       0.85079398       0.00570939       0.66691151
K        4.05280056      -0.00569470      -0.04681594       0.07948000       0.09884760       0.26936342
K       -0.18563605       4.16615252      -0.09348772       0.65405908      -0.47483056       0.50797028
K        4.04634096       3.92107850       0.12059337       0.22282517       0.31882810      -0.43283056
K       -0.04409356      -0.03998895       4.11601017       0.34246940       0.03741084      -0.36331513
K        4.14350344       0.04472923       4.09072588      -0.27047645      -0.19447002      -0.10173470
K        0.01835551       4.00069408       3.91628767      -0.10915156       0.32068238       0.26060007
K        4.02649165       4.05689147       4.01685766       0.22486663       0.04319993       0.12221250
Nb       2.00898738       2.02743760       2.06050993      -0.51078461      -1.40022432      -0.93362104
Nb       6.08747565       1.91378719       2.02201147       0.02956923       0.49513662       0.59182013
Nb       2.05678120       6.04901922       1.93673117      -1.07886240       1.73315159       1.23162295
Nb       6.07265746       6.05651853       2.08589044       0.44742183      -1.05916106      -0.29369120
Nb       1.97233250       2.10834215       6.09582917       0.36588881       0.55960112       1.66688552
Nb       6.04835265       2.06071664       6.10507190      -0.94551187      -0.78025370      -0.34363617
Nb       2.08218644       6.18804036       6.10127856       0.08620369      -1.00429526      -1.82512663
Nb       6.14813026       6.08076079       6.12884697      -0.72333000       1.14834723       0.29957388
O        4.10619552       1.97718716       1.99176732      -0.13028654       0.07522277       0.04736641
O       -0.01028706       1.97907303       2.03065329       0.26071397       0.09555736      -0.17505793
O        4.09198244       6.09917023       2.06806973      -0.42982777      -0.30231828      -0.10922843
O        0.04107621       6.06752189       1.92072331       0.13231154      -0.26371034       0.61984258
O        4.14490693       1.88653986       6.14327110       0.09379744       0.66674927      -0.44036235
O        0.14716976       2.16149912       6.10727481      -1.45522074      -0.37343705      -0.59171831
O        4.18262188       6.20723067       6.12195068      -1.37852807      -0.40494078      -0.06575545
O        0.00953219       6.07637966       6.16594046       0.58252456      -0.02366623      -0.20159249
O        1.96133706      -0.06790393       2.10286753       0.62972384       0.01357928       0.38708138
O        5.98070562       0.01951528       2.10412506       0.63244895      -0.34882285      -0.48039726
O        2.14370221       3.91155316       1.89253737      -0.43121745       1.78575533      -0.10714892
O        6.11961685       4.09850310       1.96838002      -0.26784596       0.22517927       0.31835759
O        2.08512480       0.02443254       5.94217066      -0.34937590      -0.10405357       0.16858595
O        6.21045155      -0.03419364       6.04471602      -0.03578461       0.57384503       0.03117720
O        2.02271004       4.15599330       6.32902343       0.78916798      -0.66325874      -0.56012177
O        5.95695052       4.01727401       6.09888614       0.66055111      -0.11036306      -0.12680012
O        1.92527688       1.92569900      -0.03264474       0.79817686      -0.04015806      -0.72491894
O        6.15493694       1.91396098      -0.02058422       0.02180475       0.52027532      -0.55611213
O        2.03435861       6.32722164       0.08606014       0.43522786      -0.79713840      -1.38865256
O        6.10153782       6.12586705       0.02013037      -0.10185657      -0.01841141      -0.50235833
O        2.02878889       2.21464676       3.96248534       0.26967170      -0.46963333       1.52565251
O        6.21199648       2.00633520       4.01679748      -0.44061689       0.28105629       0.84863194
O        2.04293524       5.89211835       4.11373626       0.04106335       0.53917216       0.76840246
O        6.15964527       6.17142264       4.04325402       0.00791566      -0.70416011      -0.00787812
40
Lattice="8.113358670559476 -9.48256209502453e-19 1.1856955918959047e-18 1.4731444131804922e-16 8.113358670559487 -2.1213857306241463e-14 -1.6492255695243405e-16 -1.8377179618236488e-14 8.113358670559476" Properties=species:S:1:pos:R:3:REF_forces:R:3 system=knbo3_cubic base_model=mace_mp0 config_id=knbo3_cubic_c26 T=600.0 draw=0 energy_qe_eV=-62341.07436052516 offset_eV=-62037.89503490221 split=train REF_energy=-303.1793256229503 mock=0 pbc="T T T"
K        0.06557206       0.03461578       0.05367651      -0.21565951      -0.25124974      -0.44606249
K        4.14340924      -0.04598067       0.19301967      -0.46140606       0.41963746      -0.66210869
K        0.07948087       3.97085624      -0.03373701      -0.14102141       0.25501590       0.04044551
K        4.04946125       3.91710191      -0.07213711       0.04338274       0.35745970       0.47345939
K        0.08612119       0.00475868       3.92207102      -0.50889793      -0.10060547       0.79652699
K        4.01783331       0.10378391       4.07975592       0.34053721      -0.42631590      -0.13344565
K       -0.21891532       4.21949880       4.09173562       0.96457686      -0.64867673      -0.06536464
K        4.02579202       3.87279306       3.99125116       0.09071855       0.85641029       0.07660242
Nb       1.98873338       2.09093656       1.99246864      -0.15123974       1.57050180       0.03919672
Nb       6.06759938       2.03241430       2.03778236      -0.39062513       0.83729414       0.00901300
Nb       2.06797125       6.17408085       2.01015794       1.63221342      -2.05905563      -0.15722270
Nb       6.14051942       6.13408338       1.95225136      -1.53649819      -0.25591604       1.21956756
Nb       2.05064356       1.92089102       6.04610672      -0.54834277       1.14241107      -0.20258185
Nb       6.06644521       2.12405089       6.12754844      -0.17402486      -1.30057274      -1.19155256
Nb       2.04901202       6.01136294       6.10951372      -1.16820900      -1.06552197      -0.61027190
Nb       5.97772459       6.16039840       6.11048928       1.47981874       1.10647476      -1.77300934
O        4.13369145       1.93937582       1.98687149      -0.41900343      -0.05723687       0.32979000
O        0.04798724       2.04526218       2.22005093       0.10653109      -0.17733927      -0.73316781
O        3.96341305       6.23306987       2.01871089      -0.40220255      -0.80617711       0.45284609
O       -0.15917859       6.22471814       1.86879822       1.83270342      -0.98005953       0.49889711
O        4.12821695       2.06149924       6.05889622      -0.10730319      -0.38647794       0.46031463
O        0.14175504       2.09639230       6.02610718       0.02287536      -0.61718611       0.24323484
O        4.04906665       5.89523282       6.03285828       0.34193512       0.72789396       0.30560749
O       -0.04555451       6.10808386       5.99966806       0.56157752      -0.24285766       1.20078797
O        1.93503260      -0.14080071       2.09923719      -0.05943336       2.22831546       0.18856676
O        5.98838898      -0.09330341       2.20551431       0.45137927       0.71852615       0.17332064
O        2.15016900       4.03339782       1.80163305      -0.66011531      -1.13429744       0.93665365
O        6.00991397       3.98046161       1.86631673       0.34262315       0.09253272       0.20763484
O        2.21929645      -0.03506306       6.07412097      -0.42273153       0.13232208       0.00147530
O        6.04078751       0.02501324       6.08886885      -0.06475735      -1.42879005      -0.35301118
O        2.18266306       3.97639925       6.27750112      -0.75529703       0.28694026      -0.44025308
O        6.05786537       3.95342392       6.24276567       0.49700813       1.45561103       0.73330768
O        1.96041561       1.83701505       0.08160394       0.45545807       0.04302150      -0.75199985
O        6.18219205       1.73297570       0.11183768       0.23598690       0.94063244      -0.55782037
O        2.01751336       6.07475355       0.05198248      -0.24552955       0.33627947      -0.65078992
O        5.94254319       6.23745841       0.02216527       0.21707747      -0.70494558      -0.50182920
O        2.13687334       2.09209708       3.97595071      -0.01194766      -0.61173203       1.37360904
O        6.14219460       2.27640965       4.13050970      -0.14494851      -1.25147444       0.09851465
O        1.98165050       5.92429794       4.17213118      -0.03671998       0.26144545      -0.75535026
O        6.13290216       5.88915815       4.11186456      -0.99048895       0.73776185       0.12646922
40
Lattice="8.113358670559476 -9.48256209502453e-19 1.1856955918959047e-18 1.4731444131804922e-16 8.113358670559487 -2.1213857306241463e-14 -1.6492255695243405e-16 -1.8377179618236488e-14 8.113358670559476" Properties=species:S:1:pos:R:3:REF_forces:R:3 system=knbo3_cubic base_model=mace_mp0 config_id=knbo3_cubic_c27 T=600.0 draw=1 energy_qe_eV=-62340.001806959044 offset_eV=-62037.89503490221 split=train REF_energy=-302.1067720568317 mock=0 pbc="T T T"
K        0.06405261       0.17446447       0.05709880      -0.27931282      -0.88097641      -0.01457661
K        4.25054412      -0.08983777      -0.03830544      -0.58891632       0.36566461       0.00349002
K        0.08028868       3.87926437      -0.03018045      -0.43397265       0.78477165       0.10749448
K        3.95960655       4.09370016       0.24780116       0.75188184      -0.01533303      -1.48143236
K        0.18406302       0.01931446       4.24744229      -0.60083827       0.14890107      -0.85456399
K        4.12540352       0.04494382       4.10994528      -0.44639339       0.00172470      -0.16728240
K        0.08866709       4.13567518       3.81208273      -0.35434918      -0.30343208       0.76433163
K        3.85394030       3.97392618       4.05773080       0.57435976       0.17428531       0.40107512
Nb       2.04969323       2.07908460       1.98057296       1.47823879      -1.22794010       1.16258831
Nb       6.07970875       2.00093262       2.08088445      -0.74733047      -2.19344359      -0.40548791
Nb       1.99593753       6.12860243       1.99186491      -0.18730975       1.67244707      -0.90975657
Nb       6.01742822       6.03861464       1.98810208       0.62035449       3.21703344      -2.19046471
Nb       2.03211804       1.87231648       6.14347448       1.62595098       1.19461835      -1.62711929
Nb       6.13196855       2.13841707       6.08076922      -0.55722388      -1.33256035       0.43635220
Nb       1.93936906       5.94876039       6.04492739       1.58930762      -1.26461894       0.94871110
Nb       6.07143795       6.22361647       5.93949031      -0.77471735       0.16826662       3.52179401
O        4.24622649       2.14146673       2.18815959      -1.28309463       0.22412898      -0.65991734
O        0.26725647       2.20208336       2.04882575      -3.39064512      -0.56752449       0.15204476
O        4.04086915       6.23671272       2.03209510      -0.84219467      -0.80590997      -0.09189817
O       -0.06996411       6.30613173       1.89362412       1.08230330      -0.91804092       1.44706083
O        3.97173354       1.97053041       6.05028354      -0.14433813       0.07957513       0.53026766
O       -0.11117397       2.12785113       6.24265675       1.95565254      -1.05511903      -0.69563793
O        3.99990844       5.89132255       6.06392668      -0.21588242       0.80226363       0.23824613
O       -0.07547358       6.10597957       5.91225108       0.71795665      -0.43357490       0.50089538
O        2.14128469      -0.01575679       2.11703788      -0.36818377      -0.94998328      -0.18262006
O        5.92372457       0.10018490       2.19969466       1.22928787       0.28318284      -0.29271907
O        2.16088397       3.95425525       1.85159008      -0.25167115       2.29932393       1.26260371
O        5.97521314       4.25352357       2.09012315       0.73653030      -2.41277334       0.04461995
O        2.04597069      -0.07261138       6.14165762      -0.47284747       0.03109904       0.04402988
O        6.05138715       0.02591703       5.94971673      -0.04736872      -0.98853954       0.33232074
O        1.98913293       3.98217642       6.24872327      -0.38380142       0.75578117      -0.49437017
O        6.07770130       3.92315599       6.14810302      -0.40162508       2.45309750      -0.03380229
O        2.09378930       1.92727372       0.09520066       0.28757223      -0.32906752      -1.06606010
O        6.20707519       1.79598917       0.02304657      -0.68971488       1.27674555       0.70452700
O        1.83485595       5.96763175      -0.02269224       0.64245774       0.66117563       1.12573258
O        6.09733588       6.23876827       0.02247221      -0.26790689      -0.62810276       0.85094233
O        1.97242896       2.05304670       4.17275380      -0.00084461      -0.27314809       0.38787534
O        6.15349496       2.06433888       4.01183405       0.72244914       0.54083155       0.86633270
O        2.01348151       5.92671689       4.07097803      -0.34584114       0.18196443      -1.00740501
O        5.98661244       6.14941112       4.18342885       0.06202092      -0.73679461      -3.65822111
40
Lattice="8.113358670559476 -9.48256209502453e-19 1.1856955918959047e-18 1.4731444131804922e-16 8.113358670559487 -2.1213857306241463e-14 -1.6492255695243405e-16 -1.8377179618236488e-14 8.113358670559476" Properties=species:S:1:pos:R:3:REF_forces:R:3 system=knbo3_cubic base_model=mace_mp0 config_id=knbo3_cubic_c28 T=600.0 draw=2 energy_qe_eV=-62339.52020315239 offset_eV=-62037.89503490221 split=train REF_energy=-301.6251682501752 mock=0 pbc="T T T"
K        0.00030477       0.05023268      -0.08333229      -0.29808059      -0.09290887       0.49628642
K        4.04591691      -0.04276860      -0.21005765      -0.03547840       0.01409839       1.15196143
K        0.13886918       4.11381080       0.30724545      -1.26966293      -0.67391802      -1.25368893
K        4.29742153       3.89694171      -0.21350548      -0.66758694       1.38257730       1.69017148
K       -0.13385726       0.07902089       4.22632285       0.30547534      -0.03054368      -0.84834294
K        4.03156328      -0.03545743       3.96114590      -0.03936822      -0.09424404       0.22159130
K        0.22765352       4.01797470       4.06891886      -1.05037586       0.26397490      -0.07946689
K        4.10749271       4.04902346       4.11668232      -0.07934681       0.14985366      -0.36500306
Nb       2.03406373       2.06426454       2.08224423       0.08983383      -1.82240152       0.39518935
Nb       6.07502566       2.03694183       2.11247981       0.95580863       0.43296657      -2.19805409
Nb       2.07568723       6.01730436       1.95070841      -0.70584572       2.22823061       0.44179780
Nb       6.02800697       6.06916310       1.99326260       1.16979460      -0.03521871      -0.65806408
Nb       2.10981651       2.13003187       6.26176189      -0.47050519       0.04176783      -0.96469925
Nb       6.08562214       2.04244974       6.06364833       1.32896877      -0.66352022       1.66193074
Nb       1.93466185       6.14251171       6.01413480       0.69805554       0.09170251       0.86336461
Nb       6.01816605       6.02986271       6.05574156      -0.89688152      -0.14313177       0.20651743
O        4.12761868       1.98689537       2.15172705      -1.01325324       0.26521752       0.06162677
O       -0.05241136       1.94681314       2.21679032      -0.24649346      -0.14537429      -2.07637201
O        4.00701609       6.02242669       1.94640463       0.33221687      -0.53217979      -0.28075521
O       -0.01306343       6.09850098       1.87861272       0.63285956      -0.05493985       0.70147947
O        4.03864517       2.36075633       6.17577534      -1.22428965      -1.89831411      -1.40070229
O       -0.13619483       2.25132452       6.23847071       0.99792690      -1.19465743      -0.31146806
O        4.06635594       6.18655278       6.08484818      -0.41841773      -0.79027021      -0.30558872
O       -0.03458686       6.34862288       5.90945560       0.84327401      -0.98741109       0.54558398
O        2.18045762      -0.10472453       1.98706284      -0.67979299      -0.41122353      -0.70763367
O        6.04739322      -0.15131991       2.06885719      -0.07784066       1.32397260      -0.09508634
O        1.94166834       3.92775449       1.97907492       0.72175211       0.91950491       0.07439616
O        6.13185737       4.08839919       1.95222696      -0.28676902      -1.33778817       1.04304719
O        2.11894340      -0.06711064       6.10253697      -0.47788117       0.71963121      -0.32616321
O        5.84061415       0.13163983       6.26188145       1.16404099       0.01664789      -1.34842302
O        1.96083386       3.94771853       6.05830294      -0.14327344       1.07202403      -0.69060808
O        6.04514700       4.09472644       6.01031945       0.22092898       0.90910068       0.00174938
O        2.07867347       2.08572740      -0.01304512      -0.30140682      -0.62557202      -0.17434239
O        5.99343021       2.02639176       0.03481472       0.37709599      -0.01000725       0.64978050
O        1.98282782       5.74359861      -0.17338316       0.26001515       1.30909054      -0.21649280
O        6.00020209       5.92050874      -0.01315275       0.45565116       0.85238858      -0.27398061
O        1.74029540       1.98994539       3.84948953       1.64652058      -0.35851308       3.20134791
O        6.22540685       2.05633674       4.06004355      -1.11804550      -0.15630636       0.74410425
O        2.19886547       5.91860463       3.90988477      -0.90461951       0.13235962       1.07368060
O        5.98593110       6.10353950       4.11910712       0.20499611      -0.06666536      -0.65067113
40
Lattice="8.113358670559476 -9.48256209502453e-19 1.1856955918959047e-18 1.4731444131804922e-16 8.113358670559487 -2.1213857306241463e-14 -1.6492255695243405e-16 -1.8377179618236488e-14 8.113358670559476" Properties=species:S:1:pos:R:3:REF_forces:R:3 system=knbo3_cubic base_model=mace_mp0 config_id=knbo3_cubic_c29 T=600.0 draw=3 energy_qe_eV=-62340.05779819094 offset_eV=-62037.89503490221 split=train REF_energy=-302.1627632887248 mock=0 pbc="T T T"
K        0.16555506       0.07896278      -0.12753934      -1.01610768       0.01753312       0.77439467
K        4.01683253      -0.20505367      -0.08574954       0.27809232       0.78979610       0.63756854
K        0.07328518       4.15277824      -0.12352501      -0.36662003      -0.30456928       0.44849244
K        4.19583326       3.80374349       0.05523247      -0.41786160       1.14345417      -0.21438141
K        0.12807968      -0.00810422       4.10656845      -0.51125846       0.39067501      -0.30370128
K        4.10355392       0.27343617       4.25416633      -0.35942274      -1.07073077      -0.70739970
K       -0.00656634       4.06165971       4.06865474      -0.20193753      -0.10941330      -0.00835711
K        3.94205871       3.86194635       3.76571350       0.97622936       1.37403892       1.39194383
Nb       2.19198524       2.08237255       2.00292637      -0.82643072      -0.89098340       0.21608759
Nb       6.15863818       1.96370270       2.07673019       0.99355139      -0.28556292      -0.35841204
Nb       1.87675616       6.09602110       2.10658091       1.82466486       0.03881492       1.06963676
Nb       5.92427158       6.01678599       1.97223563       0.40274583       0.86767764       2.04698095
Nb       2.04242224       2.13800417       6.13341066      -0.97845876      -0.61140782      -1.10727334
Nb       6.02014540       1.99489216       6.13327881       1.37184217      -0.08117050       0.46644542
Nb       2.00784953       6.13611823       6.13993327       0.91133651       0.49110821      -0.82881722
Nb       6.05633280       6.02944078       6.06955189      -0.12304246       0.17701043      -2.39857648
O        4.05404595       2.02929255       2.04140931      -0.04324596      -0.42371909       0.19115998
O       -0.05319457       1.84358676       2.04573593       0.09387663       0.89171874       0.03012510
O        4.11961632       5.89643586       1.96181332      -1.43414283       0.76950804      -0.79891554
O        0.05593790       6.06526332       2.14241945       0.01864975      -0.09978734      -0.87069303
O        4.10357335       1.91815463       6.30550331      -1.98367371       0.62421294      -1.00021467
O       -0.01366098       2.19603241       6.19382929       1.01962649       0.02221819       0.00077107
O        4.04392109       6.33590665       6.06945222      -1.26792230      -0.45143841      -0.40695884
O       -0.11600271       6.27005423       5.85970852       1.83540256      -0.97428946       0.69038851
O        2.21270181       0.04389290       2.12305314      -0.74826224      -0.84415179      -0.17327204
O        6.13942553      -0.12711085       1.79428774      -0.55092184       0.84577133       0.27896444
O        2.09726151       4.10831450       2.03059805      -0.75938715      -0.41905536      -0.50738227
O        5.93077847       3.98405251       2.09670810       1.51200432      -0.84312026      -0.87370431
O        1.78515034       0.11175154       6.17417018       1.47887566      -0.68731861      -0.63550240
O        6.13630906       0.17134896       5.89429827       0.12447225      -1.15702856       0.73853087
O        2.11558118       4.06691058       6.21142960      -0.20741449       1.11677049      -0.11085697
O        6.07437681       4.15708287       5.99874408      -0.36466213      -0.56426381      -0.48257832
O        2.14421017       2.17263260       0.11543947      -0.70509573      -0.54813271      -0.48695923
O        5.89945761       2.00766359      -0.00832051       1.40386449       0.09884375       0.72060720
O        2.03490106       6.12623581      -0.08256195      -0.59885132      -0.04839073       0.35985031
O        6.10007435       5.95780427      -0.24462588       0.21331749       0.51941375       2.78578179
O        2.13860817       2.22023288       4.14561645      -0.58777115      -0.77115354       0.50073854
O        6.01470635       2.03582980       4.08555426       0.14978990       0.09680075      -1.38362400
O        2.14424353       5.87068143       4.03566421      -0.53883200       1.13166849       0.05186121
O        6.03022522       6.15557747       3.85674772      -0.01701942      -0.22134704       0.25725070
40
Lattice="8.113358670559476 -9.48256209502453e-19 1.1856955918959047e-18 1.4731444131804922e-16 8.113358670559487 -2.1213857306241463e-14 -1.6492255695243405e-16 -1.8377179618236488e-14 8.113358670559476" Properties=species:S:1:pos:R:3:REF_forces:R:3 system=knbo3_cubic base_model=mace_mp0 config_id=knbo3_cubic_c30 T=600.0 draw=4 energy_qe_eV=-62339.601353757695 offset_eV=-62037.89503490221 split=train REF_energy=-301.7063188554821 mock=0 pbc="T T T"
K        0.10014900       0.06115596      -0.07068143      -0.54554875      -0.34960781       0.58377540
K        3.93404217       0.00246791      -0.06572153       0.57886048       0.33338723       0.40713727
K        0.01777740       3.97090594      -0.08109668      -0.25618703       0.52861830       0.24606023
K        4.22951693       4.11900702      -0.03136015      -0.65753906      -0.24797956       0.10533887
K        0.08961234      -0.01407693       4.12100214      -0.07504793      -0.23106144      -0.53654629
K        4.10470013       0.09328552       4.16562858      -0.41116645      -0.45172380      -0.35118672
K       -0.17453640       3.87928097       3.97864982       0.86684949       0.62275410      -0.38671886
K        4.09086160       4.13489917       4.26893517      -0.04844833      -0.16566800      -0.51942120
Nb       1.96374948       2.01246886       2.08542891       1.56278438      -0.80401250      -1.18066728
Nb       6.02573549       1.99766510       2.06075193      -2.10164878      -0.32125317      -1.32174706
Nb       2.09476715       6.06746032       2.04812165      -2.52790606      -0.09911037       0.74022240
Nb       6.04455566       6.04189604       1.90803624       1.61828215       1.24200018      -0.32603645
Nb       1.91843757       1.99234106       6.11123993       1.08078558      -0.54914881       0.96146840
Nb       6.01168744       2.05838322       6.14787130       0.96268633       1.26228155      -2.27529003
Nb       2.05266464       6.05056758       6.12265407       0.45060948       0.67727151      -1.55553695
Nb       6.19706782       6.21814077       5.95754581      -0.58431945      -1.53723096       0.15234660
O        3.83817446       2.05384520       1.89621588       0.55661221       0.39911183       0.23473092
O       -0.33713796       1.83142450       2.04634114       4.13298354       0.39527317      -0.55847266
O        4.13352923       5.88892140       2.25485483      -0.88108337       0.58717080      -0.49938100
O        0.10384000       6.33591063       2.15758558      -0.17374512      -1.16797298      -0.34673434
O        4.19661781       2.21659133       6.24769244      -2.04247638      -0.91092385      -0.99228024
O        0.14233727       1.87742943       5.87739657      -1.38005402       0.56557688       0.55893623
O        4.15156743       6.14411736       6.25653244       0.32975247      -0.30663722      -0.83289756
O        0.07351925       5.99322351       6.04810521       0.19867428       0.51788188       0.86995409
O        2.02374596       0.09152213       1.94269699       0.07445478       1.07555982       1.60029035
O        5.90078508      -0.11224838       1.75104320      -0.25280963       0.46177424       0.29135921
O        1.84304196       4.07693537       2.08339417       0.17438481       0.46778985       0.02094858
O        6.08421937       4.09112371       1.98815779       0.11528338      -1.68417207       0.25482152
O        2.10509891       0.00646102       6.27395092       0.07816694       0.98291526      -0.77952994
O        6.23770084      -0.03111499       6.09535412      -0.20238104      -0.00346945      -0.18357985
O        2.14668951       4.14423066       6.13494989      -0.32152314      -0.38145298       0.40142916
O        6.36712814       3.89879223       5.76890308      -0.96984094       0.06450255       0.92523487
O        1.77019853       2.11355098       0.03918496       0.40590108       0.06407729      -0.48766217
O        6.15133348       2.12315699      -0.21331905       0.59449433      -0.22627199       3.18068395
O        2.03089101       6.47852506       0.25471534       0.51443789      -2.29008776      -2.07787919
O        6.12591913       5.83038447      -0.04039436       0.43984916       0.73358124       0.03192410
O        2.04545737       2.00591495       4.13241037       0.26619788       0.24639164      -0.63796037
O        6.03401892       1.78769367       3.83688518      -0.91626223       0.31481127       2.35408688
O        2.09497135       6.25241232       4.19073829       0.37155397      -0.25844369       0.84049697
O        6.30638834       6.06966725       4.03532761      -1.02561665       0.44349781       1.08828189
40
Lattice="8.113358670559476 -9.48256209502453e-19 1.1856955918959047e-18 1.4731444131804922e-16 8.113358670559487 -2.1213857306241463e-14 -1.6492255695243405e-16 -1.8377179618236488e-14 8.113358670559476" Properties=species:S:1:pos:R:3:REF_forces:R:3 system=knbo3_cubic base_model=mace_mp0 config_id=knbo3_cubic_c31 T=600.0 draw=5 energy_qe_eV=-62340.02654210697 offset_eV=-62037.89503490221 split=train REF_energy=-302.13150720475824 mock=0 pbc="T T T"
K        0.08008425      -0.17321890      -0.17219616      -0.14223780       0.64536335       0.66486311
K        4.05934098      -0.05931439      -0.13820215      -0.27639899       0.41356477       0.68544093
K        0.19913368       3.82199196       0.05002566      -0.64269197       0.52781405      -0.14198866
K        4.03539315       4.29014836       0.01679221      -0.02609181      -0.89782974      -0.05452513
K       -0.13419536      -0.09607436       4.32450105       0.73247258       0.39364232      -0.84588908
K        3.90565677      -0.16040445       4.05559026       0.38739711       0.43449818      -0.22957380
K       -0.03872062       4.38773865       4.14433389       0.08085220      -1.80190983      -0.85564951
K        4.01309685       4.17140066       3.91001563       0.01054281      -0.28674279       0.52460532
Nb       2.03158610       1.96618746       2.05490721      -0.93722469      -0.74913024      -1.79763717
Nb       6.11354383       2.03571403       2.19659525      -0.00906520       1.54620025      -1.58605158
Nb       1.96043087       6.00215704       1.92961849       0.28238760       1.13026389      -1.02493299
Nb       6.10807708       6.13498293       2.03400764      -0.05911737      -2.45210428      -0.06351576
Nb       2.11096403       2.01395278       6.02853089      -1.19446562       1.09196063       1.21299762
Nb       6.10196982       2.18102503       6.11578218       0.84600093      -0.12630236       2.39627869
Nb       2.01419729       6.08583567       5.96972220      -0.33638540      -0.96551711       1.17550528
Nb       6.06309012       6.22005270       6.12813722       0.68703810      -0.57236304      -0.05358308
O        4.17594298       2.02075292       2.14272358      -0.07605812      -0.48552532       0.33597608
O        0.13041755       1.91645739       2.06221325       0.12774243      -0.08765251      -0.35824363
O        3.98568449       5.97663582       2.04213339       0.82966619       0.17834714      -0.34891901
O        0.00664406       5.92709453       1.94304764      -1.38853326       0.59863406       0.50485513
O        4.14456971       1.99390309       5.98518572      -1.08924066      -0.56312507      -0.42536099
O        0.09753852       2.25161281       6.09792211      -0.40772811      -1.11388648      -0.10510310
O        3.92581430       6.16341454       6.13028702       1.09770627      -0.20752942      -0.51528353
O       -0.08574029       5.96982910       5.82526060      -1.11827304       0.91882048       1.98790369
O        1.98141933      -0.10735597       1.76916452       0.53710834       1.02012477       1.01495120
O        6.09132588      -0.21941058       2.04133098       0.05207512       2.86285344      -0.16651133
O        1.92628741       4.06776483       2.02526162       0.77252831      -1.29096015       0.55571489
O        6.18975952       3.92871490       2.16036025      -0.23796074      -0.38180599       0.14892678
O        1.93540221      -0.05460018       6.12750735       0.15005112       1.21122459      -0.03875604
O        6.05799851      -0.02836931       6.33040077       0.18848732      -0.32475938      -1.10774797
O        1.97438522       4.06321006       6.15907980       1.00647170      -0.43562509      -1.19345184
O        5.77444375       3.97456327       6.23495842       0.89293359       1.36897025      -1.37831724
O        2.24403078       2.06200167       0.03589758      -0.21941357      -0.19086507       0.34697089
O        6.18975391       2.14285606      -0.03496812      -0.15914434      -1.02444731       0.05080191
O        1.86353905       5.93705175      -0.11690564       0.29021353       0.53341057       1.19096044
O        6.19298315       6.05926680      -0.04105492      -0.60358626      -0.48692580       0.84765955
O        1.98449946       1.96007331       4.10472371       0.80445396      -0.07913727      -0.75791802
O        6.42129833       1.77683023       4.02810850      -1.19298467       0.64769688       0.69077803
O        1.88382378       6.26040380       4.03029669       0.63218233      -0.80603801      -0.54350935
O        6.01025988       6.11668597       4.11582520      -0.29171042      -0.19320709      -0.74272126
40
Lattice="8.113358670559476 -9.48256209502453e-19 1.1856955918959047e-18 1.4731444131804922e-16 8.113358670559487 -2.1213857306241463e-14 -1.6492255695243405e-16 -1.8377179618236488e-14 8.113358670559476" Properties=species:S:1:pos:R:3:REF_forces:R:3 system=knbo3_cubic base_model=mace_mp0 config_id=knbo3_cubic_c32 T=600.0 draw=6 energy_qe_eV=-62340.87276893344 offset_eV=-62037.89503490221 split=train REF_energy=-302.97773403122847 mock=0 pbc="T T T"
K        0.00385767       0.15437064       0.04332042       0.13558327      -0.37543943      -0.34032510
K        4.10468717       0.15611720      -0.02571154      -0.45346675      -0.43187720       0.12461803
K        0.07076732       3.99621391       0.10560152      -0.37007585      -0.07506439      -0.41336834
K        4.13875093       4.05837600      -0.00029905      -0.36344394       0.04178325       0.24122167
K        0.15456582       0.09339298       3.91684576      -0.58264951      -0.13694261       0.46393911
K        4.23230403      -0.17790094       4.06337395      -0.72995084       0.79285211      -0.16497201
K        0.00970407       4.08901600       4.15438933      -0.37875358      -0.28562128      -0.39950469
K        3.96436623       4.11593537       4.13661674       0.53518721      -0.30263838      -0.40043620
Nb       2.10363276       2.06894227       2.08408818      -0.47175424      -1.94188377      -0.04858228
Nb       6.09905283       2.04975706       2.00618349       1.00478094       1.17209703       1.19452604
Nb       2.07812045       6.02052746       1.99892347      -0.27943752       1.55026825       2.76047956
Nb       6.13760614       6.12141305       2.03949278       0.95395975      -0.47421195       0.09353545
Nb       2.08910147       2.03653779       6.04911964      -2.19155331      -1.85443438       0.90598271
Nb       6.00702747       1.97647929       6.11833172       1.98541332       0.18044156      -1.45291934
Nb       1.92053372       6.01757837       6.11897212      -0.33444756       1.20602967      -1.42433510
Nb       5.95528844       6.02501288       6.11484025       0.49322295      -0.37618942       0.64871504
O        4.08230098       2.08280790       2.02872312      -0.46932017       0.21514014       0.10611611
O        0.03876554       1.93007888       1.95240990      -0.55197137       0.21550550       0.09580367
O        3.96490952       5.99089242       2.29981771      -0.48487252      -0.21811645      -1.50201121
O       -0.08714135       5.98462743       1.84069681       0.20554813       0.87158417      -0.06212557
O        4.16926145       2.13161067       5.98525632      -1.87219530       0.01711661       0.12781931
O        0.07886923       1.97533547       5.96046489       0.33022041       0.57819019       0.81407168
O        4.02399317       6.13088492       5.89788107      -0.82862515       0.01216852       0.22567344
O       -0.11330028       6.01661119       6.04045442       1.38216464       0.45890618       0.61194929
O        2.01234033       0.06154990       1.97991754       0.41012129      -1.28110794      -0.77701514
O        5.87907131      -0.00275513       1.94248023       0.85845741      -0.65750615       0.35872957
O        1.91274811       3.99981502       2.22564467       0.37155423       1.18792139      -0.86999960
O        6.24403340       3.98573480       1.96300816      -0.98376398       0.41175909       0.28240817
O        2.15027427       0.05313985       6.15614942      -0.34519451      -0.56947261      -0.20910062
O        5.93979767       0.11661774       6.09303468       0.53369751      -0.82740542       0.29636900
O        2.03185629       4.07215654       5.87867435       0.11681344       0.97810138       0.46208612
O        5.81619733       4.18059654       6.18209323       1.16325166      -0.36685143      -0.45984129
O        2.03650677       2.15975955      -0.09718319       0.65546341       0.13873056       0.09690822
O        5.93381097       2.18863638       0.04812322       0.91254622      -0.87973997      -0.94144799
O        2.04383543       6.02627515      -0.10497913       0.08754298      -0.29998989       0.77176624
O        5.94015673       6.11818648      -0.01998316      -0.20094431       0.17260355      -0.41750113
O        2.12227635       1.82706543       4.02301999       0.17850192       0.95460690      -0.23333250
O        6.23243538       2.09111341       4.11132071      -0.74567082      -0.06481057      -0.58014680
O        1.73204772       6.19671081       3.93600454       0.87963790      -0.42474007      -0.26295700
O        6.20952041       5.98031107       3.95710371      -0.55557760       0.68823752       0.27720323
40
Lattice="8.113358670559476 -9.48256209502453e-19 1.1856955918959047e-18 1.4731444131804922e-16 8.113358670559487 -2.1213857306241463e-14 -1.6492255695243405e-16 -1.8377179618236488e-14 8.113358670559476" Properties=species:S:1:pos:R:3:REF_forces:R:3 system=knbo3_cubic base_model=mace_mp0 config_id=knbo3_cubic_c33 T=600.0 draw=7 energy_qe_eV=-62340.199874540485 offset_eV=-62037.89503490221 split=train REF_energy=-302.3048396382728 mock=0 pbc="T T T"
K        0.04851197       0.08369223      -0.00229769      -0.23070483      -0.50442447      -0.08547864
K        4.00764356       0.18224801       0.09962068       0.29601728      -0.74550859      -0.42462232
K       -0.01291218       4.26575163      -0.13363796       0.55865701      -0.90125496       0.40526962
K        4.10411219       4.29133037      -0.01965896      -0.37356561      -0.87332661      -0.03827344
K       -0.10562611      -0.00942324       4.01042193       0.27248731      -0.04862573      -0.00826970
K        4.07518247       0.08169936       4.12473874      -0.11272668      -0.51851515      -0.34213284
K       -0.03121791       4.01743622       4.24999580       0.09577051       0.24510044      -0.69529340
K        3.98974804       3.93194836       4.35765562       0.16225178       0.50862591      -0.87725731
Nb       1.97204288       2.01647667       2.00349537       1.01519726       1.36475133      -0.58015426
Nb       6.13179144       2.05166200       2.04519048      -1.05966166      -2.54013577      -0.88371284
Nb       1.95917788       6.12550930       2.08114570       2.15689304      -0.80303959      -0.74199775
Nb       6.11527346       5.92489755       1.97212422      -2.52376067       4.01077695      -0.80779922
Nb       1.84994065       1.99728583       6.06125294       0.77086712       0.16515275       1.23779283
Nb       6.01204412       1.96007796       6.10242455      -1.00443667       1.12605654      -0.11098732
Nb       2.12761932       6.11318376       6.11831306       1.22401325      -0.68273073       0.68787474
Nb       6.27711125       6.10048188       6.06130398      -1.14570671       0.01761566       0.76820346
O        4.05675060       1.94378688       1.99504052      -0.22823246       0.60484251      -0.25404762
O       -0.02566391       1.88416024       1.82210832      -0.06296015       0.81594807       0.81314634
O        4.14010385       6.08376952       1.99825556       1.56142658      -0.43732511       0.62402833
O        0.11513401       6.13143454       2.04450980      -1.30613403      -0.54012450       0.38006973
O        3.97729669       2.01649699       6.16640741      -0.07451314       0.21564485      -1.05874994
O       -0.14880390       1.99311356       5.98938919       2.51843823       0.00069805      -0.29676033
O        4.03205833       6.15276874       6.17774844       0.16332367      -0.08204210      -0.30411085
O        0.03900163       6.16058710       6.16909358       0.36208563       0.05790150      -0.21336300
O        2.12885524       0.00193832       1.81867170      -0.61767694       0.41185062       1.07437531
O        6.26511236      -0.11364933       1.98674407      -0.64367670      -0.21677665       0.06137815
O        2.05359013       4.05936161       1.88380145      -0.20584509      -0.51327524       1.07113186
O        6.17070263       4.00593100       1.80397596       0.28738994      -0.89277366       0.71627077
O        2.08409898       0.07946646       6.16358872      -0.75859679       0.29196085      -0.53557956
O        6.26506068      -0.02200557       6.09059027      -0.90374302      -1.02102775      -0.86434318
O        1.94222482       4.16134360       5.93097590       0.09094018      -0.34928128       0.70209500
O        6.24322807       3.98500062       6.10110891      -0.87088946       0.17178106      -0.17523251
O        1.89106027       2.11980436      -0.05057385      -0.02391254      -0.00768014      -0.62034266
O        6.09385586       1.81009593      -0.25616248      -0.23246578       0.61742317       3.53693858
O        2.10533635       6.01019224       0.05456463      -0.45310114       0.60165459      -0.78596207
O        6.11903797       5.96750791       0.00325567       0.31695043       0.31066280       0.78627729
O        1.75207579       2.14316579       4.01571149       0.89849977      -0.83162486      -0.47882323
O        5.92829622       1.89204935       3.84547131       0.80728885       0.73620454       1.01558138
O        2.16113687       6.20072328       4.08804479      -0.58190852       0.08013409      -0.69639229
O        6.16268733       5.90791084       4.21437735      -0.14427977       0.15470585      -2.00074712
40
Lattice="8.113358670559476 -9.48256209502453e-19 1.1856955918959047e-18 1.4731444131804922e-16 8.113358670559487 -2.1213857306241463e-14 -1.6492255695243405e-16 -1.8377179618236488e-14 8.113358670559476" Properties=species:S:1:pos:R:3:REF_forces:R:3 system=knbo3_cubic base_model=mace_mp0 config_id=knbo3_cubic_c34 T=600.0 draw=8 energy_qe_eV=-62340.838133195604 offset_eV=-62037.89503490221 split=train REF_energy=-302.9430982933918 mock=0 pbc="T T T"
K       -0.06714816      -0.15626952      -0.03157909       0.06879295       0.52173494       0.11637996
K        4.07366591       0.09866377      -0.12334743      -0.00692347      -0.39607279       0.30585483
K        0.21873623       3.78894760       0.20217090      -1.12561817       0.78526324      -0.78202134
K        4.13300403       4.07162231      -0.10116025      -0.15137550      -0.01258684       0.43108195
K        0.04133862       0.21970247       4.01600851      -0.40990378      -0.79116341       0.21707156
K        4.09462984       0.02763594       4.14227022      -0.03912113       0.13735450      -0.14992565
K        0.05717318       3.87497665       4.16773233      -0.26767472       0.61208453      -0.56181715
K        4.04671494       4.18205603       3.99530613       0.14217043      -0.56368609       0.15741811
Nb       2.13043925       1.90027739       1.96051234       0.23505385       1.11900349       1.10086873
Nb       6.08711991       2.10304715       2.07160678       0.83990356       1.27174527       0.99416075
Nb       2.07321003       6.00002626       2.01146700      -0.57001846      -0.74399704      -0.77132401
Nb       6.09907650       6.23244341       2.05225916       0.20448395      -1.10742812      -1.28666641
Nb       2.02423970       2.04703099       6.05920758      -0.43609818       0.09587207       0.28105114
Nb       6.05707470       1.99012459       6.14913411       0.26452332       0.47432894      -0.54525359
Nb       1.95655657       6.11221455       6.03798616      -0.49942445       0.49765450       0.32405490
Nb       6.00377967       6.04189255       6.06178708       0.14748799      -0.66097971       0.68296059
O        4.08591289       2.20324133       2.06271772      -2.15193287      -1.23192043      -0.39787333
O       -0.12896654       1.93927480       2.04788339       1.47457137       0.50343897      -0.94331898
O        3.92427870       6.16736479       2.08912718       0.09165391       0.04339816       0.39449850
O       -0.17870814       6.11865628       2.04014641       1.37836121      -0.18491631       0.67656471
O        4.15540400       2.13595997       6.01488638      -1.72463866      -0.83094686      -0.46298909
O        0.01357353       2.20793509       6.09177592       1.64508539      -0.64807072      -0.08147209
O        4.06383545       6.17717934       6.19379533       0.01856799      -0.10705868      -0.20110758
O        0.04199470       6.21655589       6.09128839      -0.43353067      -0.96697030       0.40676986
O        1.99328648       0.09580848       1.81830677       0.13026957      -1.66291779       0.26167737
O        6.11315778      -0.01126871       2.09248893      -0.98628726       0.27936553       0.06241070
O        1.96351772       4.08107485       1.94369865       0.21053992      -0.17512426       1.29310420
O        5.96426084       4.02410946       2.06198405       0.53472261       0.44826489      -0.10182108
O        1.96538652       0.02026599       6.18617665       0.66889537      -0.92861381      -0.53083022
O        6.11385071       0.09922896       6.00728384       0.12853459      -1.85550010       0.42032986
O        2.27747381       3.99353217       6.01593728      -1.13937640       0.95867181      -0.03325413
O        6.09246221       3.98936457       6.20747431       0.17860811       3.41984180      -0.60731282
O        2.03661948       1.91504246      -0.14564985       0.32115624       0.82642763       0.81583520
O        5.91997607       1.99620661      -0.06420661       0.76639083      -0.23721332       1.23102825
O        1.89907078       5.92819333       0.17109608       0.16146245       0.79277446      -1.63493725
O        5.96370926       6.13456226       0.10920571       0.14840536       0.10547128      -0.64435393
O        2.02368226       1.78260055       3.90081773       0.19210923       1.01266318       0.67152715
O        6.21292678       2.07079009       4.04019437      -0.83381441      -0.13992998      -0.39599720
O        1.88951185       6.13700405       4.16942158       0.56714036      -0.13296177      -0.70469850
O        5.94716603       6.15581474       4.17560733       0.25684729      -0.52730061      -0.00767371
40
Lattice="8.113358670559476 -9.48256209502453e-19 1.1856955918959047e-18 1.4731444131804922e-16 8.113358670559487 -2.1213857306241463e-14 -1.6492255695243405e-16 -1.8377179618236488e-14 8.113358670559476" Properties=species:S:1:pos:R:3:REF_forces:R:3 system=knbo3_cubic base_model=mace_mp0 config_id=knbo3_cubic_c35 T=600.0 draw=9 energy_qe_eV=-62340.35807948543 offset_eV=-62037.89503490221 split=train REF_energy=-302.4630445832154 mock=0 pbc="T T T"
K        0.00121004      -0.06195608      -0.14174664      -0.27622724       0.11828000       0.66318804
K        4.04849904      -0.34564955      -0.18435568       0.32981649       1.49767479       1.08000371
K       -0.00901125       4.22773646       0.00214717       0.10519694      -0.50051922       0.29749103
K        3.95951031       3.99362928       0.04804248       0.21404974       0.28013249      -0.14188967
K        0.00671829       0.00295316       3.94850261      -0.24475617       0.12719247       0.26668870
K        4.27057384       0.12055103       3.98796086      -0.47237439      -0.18781214      -0.04449217
K        0.12733852       4.09447408       4.18577439      -0.47370853       0.00225460      -0.46618960
K        3.72955941       4.04802061       4.07076563       1.06255235      -0.16104927       0.00958816
Nb       2.00943870       2.02834611       1.94059654       0.16292104       2.05219078       1.39879196
Nb       6.11008159       2.08425625       1.87439797      -0.56813512      -0.32751946       2.10207044
Nb       2.04735115       6.19142885       2.13103886       0.78000816      -2.17435752       0.91450488
Nb       6.10719766       6.08520386       2.04742186       0.16541835       0.46452969       0.91604678
Nb       1.97592899       1.92889925       6.12404319       1.56332354       1.51948854      -2.00684423
Nb       6.10144328       1.98144702       6.06939183      -0.83212931       0.83218356      -1.09614458
Nb       2.08197205       6.07924500       6.18603037      -1.03228275      -2.24803942      -1.14035521
Nb       6.09620609       6.03132171       6.15008177       0.68677842      -1.62748233      -0.50684671
O        4.10778457       2.07949807       1.86048922      -1.29899845      -0.55085062       0.60125196
O        0.00104107       2.02880847       1.92676996       0.93790347      -0.16175556       0.53537258
O        3.93914728       5.90043811       2.13930852      -0.00162005       1.06957840      -0.81541611
O       -0.11547192       6.13040035       2.14290306       1.55467512      -0.44404674      -0.55695031
O        4.00536930       2.15368384       6.14863733      -0.45156593      -0.54076007       0.22253978
O       -0.11934946       2.27284071       6.08299010       1.45514797      -1.46443814       0.17376158
O        4.09460317       6.07274470       6.11691454       0.41351335       0.02738508      -0.30080261
O        0.07810688       6.00621781       6.25729218      -1.67569617       1.28332835      -1.14614662
O        2.06721251      -0.04245216       2.13317961      -0.19182281       0.96488179      -0.69237083
O        6.23383027      -0.00500748       1.89100035      -1.20100240      -0.24558226       0.45251159
O        1.90107845       4.05672728       1.97837830       0.21332700      -0.57644853       0.64019620
O        5.99660184       4.10061513       1.92194897       0.63844785      -0.04952587      -0.11547673
O        1.99929997       0.02496530       6.12681095      -0.26380341       1.14593734       0.33622625
O        6.08963195       0.05790262       6.04618714       0.14899903       0.18078840       0.09384655
O        1.88833631       4.15927170       6.20369550       1.05660024      -1.00100348      -0.53784830
O        6.15522836       4.08420229       6.24294416      -0.74238933       0.83365140      -0.69455729
O        1.99302354       2.10671409       0.12111473      -0.12521684      -0.89626316      -2.45206700
O        6.11631536       1.91506862       0.02181226      -0.01699499       0.40244732      -2.44954475
O        2.03099448       6.09732566      -0.07700582       0.28501784       0.72227070       2.42103635
O        6.04535906       6.09494179      -0.00079186      -0.02381741       0.33985407      -0.65732052
O        2.11694278       1.97208235       4.15977748      -0.82310268       0.15784825       0.64304730
O        6.04871779       2.13578647       3.91853449       0.16437911      -0.42279657       1.84793566
O        2.15010299       6.14668904       4.10045807      -1.00114772       0.05731992      -0.72169066
O        6.09288857       6.19460900       4.02291232      -0.22128379      -0.49896731       0.92685441
40
Lattice="8.113358670559476 -9.48256209502453e-19 1.1856955918959047e-18 1.4731444131804922e-16 8.113358670559487 -2.1213857306241463e-14 -1.6492255695243405e-16 -1.8377179618236488e-14 8.113358670559476" Properties=species:S:1:pos:R:3:REF_forces:R:3 system=knbo3_cubic base_model=mace_mp0 config_id=knbo3_cubic_c36 T=600.0 draw=10 energy_qe_eV=-62340.17545871815 offset_eV=-62037.89503490221 split=train REF_energy=-302.28042381593696 mock=0 pbc="T T T"
K        0.04347493       0.05810311       0.04709363      -0.03968498      -0.06490184      -0.40591805
K        3.90893858      -0.10869068       0.02173238       0.42358976       0.40789986      -0.40906174
K        0.08351862       3.92967442      -0.00155572      -0.08223853       0.47758421      -0.16182549
K        4.18377632       4.08720089       0.03440862      -0.61192152      -0.12073926       0.05172957
K       -0.30100493       0.07512320       4.15290703       1.33343915      -0.38615296      -0.04503184
K        4.15959662      -0.10705589       4.05474244      -0.38708241       0.41167398       0.12461854
K       -0.15666705       4.02859519       3.75902173       0.65706084       0.27366256       1.08782655
K        4.23343987       4.00372936       4.13039989      -0.61183385       0.04582734      -0.41301378
Nb       2.07623953       1.96390467       2.20353721      -0.19208480       1.49847132       0.20453614
Nb       6.09471940       2.08424525       2.07461454       0.35324386       1.09243242       0.42503523
Nb       2.03126019       6.07069852       2.03636015       1.94448598      -1.21502211      -0.96750123
Nb       6.14506602       6.21676877       1.91658365      -1.46821509      -1.32197511       0.12457560
Nb       1.95963614       1.99965261       6.20343779       0.77542852      -0.69941822      -0.17330187
Nb       6.02986275       2.09001191       6.15525031      -1.09746819       0.05205147      -0.21904308
Nb       2.07145495       6.00358310       5.97841882      -0.21672266      -0.05402248       1.29624326
Nb       6.09525361       6.11351454       6.03385571       0.52499895       0.25302689      -0.37003034
O        4.21300875       2.09765125       2.25311246      -2.41434146      -0.66134687      -0.30078050
O       -0.04472594       2.15737024       1.89515810       1.56970553      -0.66148597       0.48644475
O        4.04064291       6.09952877       1.89132027       0.11041757       0.44664279       0.70265215
O       -0.04122032       5.98397445       1.70581436       0.12817258       0.63185914       1.02453087
O        4.03307357       2.01015873       6.07828666       0.38257192      -0.12567475      -0.34036032
O        0.03181909       2.13943081       6.06160249      -0.66450393      -0.37937630       0.94809995
O        4.03027333       5.91799074       5.86015743      -0.53646145       1.01612311       0.52429113
O        0.00857077       6.08865796       5.97208984      -0.61866707      -0.39472398       0.23891025
O        1.93100542       0.01581629       2.10265512       0.17707393      -0.32145449      -0.24761909
O        5.97195124       0.12004052       1.89044631       0.85037977      -2.53154443       0.40392185
O        2.17623833       3.98675225       2.21815169      -0.84336220       0.86008286      -0.49596400
O        6.00093436       4.09888547       2.02487942       0.43286810       0.84239470      -0.48148098
O        1.87006593      -0.00087970       5.99416124       0.63876924      -0.01795324       0.88401546
O        5.94057568      -0.02873881       6.02293849       0.42470536       0.00507022       0.10368205
O        1.94915578       4.03742854       6.09412761       0.25038302       0.58749990      -0.24844441
O        5.82146523       4.04739158       6.15882303       1.55654431      -0.35649811      -0.35406482
O        2.27105421       1.98022547       0.08001130      -0.96114881       0.11146401       0.09887383
O        6.06277079       2.03442036      -0.06087966       0.20794054      -0.08984540       0.42890809
O        2.23592309       5.96815874      -0.04338277      -1.16247930       0.59144834       0.46802845
O        6.05825017       6.22068403      -0.17699257      -0.01379757      -0.37515918       2.49142673
O        1.94822717       2.01448382       4.17689989       0.40992358      -0.18628182      -2.28219704
O        6.31237956       1.98604846       4.08133086      -0.93958497       0.58195763      -0.75575263
O        2.08784288       6.21922407       4.00346352      -0.56835470      -0.68404842      -1.08215007
O        6.10870502       6.05785616       4.05471951       0.27825121       0.46045218      -2.36480941
40
Lattice="8.113358670559476 -9.48256209502453e-19 1.1856955918959047e-18 1.4731444131804922e-16 8.113358670559487 -2.1213857306241463e-14 -1.6492255695243405e-16 -1.8377179618236488e-14 8.113358670559476" Properties=species:S:1:pos:R:3:REF_forces:R:3 system=knbo3_cubic base_model=mace_mp0 config_id=knbo3_cubic_c37 T=600.0 draw=11 energy_qe_eV=-62339.825561818994 offset_eV=-62037.89503490221 split=train REF_energy=-301.9305269167817 mock=0 pbc="T T T"
K       -0.09006841      -0.07660533      -0.11507009       0.35682361       0.13675595       0.08599080
K        3.93359256       0.09305975      -0.19851295       0.47521520      -0.34869841       0.56765176
K       -0.14729739       3.83005027       0.11076920       0.66944610       0.85574772      -0.70609563
K        4.21300145       4.20990635       0.11604858      -0.70315455      -0.64615808       0.00742252
K       -0.03262076       0.25165549       4.37035049       0.19783790      -1.29059968      -0.96163398
K        4.07413045       0.05376954       3.97285405      -0.12000264      -0.27456656       0.36969841
K       -0.12424405       3.96120664       4.09181452       0.57001640       0.53473804      -0.06732922
K        4.24456558       4.08566816       4.06240565      -0.68010718      -0.11207979      -0.33433648
Nb       2.06296463       2.04084893       2.02688043      -0.14688378       0.46741498       0.39768332
Nb       6.11958280       1.97292146       2.01152456       0.33144014       1.85320822       0.51921423
Nb       1.99773768       6.12890070       2.05489354       1.86314553      -1.71231125       1.21556384
Nb       6.20492143       6.17685758       1.96073708      -2.44325711      -0.90529879       1.23114190
Nb       2.05981878       2.05454957       6.11467684       0.69072069      -1.21601892      -0.07809623
Nb       6.12740649       1.99841313       6.06012213      -1.46403602      -1.09121372      -0.22832604
Nb       2.03327825       5.97296871       6.14962498      -0.33896987       1.14307184      -0.42249190
Nb       6.02389307       5.98001361       6.05659130       1.41081316       1.24705805      -0.61581057
O        4.07207529       2.14608193       2.26896800      -0.79896876       0.07933344      -0.77909491
O       -0.04634347       2.35407907       2.07128299       0.14065091      -1.28893438       0.16686768
O        4.07827505       6.26014599       1.94438466      -0.75578760       0.14067457       0.34082338
O       -0.02498909       6.22247039       2.05675133       0.65122546       0.62162024      -0.74604903
O        4.13093105       2.00871069       6.02900810      -0.57103661      -0.00030108       0.40122450
O        0.05848299       1.94489058       6.27451871      -1.23791701       0.16204763      -0.38606785
O        3.89231534       5.88972975       5.91480962       0.61837525       0.14125872       0.33202892
O       -0.13197689       6.04900185       6.10777987       0.50082698      -0.45631373      -0.08666777
O        2.04336038       0.11489624       1.68405538      -0.45303172      -0.33583518       1.01844044
O        6.30694929       0.19685048       2.02093289      -0.25349380      -2.86407728       0.65798412
O        1.89182952       4.17249856       1.98935970       0.84430863       0.13499037       0.32272024
O        6.18326348       4.35494267       1.90877269      -0.49255369      -0.91865799       0.00523451
O        2.15844941      -0.03419678       6.08446507      -0.86228321      -1.04824287       0.24088460
O        6.04953450      -0.06963499       6.15332959      -0.11112951       1.11174089      -0.85814425
O        1.98059361       3.89094086       5.93366764      -0.08099875       1.65205797      -0.06216439
O        6.00510783       3.93116585       6.24832058       0.55315408       0.52259883      -0.37091351
O        2.00576728       2.17771120       0.02974753       0.62498041      -0.16174193      -0.41609345
O        5.94357213       1.90916920       0.18697574       0.18533026       0.90238008      -2.19075550
O        2.01397856       5.75089971      -0.08117000      -0.26878647       1.17906883      -0.33859166
O        5.78383022       6.19515114      -0.22577091       0.94902349      -0.02631910       2.59291640
O        1.92649110       1.89728807       4.03811175       0.19758825       0.26936137      -0.19582422
O        6.09693574       2.05636655       4.10471481       0.47010616       0.09514701       1.31570085
O        1.98566963       5.99273346       3.99683802      -0.29628390       0.83787393      -1.09205653
O        6.08688378       6.02000252       4.05097954      -0.22234566       0.60921929      -0.85264903
40
Lattice="8.113358670559476 -9.48256209502453e-19 1.1856955918959047e-18 1.4731444131804922e-16 8.113358670559487 -2.1213857306241463e-14 -1.6492255695243405e-16 -1.8377179618236488e-14 8.113358670559476" Properties=species:S:1:pos:R:3:REF_forces:R:3 system=knbo3_cubic base_model=mace_mp0 config_id=knbo3_cubic_c38 T=600.0 draw=12 energy_qe_eV=-62340.06793810496 offset_eV=-62037.89503490221 split=train REF_energy=-302.1729032027506 mock=0 pbc="T T T"
K       -0.04219491       0.23178841      -0.13054428       0.25403528      -0.68540905       0.71420361
K        4.08739027      -0.12720864      -0.03946373      -0.17585960       0.33474452       0.27455911
K       -0.09808250       3.98404808       0.22622846       0.37510158       0.32805991      -0.83466570
K        4.00640977       4.01765766      -0.01478859       0.06548291      -0.31745076       0.39560896
K        0.10110617      -0.05129787       4.09881335      -0.37464907       0.33231611      -0.46537456
K        3.97152208      -0.07928085       4.06308758       0.42450610       0.35125332      -0.24152120
K       -0.04084121       4.07635973       3.72331708       0.44420538      -0.33837466       1.34642759
K        4.01079914       4.08453325       4.13065811       0.40392468      -0.33575548      -0.22187592
Nb       2.06060855       2.02802108       2.03137352       0.71033898       0.56649836       0.45655927
Nb       6.06305116       2.04063214       2.09894919      -0.84047280      -1.53680235       0.21668615
Nb       2.10867743       6.08866435       1.96862613       0.12470879       0.20565303      -0.46068409
Nb       6.16342996       6.05553794       2.04942928       0.15030541       0.83474695      -1.02755295
Nb       2.01068784       2.08411356       6.10105280      -0.24026625       1.22811005       0.12101206
Nb       6.03278678       1.99044564       6.15561523      -0.19835932       2.14062722      -0.95116907
Nb       1.97987143       6.08867884       6.02889413       0.73019201      -0.39169934       0.59084748
Nb       6.10128721       6.07584346       6.08077055      -0.41017374      -2.51770598       1.06394460
O        4.05743093       2.00888491       1.95588814      -0.60823019      -0.08511868       0.47809509
O        0.06599224       1.94165546       2.10959152      -0.28202405      -0.10891502      -0.25673262
O        4.00056917       5.97127392       1.90699876       1.08313814       0.04300119      -0.08785177
O       -0.03746788       6.10088277       2.16163033       0.08752704      -0.21652160      -0.29134404
O        4.10333312       2.04057837       6.08531677      -1.04669918       0.25170560       0.44141702
O       -0.00532679       2.12382708       6.22042310       0.09319966      -0.53366100      -0.73561344
O        4.03951491       5.74565968       6.39347249       0.59468151       2.67034466      -1.33394694
O        0.02946092       6.02536241       5.98359144      -0.83754380       0.38282620      -0.12171577
O        2.19452676      -0.12613357       2.02211055      -0.73946675       0.49986951       0.19976700
O        5.95146207       0.09449345       2.06039541       0.44060429      -1.28738786       0.40063469
O        2.04823918       3.94327101       1.84144672      -0.39396474       0.57581449       0.26459685
O        6.00184330       3.99724231       2.05939455       0.50292141       2.94288262       0.17578941
O        2.03224179      -0.08495443       5.80692524       0.10878055       0.73090549       0.86065956
O        5.90427868       0.16171438       6.07107081       0.81427737      -2.11502906       0.12744547
O        2.00117415       4.06199057       6.05667668      -0.14274045      -1.65283315       0.14652048
O        5.99499887       4.17223153       6.16154856       1.03812635       0.85036177      -0.10695635
O        2.03566359       1.99578472      -0.05559092       0.15589833      -0.57833777      -1.11113308
O        6.01155898       2.26173494       0.19429743       0.65424651      -1.03684723      -2.60121592
O        1.78151207       6.20499493      -0.03735593       0.65391252      -0.45994850       0.17547779
O        6.39211963       6.38393102       0.05626154      -1.02898608      -1.08575732      -0.73486345
O        2.15470123       2.13994491       3.97929514      -0.52686249      -0.59394026       0.86300466
O        6.01101045       2.19294353       4.11655375       0.55817673      -0.34343999       0.88568385
O        2.28760434       5.89101965       4.02314228      -1.18997339       0.60604090       0.03893550
O        6.25183043       6.11417346       4.01867153      -1.43201961       0.34517240       1.34634172
40
Lattice="8.113358670559476 -9.48256209502453e-19 1.1856955918959047e-18 1.4731444131804922e-16 8.113358670559487 -2.1213857306241463e-14 -1.6492255695243405e-16 -1.8377179618236488e-14 8.113358670559476" Properties=species:S:1:pos:R:3:REF_forces:R:3 system=knbo3_cubic base_model=mace_mp0 config_id=knbo3_cubic_c39 T=600.0 draw=13 energy_qe_eV=-62338.788484414305 offset_eV=-62037.89503490221 split=valid REF_energy=-300.89344951209205 mock=0 pbc="T T T"
K       -0.23026735      -0.05208743      -0.18895253       0.84362214       0.17621184       0.48715257
K        4.30000468      -0.18456475       0.06494748      -0.72383933       1.33504686      -0.90841086
K       -0.11249227       4.04332978      -0.12516561       0.65619309      -0.17642858       0.65018340
K        4.39553492       4.01718035       0.07953590      -2.09506701       0.14346910      -0.78942792
K       -0.19722742       0.05498828       4.06997449       0.78471277      -0.44139619      -0.19750289
K        4.14011368       0.34249519       4.02552933      -0.54674457      -1.53112484      -0.39327902
K        0.00847566       3.94116973       4.38986434       0.32570118       0.50519297      -1.55130955
K        3.77621501       3.95522813       4.25079157       1.48258601       0.41876868      -1.64752614
Nb       1.88272259       2.06510357       2.08394201       0.98749079      -0.43105470       0.29120494
Nb       6.04502773       2.08929745       2.04790816      -1.32901222      -0.01706595      -2.67312505
Nb       2.03087786       6.15497920       2.04216932      -1.22492985      -0.56606307      -0.73639480
Nb       6.07508170       6.07580710       2.00877859       0.39006540       0.14753864       2.00859207
Nb       2.15405555       2.04584846       6.18044631      -1.62712341      -2.01093049       0.88365319
Nb       6.16100899       2.04580841       5.95755021       0.24054084      -3.03375004       2.95734096
Nb       2.05678023       6.07383244       6.06343621      -0.89960586       2.23137867      -0.04423403
Nb       6.08452629       5.97735530       6.09270649       0.25550646       2.11071809      -1.82567299
O        4.04279745       2.08186247       1.97636702       0.06412126      -0.35345084       0.59906858
O        0.00044118       2.33197860       2.18926736      -0.88385862      -0.37243998      -1.57124022
O        4.22010262       6.26722160       1.74094434      -1.41216118      -0.61665852       1.39215183
O       -0.01273049       6.13165580       2.24059227       0.58375303      -0.18891386      -0.71554007
O        3.95682431       1.91903129       5.91223889       1.44865002      -0.02866317       0.32407675
O       -0.07434931       1.91823881       6.07914157       0.66954097       0.00784289      -0.15315753
O        4.25863543       5.91482101       6.15086181      -2.33604185      -0.16405695       0.15572169
O        0.10820152       5.97905653       5.93462675       0.61265815      -0.26416979       0.61877197
O        1.97632134       0.12996471       2.08413989      -0.06389448      -0.43238036      -0.00901609
O        6.19522896       0.00025885       1.91418738      -0.02672353      -0.10041880       0.11135911
O        2.04464628       4.28203360       2.04735643       0.43721789      -0.52897157       0.08598746
O        5.83969032       3.98518143       1.89206457       1.72104066       1.67392211       1.07275706
O        2.08972575      -0.11345957       6.02925922       0.11897060      -0.43635529       0.41150352
O        6.14731865      -0.05661939       6.01345568      -0.46285462      -0.96319309       0.00188976
O        2.22467641       3.86072087       5.98504661      -1.32938298       2.36551904       1.20035088
O        6.23841370       3.84237964       6.04420146      -0.77978679       3.50190447      -0.55244805
O        2.00380388       1.99903936       0.03749564      -0.18926687       0.30058201      -1.41963538
O        5.95188382       2.17667833      -0.12081183       0.81025077      -1.60188752      -0.19840072
O        1.91102599       6.14495368       0.06224219       0.45197371      -0.10666530      -0.46588569
O        6.12953517       5.93404172      -0.12462113       1.18498365       0.21225999       1.13749101
O        1.76775670       2.10534817       3.98032593       1.42588882      -0.33144939       1.04294537
O        6.08669992       2.03257037       3.90408750      -0.17792317      -0.04131866       1.97971087
O        2.21452308       6.12371256       4.14067575       0.25229053      -0.28373178      -0.42804677
O        5.95728031       5.97605358       4.05356495       0.36045684      -0.10781664      -1.13165974
40
Lattice="11.789424384493788 4.994228680623598e-17 7.707693397294342e-17 3.86384251277039e-17 11.789424384493786 1.074067569937025e-14 -3.701747836649174e-16 1.034220411604992e-14 11.7894243844938" Properties=species:S:1:pos:R:3:REF_forces:R:3 system=cssnbr3_cubic base_model=mace_mp0 config_id=cssnbr3_cubic_c00 T=100.0 draw=0 energy_qe_eV=-39978.56526400101 offset_eV=-39850.83154096018 split=train REF_energy=-127.73372304083023 mock=0 pbc="T T T"
Cs      -0.32135561      -0.07952429      -0.17875964       0.04759960      -0.02855621       0.07249431
Cs       5.51497469       0.29575567      -0.10070407       0.37930071      -0.30008271       0.05461846
Cs       0.00959483       5.85396407      -0.03396318      -0.07106375       0.10254459       0.02314996
Cs       5.87034544       5.92463696       0.02360453       0.08301578       0.04747671       0.00967146
Cs       0.15931234       0.02484193       5.70465223      -0.11969976      -0.06514893       0.04388333
Cs       5.59000520      -0.07199917       5.85038124       0.14852080      -0.02288873       0.01245854
Cs       0.39262947       5.56957906       5.88620035      -0.27109300       0.18614710      -0.00429657
Cs       5.73289828       5.97815401       6.12170549       0.11549087      -0.06925421      -0.15703810
Sn       3.10112603       2.98815600       2.95307955      -0.21710806      -0.06235337      -0.00251222
Sn       8.88937874       3.08288820       2.85835204       0.14639270      -0.22847825       0.28798515
Sn       3.02283907       8.80811561       2.92782789       0.43402535       0.06172190       0.06169233
Sn       8.85634844       8.82131989       2.92900073       0.16570631       0.23291804       0.09190383
Sn       3.04049559       2.89818874       8.92559580      -0.49550429      -0.04226894       0.01519676
Sn       8.92010449       2.98015254       8.91036560      -0.48895852       0.17583312      -0.39310162
Sn       2.94733086       8.72364549       8.78794547      -0.35648088       0.17333786       0.06121540
Sn       8.68044055       8.89715174       8.80734822       0.50154484      -0.35079309       0.06703200
Br       0.10092983       3.21768276       2.62124788       0.16701680      -0.16172805       0.10518203
Br       6.05418221       3.29700079       2.83783645      -0.36615569      -0.06281385       0.12962679
Br       0.36542500       8.90334319       3.02050810      -0.68422352       0.02758665      -0.15416566
Br       6.14384746       8.58138083       3.12967870      -0.15289631       0.12244930       0.01642858
Br      -0.22670479       3.04452899       9.29695800       0.56715579       0.01918120      -0.05777912
Br       5.69868642       3.14401391       8.83859979       0.34191995      -0.15240060      -0.03680663
Br      -0.03587772       8.80064795       8.81598174       0.11629537      -0.02135198       0.10266081
Br       5.84588407       8.61734641       8.58437276      -0.18331143       0.21646015       0.06711608
Br       3.03085290      -0.04863800       3.24555668       0.06618714       0.12715365      -0.07124424
Br       8.64823988       0.17468957       2.84093058       0.04961766       0.05756340      -0.05671468
Br       2.95117981       5.84232065       2.95851587       0.02987648      -0.04065840      -0.05767884
Br       8.87329451       6.07667443       2.74260276       0.15504035      -0.30689999       0.08128363
Br       2.84787646      -0.01677669       8.89892063       0.09836346      -0.07601595      -0.08877531
Br       8.94545931      -0.00553933       8.98937434      -0.14665958       0.10459788      -0.06041141
Br       2.91225000       5.84610942       8.86625707      -0.06724052       0.07924037       0.08712286
Br       8.58315715       5.90548141       8.51016964       0.12398117      -0.17093414       0.25839253
Br       3.13381299       2.62753115       0.12479291      -0.22504172       0.30463227       0.12402539
Br       8.63129909       3.27452705      -0.02584712      -0.02382950      -0.06576471       0.05711654
Br       3.40900762       8.86241591       0.12569094      -0.09841129       0.00443078      -0.38867598
Br       9.02109016       8.72000146       0.10377719      -0.05463877       0.07426272       0.01057315
Br       2.81104102       2.96073055       6.08806653       0.08239357      -0.11841036      -0.23966307
Br       9.00112197       2.88968620       5.90430052       0.09044550      -0.03447027      -0.08115224
Br       2.83857519       8.65446339       5.87779449       0.08469265       0.02107765       0.41208022
Br       8.91199852       8.60112985       6.09312435       0.02773372       0.24265789      -0.40289444
40
Lattice="11.789424384493788 4.994228680623598e-17 7.707693397294342e-17 3.86384251277039e-17 11.789424384493786 1.074067569937025e-14 -3.701747836649174e-16 1.034220411604992e-14 11.7894243844938" Properties=species:S:1:pos:R:3:REF_forces:R:3 system=cssnbr3_cubic base_model=mace_mp0 config_id=cssnbr3_cubic_c01 T=100.0 draw=1 energy_qe_eV=-39978.77606161206 offset_eV=-39850.83154096018 split=train REF_energy=-127.94452065187943 mock=0 pbc="T T T"
Cs       0.20627284      -0.23082023       0.31553702      -0.01806534      -0.02298026      -0.10339897
Cs       5.80521457       0.02917834      -0.00727973       0.03726043      -0.04999613      -0.02631781
Cs      -0.13034381       5.89636349       0.16114823       0.04091911       0.07815588      -0.05756777
Cs       6.08770049       6.05338763       0.09315627      -0.00978176      -0.04712241      -0.10028691
Cs       0.03039303       0.13409761       5.83838126      -0.03652663      -0.12808825       0.06811084
Cs       5.66937452       0.63256987       5.98523731       0.18732286      -0.35539793       0.08602834
Cs      -0.28820086       5.62270862       6.02586724       0.02650884       0.17226160      -0.15264897
Cs       5.81848350       5.90783584       6.05989967       0.01011626       0.06831113      -0.01533380
Sn       2.83824935       2.92182381       2.97770382       0.24627517      -0.06530191      -0.17192581
Sn       8.78816592       2.86058419       2.84003065      -0.06560530       0.15285877       0.02293913
Sn       3.00676232       8.70841688       2.86336142      -0.04908313       0.17125527       0.14301350
Sn       8.85008471       8.82796486       2.84234607       0.02968159      -0.32720424      -0.12044616
Sn       2.94150485       3.08581555       8.90567582       0.10567825      -0.22652782       0.05100657
Sn       8.85423558       3.00250332       8.76079452      -0.18537731      -0.14274816       0.07709221
Sn       2.98634517       8.86910844       8.73065841      -0.00472363       0.16479923       0.16569217
Sn       8.92183257       8.92832400       8.62473226      -0.08850534       0.06591743       0.24635462
Br      -0.05330977       2.72902735       3.14815506       0.21819178       0.03693030      -0.02902416
Br       5.92792323       2.74253005       3.00230549      -0.12250767       0.11443672      -0.16018641
Br      -0.12793825       8.88313663       2.84724212       0.31400986      -0.12362790      -0.04552112
Br       5.81362749       8.72188233       2.60873485       0.10508741       0.03979991       0.20740292
Br      -0.06345937       3.01748075       8.44999542       0.17593108       0.00483085       0.13361895
Br       5.90410398       3.02623582       9.31096197      -0.26816015      -0.08910132      -0.23348831
Br       0.16276232       8.98401306       9.07999858      -0.00618222      -0.14143253      -0.10271763
Br       6.07866847       8.98456169       8.78306603      -0.16409140      -0.07595322      -0.04105795
Br       3.14945905      -0.04012597       2.95878390      -0.11984940       0.19483460      -0.04386970
Br       9.04199277      -0.26246755       2.89717243      -0.11186510       0.65072616       0.00878443
Br       3.02144552       5.90842358       3.24768258      -0.05676533      -0.29170220      -0.04808940
Br       9.05877231       5.74344945       2.84588375      -0.08481144      -0.24928593       0.04592376
Br       2.68685119       0.00097971       8.99815136       0.17153526       0.04091962      -0.03818371
Br       8.64762986      -0.05288024       8.47562023       0.11850806       0.07564957       0.01143344
Br       3.11001649       5.88590888       8.99214265      -0.04911321       0.07974919      -0.12823377
Br       8.64903882       5.81612974       8.72982657       0.09614692       0.09488528      -0.04432196
Br       2.75594703       3.13716855      -0.10094099      -0.12478052      -0.06265727       0.09087076
Br       8.71605936       3.16244483      -0.07412223       0.20348842      -0.10853655       0.12094315
Br       3.13351944       8.47175480       0.12270149      -0.17710093       0.07484918      -0.32471825
Br       8.98382532       9.01338501      -0.22392042      -0.05085822      -0.05806271       0.12694616
Br       3.15117626       2.95080976       5.73869519      -0.20923766       0.11307172       0.27964552
Br       8.66152969       2.85713826       5.82406277      -0.00773825       0.11795219      -0.02259383
Br       2.97369771       8.72063664       5.94073017      -0.01961109       0.07986463       0.12682172
Br       9.09908703       8.64713717       5.71562026      -0.05632001      -0.02633170      -0.00269632
40
Lattice="11.789424384493788 4.994228680623598e-17 7.707693397294342e-17 3.86384251277039e-17 11.789424384493786 1.074067569937025e-14 -3.701747836649174e-16 1.034220411604992e-14 11.7894243844938" Properties=species:S:1:pos:R:3:REF_forces:R:3 system=cssnbr3_cubic base_model=mace_mp0 config_id=cssnbr3_cubic_c02 T=100.0 draw=2 energy_qe_eV=-39978.69970987036 offset_eV=-39850.83154096018 split=train REF_energy=-127.86816891017952 mock=0 pbc="T T T"
Cs       0.34472910       0.06894436      -0.20817734      -0.21488355      -0.00954728       0.21127577
Cs       5.94808571      -0.19510214       0.14541282       0.00576364       0.05060137       0.04897926
Cs      -0.26379176       6.02918020      -0.32368789       0.08699919      -0.12576680       0.20972900
Cs       5.85128724       5.88124684      -0.31425712       0.08445431       0.00209314       0.23017081
Cs      -0.33315422       0.10526420       5.95630359       0.08476799      -0.00887365      -0.11115342
Cs       5.35584141       0.16931718       5.83370653       0.13890668       0.02040273       0.01492423
Cs       0.16855800       6.36257022       5.77256323      -0.00055227      -0.17479208      -0.00014218
Cs       5.77425973       5.73371118       6.08662262       0.07984689       0.01651805      -0.17858831
Sn       2.77758069       2.86624869       3.02881896       0.23800522       0.32076543      -0.03221464
Sn       8.77593409       2.79571622       2.74015291      -0.12559222       0.32333705       0.73029331
Sn       2.83804773       8.83250163       2.97716540       0.30012256      -0.26922407       0.33774088
Sn       8.78906928       8.73434990       2.95669057      -0.14805363      -0.12330085      -0.13108358
Sn       3.08478394       3.01205542       8.98204730      -0.09537636      -0.17879451      -0.23801576
Sn       9.05060606       2.88178488       8.71923739      -0.16164706       0.14745405      -0.08539148
Sn       3.15782651       8.84186540       8.93850993      -0.07686107       0.31396666      -0.08701847
Sn       9.06623293       8.80235200       8.81582785      -0.21386462      -0.06174324       0.11116884
Br      -0.06432530       2.86986358       2.84982673       0.21909501       0.03184466       0.02752212
Br       5.88672469       2.69623541       2.93009108      -0.19840252      -0.00247546       0.01904210
Br      -0.09778916       8.73292026       2.91139439      -0.18820758       0.02028806      -0.01038906
Br       5.69149350       8.83387326       2.83054086       0.34292937       0.09814364       0.14465438
Br       0.13409127       3.33083629       8.80749549      -0.08551438      -0.07966177      -0.00144547
Br       5.99066888       3.00208475       8.89017337       0.04327244      -0.06830290      -0.02914808
Br       0.13957263       8.63614029       8.95991372      -0.24197526       0.07004096      -0.07649032
Br       5.91447398       9.30204253       8.89786658       0.29215599      -0.09009120       0.00679594
Br       2.87389857      -0.01698662       3.02245777      -0.08529969       0.12817309       0.01135605
Br       8.91216323       0.06541748       2.76988241       0.03133969      -0.46128573       0.11533892
Br       3.15818784       5.92011886       3.07862338      -0.12850142      -0.11450228       0.00889293
Br       8.76752014       5.93797970       2.88072308       0.00076670      -0.03282990       0.17074850
Br       2.76390491      -0.02921545       9.08444276       0.12808953       0.14741420      -0.20274074
Br       9.10895635       0.06365929       8.89070426       0.11737292      -0.26454029       0.00353424
Br       3.25546204       5.94240562       8.87135201       0.00012676      -0.13545703       0.01728707
Br       8.88346106       5.89169933       8.80366290      -0.09861055       0.18132474      -0.02116789
Br       2.81841694       2.83793671      -0.03057502       0.08023642       0.12027209       0.22334042
Br       8.74753506       2.59458525       0.11261687       0.01735777       0.13301525      -0.90578216
Br       3.04106443       8.81068328       0.27768352      -0.12397217       0.00531061      -0.59957123
Br       8.74975877       8.36389476       0.16042271      -0.02008623       0.24919055      -0.34395472
Br       2.89326600       3.18937684       5.93156319       0.00137143      -0.15655859      -0.08566170
Br       8.92681746       2.77090791       5.90345305      -0.03298777       0.03505288       0.28794736
Br       3.10887101       9.07315382       6.10603259      -0.10375275      -0.12894674       0.09948447
Br       8.94122330       8.69672040       6.00126836       0.05116135       0.07148464       0.10973263
40
Lattice="11.789424384493788 4.994228680623598e-17 7.707693397294342e-17 3.86384251277039e-17 11.789424384493786 1.074067569937025e-14 -3.701747836649174e-16 1.034220411604992e-14 11.7894243844938" Properties=species:S:1:pos:R:3:REF_forces:R:3 system=cssnbr3_cubic base_model=mace_mp0 config_id=cssnbr3_cubic_c03 T=100.0 draw=3 energy_qe_eV=-39978.33541991787 offset_eV=-39850.83154096018 split=valid REF_energy=-127.50387895769381 mock=0 pbc="T T T"
Cs       0.22859330      -0.20129302      -0.01667644      -0.29739025       0.33916964       0.01668029
Cs       5.95250468      -0.22376532       0.15226481      -0.00822547       0.18245345      -0.05974267
Cs      -0.04594358       5.69531852      -0.12349272       0.05690803      -0.03236068      -0.02143066
Cs       6.02191336       6.15131160      -0.24258180      -0.27078833      -0.22709449       0.09226532
Cs      -0.12913301       0.05148574       5.75758757       0.07728145      -0.02711203       0.05401733
Cs       5.67517058      -0.01958578       6.39148863       0.34195518      -0.02927921      -0.31872835
Cs       0.08462142       5.87202073       5.41556823      -0.01140876       0.02844617       0.05700341
Cs       5.81377303       5.89394648       5.63587325      -0.02357444       0.00192473       0.13001734
Sn       2.95411360       2.94152245       2.83183229      -0.56896405      -0.05503292      -0.34549662
Sn       8.76815836       3.01561131       3.04564659       0.31366764      -0.37650232      -0.12818646
Sn       3.01284542       8.94587092       2.92969369      -0.37060087      -0.18293296       0.43434366
Sn       8.75284699       8.80987799       3.05063703       0.37194247       0.37329821       0.10106955
Sn       3.01534734       2.87723363       8.63248318       0.02223233       0.40483999       0.75268788
Sn       8.86738645       3.03791188       8.92438976       0.01688855      -0.07861148       0.04869052
Sn       2.95390068       8.94831571       8.89237276      -0.15186889      -0.67997297      -0.01633190
Sn       8.84284422       8.89772407       8.95915185      -0.02210969       0.03566917      -0.60944401
Br      -0.16247851       3.00223215       2.72304053      -0.29541255       0.11281178       0.10087852
Br       5.58483983       2.76155039       2.85546376       0.87410026       0.03016058       0.02672585
Br       0.09140484       8.90305336       3.07713185      -0.14383085      -0.13442627       0.00981467
Br       5.93673683       9.08358301       2.95924255       0.07339420      -0.05107059       0.00937938
Br       0.19778393       2.98552979       9.03081030      -0.27508078      -0.02374748      -0.15492336
Br       6.01167213       3.06183403       8.62504467       0.15233863      -0.02990244      -0.00693478
Br      -0.11149873       8.91626032       8.93393481      -0.06619974      -0.00349670       0.04940503
Br       5.72748007       8.89335171       8.99782280       0.31277084      -0.04731550      -0.00981647
Br       2.79913056      -0.09263938       2.91567274       0.00033373       0.40615254       0.30129190
Br       9.10326657      -0.01321045       3.27474103      -0.20108598       0.10440581      -0.11255698
Br       2.91353542       5.83222186       2.66454360       0.06611386      -0.02428433       0.03623687
Br       8.68275964       5.94703214       3.10614586      -0.02858347      -0.24514183      -0.14639450
Br       3.27799111      -0.17633731       8.73766864      -0.31469506       0.71937255       0.29049506
Br       8.79748606       0.11151980       8.99298375       0.00343037      -0.14184031      -0.06983965
Br       3.15657148       5.81214949       8.90651770      -0.08302092      -0.15332799      -0.07498134
Br       8.63589596       5.96456605       9.24142610       0.22986125      -0.08942940      -0.24995288
Br       2.97381839       2.61249641      -0.18698885       0.07115939       0.03798445       0.42752149
Br       8.78733620       2.77917648       0.04996499      -0.06897627       0.07903134       0.04523959
Br       2.78327908       9.41395338       0.28416397       0.29297103      -0.45611756      -0.67800993
Br       8.53750814       8.66000170      -0.19717926       0.16339643       0.26216588       0.88640478
Br       3.17544489       2.78849268       5.87645069      -0.15989871       0.11235695      -0.57038792
Br       9.20322758       3.12617991       5.93136202      -0.02698244       0.01929819      -0.01941106
Br       3.01847171       9.06781833       6.10778143      -0.04418492      -0.20847507      -0.16432923
Br       8.72042641       8.58122124       5.83794431      -0.00786423       0.04793333      -0.11326944
40
Lattice="11.789424384493788 4.994228680623598e-17 7.707693397294342e-17 3.86384251277039e-17 11.789424384493786 1.074067569937025e-14 -3.701747836649174e-16 1.034220411604992e-14 11.7894243844938" Properties=species:S:1:pos:R:3:REF_forces:R:3 system=cssnbr3_cubic base_model=mace_mp0 config_id=cssnbr3_cubic_c04 T=100.0 draw=4 energy_qe_eV=-39978.021556333246 offset_eV=-39850.83154096018 split=train REF_energy=-127.19001537306758 mock=0 pbc="T T T"
Cs      -0.07423472       0.26568074      -0.08185963       0.04214321      -0.17572153      -0.04892012
Cs       5.73124322      -0.19522967       0.03333677       0.12306251       0.12805816      -0.00244512
Cs       0.08073714       5.71533717       0.17274145       0.04367687       0.06737756      -0.07994537
Cs       6.02555986       6.10616904      -0.23794882      -0.07012041      -0.01692917       0.14186962
Cs      -0.18190018       0.07748562       5.67009399       0.03829015      -0.05361059       0.15600348
Cs       6.05185587      -0.12384004       5.93787379      -0.09129190       0.01849832      -0.09140195
Cs       0.01978790       5.85156883       5.66643089      -0.01516488       0.07439796       0.15719390
Cs       5.87874860       5.82406795       5.97139908       0.00699520      -0.01610719      -0.06612826
Sn       2.87258277       2.80899403       3.02832423       0.25462946      -0.00170181       0.01554283
Sn       8.75875534       2.81429828       2.89340455      -0.08535137      -0.04083503       0.43566623
Sn       2.89434933       8.71886279       2.88239948       0.26795883       1.26915720       0.43379730
Sn       8.89756231       8.70329082       2.85609366      -0.16745004       0.22309154       0.05533657
Sn       2.83413628       2.96240276       8.90817317       0.60573802      -0.10738855      -0.17040269
Sn       8.68435364       2.91767900       8.87346694       0.80535050       0.30104533      -0.30558692
Sn       2.94260763       8.89769340       8.79193250      -0.18407916       0.10828947       1.03175285
Sn       8.85973120       8.84888204       8.76159653       0.20444872       1.13792655       0.07976976
Br       0.02223903       3.06009324       3.46962423       0.05387721      -0.10561552      -0.29966696
Br       5.95479399       2.74844028       2.99942485      -0.17226674       0.06976971      -0.04562423
Br       0.11076156       9.02415551       2.46432670      -0.54185074      -0.16615369       0.08787979
Br       5.84746280       8.61733823       3.08933822       0.54160674       0.08723444       0.05458375
Br       0.21200304       2.98384324       8.77519559      -0.76159958       0.18548067       0.00710524
Br       6.11422035       2.71993925       8.92130834      -1.06502318       0.20267312       0.08113836
Br      -0.01307086       9.07246533       8.91849820      -0.28015974      -0.13266018       0.02903161
Br       5.79995242       8.82947320       9.14321501       0.28210504       0.11966094      -0.18908304
Br       3.10250886       0.08147618       2.68860642      -0.18472091       0.34024411       0.27867699
Br       8.91458478      -0.07804833       3.04906042      -0.01069630      -0.24003151      -0.01883050
Br       3.06273138       6.16271431       2.77030402      -0.13356367      -1.51460859      -0.07820010
Br       8.81137876       5.72810652       3.02552606       0.07611597       0.24537014      -0.09401007
Br       2.59505813       0.08862563       8.80230256       0.16775857       0.15667506      -0.01203688
Br       8.66904458       0.28985158       8.51157833       0.28101772      -0.65200477       0.25449319
Br       3.03453572       6.07375461       9.25211495      -0.08372952      -0.29405913      -0.09176576
Br       8.77461561       6.28611754       8.83987745       0.01045231      -1.26292613       0.09567409
Br       2.83803344       2.79017472      -0.12009827      -0.08142298       0.07908148       0.46851567
Br       8.74475234       2.82185321       0.05040657       0.11882096       0.02359347      -0.21748165
Br       3.19799420       9.14857165       0.25954226      -0.05342212      -0.20242552      -0.43013605
Br       8.83291875       9.18364077       0.05736960      -0.08110185      -0.14286206      -0.09880415
Br       2.97378049       2.87986864       5.90666306       0.11410427       0.05310125      -0.32881170
Br       8.57328279       2.64569201       5.88580169       0.07442675       0.34712567      -0.06679932
Br       3.14696224       8.84549925       6.20616580       0.03108129      -0.13257456      -0.97942164
Br       9.26645647       8.70784649       5.91236122      -0.08064522       0.02036262      -0.14852903
40
Lattice="11.789424384493788 4.994228680623598e-17 7.707693397294342e-17 3.86384251277039e-17 11.789424384493786 1.074067569937025e-14 -3.701747836649174e-16 1.034220411604992e-14 11.7894243844938" Properties=species:S:1:pos:R:3:REF_forces:R:3 system=cssnbr3_cubic base_model=mace_mp0 config_id=cssnbr3_cubic_c05 T=100.0 draw=5 energy_qe_eV=-39978.01479294378 offset_eV=-39850.83154096018 split=train REF_energy=-127.18325198360253 mock=0 pbc="T T T"
Cs      -0.42054436       0.12319804       0.01859232       0.06220938      -0.06143162       0.05029129
Cs       5.82062995      -0.25946156      -0.52155070       0.17874926       0.31010101       0.61640373
Cs       0.21457952       5.93857865       0.18689096      -0.21821570       0.02737454       0.00853066
Cs       5.61052768       5.89487066      -0.07844405       0.14663593      -0.03336701       0.05371009
Cs      -0.24559758       0.28485854       5.98412199       0.05405847      -0.20106027      -0.30861285
Cs       5.73513020       0.12984695       5.95772988       0.01118301      -0.00642107      -0.10974214
Cs       0.29924162       6.22946681       6.11206453      -0.19561467      -0.19575917      -0.13917176
Cs       5.60881959       5.90996307       5.55549509       0.22863432      -0.03669041       0.13109258
Sn       2.80799726       2.93993071       2.98708393       1.24976774      -0.14788497       0.11471157
Sn       8.72706490       3.06320245       3.01942922       0.28915397      -0.12282365       0.22433106
Sn       2.97610642       8.90011229       2.89705621       0.02789775      -0.06086238       0.56165363
Sn       8.86180428       8.88404822       3.04813913      -0.21531935      -0.29454686      -0.99117055
Sn       3.02961894       2.90691680       8.98664121      -0.37052502      -0.65698062      -0.28309723
Sn       8.95616304       2.98304788       9.00474317       0.07913496       0.33832735      -0.43361706
Sn       3.02580197       8.73956128       8.83049463       0.04028173      -0.17998648      -0.11118273
Sn       8.92630166       8.91517599       8.73050704      -0.04395995      -0.55881179       0.49137818
Br       0.25528249       2.95412816       2.94780182      -1.25389590       0.09692210       0.13222258
Br       6.06542967       2.78762337       2.87846384      -0.26064764       0.06151544       0.03951374
Br      -0.12472962       8.88215571       2.87242899       0.39911929      -0.08440546       0.01505458
Br       5.86109248       9.23132176       3.20129323      -0.28241743      -0.18090050      -0.07786663
Br      -0.07387749       2.46938350       8.56339548      -0.00282924       0.25380979       0.35091033
Br       5.77376008       2.71320714       9.05906661       0.34873183       0.10205943       0.04426308
Br       0.20569953       8.75865397       8.67678723      -0.13391462       0.12528163       0.13755325
Br       6.05690103       8.98656960       9.20636509      -0.04095690      -0.54598610      -0.50263678
Br       2.84247873      -0.13276999       2.99933232      -0.06292286       0.31251810      -0.05480204
Br       8.78716473      -0.24990024       2.67987113       0.10284361       0.80117657       0.06416959
Br       3.31212789       5.81242953       2.99699555      -0.24007959      -0.06808847      -0.14871955
Br       8.85924463       5.82663165       2.84858926      -0.10169536      -0.15637167       0.07157566
Br       3.27004143      -0.36721508       8.88377467      -0.27191293       0.38487692      -0.11038877
Br       9.04504628      -0.19167941       8.73399383      -0.10385766       0.58452205      -0.06114675
Br       3.05372241       5.53792753       8.60743732       0.05602382       0.62432453       0.14828169
Br       9.40089747       5.77526424       8.84610043      -0.03999582      -0.12278303       0.22552868
Br       2.55453218       2.98661888       0.05649607       0.10686765       0.05403148      -0.07877012
Br       8.85174133       3.15749582       0.22251834       0.09896947      -0.08843181      -0.29042667
Br       2.85884697       8.49138033       0.20723309       0.09154310       0.06976380      -0.69622363
Br       8.81999619       9.08668571      -0.22789494       0.18248893      -0.14403063      -0.08248562
Br       2.99003716       2.89099201       5.97212346       0.01710941      -0.08952196      -0.08120778
Br       8.71947000       3.38965617       6.13967688      -0.09579468      -0.23385597      -0.05086053
Br       2.94732996       8.64355772       5.94637691       0.14739235       0.08288542       0.27290357
Br       8.92469521       9.07664561       5.66675093       0.01576009       0.04151123       0.85804886
40
Lattice="11.789424384493788 4.994228680623598e-17 7.707693397294342e-17 3.86384251277039e-17 11.789424384493786 1.074067569937025e-14 -3.701747836649174e-16 1.034220411604992e-14 11.7894243844938" Properties=species:S:1:pos:R:3:REF_forces:R:3 system=cssnbr3_cubic base_model=mace_mp0 config_id=cssnbr3_cubic_c06 T=100.0 draw=6 energy_qe_eV=-39978.59768677305 offset_eV=-39850.83154096018 split=valid REF_energy=-127.7661458128714 mock=0 pbc="T T T"
Cs       0.11924118      -0.10683387       0.04861165      -0.05497199       0.04724094       0.08983692
Cs       5.82450813      -0.56497088      -0.08210091       0.07179137       0.26922561       0.08175028
Cs       0.18806955       6.02753602      -0.19268880      -0.05688386      -0.07845079       0.07667184
Cs       5.67619538       5.91368917       0.17242465       0.07831015      -0.13676289      -0.01049627
Cs      -0.10631204       0.42306488       5.76048659       0.04419932      -0.17396701      -0.00848824
Cs       6.10281203      -0.28956544       6.28434267      -0.17613934       0.36018250      -0.47783952
Cs      -0.06153609       5.55669035       6.28477229       0.04225659       0.13850996      -0.25956109
Cs       5.94210841       6.03210332       5.78623711      -0.00144625      -0.07117662       0.02927895
Sn       3.05547304       2.78398768       2.98624708      -0.33885828       0.23803556       0.15495807
Sn       8.82993092       2.99750820       2.91977016       0.28298333      -0.18763859       0.17465555
Sn       3.14191784       8.77572699       2.91608415      -0.41682339      -0.04412836       0.27400709
Sn       8.93588162       8.86155705       3.00208118       0.29751623       0.22209806      -0.15400599
Sn       2.80613086       2.91025066       8.92619323       0.23587686       0.35099132      -0.36901450
Sn       8.66190877       3.04354493       8.95472275       0.36512699      -0.16422561      -0.22155324
Sn       2.92748534       8.89086069       8.66382351      -0.11455730      -0.19414014      -0.03508913
Sn       8.83365275       8.97748954       8.82740275       0.01807408      -0.12605116       0.01711763
Br       0.00743794       2.92072403       3.10759669      -0.04888516       0.05746776      -0.24579412
Br       5.89217511       2.81034484       2.61058183       0.04872395       0.04404197       0.10888082
Br       0.01053789       8.93988868       3.25435532       0.12790827      -0.07599872      -0.12754497
Br       5.96515953       9.06058073       2.89047865      -0.10421324      -0.10932125      -0.04810611
Br       0.04447788       3.07637131       8.83215142      -0.12772778      -0.05072195       0.17321753
Br       5.96147187       2.94967413       8.95278800      -0.38891561      -0.00670569      -0.05435826
Br      -0.15155124       8.74621283       8.76827677       0.06876081       0.03905223       0.02038293
Br       5.71860333       9.14052351       8.65848951       0.17384385      -0.27654014       0.38766811
Br       2.96183623      -0.14816629       3.12634578      -0.01090739      -0.09139912      -0.14171329
Br       9.03132090       0.04431264       2.88130465      -0.05877362       0.26155601      -0.04630145
Br       2.87288741       5.69581945       3.14775041       0.17359317       0.17466455      -0.14437567
Br       8.70799300       6.04862800       2.98809734      -0.04577412      -0.34092159      -0.01878499
Br       2.63751678       0.19373724       8.63505142       0.01774935      -0.54817539       0.12515256
Br       8.70850167       0.01346365       8.58818150       0.21775650      -0.24127669       0.21650026
Br       2.97475023       6.00805585       8.68228237       0.02798569       0.21225845       0.09069001
Br       8.78409063       5.79098221       8.77526151      -0.07228271       0.47015861      -0.02781522
Br       2.84018267       2.97088991      -0.08338501      -0.05925776      -0.03206114       0.30756359
Br       8.78708812       3.20210313      -0.05904425       0.09921321      -0.00357538       0.16336610
Br       3.09551621       8.69908928       0.05705717      -0.09401033       0.03797725      -0.32816404
Br       8.90590892       9.08051049      -0.08853996       0.01994379      -0.04327244      -0.16078856
Br       2.75534888       2.89526944       5.86489506       0.19069949       0.01334942      -0.09094198
Br       9.09504792       2.91646373       5.82504763      -0.30711210       0.10718801      -0.01722691
Br       3.35346093       8.75220876       5.85112799      -0.11165144       0.02526597       0.17778510
Br       8.70624628       8.93949797       5.76693108      -0.01312188      -0.07275271       0.31848023
40
Lattice="11.789424384493788 4.994228680623598e-17 7.707693397294342e-17 3.86384251277039e-17 11.789424384493786 1.074067569937025e-14 -3.701747836649174e-16 1.034220411604992e-14 11.7894243844938" Properties=species:S:1:pos:R:3:REF_forces:R:3 system=cssnbr3_cubic base_model=mace_mp0 config_id=cssnbr3_cubic_c07 T=100.0 draw=7 energy_qe_eV=-39978.322113143 offset_eV=-39850.83154096018 split=train REF_energy=-127.49057218281814 mock=0 pbc="T T T"
Cs       0.19998408      -0.32275973      -0.32625151      -0.00762204       0.14205576       0.05281612
Cs       6.36649622      -0.34659076      -0.01268636      -0.30133226       0.35308266      -0.05245796
Cs      -0.21079698       5.90120252       0.43968728       0.12937534      -0.04394967      -0.11231993
Cs       6.18675055       5.97032993       0.15582658      -0.07894675      -0.00486787      -0.01706056
Cs       0.33334814      -0.29742996       5.80265080      -0.31840104       0.15829768      -0.06343760
Cs       5.59159730       0.54238804       6.18752586       0.16139792      -0.29865317      -0.21902971
Cs       0.02965733       5.51877116       5.65771520      -0.05144726       0.21502830       0.27729990
Cs       5.97251349       5.88412151       5.82485111      -0.03707994       0.04562140       0.04892064
Sn       2.97769218       2.90267300       2.90005258      -0.09718950       0.27234050      -0.22884541
Sn       8.89819125       2.94334624       2.93217205      -0.04489995      -0.06588632      -0.03065372
Sn       2.88234416       8.91947769       2.98922342       0.35869949      -0.39442162      -0.20185859
Sn       8.83193543       8.90968628       3.05226823       0.17589482       0.02070304       0.07721768
Sn       2.93219755       2.93686890       8.72567099      -0.41980330      -0.04235455       0.17763726
Sn       8.79537911       3.17525609       8.79037974       0.31480201      -0.30552522       0.44051893
Sn       2.85380071       8.68575842       8.73498766       0.22732949       0.02536907       0.29912754
Sn       8.83493147       8.94622704       8.92453535      -0.17034921       0.02777846      -0.27078319
Br       0.05112582       3.13011920       3.18525192      -0.20552576      -0.31260963      -0.23378835
Br       5.92926799       3.15995624       3.03668091       0.05303723      -0.00762692      -0.03613326
Br       0.19646482       9.17946110       2.93892723      -0.44656591      -0.12296738       0.01141313
Br       6.14018243       9.11136398       2.78395438      -0.52151845      -0.25409827       0.22589327
Br       0.02786808       3.15729095       8.60594298       0.04373549      -0.15212703       0.11998284
Br       5.94065927       2.98147032       8.63473870      -0.15107442       0.19252163       0.16807687
Br       0.02615249       8.85420948       8.84138895      -0.36981102      -0.00855509       0.02538784
Br       5.81129656       8.62962261       8.90273166       0.20231779       0.09649067       0.02361713
Br       2.87133751      -0.06497415       3.01530542       0.13395936       0.23060841      -0.08036626
Br       8.71895261      -0.07209775       2.81794369       0.16765495       0.30936927       0.12853536
Br       2.59745842       5.82227616       3.12405908       0.22631801       0.11048390      -0.09730674
Br       8.83260454       5.85733974       3.05316670      -0.00952234      -0.05034451      -0.06075542
Br       2.62242829      -0.04456289       8.34623682       0.21487198       0.04204011       0.47437110
Br       8.68656333       0.12605732       8.85862943       0.03569797      -0.07397424       0.03239539
Br       2.67277667       5.74249058       8.39666302       0.17675306       0.39458000       0.04366633
Br       8.72697663       6.05985129       9.03808257       0.01502373      -0.06962702       0.01953884
Br       2.65297499       2.96667145       0.00081505       0.05959046      -0.01837105      -0.28212484
Br       8.92104606       2.96428222       0.09295829      -0.01275499       0.04493748       0.27880811
Br       2.68794592       8.60683783       0.15556124       0.11520188       0.05215688      -0.12240148
Br       8.59237607       8.95353359       0.11512723       0.47551602      -0.33511630      -0.26624853
Br       2.94248355       2.96942434       5.74184234       0.05575900      -0.05071784       0.39575963
Br       8.97715119       2.94230931       6.13347902      -0.12291313       0.03211385      -0.72888641
Br       3.01293176       9.02999902       6.01962870       0.09138832      -0.21330129      -0.31077978
Br       8.99837230       8.65491967       5.96590580      -0.06756705       0.05951615       0.09425433
40
Lattice="11.789424384493788 4.994228680623598e-17 7.707693397294342e-17 3.86384251277039e-17 11.789424384493786 1.074067569937025e-14 -3.701747836649174e-16 1.034220411604992e-14 11.7894243844938" Properties=species:S:1:pos:R:3:REF_forces:R:3 system=cssnbr3_cubic base_model=mace_mp0 config_id=cssnbr3_cubic_c08 T=100.0 draw=8 energy_qe_eV=-39978.13896978109 offset_eV=-39850.83154096018 split=train REF_energy=-127.30742882090999 mock=0 pbc="T T T"
Cs      -0.15401258      -0.18790479       0.09894133       0.09034702       0.00777939      -0.12263776
Cs       5.89838080      -0.18955769       0.41081040      -0.04964569       0.04572476      -0.14366887
Cs       0.01528023       5.65913216       0.50498967       0.10674398       0.07725162      -0.19391800
Cs       5.79127923       6.27687450      -0.36986182      -0.06916679      -0.20048331      -0.03233522
Cs       0.30733321       0.25225067       6.08845250      -0.00039364      -0.13607281      -0.12035360
Cs       6.05848742      -0.16346318       5.89565351      -0.24040226       0.13442293       0.16168408
Cs      -0.27214092       5.90195840       5.82887534       0.18444708       0.04588571       0.12990216
Cs       6.17703355       6.23565504       5.99462428      -0.31418855      -0.32658692      -0.00727854
Sn       3.16017850       2.88708397       2.87682611      -1.57207506       0.01855951      -0.04821307
Sn       9.06743453       2.99286004       2.79198963      -2.16313414       0.15190000       0.47188562
Sn       2.84260401       8.79293513       2.76777280       0.58394484      -0.16547440       0.18813070
Sn       8.70512387       8.84854831       2.94294051      -0.02189140       0.03342383       0.24333409
Sn       2.95402175       2.84299986       8.72302176       0.12990473       0.10133437       0.10041032
Sn       8.83324073       3.01097038       8.78856577      -0.10132460       0.05937320      -0.14828015
Sn       2.83658471       8.78781240       8.65571503       0.06647124      -0.04421629       0.12173196
Sn       8.74591274       8.97191639       8.87233493       0.03211076      -0.21668383      -0.04285926
Br      -0.29249993       2.56482164       2.69554208       2.00205735      -0.29967313       0.08647443
Br       5.60247020       3.31045651       3.05861802       1.73708769       0.10175706      -0.08415092
Br       0.19678962       8.68210598       3.15509980      -0.75044716       0.18441186      -0.04290503
Br       5.92752267       8.35625382       2.57968340       0.21138787       0.16959099       0.22871994
Br       0.05180386       2.69432415       8.61569641      -0.20066483       0.13327416       0.11436293
Br       5.88311277       3.16177954       8.73619216       0.27587011      -0.04956830       0.02496490
Br      -0.01936649       8.84337537       8.98441403      -0.03094837       0.04668403      -0.14707816
Br       5.91609673       9.01294794       8.88865820      -0.10792334      -0.04230930       0.08964254
Br       3.16612394      -0.01596359       2.99347557       0.03340686      -0.19583964      -0.08572007
Br       8.47961824       0.16883208       3.32815267       0.07897992      -0.08841021      -0.28440026
Br       2.84891864       5.85462785       3.03474276      -0.17999856       0.17071996      -0.07083672
Br       9.11281915       6.06254791       3.02188649       0.01457610      -0.12829136       0.00428629
Br       3.11022341      -0.05140420       8.71706618      -0.05023576       0.15819638       0.02121443
Br       8.66046284       0.04058098       8.88516177       0.05462206       0.28683715      -0.00727699
Br       3.01869104       5.90779446       8.63006115      -0.06228420      -0.06090352       0.00776499
Br       8.67304291       6.03759261       8.97745749       0.10986272      -0.23475046      -0.03795308
Br       2.83079780       2.83152101      -0.12102237       0.03345931       0.00698954      -0.12844563
Br       9.04709078       2.86166480      -0.03484811      -0.08593038      -0.02431415      -0.40956773
Br       2.89225819       8.81751483      -0.16847461      -0.06037979       0.00940407       0.29975283
Br       8.77545788       8.72451355       0.21123900       0.16709857       0.18110028      -0.49285862
Br       3.06863497       2.77302320       5.73588383      -0.13373799      -0.01128431       0.24488292
Br       9.04609153       3.21895344       5.76687007      -0.04518868      -0.03651815       0.31584048
Br       3.09529417       8.91819354       5.84472590       0.00001466      -0.00393327      -0.28502324
Br       8.41766364       8.80891632       6.00203446       0.32756883       0.14069231       0.08077506
40
Lattice="11.789424384493788 4.994228680623598e-17 7.707693397294342e-17 3.86384251277039e-17 11.789424384493786 1.074067569937025e-14 -3.701747836649174e-16 1.034220411604992e-14 11.7894243844938" Properties=species:S:1:pos:R:3:REF_forces:R:3 system=cssnbr3_cubic base_model=mace_mp0 config_id=cssnbr3_cubic_c09 T=100.0 draw=9 energy_qe_eV=-39978.72284430863 offset_eV=-39850.83154096018 split=train REF_energy=-127.89130334844958 mock=0 pbc="T T T"
Cs      -0.16031766       0.18169047      -0.10198783      -0.00514375      -0.05783877       0.00173807
Cs       6.01048788       0.26723258       0.28563247      -0.00222863      -0.37714947      -0.40236196
Cs       0.17087623       5.61748944       0.14512140      -0.19864806       0.20407566      -0.07548450
Cs       5.68203127       5.50118697       0.09640382       0.28829805       0.28897785      -0.14215501
Cs       0.22502542      -0.22126980       5.91612982      -0.01406162       0.03322765       0.02471859
Cs       5.63067840       0.05302033       5.73089553       0.07284372      -0.02517701       0.09440397
Cs      -0.02611609       5.95729058       5.64015605      -0.01602440      -0.03218096       0.14103375
Cs       6.21886773       6.15470361       6.09962358      -0.14968397      -0.10177378       0.05166298
Sn       2.90883351       2.97064487       2.79972263       0.09933817      -0.15661772       0.44172966
Sn       8.86048185       2.97345149       2.92089872       0.02681969       0.07471394      -0.11108040
Sn       3.06484589       8.79464339       2.90250444      -0.12696750       0.02377499       0.12471984
Sn       8.94784939       8.89168008       2.93880673      -0.24084346      -0.21636527      -0.13960447
Sn       2.98140987       3.02278949       8.73980039       0.15475650       0.06240530      -0.11256033
Sn       8.94880585       2.93819702       8.77724229      -0.25782714       0.27031756       0.07511504
Sn       2.94148424       8.97350033       8.98597621      -0.22558859      -0.44197032      -0.31995476
Sn       8.75686051       8.90145783       8.85463174       0.15468014      -0.14390233       0.23974431
Br       0.09431660       2.73565100       2.99309419      -0.18576940       0.07766171       0.02055957
Br       5.96731887       2.78974250       2.46749130       0.02502172       0.24700537       0.37350184
Br      -0.08342510       8.70507957       3.17187863       0.11263154       0.11720168      -0.08386270
Br       5.79611927       8.62523203       3.29614081       0.07753753       0.07539400      -0.10868670
Br       0.01824923       2.77579062       8.99331641       0.27981007       0.04908956      -0.15511465
Br       5.99497985       3.05254205       8.67634964      -0.26821028       0.00007765       0.13883160
Br      -0.09168856       9.14239368       9.02289082      -0.31405279      -0.05606265      -0.04384245
Br       5.68503158       8.95738081       8.90767364       0.57166242      -0.01015714      -0.09701286
Br       2.80544908       0.08171861       2.60810393       0.13061358      -0.40912216      -0.03145899
Br       8.83019128       0.06650206       2.77511111       0.02254138      -0.16466296       0.02403699
Br       2.63265749       5.81844938       3.07889814       0.11234847       0.39453887       0.03805901
Br       8.86030951       5.90864228       2.74457076       0.00970334       0.07191478       0.17165790
Br       2.94384359      -0.11330781       9.03787265       0.01310414       0.49553745       0.09883269
Br       8.69641428       0.19602018       9.03481231      -0.01452956      -0.31249728       0.00286344
Br       2.91291697       5.81883794       8.49552545      -0.06331727      -0.13656620       0.00303596
Br       8.72007264       6.00466904       8.82200232       0.10825938       0.17730353      -0.03812303
Br       2.89733635       3.35686338       0.07370484      -0.05485680      -0.20034421      -0.31416078
Br       9.15321216       3.15271002      -0.03046628      -0.11229190      -0.09107182      -0.04910473
Br       3.31041937       8.46769806       0.01596554      -0.08607411      -0.01394052       0.44043306
Br       8.70074502       8.65771977      -0.01076525       0.03799525       0.13645282       0.07939721
Br       2.96788411       2.67780741       5.94607958      -0.04883039      -0.03183026      -0.02431467
Br       8.63887012       2.90325914       5.81223074       0.07138874       0.00696846       0.00805115
Br       3.01857010       9.02702129       6.02267289      -0.10868130       0.04333646      -0.27285035
Br       8.76153804       8.73952868       5.90508429       0.12427761       0.12925656      -0.07239249
40
Lattice="11.789424384493788 4.994228680623598e-17 7.707693397294342e-17 3.86384251277039e-17 11.789424384493786 1.074067569937025e-14 -3.701747836649174e-16 1.034220411604992e-14 11.7894243844938" Properties=species:S:1:pos:R:3:REF_forces:R:3 system=cssnbr3_cubic base_model=mace_mp0 config_id=cssnbr3_cubic_c10 T=100.0 draw=10 energy_qe_eV=-39978.30576141426 offset_eV=-39850.83154096018 split=train REF_energy=-127.47422045408166 mock=0 pbc="T T T"
Cs      -0.79356214      -0.08886683      -0.01660403       0.30386171       0.04893941       0.20241061
Cs       5.54670087       0.34243909       0.05104232       0.05503035      -0.14531284      -0.03219638
Cs       0.35729118       5.75593732      -0.41261950      -0.05680364       0.05754180       0.15379105
Cs       5.90299657       6.10039479       0.35696347      -0.01916629      -0.00708905      -0.04314594
Cs      -0.30918291      -0.16131690       6.25644259       0.28368730       0.33148230      -0.11685175
Cs       5.83815286      -0.33120256       6.01084318       0.07226523       0.13664642      -0.05410989
Cs      -0.02158816       5.89359523       5.79623736       0.04249674      -0.13140600       0.02188703
Cs       5.94464418       5.92479630       5.81067758      -0.04871572      -0.01865721       0.04003079
Sn       2.96528952       2.86887621       2.69615021      -0.38981395      -0.04615207       0.42198256
Sn       8.89071427       2.82607844       2.93225920       0.13247043       0.12613729       0.05024476
Sn       2.92753749       8.78204335       3.00787295       0.23645767       0.15720033      -0.16627658
Sn       8.99798359       8.70234960       3.20846222      -1.13463965       0.11829491      -0.12715879
Sn       3.06968422       3.22895406       8.63536026      -0.11459767      -0.12802551      -0.18501710
Sn       8.90399355       3.07077951       8.81343260       0.14014903      -0.49626688      -0.01353197
Sn       2.96686650       9.17904950       8.87115470       0.24607026      -1.89933947       0.07759384
Sn       8.97071650       8.84830634       9.12156748      -0.49330599       0.10003134      -0.18043822
Br      -0.11670011       3.09038718       2.45396051       0.04008298      -0.01107091       0.17722486
Br       5.69955259       2.75553323       2.80672380       0.43450358       0.02122986       0.01092976
Br      -0.24469759       8.43330772       3.07148375       1.14486776      -0.03634511      -0.14693623
Br       5.72875415       8.94857556       2.90622609      -0.08213029      -0.01220323       0.02579896
Br       0.22700188       3.27805286       8.77652699      -0.07811269      -0.17435448      -0.07481139
Br       6.10830603       2.84093352       8.77028508      -0.07654380       0.04656499      -0.06459202
Br      -0.03057423       8.97764044       9.01362907       0.07567194      -0.05651079       0.06043687
Br       5.87503402       8.68464108       8.90960868       0.10074122       0.16277654      -0.03825390
Br       2.77517062      -0.02758764       2.72353421      -0.03026805       0.06596654      -0.07914601
Br       9.05878328      -0.05343149       3.14820864       0.00431894      -0.15968402      -0.06287864
Br       3.10872132       5.89581081       3.20224572       0.01224745      -0.04468114      -0.05828382
Br       8.76685168       5.75266488       3.20095123      -0.15887181       0.23188779       0.00322776
Br       2.89165549      -0.11171859       8.80547700       0.04076690       1.77505208       0.04729390
Br       8.93700660       0.02424155       8.93241642      -0.12723490      -0.40386708       0.00362911
Br       2.98221208       5.96379962       8.61076789       0.06595702      -0.11172137      -0.09490225
Br       8.95360388       5.75492155       8.70361725      -0.04352029       0.76900641       0.02776329
Br       3.10892666       3.13678901      -0.29213172       0.05535225       0.06278942       0.15401396
Br       8.96589636       2.95211197       0.09382432      -0.25973516       0.05533014      -0.55644020
Br       2.92625194       8.73104013      -0.07784300       0.00855509       0.00063609       0.11895312
Br       8.70668000       8.69936369       0.19551030       0.10232194       0.04343339      -0.26833678
Br       2.97315059       2.70628580       5.65923252      -0.01864667       0.03947440      -0.03550102
Br       9.14660211       3.02637179       5.81455359      -0.00866462      -0.09383010       0.41061829
Br       3.20370448       9.01751844       5.82888976      -0.16244230      -0.04463795       0.04629734
Br       9.19932000       9.13685743       5.98957515      -0.29466256      -0.32926704       0.34468106
40
Lattice="11.789424384493788 4.994228680623598e-17 7.707693397294342e-17 3.86384251277039e-17 11.789424384493786 1.074067569937025e-14 -3.701747836649174e-16 1.034220411604992e-14 11.7894243844938" Properties=species:S:1:pos:R:3:REF_forces:R:3 system=cssnbr3_cubic base_model=mace_mp0 config_id=cssnbr3_cubic_c11 T=100.0 draw=11 energy_qe_eV=-39978.60584583439 offset_eV=-39850.83154096018 split=train REF_energy=-127.77430487421225 mock=0 pbc="T T T"
Cs      -0.08345909       0.24120328      -0.15746280       0.01077678      -0.04888516       0.03002457
Cs       5.92851837      -0.44394958       0.02134804       0.09072163       0.11931204       0.02216342
Cs      -0.30438005       6.01801016       0.05322572       0.13263910      -0.00775136      -0.08991096
Cs       6.05955576       5.69765159       0.21164597      -0.04601092       0.20562989      -0.16379136
Cs       0.32651144       0.10923892       5.86959558      -0.18663252      -0.00366614       0.08560617
Cs       5.93082402       0.13926552       6.00447542      -0.04902965      -0.04363779      -0.03426175
Cs      -0.02401289       6.13368004       6.08586850       0.06791183      -0.06441205      -0.02194617
Cs       5.96625290       5.79318078       6.12580465      -0.01001368       0.03773248      -0.03460653
Sn       3.05058206       2.94378567       2.84340578       0.07630469       0.10308581      -0.07928125
Sn       9.00476524       2.87392382       2.74112428      -0.96928249       0.02276738       0.36662003
Sn       3.02302789       8.79819333       3.00284129      -0.08409976       0.02025489       0.19392288
Sn       8.94959753       8.79106320       2.99318438       0.01297944      -0.05240320      -0.34107715
Sn       2.79780392       2.96531676       8.75601321       0.06291695       0.15212215       0.47580475
Sn       8.65720470       2.82518992       8.79759981       0.13308724       0.37329487      -0.30242190
Sn       2.95453963       8.88614949       8.94636141      -0.21945702      -0.09198507      -0.17918429
Sn       8.84312697       8.91010257       8.76249535       0.12676438      -0.44193690       0.25421500
Br      -0.18934575       3.17501069       2.78169104       0.97349730      -0.05595826       0.03544651
Br       5.77951870       2.94817424       2.26025244       0.06035433      -0.31742711       0.46872933
Br       0.12204735       8.70693716       3.02031955       0.07956407      -0.04567205      -0.12318772
Br       6.06591841       8.63731858       3.27405592      -0.11137839       0.12195102      -0.01512426
Br      -0.27516552       2.94827751       8.86970318       0.21211627      -0.01890301      -0.10737852
Br       5.69355111       2.94240980       8.63972030       0.02255320       0.00008356       0.20511875
Br      -0.12433252       9.04115419       9.31379315       0.22365204      -0.04460993      -0.23998883
Br       5.79070993       8.88466232       8.81341204       0.10697460       0.02568506      -0.08632813
Br       2.69758963      -0.05075156       3.29484303       0.23908046       0.04856557      -0.33150544
Br       9.06290005      -0.00943699       2.81286053      -0.01110022      -0.25646831       0.04576358
Br       3.04745869       5.83721038       3.01455210       0.00663756       0.05389469       0.10507816
Br       8.95238091       5.80568506       2.67797953      -0.12535336       0.26370082       0.05668023
Br       2.76082832       0.12699831       8.86697973       0.04718026      -0.08285997       0.08158033
Br       8.77801321      -0.02786509       8.79263649      -0.07315894       0.17593725      -0.07195206
Br       2.79967360       6.02335518       8.72237001       0.00271894       0.03519197      -0.00609917
Br       8.89964985       5.94978885       8.85101025      -0.07445015      -0.13666390      -0.05339744
Br       3.01325514       3.20253319       0.09533331      -0.34507341      -0.09912323      -0.18017957
Br       8.72010670       2.67628917      -0.17633154       0.01652525       0.03491018       0.02099126
Br       3.29042024       8.80430270       0.09744203      -0.03863262       0.01520422       0.02502969
Br       8.92776510       8.75558982      -0.22263638      -0.31967040       0.09967704       0.29457412
Br       3.14202393       2.93398541       6.08502355      -0.15318787       0.00314394      -0.62637704
Br       8.54307553       2.91558756       5.70373682       0.06748194      -0.01086111       0.02256760
Br       2.70242676       9.08603156       5.98487659       0.08418974      -0.15632153       0.11585134
Br       9.14358355       8.64258355       5.73082566      -0.04009687       0.06740121       0.18223156
40
Lattice="11.789424384493788 4.994228680623598e-17 7.707693397294342e-17 3.86384251277039e-17 11.789424384493786 1.074067569937025e-14 -3.701747836649174e-16 1.034220411604992e-14 11.7894243844938" Properties=species:S:1:pos:R:3:REF_forces:R:3 system=cssnbr3_cubic base_model=mace_mp0 config_id=cssnbr3_cubic_c12 T=100.0 draw=12 energy_qe_eV=-39978.59118665373 offset_eV=-39850.83154096018 split=train REF_energy=-127.75964569354983 mock=0 pbc="T T T"
Cs      -0.13598701       0.09404274       0.21114274       0.02122857      -0.02525440      -0.17063820
Cs       5.75890229      -0.57034759       0.04462581       0.10757727       0.37297040       0.04067511
Cs       0.17893019       5.86059764      -0.12256534      -0.02835387      -0.03560669       0.05043990
Cs       6.03944005       5.65002020       0.04063590      -0.09901215       0.03488936       0.03669607
Cs       0.12722070      -0.15331392       5.88608542      -0.00081581       0.13237839      -0.00613774
Cs       5.82414106       0.27863106       6.01140255      -0.05414486      -0.01155377      -0.03809938
Cs      -0.23374468       6.49874563       6.06449256       0.31451328      -0.37351727      -0.10282433
Cs       6.51117266       5.84903407       5.82791780      -0.47319431      -0.13021121      -0.01186153
Sn       3.02295813       2.99720722       2.91372572      -0.03052157       0.02696213       0.10411734
Sn       8.95039966       2.93221447       2.90442604      -0.07188444      -0.03297954      -0.05720345
Sn       3.14922584       8.88867509       2.82560706      -0.30545965      -0.18301806       0.26734434
Sn       9.01825493       8.81509369       2.93006067      -0.45042822       0.00489127       0.01372532
Sn       2.79262905       2.98843856       8.86190105      -0.21926291       0.01111874      -0.17123650
Sn       8.60051295       3.01167512       8.75015226       0.46441836      -0.05778991       0.40845830
Sn       2.90681148       8.90548926       8.77893354      -0.00927448      -0.05076669      -0.11914672
Sn       8.75606108       8.93327501       8.92107266       0.04709927       0.04169944      -0.54902334
Br       0.04864177       2.59298868       2.73218677       0.00167276       0.13051871       0.05482183
Br       5.92967320       2.94579307       2.97868589       0.00436290       0.09597542       0.10674038
Br      -0.07289250       8.89110977       2.69505314       0.28330446       0.03408152       0.07138591
Br       5.85070134       8.58166962       2.63334370       0.31853988      -0.04881214       0.11404231
Br      -0.11101186       2.82355790       8.91237786       0.09582681       0.14400980       0.08908512
Br       5.81130593       3.15155010       9.05340712      -0.08029452      -0.10249394      -0.22244388
Br      -0.07957949       8.64034012       8.85845777       0.03865602       0.18067733       0.08683670
Br       5.81283004       9.19633505       8.84875665      -0.00517820      -0.07503379      -0.14814105
Br       3.26189122      -0.04656352       2.89215007      -0.00625498       0.23730177       0.09499223
Br       8.89879386       0.08368514       3.14385401      -0.05139815      -0.19605356       0.02728917
Br       2.84790939       5.95622354       2.92487318      -0.02718145      -0.32050652      -0.10327530
Br       9.05801065       5.94786635       3.13865926       0.07815896      -0.09763224      -0.28635456
Br       2.77207987       0.08649301       8.44507319       0.07701174      -0.17615373       0.16625756
Br       9.01875845       0.03291436       8.84245559      -0.10662211       0.12171834      -0.07058295
Br       2.83560284       5.97217053       9.13038417       0.06644965       0.01874077      -0.07342428
Br       8.72043516       6.00868915       8.99745653      -0.02094086      -0.26836455      -0.02752752
Br       3.06706309       2.74212646       0.01166336      -0.06234051       0.02404650       0.10284747
Br       8.60483928       2.95492076       0.12272066       0.13557247      -0.04057998      -0.08300884
Br       3.08148624       8.95468835       0.02412961      -0.24260569      -0.05369338      -0.40961016
Br       8.69667563       8.93729695      -0.19728027       0.06956942      -0.01506795       0.60214645
Br       2.66341265       2.89700839       5.95145471       0.10094460       0.08739565      -0.15916646
Br       8.69914979       3.03590387       5.97339934       0.01803732      -0.07718092      -0.03959962
Br       2.90187330       8.76338220       5.81153360      -0.02083288       0.01925911       0.33076059
Br       8.70135822       8.39587187       5.73308648       0.12305814       0.65363587       0.08064445
40
Lattice="11.789424384493788 4.994228680623598e-17 7.707693397294342e-17 3.86384251277039e-17 11.789424384493786 1.074067569937025e-14 -3.701747836649174e-16 1.034220411604992e-14 11.7894243844938" Properties=species:S:1:pos:R:3:REF_forces:R:3 system=cssnbr3_cubic base_model=mace_mp0 config_id=cssnbr3_cubic_c13 T=300.0 draw=0 energy_qe_eV=-39975.64729669519 offset_eV=-39850.83154096018 split=train REF_energy=-124.81575573501323 mock=0 pbc="T T T"
Cs       0.22291114      -0.05280687       0.29756134       0.03806261       0.01062097      -0.03593939
Cs       5.96916805      -0.18347072       0.38207617      -0.23062461       0.20613125      -0.31779066
Cs       0.43911550       6.27891936      -0.51909067      -0.33887962      -0.34673846       0.66612424
Cs       5.98968781       5.82509735      -0.07802027      -0.04308012      -0.00450971       0.07140853
Cs      -0.50714782      -0.25654692       6.26020847       1.32045585       1.14880900      -0.10871653
Cs       5.50068734      -0.14566173       6.18534225       0.03913810       0.12773806      -0.04687892
Cs       0.25007903       5.95125198       6.03956737      -0.09776054      -0.04328246      -0.22391686
Cs       5.61928510       5.25581268       6.00273260      -0.20233425       0.99269033      -0.30595973
Sn       2.89692186       2.52339102       2.77797026      -0.63601610       0.12727372       0.05182598
Sn       8.80248048       2.81479913       2.75200555       0.28743674       0.33747503       0.29685186
Sn       2.90600843       8.49319362       3.29435953       0.65262106       0.32954163      -0.73597982
Sn       8.90036602       8.86460124       2.76312433      -0.11365947      -0.16933928       0.14039406
Sn       2.54299024       3.00163653       8.77838384       1.34327593      -0.46973001       0.11930073
Sn       8.53784139       3.31320094       8.68656681       0.09840974      -0.16938788      -0.24238201
Sn       2.89895520       8.80134169       9.15157188       2.69704685       0.51815391      -0.12092232
Sn       8.84766515       9.14419340       8.55776405      -0.43765498      -0.21770919       1.32884587
Br      -0.15249986       2.14481785       3.16834708      -0.43725106       0.22874179       0.07767894
Br       5.47348751       2.79246486       2.55456608       1.30681897       0.17785709       0.06364200
Br       0.27152688       9.08248729       2.93703613      -0.43176330      -0.06987641       0.09304642
Br       6.19999889       8.53125331       3.39820164       0.00797736      -0.00902689      -0.14557278
Br      -0.01277558       3.43277358       8.60224794      -1.07514921      -0.12160161      -0.05319330
Br       5.81426680       3.47299047       8.80479332      -0.10206431      -0.19347346       0.39740153
Br       0.43307777       8.85168350       9.03581498      -2.40232155       0.37137965      -0.19587204
Br       6.23215461       8.42828923       8.96797435      -0.27335352       0.57585563      -0.25105408
Br       3.35503074      -0.35182766       2.61866055      -0.19191331       0.36448550       0.35839224
Br       8.82078245      -0.06095104       2.49707249      -0.06603776       0.29278154       0.78894198
Br       3.01119466       5.77477113       2.54407792      -0.19920959      -0.35968396       0.16514118
Br       9.43653887       5.69532631       2.98315402       0.02067630       0.14063009      -0.21415798
Br       3.28959924       0.08297686       9.43339029      -0.23261336      -0.43983887      -0.38129897
Br       8.40082077       0.47651029       8.23545098       0.02678550      -0.28640521       0.30420933
Br       2.74791715       5.84446352       8.85789973       0.30637060       0.21516637      -0.17568065
Br       8.72416367       6.23230033       8.95946359       0.63761353      -0.00746520      -0.09059411
Br       3.00590492       2.84701284      -0.12802437      -0.31220469       0.17848290       0.23611443
Br       8.84321567       2.80768333      -0.37616504       0.02569226       0.03769160       0.49358367
Br       3.28721451       8.92911172       0.12313627      -0.17599330      -0.33035436      -0.05203399
Br       8.69440588       9.66096803       0.10700406       0.33098582      -0.93791015      -0.71459262
Br       3.17515138       3.03381308       5.89283152      -0.43803319      -0.34185696      -0.21871706
Br       8.11903663       3.31984562       5.65297768       0.62977449      -0.51833363      -0.35187989
Br       3.11564951       9.02008877       5.97532521      -0.27345585      -0.13993615       0.49242333
Br       8.99137822       9.65189744       5.98803218      -1.05776958      -1.20504623      -1.16219288
40
Lattice="11.789424384493788 4.994228680623598e-17 7.707693397294342e-17 3.86384251277039e-17 11.789424384493786 1.074067569937025e-14 -3.701747836649174e-16 1.034220411604992e-14 11.7894243844938" Properties=species:S:1:pos:R:3:REF_forces:R:3 system=cssnbr3_cubic base_model=mace_mp0 config_id=cssnbr3_cubic_c14 T=300.0 draw=1 energy_qe_eV=-39973.75272422998 offset_eV=-39850.83154096018 split=train REF_energy=-122.92118326979835 mock=0 pbc="T T T"
Cs      -0.06977840      -0.30563056      -0.35140609      -0.08146797       0.17482242      -0.14078487
Cs       5.93048205      -0.22242561       0.36972454       0.03263141       0.70289332      -0.73678792
Cs      -0.36083320       6.06908275       0.07654631      -0.09739005       0.01428402      -0.33721946
Cs       6.42245587       4.87373369       0.74132006      -1.52291634       2.99780730      -3.45740819
Cs       0.79216415       0.06903949       5.58134230      -1.18862999       0.23662505       1.04788086
Cs       5.51284341      -0.64574387       5.90020156       0.54361554       0.49060634       0.08600906
Cs       0.66290943       5.30798291       5.96571477      -1.11977610       0.79901247       0.46419931
Cs       6.05050188       5.97675311       6.11306038      -0.05860650      -0.08784303       0.08861924
Sn       2.86601262       3.35575378       2.94516068       0.37757447      -0.34770031       0.15445105
Sn       8.73676396       3.02345528       3.05665073       0.53542092       0.56377710       0.31990000
Sn       2.45271806       9.08615683       2.91073378       0.75864821      -0.60308336      -0.16397776
Sn       8.46013819       9.07941170       3.01972448       1.06223944      -0.18824846      -1.76357982
Sn       3.03877153       2.63706090       8.90196103       0.03268515       1.17702197       0.06900944
Sn       8.97572849       2.94586982       8.80803684      -0.02179987      -0.13963996      -0.11199674
Sn       2.97812531       8.62670212       8.90928659      -0.68409625       0.00384920      -0.05616035
Sn       8.91955848       8.79214446       8.81680889      -0.09903041       0.21047925      -2.23421203
Br       0.33037529       3.76293460       2.42134211      -1.03963893      -0.48413153       0.23733390
Br       5.99870523       3.67822877       3.13893732      -0.42251761      -1.87044361       3.25945973
Br      -0.05925393       9.78194008       2.79965539      -1.01538597      -0.27808872       0.10645730
Br       5.88876058       9.18678572       2.40733099      -0.95107754      -0.64813757       0.59383381
Br       0.08434344       2.86286617       8.40067470      -0.07829575      -0.06257628       0.58897983
Br       5.95979821       2.69023405       8.95656481       0.04445103      -0.06765729      -0.11414387
Br      -0.18487751       8.11165135       8.56197127       0.39105888       0.31311820      -0.08648523
Br       5.65862941       8.83361823       8.84905811       0.57353341       0.18684232       0.07939695
Br       2.63405857      -0.00434776       3.18003444       1.29667880       0.74380780      -1.07721946
Br       8.57935014       0.25314428       3.14082465      -0.19266767      -0.36083042      -0.00923257
Br       2.70998435       6.03242620       3.58219227       0.68981747       0.38377134      -0.43683891
Br       8.84668257       5.98852538       2.72330817       0.22450564       0.40782556       0.27886339
Br       2.47487890       0.10439408       8.63970888       0.15361004      -0.97323634       0.19506960
Br       8.82365083       0.04651056       8.90029207       0.11238935       0.44592545       0.02072258
Br       3.21820508       5.95189715       8.82570101       0.00383223      -0.23574059      -0.07413776
Br       8.81161616       6.09895433       8.51567738      -0.34562388      -0.84243095       0.09952689
Br       3.13508333       3.17557139       0.20609187       0.17549116      -0.11072970      -0.25227227
Br       8.76795342       3.29390964       0.15975012       1.58482079      -1.34831092      -0.50752445
Br       2.01688500       8.56692017      -0.09205322       0.39031197       0.23959313       0.30545297
Br       9.03586155       8.79775084      -0.52904508       0.01085905       0.05637221       2.44874179
Br       2.85348408       3.09301954       6.08244715       0.86895085      -0.74551476      -0.03626927
Br       9.42922746       3.26128234       5.98325541      -0.40672332      -0.13395807      -0.26144185
Br       2.98609716       9.14710094       5.91823783      -0.36821591      -0.53060910      -0.18399740
Br       8.71383621       8.68641089       5.44929221      -0.16926575      -0.08952324       1.59778275
40
Lattice="11.789424384493788 4.994228680623598e-17 7.707693397294342e-17 3.86384251277039e-17 11.789424384493786 1.074067569937025e-14 -3.701747836649174e-16 1.034220411604992e-14 11.7894243844938" Properties=species:S:1:pos:R:3:REF_forces:R:3 system=cssnbr3_cubic base_model=mace_mp0 config_id=cssnbr3_cubic_c15 T=300.0 draw=2 energy_qe_eV=-39976.157827835574 offset_eV=-39850.83154096018 split=train REF_energy=-125.32628687539545 mock=0 pbc="T T T"
Cs      -0.30069369       0.06011348       0.09585770       0.39304068      -0.27918349      -0.03100031
Cs       5.84442524       0.37699923       0.10804613       0.10652440      -0.10130609      -0.22564876
Cs       0.25653969       5.74101677      -0.10413903      -0.22399091      -0.11095236      -0.11325838
Cs       5.09899175       6.36710704       0.50641847       1.09432527      -0.36258340      -0.88282401
Cs       0.01402502       0.20190506       5.30624661      -0.01894594      -0.23809315       0.75441360
Cs       6.06720608      -0.25481904       5.37089364      -0.66528914      -0.00842653       1.05101195
Cs      -0.06803948       5.46920051       6.16985098      -0.03510507       0.18990091      -0.14333412
Cs       5.94537138       5.79367203       6.12417578      -0.14445332       0.03854058      -0.01322395
Sn       3.02615110       2.84826012       2.82608361      -0.22871942       0.91721174       0.22827257
Sn       8.71017184       2.95596944       3.02686216       1.28413413       0.17608149      -0.19499401
Sn       2.86133445       9.00251689       2.95924637      -0.18612961      -0.45642120       0.08366653
Sn       8.66680807       8.91806912       3.03691919       0.23148773      -0.56657395      -0.45595146
Sn       2.98772288       3.03887412       8.72482060       0.69918297      -0.32338204      -0.00679388
Sn       8.93463757       2.81095934       8.91539374       0.03235630       0.45980323      -1.20242807
Sn       3.08330911       9.07677265       8.89472854      -2.20831048      -0.68369567      -0.09909649
Sn       8.95233297       8.71978375       8.91411475       0.22554771      -0.00133492       0.33597094
Br       0.29090359       2.44919105       2.99210198      -0.14946543       0.34560177      -0.52664934
Br       6.17817182       3.29119173       2.58703539      -0.84464621       0.19145051       0.01905239
Br       0.08732228       9.47187328       2.92572025      -0.41990923      -0.09052211       0.06613983
Br       5.79014765       8.87735752       2.81136362       0.32563639      -0.09847634       0.08679736
Br       0.35724069       2.99404526       8.65777664      -1.11114697      -0.15948527       0.32662420
Br       6.14515603       3.39008597       8.64666132       0.03377273      -0.32127477       0.24032795
Br      -0.11660069       8.31044492       8.89818108      -0.07224980       0.39513279      -0.08031921
Br       5.52785870       8.93145977       9.16880028       2.30043465       0.02304017       0.39791035
Br       3.57197290       0.24603666       2.95396857      -0.04147267      -0.65247168      -0.08671328
Br       8.28541995      -0.20355926       3.21501308       0.75243103       0.58952876      -0.52956369
Br       2.79294230       6.11486442       2.55944440      -0.62877356      -0.40582395       1.28462187
Br       9.37031032       5.74767781       2.69193687      -0.12515256      -0.16017818       0.14123224
Br       2.65030302      -0.09921729       9.07088387       0.07672352       0.44440361       0.04047096
Br       9.47158143       0.09235021       9.05656743      -0.21560808      -0.56722701      -0.59155736
Br       2.74766046       5.69273079       8.44071671       0.23865391       0.58722916       0.17602286
Br       9.16764152       5.94753111       8.80262377      -0.30764381      -0.42465163       0.22226210
Br       3.06333057       2.93765008      -0.00957377      -0.03389460       0.00279350       0.18506749
Br       9.23003784       2.50715264      -0.35953919      -0.26070009       0.45266225       1.77390846
Br       2.52834594       8.39463334       0.24034128      -0.11893718       0.97982453      -0.50528965
Br       8.64119697       9.37657308       0.20542914       0.02720381      -0.17284010       0.34549456
Br       2.61263244       2.90379267       5.95661028       0.34297025      -0.14548587      -0.55660270
Br       8.87613985       2.72748643       5.79377859      -0.12003324       0.10959456      -0.30655623
Br       3.38114410       8.78285787       6.12827917      -0.04840667       0.13475872      -0.50236913
Br       8.34644481       8.39951482       6.25392308       0.04455825       0.29283091      -0.70509445
40
Lattice="11.789424384493788 4.994228680623598e-17 7.707693397294342e-17 3.86384251277039e-17 11.789424384493786 1.074067569937025e-14 -3.701747836649174e-16 1.034220411604992e-14 11.7894243844938" Properties=species:S:1:pos:R:3:REF_forces:R:3 system=cssnbr3_cubic base_model=mace_mp0 config_id=cssnbr3_cubic_c16 T=300.0 draw=3 energy_qe_eV=-39975.58269673384 offset_eV=-39850.83154096018 split=valid REF_energy=-124.75115577366523 mock=0 pbc="T T T"
Cs       0.09206216      -0.32856021       0.42632920      -0.14872418       0.22389552      -0.22181344
Cs       5.93482342       0.47212160      -0.04362582       0.08267896      -0.24846910      -0.02881847
Cs      -0.49332246       5.25132526       0.63192074       0.51884913       1.56507420      -2.31056428
Cs       5.78865894       5.85746664      -0.03610155      -0.04629348       0.06079271      -0.00052219
Cs       0.17338808      -0.20812609       5.94012712      -0.16068315       0.14379511       0.11945988
Cs       5.89819406       0.67272210       6.04292279       0.16807276      -0.56759185      -0.53232891
Cs       0.97313610       6.02201705       5.40293072      -1.17236853      -0.82273553       0.20326319
Cs       5.65774483       6.42474571       6.32684429       0.68166527      -0.53844454      -0.22665354
Sn       2.98884098       2.97886466       2.75161561      -0.62329428       0.07053873      -0.04041183
Sn       8.68536087       3.05257782       2.67731575      -0.03483562      -0.23094754       0.37939661
Sn       2.82157960       9.06838209       2.95182856       1.41524497      -0.84132975       0.10884045
Sn       8.59090387       8.85202392       3.08483427       0.86097812       0.22870785      -1.35424066
Sn       2.87793379       2.70156332       8.73327307      -0.40665827       0.66424887       0.24205908
Sn       8.80173144       2.99958097       8.49242023       0.49837904       0.00614571       0.04499225
Sn       2.87141630       8.77941461       8.94890588       0.29636772      -0.61586431       0.33038444
Sn       9.05590684       8.85092294       9.08097239      -0.53153316      -0.38030472      -3.78949418
Br      -0.37229052       3.32161190       2.75606189       0.66651890      -1.74542269       1.53870857
Br       5.61949846       3.33213920       2.48675505       0.27243023      -0.16499180       0.09672927
Br       0.27627744       9.20856351       3.03287629      -1.38750611      -0.13047192       0.10114797
Br       6.02137001       9.06917845       3.13577502      -0.82969602      -0.07076036       0.12368343
Br      -0.02671136       2.84087679       8.68451072       0.11444057      -0.22887472      -0.07726448
Br       5.83725374       2.94155083       8.30767201      -0.01225696       0.53735516       0.60703926
Br      -0.16497566       9.12073498       9.33213712       1.12879245       0.14884168       0.05504989
Br       5.64778585       8.16796527       9.19164252      -0.12830062       0.37799202      -0.10258187
Br       3.05445002      -0.10702075       3.43435803       0.07123730       0.77265198       0.02132010
Br       8.78924451      -0.02060451       3.00744286       0.04931196       0.26014165      -0.08039737
Br       2.84000926       5.87539761       2.59818730       0.09665111      -0.31728261      -0.19198787
Br       9.00324904       5.91379852       2.81330851      -0.62690900       0.03920881       0.17762209
Br       3.28723173      -0.10801050       8.68726931       0.03865576      -0.35159553      -0.16432666
Br       9.03765619       0.02208622       8.30558550      -0.22241405       0.00595519       0.08368967
Br       2.52495212       5.68898637       9.60787606       0.17294757       0.18921905      -0.21649537
Br       9.46525486       5.79920102       8.85139047      -0.22121540       0.17531478       0.04552909
Br       2.76077474       2.09955170      -0.15000674       0.01898271       0.18782603       0.42678204
Br       8.75916483       2.80532596      -0.24380241      -0.10189976      -0.03739721      -0.12878501
Br       3.24378899       9.01481019       0.24314909      -0.09916719       0.22854973      -0.42922690
Br       8.62798794       8.94190392      -0.39376567      -0.58143415       0.22958923       3.58465774
Br       2.84155636       2.82543453       5.84807426       0.00173755       0.15106234      -0.36050723
Br       8.76258106       3.10007091       5.55609152      -0.08115584       0.01668595       0.21674785
Br       3.01286874       8.24244047       6.04619677       0.12544027       1.09694291       0.37208054
Br       8.99308024       8.63879252       5.55356039       0.13696344      -0.08805077       1.37723738
40
Lattice="11.789424384493788 4.994228680623598e-17 7.707693397294342e-17 3.86384251277039e-17 11.789424384493786 1.074067569937025e-14 -3.701747836649174e-16 1.034220411604992e-14 11.7894243844938" Properties=species:S:1:pos:R:3:REF_forces:R:3 system=cssnbr3_cubic base_model=mace_mp0 config_id=cssnbr3_cubic_c17 T=300.0 draw=4 energy_qe_eV=-39975.3707147473 offset_eV=-39850.83154096018 split=train REF_energy=-124.53917378712504 mock=0 pbc="T T T"
Cs      -0.20184230      -0.50451701       0.22415032       0.50579384       0.42690674      -0.02578457
Cs       5.99602865       0.34420826      -0.04162711      -0.25161330      -0.47748934      -0.02551640
Cs       0.33268426       5.55731992       0.02167320       0.00888213       0.24813691      -0.00667227
Cs       6.58116565       5.26922991      -0.03949517      -2.09123195       2.69772151       0.26170308
Cs      -0.56185296      -0.16930007       5.73207522       0.11447168       0.08747176       0.05250141
Cs       5.93800133       0.10277477       6.44399816      -0.11165273      -0.05625085      -0.15172697
Cs       0.61587037       5.09826507       5.82004394      -1.14882906       1.03502097       0.02713799
Cs       5.71702953       6.13893369       5.76747053       0.01714720      -0.11750430       0.10546485
Sn       2.92205922       2.92026262       2.86232384      -0.04305698      -0.23116557       0.43597014
Sn       8.71965399       3.09179932       2.91666372       0.76096400       0.35406867      -1.44155172
Sn       3.10928445       8.79951196       3.01552662      -1.18039860       0.65017337       0.10036275
Sn       9.00389834       8.96452088       2.89569343      -0.61919183      -0.39551280      -0.12204435
Sn       2.87745723       2.95295429       8.95199218       0.01773496       0.41946725      -1.26771250
Sn       8.64590500       3.27354247       8.82911402       0.08439106      -0.47148967      -0.40564783
Sn       2.68747570       8.93079185       8.92006051       0.70536647      -0.40475514       0.19074783
Sn       8.73293108       8.92789253       8.64477569      -0.19539047       0.67644079       0.89927470
Br      -0.14088241       2.56114510       3.21992389       0.77587974       0.09702058      -0.21451511
Br       6.07394508       2.65330002       2.84214199      -1.41860257       0.30402241       0.05740502
Br      -0.20336849       8.76891468       3.41136768       0.48412073       0.12886960       0.04363959
Br       5.64897943       8.67398320       3.05267541       1.38712738       0.09271758       0.01180239
Br       0.11814842       3.05610427       9.16724506      -0.63879829       0.00534224      -0.12786585
Br       5.80066494       3.13738198       8.50467884       0.55111673       0.06871016      -0.01097295
Br       0.01900155       8.55656476       9.27845139      -0.36148091       0.06032271      -0.15780583
Br       5.89640906       9.17071452       9.17875451       0.25775361       0.00620022      -0.14196937
Br       3.05295143       0.16522009       2.87902455      -0.03487624       0.26676635       0.00758938
Br       8.61312804       0.37288870       2.85727864       0.26122871      -0.98198143       0.00486247
Br       3.06101680       6.18530716       2.65881823      -0.13212513      -1.23834407       0.17358494
Br       9.12536428       6.13049531       2.07755106       0.02260720       0.05460277       0.51689329
Br       2.97875770       0.17205737       8.74100035      -0.10038589      -0.38048187      -0.03819939
Br       8.74064764       0.46429820       8.86952359       0.10695455      -0.17020626      -0.20899701
Br       3.09638049       5.98033801       8.41724588      -0.10564174      -0.13004768       0.67001714
Br       8.65952886       6.29039001       8.92583448      -0.03750674      -0.53550422       0.00066849
Br       2.95364229       2.95770906      -0.25742524       0.22305220      -0.01780078       1.57728257
Br       8.10213584       2.95640715      -0.31843858       1.93707992      -2.07666074      -0.14927439
Br       2.83622628       8.70053884       0.23850550      -0.06985816       0.27669621      -0.27955450
Br       9.23990883       9.07245667       0.23131763      -0.38503093       0.03601627      -0.55251876
Br       3.01435434       3.30646919       5.87731675       1.05060366      -1.02060171      -0.73369308
Br       8.77520572       3.14765154       5.42800362      -0.05254435       0.17328515       1.92177929
Br       3.02000910       8.44440327       6.21994414      -0.14237921       0.54513969      -0.66850096
Br       8.69980447       8.82161182       5.99285346      -0.15168017      -0.00532373      -0.32816352
40
Lattice="11.789424384493788 4.994228680623598e-17 7.707693397294342e-17 3.86384251277039e-17 11.789424384493786 1.074067569937025e-14 -3.701747836649174e-16 1.034220411604992e-14 11.7894243844938" Properties=species:S:1:pos:R:3:REF_forces:R:3 system=cssnbr3_cubic base_model=mace_mp0 config_id=cssnbr3_cubic_c18 T=300.0 draw=5 energy_qe_eV=-39973.62512964286 offset_eV=-39850.83154096018 split=train REF_energy=-122.79358868268173 mock=0 pbc="T T T"
Cs      -0.33815784      -0.19620070       0.27482830       0.18318416      -0.03946798      -0.06588272
Cs       4.98047812       0.28856547       0.17786717       0.89932278      -1.12672605       0.34728353
Cs       0.02387306       6.79193643      -0.15331733       0.26590169      -0.53168048       0.17246009
Cs       5.73981014       5.47367889      -0.41358673       1.45431108      -0.14971662       1.13602522
Cs      -0.36279600      -0.59289633       6.30953753       0.84535687       0.72611913      -0.12425884
Cs       6.87116074       0.30449304       5.38197569      -1.46764945      -1.82945020       0.37042397
Cs       0.41479707       5.55725437       6.10867827      -0.48838362       0.67260907       0.22096446
Cs       6.01226388       5.90696257       5.59487998      -0.09336447       0.17959541      -0.15413326
Sn       2.73262231       3.15972928       3.06618084      -0.49680475      -1.01477611      -0.27802521
Sn       8.54753066       2.97142144       2.83503247       0.67964824       0.23829010      -0.65288100
Sn       2.94114120       9.06241306       3.05034071       0.40485002      -0.35420340       0.10584615
Sn       8.94927638       8.77003098       3.14400950      -0.98590982      -0.81980010      -4.44647969
Sn       3.15337564       2.74369239       8.78253300      -0.18061126      -0.09700258       0.06251869
Sn       8.84202859       3.17174095       8.70645640       0.28346952      -1.69777064       0.08384933
Sn       3.06577277       8.67530894       8.85627411       0.14693315       0.60550919       0.58743974
Sn       8.79927706       9.10226210       8.86292442      -0.23410820      -1.12470234      -0.48117733
Br      -0.23390804       3.18048862       3.94635330      -0.11634730      -0.29371280      -0.79508794
Br       5.68464303       2.55837777       3.15455494      -0.20191259       0.24648498      -0.40952248
Br      -0.14061777       8.65680950       2.95420959       0.89231189      -0.25583453      -0.11146324
Br       5.87012096       9.57312449       3.05765046      -0.37426880      -0.19339735      -0.05292153
Br       0.14620942       2.86586746       8.55675532       0.06846873      -0.01231764       0.15191672
Br       6.01976089       3.38586775       7.89797040      -0.37253074      -0.36763896       0.58644163
Br       0.12939909       8.80932169       8.84033048      -0.19943867       0.04332952       0.02349320
Br       5.93643592       9.33655556       8.70978568       0.19503334      -0.36273663       0.01517028
Br       2.48532536      -0.15230547       3.52623542      -0.10907648       0.30718049      -0.08738511
Br       9.38100174      -0.37336280       3.09868585       0.10701806       1.43505352      -0.59270330
Br       3.07406249       5.71159264       3.04967887       0.16538673       1.06292979      -0.26735102
Br       8.56296024       5.83793279       2.83283810      -0.17223923      -0.64968074      -0.03249566
Br       3.31899647      -0.10813232       9.01546301      -0.34815591       0.85719037      -0.29363361
Br       8.61789474      -0.13836525       8.45981166       0.22797355       0.98518528       0.21164884
Br       3.47544031       6.11480140       9.63966439      -1.38092742      -0.42731580      -1.09511280
Br       8.64188895       5.66347206       8.91785537       0.14375681       1.50394777       0.16457657
Br       3.41204509       2.89369713      -0.05410597      -0.72504801       0.79037100      -0.50958262
Br       9.04433001       2.28025523      -0.18692005      -0.27090814       0.36858075      -0.51158319
Br       2.98682225       8.88213957       0.24337791      -0.06968538       0.27534689       0.24079204
Br       9.02117468       8.59778986      -0.33010863      -0.34767331       0.38995305       0.47119091
Br       2.75820302       3.41177732       5.71113048       0.78894506      -0.48304035       0.92220225
Br       8.36292717       2.78758102       5.43351577       1.16310948       1.68375890       1.14411057
Br       2.81531060       8.24378401       6.28208701       0.10260013      -0.12176256      -0.92507906
Br       9.10691322       9.20891745       5.41608245      -0.38253670      -0.41870209       4.86840569
40
Lattice="11.789424384493788 4.994228680623598e-17 7.707693397294342e-17 3.86384251277039e-17 11.789424384493786 1.074067569937025e-14 -3.701747836649174e-16 1.034220411604992e-14 11.7894243844938" Properties=species:S:1:pos:R:3:REF_forces:R:3 system=cssnbr3_cubic base_model=mace_mp0 config_id=cssnbr3_cubic_c19 T=300.0 draw=6 energy_qe_eV=-39975.47073005264 offset_eV=-39850.83154096018 split=train REF_energy=-124.63918909246422 mock=0 pbc="T T T"
Cs      -0.32862677      -0.04541658      -0.07353892       0.09152716      -0.00438399       0.00010387
Cs       5.76025311      -0.24881955       0.08749427       0.05001670       0.25824546      -0.02243493
Cs      -0.29857565       5.31094993      -0.15719021       0.01312985       0.21084151       0.05779249
Cs       5.25193885       6.90058070       0.24844794       1.97219476      -2.06920043      -0.02485820
Cs       0.32794958       0.43802687       5.38611554      -0.35404425      -0.28244545       0.69824786
Cs       6.04521766      -0.21839235       5.37510130      -0.00067903       0.17372584       0.15539259
Cs       0.38453919       6.44676717       6.81725936      -0.08724422      -0.28380685      -0.12031889
Cs       5.82717720       5.92770545       5.03222883       0.04984443      -0.22928404       0.44758895
Sn       3.12446171       2.57720409       3.12200109       1.42959404       0.30817088      -0.08496596
Sn       9.21273458       2.89709007       3.01204886      -0.44026568       0.29500118       0.06346742
Sn       2.93057982       8.50423766       3.14137319       0.23057370       0.14080081      -0.65312962
Sn       8.90906100       8.80527604       2.78291574       1.49077061      -0.53558676      -0.15799429
Sn       2.78216940       3.10680664       9.05123854       0.44680605      -0.15455698      -0.16540421
Sn       8.59076472       3.17103894       8.78161097       0.02330011       0.16132772      -0.24278387
Sn       2.93647233       9.04249286       9.11898594      -0.96590664       0.12457303      -1.29342353
Sn       8.82555972       9.15109643       8.55645470      -0.53816969      -0.70190756       0.50997060
Br       0.61603350       2.72664464       3.02407766      -1.54481648       0.31708927      -0.48425211
Br       6.46873917       2.96211652       3.18224595      -0.22172602      -0.30256022      -0.14989583
Br       0.36616830       8.99272303       2.75705821      -0.52436415      -0.30350227       0.03434660
Br       6.38733801       8.65026152       2.89131947      -1.78844727       0.32001493      -0.06972549
Br       0.05856141       2.90477220       8.71954493      -0.53302491       0.14320428       0.11845586
Br       5.75271841       3.34700065       8.62120043       0.55001090      -0.05249884      -0.02045724
Br      -0.41949810       8.93713556       9.42834361       0.85751895       0.07027288      -0.35429673
Br       5.54248853       9.15451918       9.16266495       1.00422122       0.12220556      -0.40336032
Br       2.75072163      -0.35515451       3.15865264       0.64455577       0.31914255      -0.15540879
Br       8.81704281      -0.23077314       2.88590055       0.04462201       0.36989407      -0.06227032
Br       2.97497284       5.59941863       2.68753404      -0.06098605      -0.04922017       0.14502102
Br       8.91546022       5.72566279       3.26820243       0.32653730       0.02187675      -0.24973099
Br       2.46172613       0.03176140       9.34145417       0.15518613      -0.26499743      -0.30681874
Br       8.63367218       0.07074450       8.55193232      -0.01876185       0.47079084       0.05532937
Br       2.92821771       5.91078820       9.66903603      -0.35282734      -0.11947505      -0.31258778
Br       9.09522081       6.00330957       8.42415558      -0.16124493      -0.35538431       0.13843488
Br       3.04838705       2.52776561      -0.06262586       0.02253520       0.08202796       0.65663532
Br       9.07379468       2.65174986       0.12691073      -0.13305047       0.08778235      -0.42930738
Br       3.20317186       8.82737347      -0.15474059      -1.86410276       1.69290611       1.36691260
Br       8.76381317       8.32594463      -0.30373038      -0.36871805       0.18123809       0.69876439
Br       2.86590823       3.06419033       5.96498963       0.13630755      -0.03700152      -0.28863435
Br       9.19132339       2.92409873       5.82015993       0.00100659      -0.14930216       0.58940740
Br       2.92376677       8.68713973       5.77119986       0.08373466      -0.03156466       0.56853030
Br       8.25846448       8.75900363       5.78655004       0.33438508       0.05554766      -0.25234272
40
Lattice="11.789424384493788 4.994228680623598e-17 7.707693397294342e-17 3.86384251277039e-17 11.789424384493786 1.074067569937025e-14 -3.701747836649174e-16 1.034220411604992e-14 11.7894243844938" Properties=species:S:1:pos:R:3:REF_forces:R:3 system=cssnbr3_cubic base_model=mace_mp0 config_id=cssnbr3_cubic_c20 T=300.0 draw=7 energy_qe_eV=-39973.45197177037 offset_eV=-39850.83154096018 split=train REF_energy=-122.6204308101951 mock=0 pbc="T T T"
Cs       0.44447538      -0.03974861      -0.37812775      -0.01787225      -0.06654606       0.22755189
Cs       6.50733498      -0.84454793      -0.33001278      -1.61316720       1.32101455       0.34836185
Cs      -0.55185803       5.81929417      -0.54114635       0.10378232      -0.02457615       0.29690585
Cs       5.07694195       5.34847507       0.17705876       2.39447069       2.87418146      -0.00403535
Cs      -0.10243150       0.08147655       5.95188987      -0.05744050      -0.06474526      -0.09565429
Cs       5.68179609       0.58025631       6.61643533      -0.12915808      -0.52661412      -0.41634259
Cs      -0.11381583       5.89745303       5.79468882       0.06553125      -0.11841704      -0.06065232
Cs       5.52314602       5.94286085       4.64122394       2.90555020      -0.19842232       2.55169879
Sn       3.14258877       3.08221191       3.32937371      -1.19267099      -0.41398386      -0.05410552
Sn       8.84542331       2.87082753       2.92165613       0.11229447       0.65336976       0.25441091
Sn       2.96269199       9.04770106       3.30335251       0.23086732       0.63233171      -0.17678288
Sn       8.83376706       8.88656805       2.69730920      -0.16374482       1.01999930      -0.17887113
Sn       3.16215182       3.01856501       9.21862055      -0.35621632      -0.41469529      -0.10660694
Sn       8.91684939       2.82681155       8.85197815      -0.36979817      -0.68288449      -0.09441554
Sn       3.13728942       8.72879563       9.08082476       0.35141118       0.45042565       0.07512301
Sn       8.96415691       8.66376572       8.47027914      -0.51929728       0.55733469       0.04014109
Br      -0.19403437       3.04708846       2.88938639       0.16480360       0.15804340       0.06367646
Br       5.72524809       2.98374382       3.16110422       0.71919180      -0.43293058      -0.15714300
Br      -0.37614502       8.45358535       3.40504213       0.64431845       0.10302976      -0.07637308
Br       5.65556487       8.83783240       2.69182592       0.05423896       0.26611586       0.22363430
Br      -0.13620076       2.49647534       8.96438506       0.35878408       0.01191809      -0.04493311
Br       5.81438537       3.01455692       9.21551767       0.40113477       0.32031677      -0.00243381
Br       0.41997532       8.82845309       8.27851940      -0.47170281       0.08216423       0.13182432
Br       6.19732590       8.37691698       8.98315596       0.18211175      -0.19490659      -0.15049978
Br       2.58292628       0.31045569       3.23497464       0.10258702       0.25363624       0.04185962
Br       8.84511715       0.32483036       2.60218971       0.07133860      -0.72236146      -0.19654464
Br       3.09631874       6.38688275       3.51660068      -3.43239032      -0.34860148      -1.54242638
Br       8.28968235       6.44691303       3.18713949       0.56718227      -1.57550440      -0.36532496
Br       3.60230613       0.13162924       9.53071090      -0.38743079       0.03725914      -0.17465684
Br       8.44857397      -0.01845020       8.39724480       0.38786042      -1.08685287       0.54703228
Br       2.75161167       6.02222012       9.53197872      -0.21473082      -0.29586815      -0.20079827
Br       9.25983122       5.47302841       8.44353238      -0.00712787       1.11977019      -0.21316502
Br       3.44441556       3.15432066       0.30425216      -2.28424878      -2.63697714       0.31582377
Br       8.69561500       2.99431034      -0.05257927       0.09929112       0.17871327       0.12413003
Br       3.52552408       9.03504170       0.20753079      -0.76843486      -0.10506479      -0.21463903
Br       8.93316443       9.39057023      -0.58934606       2.13931364      -1.43467608      -0.34786743
Br       3.41826399       3.06662631       6.26672792      -0.40469061       0.26954211      -0.20397975
Br       8.69188595       2.06329715       5.92386339       0.32340801       0.78550287      -0.58987791
Br       3.62530901       9.09619121       6.23563168      -0.05954649       0.03109672      -0.47777576
Br       8.23002518       9.34549154       5.24078534       0.07019652       0.21886207       0.90373145
40
Lattice="11.789424384493788 4.994228680623598e-17 7.707693397294342e-17 3.86384251277039e-17 11.789424384493786 1.074067569937025e-14 -3.701747836649174e-16 1.034220411604992e-14 11.7894243844938" Properties=species:S:1:pos:R:3:REF_forces:R:3 system=cssnbr3_cubic base_model=mace_mp0 config_id=cssnbr3_cubic_c21 T=300.0 draw=8 energy_qe_eV=-39975.8496873492 offset_eV=-39850.83154096018 split=train REF_energy=-125.01814638901851 mock=0 pbc="T T T"
Cs      -0.45516502      -0.10774220       0.13591148       0.27791723       0.29963533       0.05644600
Cs       6.39286667       0.47034635      -1.51591771      -0.67108955       0.33125862       1.29865829
Cs       0.19056665       5.77248694       0.36222849      -0.08799395       0.01274393      -0.14844881
Cs       5.70360876       6.49875204       0.16516917       0.35899953      -0.35584068       0.13912136
Cs       0.34188532       0.47080881       5.96487132      -0.22926655      -0.20212033      -0.01844612
Cs       5.60065379      -0.09716714       5.91085091       0.11756421      -0.06270895      -0.23132241
Cs       0.15679040       5.71324531       5.50780854      -0.07569148       0.10959636       0.13430697
Cs       5.98006910       5.63116349       5.66082557      -0.47630740       0.02999243       0.40539381
Sn       2.76819289       2.79429978       2.94709009       0.44297382      -0.21480024      -0.27577010
Sn       8.65277696       2.93431785       3.06570698      -0.29234497      -0.18153685       0.09491433
Sn       2.87986119       8.70756414       2.91304990       0.15925567       0.44329367       0.19073960
Sn       8.75397652       8.81254721       2.98402665       0.14573810       0.17524459       0.36401113
Sn       3.00012643       3.20333572       8.71884753      -0.68098367      -1.13099948       0.20901577
Sn       8.86639340       3.09139540       8.85952407      -0.18880202      -1.29513151      -0.51404168
Sn       2.86743610       9.05866767       8.88267966      -0.07296765      -1.00608784      -0.01500959
Sn       8.91116231       8.74325296       8.95372868      -0.07160060       0.03489013      -0.19730851
Br      -0.23546659       2.73171358       3.30611153       0.36810201       0.16600379      -0.35815621
Br       5.67679971       2.65157400       3.44466399       0.26672316       0.16599813      -0.31255256
Br       0.08853810       8.94239170       3.31363008       0.17132546      -0.13272163      -0.08044673
Br       6.08683465       8.69915326       3.37054672      -0.88667886       0.25387998      -0.37009436
Br      -0.27790161       3.27830889       8.41748914       0.75647486      -0.28743545       0.05031417
Br       5.68191633       2.94574273       8.39916643       0.34236321       0.51136902      -0.24023745
Br       0.05734254       8.79558055       9.52896284       0.57894738      -0.02097557      -0.65044616
Br       6.11431670       9.17715311       9.81364298      -0.16676021      -0.73998869      -0.43006328
Br       3.25207610      -0.05635495       2.74890932      -0.28044796       0.08126923       0.06086007
Br       8.77066440       0.09201612       3.56480909       0.02426350       0.04879260      -0.12648696
Br       3.16201435       5.88067635       2.85032928      -0.17577090      -0.28245599       0.09542187
Br       8.36475872       6.07692443       3.57232003       0.76966564      -0.79597549      -1.20772120
Br       2.60663881      -0.14702064       8.72060726       0.08215806       0.74588294       0.08191509
Br       8.93322057      -0.30765676       8.64874224       0.80639488      -0.06112566      -0.49773806
Br       3.00156780       5.69470451       8.23715657       0.03842514       1.35571879       0.06461902
Br       9.08627496       5.54414974       9.30276391      -0.23570460       1.80753360       0.26713042
Br       2.58566198       2.89866964      -0.16921527       0.05846534       0.11381862       0.35852697
Br       8.80508812       2.77612225      -0.17964202       0.12560070      -0.13867888       0.52516222
Br       2.88640703       8.25352841      -0.09104636      -0.22266139       0.25998661       0.24512255
Br       9.47628765       8.90874943      -0.08919798      -0.66776974      -0.31535866       0.41123124
Br       3.15484567       3.01135254       5.82305684      -0.44957101      -0.22717213      -0.26258985
Br       8.97960962       3.25715762       5.78519989      -0.19799346      -0.03153947       0.07875366
Br       3.15325207       8.77832683       5.88523204      -0.08822561       0.04576409      -0.05191931
Br       8.61065793       8.44663110       5.74915044       0.32727392       0.48998181       0.85713586
40
Lattice="11.789424384493788 4.994228680623598e-17 7.707693397294342e-17 3.86384251277039e-17 11.789424384493786 1.074067569937025e-14 -3.701747836649174e-16 1.034220411604992e-14 11.7894243844938" Properties=species:S:1:pos:R:3:REF_forces:R:3 system=cssnbr3_cubic base_model=mace_mp0 config_id=cssnbr3_cubic_c22 T=300.0 draw=9 energy_qe_eV=-39975.44232803468 offset_eV=-39850.83154096018 split=train REF_energy=-124.6107870745036 mock=0 pbc="T T T"
Cs      -0.14715479       0.12272854      -0.39140237      -0.07333120      -0.17837594       0.39989216
Cs       5.48989924       0.31269940       0.12310100       2.69835117      -2.66584240       0.24702619
Cs       0.20350595       6.07113289       0.13181297      -0.37003779      -0.08174977       0.07627306
Cs       5.58858256       5.48720648      -0.02724844       0.50467361       0.17353789      -0.28418480
Cs       0.54212571       0.21575616       6.27285861      -0.47116802      -0.03498911      -0.50457180
Cs       6.03015044       0.19804152       5.48207057      -0.05772178      -0.13514155       0.17360834
Cs      -0.79969085       6.02731641       6.14703823       0.41996785       0.02577762      -0.31006450
Cs       5.77203714       5.75846725       5.76270332      -0.03171250       0.07498777       0.09584893
Sn       2.94131571       3.10083779       3.08352343      -0.32733923      -0.83539230       0.18450493
Sn       8.82266840       3.06467293       3.14294356       1.51907614      -0.05260528      -0.42264539
Sn       3.18724410       8.75956069       2.79764277       0.20304413       0.56532979      -0.83155441
Sn       9.04315430       8.91073553       3.03765456       0.37570219       0.14858714      -0.08475924
Sn       3.04819844       2.89716838       9.11716735      -0.43274572      -0.18382462      -0.98649500
Sn       8.88582611       3.09604406       8.89302226      -0.03564886      -0.15835039       1.26392577
Sn       2.53022541       8.69598020       8.77577653       0.57887616      -0.06303882      -0.52396203
Sn       8.43922617       9.09061677       8.94618608       0.14587565      -0.08283657       0.13925480
Br       0.15387438       3.33923093       2.75564100       0.53138917      -0.05248393       0.07482656
Br       6.33079627       2.99524838       2.77351652      -1.82867141       0.03269800       0.06897113
Br       0.48324698       8.93622784       2.65538680      -0.18037163      -0.07838471      -0.10204348
Br       6.51129701       8.15639393       3.21922788      -1.18734701       0.39112855       0.02882644
Br      -0.09400047       2.65284165       9.12805424       0.11075901       0.43389706      -0.25306314
Br       5.73539944       2.41928642       8.96655616       0.41178865       0.24735555      -0.21797993
Br      -0.07785169       9.47623938       8.74336401      -0.44639596      -0.41851080       0.14869744
Br       5.67953760       9.07243388       9.22560875       0.15377202      -0.07219426      -0.22648334
Br       3.10040537      -0.00283851       3.11781765       0.09784127      -0.14183182      -0.03868456
Br       8.71914102      -0.08738927       3.08693333      -0.01891072       0.77619059       0.01427836
Br       3.48569706       5.71882738       2.56351578      -0.23772780       0.41865658       0.13696575
Br       9.08090006       6.12089586       2.97216099       0.44867241      -1.25004773       0.00933362
Br       2.77762470      -0.24829637       8.60741960       0.50879663       0.29400179       0.42190723
Br       8.95994520       0.23475162       8.91326687      -0.19864317       0.02797515      -0.09977551
Br       2.65628862       5.60093520       8.05273680       0.03567226       0.28954992       0.40245915
Br       8.95863915       6.21130810       8.76162686      -0.26169254      -0.14166598       0.39983662
Br       3.54229937       2.20618035      -0.07633907      -2.68234554       2.53612819       0.61921292
Br       8.83562376       2.98987459       0.20086408       0.09567666       0.05176633       0.30516501
Br       2.92439114       8.20835427      -0.39413153      -0.10647092       0.03048891       0.16997537
Br       8.56263946       8.94193086       0.19995655       0.15748058       0.03738333      -0.36922018
Br       3.02139968       2.74271801       5.97016783       0.12673945       0.05288168      -0.36293589
Br       8.47012579       3.17587756       6.31163256      -0.03051514      -0.01050090      -1.23463140
Br       3.03531650       8.38040226       5.30581939      -0.04701031      -0.09769781       1.29036160
Br       8.92351283       8.95039249       6.01783401      -0.09834804       0.12714285       0.18190323
40
Lattice="11.789424384493788 4.994228680623598e-17 7.707693397294342e-17 3.86384251277039e-17 11.789424384493786 1.074067569937025e-14 -3.701747836649174e-16 1.034220411604992e-14 11.7894243844938" Properties=species:S:1:pos:R:3:REF_forces:R:3 system=cssnbr3_cubic base_model=mace_mp0 config_id=cssnbr3_cubic_c23 T=300.0 draw=10 energy_qe_eV=-39972.179861343764 offset_eV=-39850.83154096018 split=train REF_energy=-121.34832038358581 mock=0 pbc="T T T"
Cs      -0.17005307      -0.14785436       0.10213806       0.51567665       0.09001098       0.14982204
Cs       5.92773711      -0.08750830      -0.00128072      -0.17170058       0.04424174       0.08909567
Cs       0.51156361       5.68497903       0.41008321      -1.67084347      -0.45487469      -1.81627535
Cs       6.20252936       5.24651282      -0.60943234      -1.16257880       0.59088424       0.98769519
Cs      -0.09325431       0.01979565       4.78536529       0.16336712      -0.03522771       0.29752112
Cs       5.54443945      -0.36933115       6.54278257       0.28401948       0.30772017      -0.44601029
Cs      -0.54480580       6.87629995       6.06122473       3.96885974      -4.06581013      -0.54715209
Cs       6.47852089       5.14437672       6.24569657      -0.01896163       2.61108253      -2.36182873
Sn       2.97972777       3.27235305       2.81070123       0.10887388      -0.10893713       0.03587332
Sn       8.70810344       2.96584348       2.99558900       0.41308680       0.48301001       0.51639733
Sn       3.15323006       9.16855723       2.81517474      -0.10977813      -0.32175068      -0.14790682
Sn       8.85244834       9.12575865       2.94279249       1.21209105      -1.52343107       0.87500117
Sn       2.92884839       3.16558233       8.54955059       0.02503766      -1.12938483       0.07723491
Sn       8.97118909       2.82111024       8.93259558      -0.26552528      -0.14981870      -0.11373712
Sn       2.84829305       8.87292544       8.78696623       0.49445708       0.31834937       0.15325369
Sn       8.93911469       8.82547526       8.97811530      -0.21808328       0.02423342       0.25573760
Br       0.24146925       2.93554424       2.95476697      -0.26759785       0.02871254      -0.34361251
Br       6.10179712       3.35759766       3.33473013      -0.82909901      -0.34772910      -0.23018110
Br       0.28320746       8.77608194       2.23214237      -0.27877777       0.74896081       0.51579440
Br       6.30339680       9.00774434       2.79293507      -1.97032428      -0.49115244       0.38103929
Br      -0.14295647       3.02797484       8.84801202       0.29852307       0.06336869       0.00379623
Br       5.91292228       3.48254957       8.38262106      -1.27017741      -2.39410096       2.20196628
Br       0.19712014       8.15662623       9.07458751      -0.69270533       0.25531054       0.29120366
Br       5.93622710       9.08543482       9.11099425       0.44337029      -0.14992951      -0.07025642
Br       3.36330100       0.28955473       2.93730684      -0.11546207      -0.01855694      -0.07008673
Br       8.31590946      -0.17269815       3.21658038       0.15516582       1.67633921       0.20895561
Br       2.40209471       6.28527560       2.43217813       2.01208671      -0.25619989       1.90491156
Br       8.54138098       5.77950548       2.96977129       0.46720287       0.10613488       0.16036356
Br       2.79914765      -0.06706990       8.52422950      -0.25756360      -0.30700592       0.29402236
Br       9.12195356      -0.04085659       9.77788640      -0.33653426      -0.29377013      -0.68801692
Br       2.96940979       5.73464241       8.73234194       0.01480415       1.03596148       0.03173615
Br       8.44619666       5.64292925       9.07908337       1.12281695       0.95405848      -0.56486982
Br       2.97452101       2.66282986      -0.20439455       0.06414054       0.16654706       0.21958352
Br       8.50661385       3.18384414       0.33852531       0.37410065      -0.56017396      -0.66465254
Br       2.92610782       8.88716673      -0.07023242       0.25108905       0.20691158      -0.71592959
Br       8.54857588       9.20899564       0.41298911       0.36722989      -0.18027444      -1.87655847
Br       2.52035813       2.73373230       5.74050359       0.19268747       0.18254293      -0.02677881
Br       8.37428455       2.63373271       6.13006713       0.91517826      -0.72378277       0.13241181
Br       3.08577530       9.07280009       5.65170922      -0.28400534      -0.19551723       0.26157427
Br       9.37162988       8.67088060       6.07957297      -3.94414733       3.81304755       0.63886257
40
Lattice="11.789424384493788 4.994228680623598e-17 7.707693397294342e-17 3.86384251277039e-17 11.789424384493786 1.074067569937025e-14 -3.701747836649174e-16 1.034220411604992e-14 11.7894243844938" Properties=species:S:1:pos:R:3:REF_forces:R:3 system=cssnbr3_cubic base_model=mace_mp0 config_id=cssnbr3_cubic_c24 T=300.0 draw=11 energy_qe_eV=-39974.13889512833 offset_eV=-39850.83154096018 split=train REF_energy=-123.3073541681515 mock=0 pbc="T T T"
Cs      -0.42057087      -0.58392606      -0.65304539       0.29215677       0.38934678       0.03169476
Cs       6.25807500      -0.74451912       0.16137790      -0.35285640       0.27957842       0.03598182
Cs       0.03433756       6.06895473       0.42792952      -0.12157024      -1.54784704      -1.35584914
Cs       5.93366110       6.11082542      -0.75554840      -1.31806087      -0.25390904       1.34560895
Cs      -0.13578549       0.68556932       5.21443114      -0.44659599      -1.00324445       0.60276583
Cs       6.17567067       0.38828006       6.06865679      -0.17795222      -0.61995802       0.09764484
Cs       0.13199988       5.19834460       5.83678267      -0.84410397       1.54911125       0.40926434
Cs       6.11469671       5.88455699       5.57288130      -0.11254773       0.02081334       0.28921800
Sn       3.22745338       2.74091543       2.95747073      -0.38794373       1.28354098      -0.17044948
Sn       8.84533112       3.00410221       3.07068328       0.02458206      -0.22238834      -0.38820727
Sn       2.97241531       8.62820891       3.04326731       0.50418973       2.44040396      -0.24122141
Sn       8.97269429       8.69018093       3.01093884      -0.20104844       1.07306662       0.09318603
Sn       2.53769852       3.13881012       8.96585830       0.34944249      -0.22309411      -0.01267245
Sn       8.21846102       3.07868858       9.04421239       1.56395912      -0.02957746       0.14630657
Sn       3.03980884       8.97880573       8.87500759       0.41344316      -0.09216788      -0.26824962
Sn       8.86876456       8.95043159       8.75473697       2.33311208      -0.03713676       0.75400788
Br      -0.08625010       3.19717805       3.25128960      -0.20294000       0.35476698      -0.99979660
Br       5.92347133       2.55004686       3.55201877      -0.16105364       0.08092367      -0.39277766
Br       0.38755869       8.28502618       2.28422183      -0.65825949       1.37382938       1.16892480
Br       6.11799931       8.75945343       3.32679258       0.61847938       0.28201274      -0.30399875
Br      -0.12581525       3.09586419       9.22436581      -0.42505400      -0.00940998       0.05471899
Br       5.76039353       2.99214659       8.43575939      -1.28441130       0.16923310      -0.07476125
Br       0.41992714       8.80451384       8.58128231      -0.26920581       0.02463374       0.08155591
Br       6.45920392       8.97975441       8.58471348      -3.07507409       0.03472763      -0.30326727
Br       2.48663694       0.31631804       3.04188511       0.05676970      -1.13839886      -0.17818233
Br       9.07356990       0.16112469       2.66776482       0.00502831       0.16769738       0.11357848
Br       3.33326654       6.25139551       3.30899064       0.11719448      -3.11165189      -0.50383646
Br       8.84914599       6.11024590       3.41415650       0.17025279      -0.82772064      -0.11376592
Br       2.99035103       0.03314897       9.13668643      -0.04601580      -0.09470401       0.01463883
Br       8.18023495       0.05001311       8.90104435       0.44852329       0.59123366       0.28497336
Br       2.81070249       5.93120423       9.17158704      -0.07541200      -0.15796241      -0.25228975
Br       8.15380860       6.15520031       9.14895449       1.68760167      -0.65109871      -1.28508055
Br       2.99729567       3.04810843       0.00511131       0.08303403      -0.02197522       0.37846536
Br       8.16523433       3.08478929       0.06912791      -0.10928294       0.02597714       0.02089716
Br       3.44156124       8.36091549      -0.10494798      -0.13413317       0.46214397       0.22081148
Br       8.94131035       8.95544343       0.12770114      -0.08115661      -0.50835903       0.33800571
Br       2.07869851       2.93948224       5.93577043       1.55674923      -0.69315270       0.24128646
Br       8.45422293       3.14816624       5.87309533       0.56574220      -0.07543051       0.18596326
Br       3.57341361       8.27753892       5.75550639      -0.37571325       0.69814604       1.06603902
Br       9.36042205       9.27860660       6.19933327       0.07013147       0.01800106      -1.13113292
40
Lattice="11.789424384493788 4.994228680623598e-17 7.707693397294342e-17 3.86384251277039e-17 11.789424384493786 1.074067569937025e-14 -3.701747836649174e-16 1.034220411604992e-14 11.7894243844938" Properties=species:S:1:pos:R:3:REF_forces:R:3 system=cssnbr3_cubic base_model=mace_mp0 config_id=cssnbr3_cubic_c25 T=300.0 draw=12 energy_qe_eV=-39975.06681855652 offset_eV=-39850.83154096018 split=train REF_energy=-124.23527759634453 mock=0 pbc="T T T"
Cs       0.14563870       0.03122785       0.54488793      -0.31104949      -0.21869084      -0.38385953
Cs       5.58402644       0.17921724       0.14519889       0.36023289      -0.04380183      -0.27218701
Cs       0.14312358       5.74980827       0.47861146      -0.42331362       1.02276273      -1.18980241
Cs       5.30495323       6.05944779       0.08828441       0.29543827       0.01409042      -0.08185081
Cs      -0.15814635       0.59729110       6.17505141       1.46398383      -1.51653280      -0.03394010
Cs       5.94496653      -0.26708532       5.66254941       0.07475328       0.12876059       0.13856652
Cs       0.22752705       5.80300996       5.58253074      -0.32569012       0.29421931       0.19145128
Cs       5.93506257       6.18230026       6.84678345       0.00141668      -1.44031759      -1.26796755
Sn       3.10640737       3.02083551       2.53924289      -1.24898767      -0.03457542       1.14697478
Sn       9.10619604       2.83942771       2.82374237      -2.65548162      -0.22608893       0.29380999
Sn       2.87922997       9.05530608       3.25972471      -0.36709722      -0.87059121      -0.26407955
Sn       8.60685180       8.89080804       3.18223224       0.72108311      -0.21067285      -0.48673194
Sn       3.06406719       2.88156828       8.57846767      -0.17065440       0.31196943      -0.23410203
Sn       9.00428646       2.68924638       8.72641364       0.00277088       0.24767077       0.21289017
Sn       3.01176005       8.84859059       9.03319609      -0.30050874       0.02218631      -0.03747357
Sn       8.98671960       8.72614535       9.09110086       0.32738037      -0.14933147      -1.06841086
Br      -0.40087470       3.18831084       2.04287583       2.71263571      -0.67678223       0.31326784
Br       5.60269266       2.67162231       2.94960059       1.07475095       0.06246469      -0.04668018
Br      -0.31202503       9.27742594       4.00404324       0.14001328      -0.20088286      -0.35870052
Br       5.71369851       8.69103053       3.10708312      -0.24533389       0.04374501      -0.09997915
Br       0.14841888       2.94647961       8.48905776       0.03534161       0.08530072       0.40777079
Br       5.99527223       2.65429448       8.73353445       0.02142757       0.13015464      -0.06760536
Br       0.15246658       9.12392204       8.53389802       0.01155505      -0.12455066       0.26587572
Br       6.01531507       8.39071295       8.78670790      -0.02781265       1.26506040       1.24908305
Br       2.99589705      -0.22034737       2.44547942       0.03798368       0.90205020       0.41157859
Br       8.82381510      -0.14145505       2.88315021      -0.24498808      -0.26364040       0.06595857
Br       2.71564755       5.80809542       2.40141152       0.45506495       0.14489349       0.59874925
Br       8.84276876       5.53875332       2.40148553      -0.23969006       0.67430471       0.10560318
Br       3.11031531      -0.12875188       8.99883350       0.08197371       0.19280188      -0.00807506
Br       9.09271619      -0.15074940       8.72482322      -0.12845411      -0.01052815      -0.15861264
Br       2.81577244       5.79131418       8.58039797       0.07532072       0.11192861       0.42561939
Br       9.49956918       5.73339317       8.52604927      -0.25627471       0.05630227       0.13446304
Br       2.73123047       3.14137032      -0.09568181       0.20406794      -0.16546386      -0.90634369
Br       8.87252837       2.28226131      -0.08915764      -0.28552872       0.03097665      -0.30909339
Br       3.27019421       9.04689301       0.09775695      -0.19095686      -0.28085471      -0.41551778
Br       8.82357648       9.27489278      -0.18449618       0.01671911      -0.05732454       0.94465056
Br       2.81470737       3.69005532       5.78113290       0.36654675      -0.61656211      -0.11669569
Br       9.28877650       2.31115285       5.73503149      -1.36273584       1.20137803       0.00211885
Br       2.88941324       9.37260023       5.92017159       0.26349437       0.08316027       0.36995398
Br       8.24065155       8.64859191       5.77228929       0.04060286       0.08101109       0.52932406
40
Lattice="11.789424384493788 4.994228680623598e-17 7.707693397294342e-17 3.86384251277039e-17 11.789424384493786 1.074067569937025e-14 -3.701747836649174e-16 1.034220411604992e-14 11.7894243844938" Properties=species:S:1:pos:R:3:REF_forces:R:3 system=cssnbr3_cubic base_model=mace_mp0 config_id=cssnbr3_cubic_c26 T=600.0 draw=0 energy_qe_eV=-39963.93712663281 offset_eV=-39850.83154096018 split=train REF_energy=-113.1055856726307 mock=0 pbc="T T T"
Cs       0.12977578      -1.11000620       0.77070622       0.17104238       1.42494780      -2.51014359
Cs       6.74320815       0.75909545      -0.25161786      -0.66811684      -0.47164214       0.24309369
Cs      -0.19688931       5.62406775       0.64149185       0.43274366       0.06519006      -0.49165946
Cs       6.36723857       6.16570690       0.23340783      -0.47508407      -0.25486137      -0.07410048
Cs      -0.56605196       0.96097461       5.84582873       2.16782383      -5.52596250       0.66284788
Cs       5.17750977      -0.82787354       6.21082404       2.05626186       1.61548454      -0.13360018
Cs       0.34986790       5.55694052       5.84256512       1.44690887       2.01017176       0.37889319
Cs       5.29133648       5.99671757       5.74492523      -0.00368182      -0.01407473       0.05842549
Sn       2.98284062       3.15316164       3.12636613       4.28043939      -0.29168497      -0.55088405
Sn       9.05413427       2.87305377       2.80142066       2.87233258      -0.02792938      -0.59007563
Sn       2.57367497       9.24751830       2.73832335       0.79772075      -0.60974380       2.11970409
Sn       8.30463401       8.83117278       3.03518943       1.43660595      -0.27167793      -3.18058779
Sn       2.74040436       3.13148565       9.20408246      -0.19080388      -0.62176628      -0.60206880
Sn       8.58917114       3.03294904       8.65012743      -1.05729496     -12.01939383      -3.05887100
Sn       3.12121353       9.04610106       8.69053894       0.86956252      -3.72259511       1.13864774
Sn       8.84163315       8.93623391       8.82367752       2.27809793      -6.49582426       1.51192590
Br       0.66675657       3.33773595       3.16935441      -3.99199504       0.03897844      -0.31988380
Br       6.74364986       3.13041017       3.35039945      -2.86676228      -0.16041241       0.64762669
Br      -0.07618712       8.64459053       2.87016859      -0.50118771      -1.32345196       1.14264247
Br       5.77014119       9.05849454       2.89599367      -1.20290038       0.06286013       0.15966473
Br      -0.19458837       3.29896991       8.87392688       1.04743040      -0.21257675      -0.15507069
Br       5.68423522       2.42505969       8.58634984      -0.02627796       0.22044407       0.17473063
Br       0.52924220       8.88622305       9.24764574      -1.09089850      -0.88444355       0.20694269
Br       6.32079670       8.08766201       8.86281454      -1.18791677      -1.01184582      -1.80671676
Br       2.74098189       0.27338611       2.94664981      -0.02751260      -0.26741838       0.02047009
Br       9.70566297      -0.07519478       2.50953560      -1.39105860       0.55352586       0.92532974
Br       2.93341347       6.01365156       2.77834741       0.24620884       0.47416310       0.09202930
Br       8.90162175       5.81660651       2.61769755      -0.07873952       0.14682130       0.22909095
Br       2.47411795      -0.50960614       8.59311637      -0.49089378       5.38891601       0.62559234
Br       8.19679565      -0.79732681       8.34548668      -1.72303095       7.00287100      -1.50888377
Br       3.02833050       5.72249110       8.57638539       0.04356631       0.20236227       0.14326238
Br       8.86650973       5.03378096       9.10054883       0.75914700      12.81608588       2.32425052
Br       2.77893091       2.86594476       0.12492919       0.11296733       0.15116878      -0.16548700
Br       9.36642868       2.59217261      -0.53290053       0.04777007      -0.17281644       1.10592891
Br       2.97316173       9.16572096       0.28086715       0.67729234      -0.31488069      -1.67131116
Br       7.58683105       9.14546974      -0.52164618       1.12945399       0.78574250       1.74401450
Br       3.10010136       2.87016072       5.81192205      -0.00586006       0.03425944       0.70032839
Br      10.35144284       3.36246087       5.61997478      -4.17333829       3.52714396      -0.75418092
Br       2.77007561       9.46816458       6.11423606      -1.96082689      -2.07856104      -1.70642600
Br       8.55762780       9.20579415       5.37589124       0.24080464       0.23242593       2.92450926
40
Lattice="11.789424384493788 4.994228680623598e-17 7.707693397294342e-17 3.86384251277039e-17 11.789424384493786 1.074067569937025e-14 -3.701747836649174e-16 1.034220411604992e-14 11.7894243844938" Properties=species:S:1:pos:R:3:REF_forces:R:3 system=cssnbr3_cubic base_model=mace_mp0 config_id=cssnbr3_cubic_c27 T=600.0 draw=1 energy_qe_eV=-39964.26556395436 offset_eV=-39850.83154096018 split=train REF_energy=-113.43402299418085 mock=0 pbc="T T T"
Cs       0.20341213      -0.25622167      -0.07012401      -0.18418560       0.19738385       0.18755658
Cs       5.80634202       0.68108193      -0.31508835      -1.09820969      -1.22098475      -0.34615893
Cs       0.13211607       5.74302669       0.93353621       0.38637484       0.30363289      -0.40813769
Cs       6.04981643       6.50495957       0.11789278      -1.05926622      -1.00919296      -0.19108439
Cs       0.45381980       0.21863765       5.76976491      -0.15595309      -0.23180783      -0.15339639
Cs       5.76541516       0.68947484       5.52726037      -2.97716880      -3.56474763       0.04836116
Cs       0.55695266       5.46967335       6.24783762      -0.32947607       0.22150825      -0.25154259
Cs       6.21545839       6.30081897       5.72152388       0.01472856      -0.48318253       0.33116220
Sn       3.08371375       2.95124040       2.94342670      -4.08570018      -0.67471018      11.23633325
Sn       8.78296716       2.87443274       2.58767119      -0.16060062      -0.00193707       0.87042255
Sn       2.99113321       8.74178944       3.26270907       0.51931836       0.31784954      -0.44909845
Sn       8.73976307       8.97197682       2.53302903       0.59932852      -1.50106196       0.90164937
Sn       2.97241349       3.29855045       8.87578938      -2.18935631       0.19240336       9.10052917
Sn       8.76326129       2.72332731       8.59566438      -0.72080826       0.58152234      -0.14826806
Sn       3.11078537       9.34042764       9.09234255      -0.19550514     -11.05933671       2.33668155
Sn       8.84357221       8.92622135       8.45498523       0.06436602      -0.06196590      -0.00910530
Br      -0.16527469       2.88701193       2.92444435       0.09577951      -0.00884022       0.04634619
Br       5.68230281       2.23722774       2.74168524       2.70002573      -0.45770573       1.65355203
Br       0.37913336       8.94289798       3.17975531      -0.86907555      -0.26616317      -0.06534459
Br       6.16562990       8.58304500       3.42084820      -0.26143543       0.27990315      -0.57338454
Br      -0.40774993       2.85405575       9.17845194       0.60931854      -0.01514920      -0.16812058
Br       5.59667025       2.98499459       8.77660181       1.86462495       0.08789933       1.17225206
Br      -0.31782581       9.03824307       9.51638932      -0.32093384      -0.29608670      -0.47320511
Br       5.37425051       8.76891536       8.07120535       2.64700444       0.00444878       0.18356005
Br       2.43056858       0.05715554       2.61914532       0.27161211      -0.04940478       0.18174948
Br       8.73147732      -0.31995183       2.62659895      -0.00499822       1.48297579      -0.19340429
Br       3.04262954       5.89744906       3.09661108       0.00764029       0.01196026       0.41042083
Br       8.77868823       5.53369357       1.88757325      -0.20084609      -0.01140644       0.30413785
Br       2.83313015      -0.39418126       8.71507792      -1.20404170      11.22236111      -1.57368406
Br       8.64926573       0.09553522       9.31126390       0.03966235      -0.93997783      -0.44213616
Br       3.17890086       5.63403758       8.30728221       0.26705354       2.83931190      -0.30299448
Br       8.74332346       5.82974143       8.39780324       0.10731399       0.41444692      -0.10154855
Br       3.75213842       2.99684336       0.97153326       1.05936701       1.59218211     -13.31306007
Br       8.41349518       1.99616540       0.14896100       1.37601533       1.08328315      -0.57917081
Br       3.08947266       8.24365283       0.31832641      -0.16102253       0.36446030       0.51855937
Br       8.18008430       8.61305268      -0.04848396       0.60718298       1.04230388      -1.36934460
Br       3.38198316       2.62317723       6.86593178      -0.06311287      -2.84467111      -9.52658179
Br       7.78514459       2.37186373       5.74097503       3.76475066       2.87902465       0.72724604
Br       2.78688562       8.89196507       6.37541940      -1.06178693      -0.19692748      -1.13782139
Br       8.94815416       9.58346812       5.36891145       0.30201592      -0.22360190       1.56607333
40
Lattice="11.789424384493788 4.994228680623598e-17 7.707693397294342e-17 3.86384251277039e-17 11.789424384493786 1.074067569937025e-14 -3.701747836649174e-16 1.034220411604992e-14 11.7894243844938" Properties=species:S:1:pos:R:3:REF_forces:R:3 system=cssnbr3_cubic base_model=mace_mp0 config_id=cssnbr3_cubic_c28 T=600.0 draw=2 energy_qe_eV=-39962.564963077035 offset_eV=-39850.83154096018 split=train REF_energy=-111.73342211685667 mock=0 pbc="T T T"
Cs       0.25030422      -0.47380231      -0.27778382      -0.49797486       0.83549848       0.43309461
Cs       6.18622820       0.87897423      -1.18788923       0.53546540      -2.34240405       2.29696237
Cs      -0.29260673       5.22727263      -0.68493303       1.36032466      -0.06022989       1.27509028
Cs       5.95611023       5.11499535      -0.87653591       1.03273218       0.99869026       1.16308608
Cs      -0.66940265      -0.13248321       5.67038448       0.17324247       0.15032109       0.33711379
Cs       5.15649768      -0.05322382       5.43503530       1.78112606      -0.00939584       1.63037097
Cs      -0.62282401       6.02216783       5.79642140       0.16530188      -0.13046549      -0.00448658
Cs       5.26537555       5.92639148       5.58392752       0.82194466       0.73990513       0.44990397
Sn       3.04987570       3.53412690       3.85266065      -3.27381625      -1.86663349      -6.83936015
Sn       9.15591491       2.95602875       3.00954537      -0.62882781      -0.11618764      -0.27463778
Sn       2.78266853       9.27875680       3.08785004      -1.25820738      -5.47099668      -0.52777369
Sn       8.27045161       8.69686277       3.30266770       0.65515719       0.28010472      -0.98381437
Sn       3.50839978       3.04196179       9.52101586      -0.89809893       0.16908911     -14.52606129
Sn       9.32450137       2.83805076       8.80219349      -0.02331399       0.73261888      -0.24256224
Sn       2.95299601       8.86460286       9.08660064       0.71234624       0.02154276      -1.31648889
Sn       8.85488807       8.71232515       9.17984414       2.57243011       0.61665827       0.39857138
Br       0.22856053       3.43583193       3.24655858      -0.87301139      -0.03207863      -0.03393625
Br       6.08513340       3.25509844       2.50453552      -0.29386269      -0.50123630      -0.15153182
Br      -0.14822137       9.02042034       3.93942016      -0.69576880      -0.09132173      -1.84803825
Br       5.59177323       8.86346533       4.01246892      -0.09428467      -0.21249139      -0.25019765
Br       0.21634896       3.22003776       8.21094598      -0.09738722      -0.02121674       0.18928539
Br       5.75611895       2.84889590       8.61986824       3.67315408       0.84876383      -2.54532117
Br       0.45278226       8.59631336       9.83852358      -2.67101829      -1.01703559      -2.43594772
Br       6.46697687       8.52456401       8.92100213      -2.79184805      -0.05687486      -0.30645364
Br       3.13842282      -0.27316015       3.37834295      -0.79913717       5.13766473      -0.82404345
Br       8.37828223       0.01157316       3.26464520       0.06407678      -0.02763319      -0.02202870
Br       3.24031597       5.75755434       2.94040369       0.12227344       2.84429701      -0.80847542
Br       8.20727991       5.79147341       2.82239692       0.44895678       0.30483333       0.23950314
Br       2.84426685       0.75460700       8.54226610      -0.19223521      -2.03085294       0.02976978
Br       9.28557983       0.27914015       9.38601235       0.10611740      -1.34491347      -0.76300186
Br       3.68506680       6.10480659       8.82176396      -0.67322896       0.60343714      -0.14255122
Br       9.28785541       6.00719660       9.32535122      -1.27164628       0.09022130      -1.06715976
Br       2.99066214       3.32972961      -0.32227797      -3.41562030       1.30290421      15.07827280
Br       9.58276643       2.40916046      -0.04129157      -0.05599966       0.49054823       0.85129894
Br       2.47734158       9.00407512      -0.16419601       2.72750131       0.17290720       3.03379811
Br       8.60273181       8.79078456       0.18244015       0.09989430       0.08988217      -0.30714578
Br       4.09629364       2.97163502       5.70465800       2.98404084      -1.33302726       6.72977202
Br       9.14525467       2.57386075       6.00014395      -0.44289515       0.34399406      -0.25977372
Br       2.15272183       8.66443791       5.78436199       1.26249238      -0.10362189       1.15901062
Br       8.93497476       8.59353223       5.84060705      -0.35039534      -0.00526408       1.18588765
40
Lattice="11.789424384493788 4.994228680623598e-17 7.707693397294342e-17 3.86384251277039e-17 11.789424384493786 1.074067569937025e-14 -3.701747836649174e-16 1.034220411604992e-14 11.7894243844938" Properties=species:S:1:pos:R:3:REF_forces:R:3 system=cssnbr3_cubic base_model=mace_mp0 config_id=cssnbr3_cubic_c29 T=600.0 draw=3 energy_qe_eV=-39971.67537412385 offset_eV=-39850.83154096018 split=train REF_energy=-120.84383316367166 mock=0 pbc="T T T"
Cs      -0.00426728      -0.61564319      -0.74008579       0.24767334       0.33995897       1.66168649
Cs       5.36441480      -0.44441853      -0.12613268       0.22150388       0.51953176       0.43831652
Cs      -0.09687956       5.44585179       0.35838076       0.01442775       0.25446259      -0.32682244
Cs       5.63593764       6.08087904      -0.10832555       0.27867519      -0.09640788       0.01198134
Cs      -1.55233007      -0.03618991       6.24227948       2.23232921      -0.51018271      -0.49827336
Cs       6.42402627       0.14404726       5.84048567      -0.39121520      -0.06385566      -0.37560963
Cs       0.71800691       4.94905658       5.86902538      -0.23242387       0.06929457      -0.03737638
Cs       5.72377447       5.24432041       5.57496939       0.78629965       1.04023697       0.05712477
Sn       2.96098549       3.15855241       2.84200895       0.48432667       0.44024459       0.21434747
Sn       8.85961208       2.95070694       3.32324714       0.01782572       0.39933834      -1.68650792
Sn       2.96328414       9.18297111       3.22839731       0.42069495       0.21810951      -2.11168174
Sn       9.13727616       8.87614717       3.09005775      -3.22218670      -0.97803222       0.87782090
Sn       3.40887011       2.99302016       8.94844873       0.20248337      -0.27940384      -2.48175347
Sn       9.05799357       2.94058726       9.27259233       0.09357324       1.16101917       0.58196406
Sn       2.86016772       8.97425084       8.71593251       0.81475251      -0.11014606       0.09741447
Sn       8.95540598       8.91067357       9.05147479      -4.73471732      -1.19783274       0.30672567
Br       0.01906828       3.22647433       2.79069431       0.51513209      -0.38490288       0.33291852
Br       6.12500552       2.98544360       2.78412824      -0.61445972       0.19560130       0.19441551
Br      -0.33566683       9.42664388       3.11258279       3.36732727       0.47145007       0.11587679
Br       5.70529475       8.89453464       3.29617119       0.08059509       0.34981273      -0.14574941
Br       0.04036168       1.94144464       9.24353181       0.39842457       0.85689726      -0.54879014
Br       6.18044394       3.34035893       9.02651937      -0.66869508      -0.14801327      -0.05217334
Br      -0.55935948       9.29783014       8.70796687       4.24940386      -0.30557792      -1.38482933
Br       5.62631524       8.99833864       9.44735559      -0.03110983      -0.41273765      -0.88406482
Br       3.43010124       0.62972209       3.07416293      -0.18119644      -1.12342501      -0.31286726
Br       8.98804664       0.27332384       2.89103866      -0.12252489      -0.41806137       0.14813411
Br       3.26004927       6.44846885       2.57438578      -0.44378963      -0.39175153       0.10662596
Br       9.09591724       5.87289285       2.63985266       0.00450226       0.70574365       0.17372327
Br       3.96278657       0.27983962       8.06752788      -0.52658712      -0.13502534       0.72577666
Br       8.65217003       0.40848727       8.97425738      -0.84576387      -1.50879893       0.53162572
Br       2.80301006       6.11126065       8.33772930       0.07867473       0.21384585       0.28347261
Br       8.26862714       5.86922413       8.55277822       0.58951230       0.93075066       0.09003463
Br       3.00471713       3.03098380      -0.41175200      -0.20631226      -0.05489357       2.36860256
Br       8.32254050       2.98355250       0.29841786       0.52487863       0.02391512      -0.96948767
Br       2.93933644       8.61681406      -0.37976363      -0.76392694       0.11274622       0.39516570
Br       8.90425930       9.39583289       0.57663135      -0.18786537      -0.06465090      -1.50218759
Br       3.75757195       2.87262173       5.66061814      -1.04087743      -0.17853535      -0.13765789
Br       8.91793444       2.57428533       5.89658369      -0.58166735       1.60846003       1.41859537
Br       2.95635637       8.62851614       5.61135760      -0.21746442      -0.42502238       2.03962297
Br       8.54787285       9.23090923       6.28014034      -0.61023257      -1.12416241       0.28386033
40
Lattice="11.789424384493788 4.994228680623598e-17 7.707693397294342e-17 3.86384251277039e-17 11.789424384493786 1.074067569937025e-14 -3.701747836649174e-16 1.034220411604992e-14 11.7894243844938" Properties=species:S:1:pos:R:3:REF_forces:R:3 system=cssnbr3_cubic base_model=mace_mp0 config_id=cssnbr3_cubic_c30 T=600.0 draw=4 energy_qe_eV=-39969.87545781798 offset_eV=-39850.83154096018 split=train REF_energy=-119.04391685780138 mock=0 pbc="T T T"
Cs       0.39099542      -0.82212733      -0.05215202      -0.29446279       2.60243848       2.99464099
Cs       5.75553011      -0.12792836      -0.34368122       0.02713362       2.74176785       3.10661510
Cs       0.22302300       6.19366864      -0.14341746      -0.49709400      -0.56870051      -0.03286101
Cs       5.36818870       6.27047862       0.19732618       0.18032921      -0.05628351       0.17547753
Cs      -0.05362250      -0.05556829       7.18381817      -0.10317374       0.36318169      -0.72411341
Cs       5.89669088       0.58446654       5.36740431       0.06973655      -0.36471124       0.44643195
Cs      -0.36391474       5.33250484       5.62748673       0.12481189      -0.02195696      -0.13671944
Cs       6.28948752       5.54512776       5.45764232      -2.45376444      -0.15950276       2.23219577
Sn       3.03692769       2.53705877       2.99282324      -0.94712653       3.60370833      -0.27257216
Sn       8.79783062       2.78655386       2.76718060       0.21363245      -0.04746565       0.29952118
Sn       3.13694284       8.82529396       3.37330643       0.10172852      -1.10770118      -0.60667082
Sn       9.03671860       8.80024733       3.03272864      -0.38254775      -0.24352178      -0.09348865
Sn       2.92257842       2.97042971       8.89237198       1.35028759       2.69879443       0.67343362
Sn       8.65873726       3.09764037       8.86952476       0.53154498      -0.10409960      -0.49710351
Sn       3.11145325       8.97898261       8.72303530       0.63459994      -0.10979073       2.56630728
Sn       8.86270718       8.86755090       8.86005854      -0.33337206       1.39803477       0.13596919
Br      -0.06726143       2.49728175       2.57125934      -0.34613065       0.12752466      -0.01086754
Br       5.74228378       2.76640837       2.77790196       0.64844816       0.25741988      -0.07352687
Br       0.20352585       8.18008652       2.97296429      -0.44712204       0.12384798       0.38742539
Br       5.95962746       8.88818637       3.27776130      -1.37561964      -0.08618492      -1.30015082
Br       0.38614147       3.30401785       9.02259777      -1.53813521      -0.00264618       0.15679461
Br       6.13043741       3.38400558       8.23057451      -0.40237893      -0.09967241       0.21755132
Br       0.27791425       9.39074756       9.51343200      -0.49642834      -2.25202617      -2.93147695
Br       6.21693075       9.72856182       9.72168686       0.14626646      -3.59273692      -3.55291541
Br       3.14194532       0.15190276       2.94281484       0.01231970      -3.43014575       0.17364022
Br       8.21853816      -0.31481352       2.74209010       0.43317612       0.42457218      -0.06459562
Br       3.23976722       5.76979669       3.92741545      -0.12082025       1.50539916      -0.84664833
Br       8.30112201       5.61627952       3.59259159       2.65558961       0.00754927      -2.67702953
Br       3.12970419       0.71248101       8.06941436       0.36329636      -3.06287729      -0.62265485
Br       8.62974798       0.30455075       8.41180747      -0.13427766       0.13630883       0.40564912
Br       3.71673223       6.32012488       8.84590611      -0.24517963       0.24172329      -0.04403503
Br       8.92661769       6.40027970       8.25310770       0.08499013      -1.40814666       0.07001654
Br       3.57733311       2.07449822      -0.19123599      -0.95185607       0.77521820      -0.07914987
Br       8.39736951       3.36062746      -0.22817955      -0.10268446       0.03840483       0.33928612
Br       2.37075089       8.50304547       0.27812933       1.41910779      -0.00922512       0.37635808
Br       8.63885119       8.84390429      -0.10475280       0.63671287      -0.37140691       0.26343754
Br       2.59753727       3.31725483       5.74806956      -0.02679012      -0.71158674       0.38511063
Br       8.73797170       2.63857575       5.69945100       0.36484134       0.04682596      -0.41145955
Br       3.11898449       9.03166008       6.27060480      -0.13804227       0.15584948      -1.99309834
Br       7.81874061       8.55631156       5.49698424       1.33845280       0.56181972       1.56527629
40
Lattice="11.789424384493788 4.994228680623598e-17 7.707693397294342e-17 3.86384251277039e-17 11.789424384493786 1.074067569937025e-14 -3.701747836649174e-16 1.034220411604992e-14 11.7894243844938" Properties=species:S:1:pos:R:3:REF_forces:R:3 system=cssnbr3_cubic base_model=mace_mp0 config_id=cssnbr3_cubic_c31 T=600.0 draw=5 energy_qe_eV=-39961.635311998085 offset_eV=-39850.83154096018 split=valid REF_energy=-110.8037710379067 mock=0 pbc="T T T"
Cs      -0.13226618       0.99030053       0.18597111      -0.16523709      -0.71170064      -0.19667551
Cs       5.66857477       0.46515290      -0.20464362      -1.00482748      -0.00471412       1.05760400
Cs      -0.56603538       6.06879522      -0.06431401       0.80259299      -0.40911496       0.34213001
Cs       6.17483628       6.72273029       0.28730991      -0.43233254       0.00028668       0.45695059
Cs      -0.07111077      -0.90487858       5.18855807       2.94255121       2.83111317       1.13583881
Cs       5.28479163       0.07626316       6.63004557       1.50438820      -1.00903715      -2.57509866
Cs       0.03383201       5.08971532       6.58414531       0.03342640       1.51013590      -1.83437772
Cs       6.05858551       5.49239106       4.87395278      -2.06133619       0.20541572       1.73434355
Sn       2.96052235       2.51913975       2.84632961      -0.17180806       0.56944587       0.19450395
Sn       8.83829931       2.82645347       2.95929316       0.17687261      -0.21316733       0.34327133
Sn       3.35603598       8.69805123       3.13273313      -1.82739023       0.85147943      -9.70057682
Sn       9.27354516       8.70871203       2.99001185      -1.64575182      -2.09487109      -8.96509065
Sn       2.79709478       3.00243004       8.78772330       0.29178627      -0.43127402      -0.38579531
Sn       8.55486122       3.17411917       8.81541382      -0.19055654      -0.49439588       0.09011845
Sn       2.92658460       8.68637170       8.95517342      -0.08743730       1.47361724      -0.73976783
Sn       8.67290663       8.88628552       9.04240693      -5.89131368       3.95157499     -18.36543745
Br       0.13404110       2.02070348       3.46418379      -0.16897958       0.22420534      -0.46216299
Br       6.04045182       2.85998570       3.08491640      -0.12457021      -0.28297073      -0.54924934
Br       0.48967704       8.70654208       3.07449490      -0.56062262      -0.52659407      -0.87731182
Br       6.09820902       9.02526072       3.32289179       2.14003278      -0.29100697      -1.06007149
Br      -0.25272105       3.32537204       8.84632295      -0.38035923      -1.30741676       1.67058199
Br       5.56060167       2.57651998       8.17903245       0.45386553       1.98220227       0.96777994
Br       0.00926366       8.37807217       8.96318344       0.25992927       0.13193127      -0.54217315
Br       5.78148097       9.21351923       8.79666626       0.42310382      -0.58262689       0.07869427
Br       3.67131873       0.02352548       3.10283405      -0.17289100       0.16361241      -0.14834880
Br       8.56459249       0.08893914       3.04338319       0.10212473       0.03074037      -0.31844630
Br       2.98925869       6.28818833       2.89953073      -0.04238155      -3.01247184      -0.11229833
Br       8.49320636       5.96405113       3.47376008       2.10862855       0.35512000      -1.21302667
Br       3.38292804       0.03601638       8.77362332      -2.08949594       0.44052227       1.52286235
Br       7.88623953       0.17438144       9.62239899       1.61618851      -0.15321538      -1.01267526
Br       2.77537203       6.14917526       8.76390004       0.26320306      -1.90775366      -0.01852840
Br       8.38725714       5.88762223       9.84888387      -0.32337613      -1.16928707      -1.28907965
Br       2.66907219       2.67300911      -0.28364765       0.35331380       0.36436594       0.02383361
Br       9.09676857       3.11011602       0.15563993      -0.28387756       0.12723464      -0.23942730
Br       3.51542871       8.81966083      -0.31726683      -0.33888322       0.07480548       0.76478338
Br       9.31028699       8.50864282      -0.92963276       5.33612484      -1.76071510      19.03087648
Br       2.62725180       3.08753358       5.48731137       0.49046364       0.04294771       0.66129493
Br       8.81851468       2.93703580       5.91550697       0.01248631       0.09043855       0.45663152
Br       3.82091498       9.07016843       5.18028367       0.60336824       1.08342379      10.88317552
Br       9.57040717       9.24370559       5.03699932      -1.95102327      -0.14228459       9.19034500
40
Lattice="11.789424384493788 4.994228680623598e-17 7.707693397294342e-17 3.86384251277039e-17 11.789424384493786 1.074067569937025e-14 -3.701747836649174e-16 1.034220411604992e-14 11.7894243844938" Properties=species:S:1:pos:R:3:REF_forces:R:3 system=cssnbr3_cubic base_model=mace_mp0 config_id=cssnbr3_cubic_c32 T=600.0 draw=6 energy_qe_eV=-39968.05921073614 offset_eV=-39850.83154096018 split=train REF_energy=-117.22766977595893 mock=0 pbc="T T T"
Cs      -0.11526593       0.11011420      -0.43952090       0.13110621      -1.14660659       1.11281279
Cs       6.06611095       0.23730751       0.45590152       0.27115342      -0.17036541      -0.62744919
Cs       0.84198254       5.50073260       0.51844213      -0.45305152      -0.21105183      -0.27759969
Cs       5.07424796       6.48926271       0.15668805       0.47155600      -0.19688737      -0.09788910
Cs      -0.56307058       0.02675402       6.38037592       2.29117148      -0.63896284      -2.59516174
Cs       5.27783928      -0.14176381       3.92795092       3.89491456       2.16131303       4.38062217
Cs      -0.68734188       5.97330454       6.35726516       0.50393802      -0.08969268      -0.44792628
Cs       6.19313569       5.93041147       6.88860406      -2.25905917       0.22387289      -1.86725441
Sn       2.83663129       3.01065380       3.16281869       0.91618844      -0.06427578      -0.37654063
Sn       8.87026385       2.80230012       3.28819705       1.74735385      -0.90800308      -7.07332026
Sn       2.90052199       8.92002383       2.97055676      -0.86363998      -1.62843004       0.22691451
Sn       8.59303122       8.63256966       2.84411522       0.31120813      -0.65987980       0.37911790
Sn       3.40239117       2.91214485       8.70519183      -1.54475863       0.01371838       0.84818585
Sn       9.15436142       2.97839644       8.94112946       0.35628831       0.51802072      -0.34556912
Sn       3.39022127       8.95514983       8.85240076      -0.75220246      -1.31645650      -0.25429239
Sn       8.99908734       9.02359056       8.66901736       0.49726678       0.48220011      -0.89306934
Br       0.20561320       2.94019343       3.08234915      -0.36465031       0.05035428      -0.16883843
Br       6.24054926       2.79510534       2.95134328      -0.78319350       0.03861077      -0.36151279
Br       0.18914319       8.38199617       2.83376609      -0.88209047       0.02157053       0.40841202
Br       5.76921019       9.13860803       2.71561740       1.09256226      -2.14388969      -1.18119256
Br       0.27120383       2.24200657       9.27569888       0.57740729       1.73446491      -0.89287985
Br       5.88559805       2.99987582       8.21797972       1.64748294      -0.39253546      -0.02456663
Br       0.31077088       8.57588917       8.37922946      -0.55766328       0.28843381       0.38869115
Br       6.11002771       9.20973055       8.95226403      -0.16749709      -0.02734702      -0.67004928
Br       2.94136531      -0.29646100       2.75169901      -4.52187446       0.97089920      -2.44506357
Br       8.99690175       0.16818000       3.75177699      -0.08265094      -1.12695668      -0.18334717
Br       3.13942668       5.72567002       3.05782160       0.07399558       0.02398402       0.21086723
Br       8.03589198       5.72107719       3.13742796       0.17707907       1.54553639      -0.52566564
Br       3.42260198      -0.32476867       8.98774534      -0.25930784       1.59717700       0.27166070
Br       9.61114147       0.43257563       8.56611090      -2.85912559      -0.71723031       2.02301879
Br       2.64658932       5.62691505       8.99398755       0.29558713      -0.26078185      -0.05286317
Br       8.50311617       6.41965783       8.42770020       1.87454504      -0.47630560       1.71729122
Br       4.40187176       3.03079750       0.14720404      -0.78557460       0.26191031      -0.74685405
Br       9.21149125       2.65288767      -0.30986329      -0.39940648       0.12950518       0.82843155
Br       2.28662737       8.49009433       0.18512292       0.43451181       0.55542050      -0.31938758
Br       8.29467094       8.94153655      -0.66797456       0.58201471      -0.01481495       2.18770591
Br       2.62025021       3.01738731       5.84254245      -0.01569247      -0.05307117       0.59690422
Br       8.37918282       3.32411180       5.37114751      -0.93374008       1.41734479       7.82109116
Br       2.89752425       9.06393085       6.10020625       0.32653627       0.03120831      -0.43152984
Br       8.53478992       8.59236623       5.62450667       0.01131208       0.17799953      -0.54190421
40
Lattice="11.789424384493788 4.994228680623598e-17 7.707693397294342e-17 3.86384251277039e-17 11.789424384493786 1.074067569937025e-14 -3.701747836649174e-16 1.034220411604992e-14 11.7894243844938" Properties=species:S:1:pos:R:3:REF_forces:R:3 system=cssnbr3_cubic base_model=mace_mp0 config_id=cssnbr3_cubic_c33 T=600.0 draw=7 energy_qe_eV=-39968.0838235689 offset_eV=-39850.83154096018 split=train REF_energy=-117.25228260872245 mock=0 pbc="T T T"
Cs       0.99286262       0.60307837       0.32508425       0.57822362      -3.61335099      -3.05231649
Cs       6.11545018       0.02738667      -0.13028584      -0.15558388      -0.10653237       0.02085345
Cs      -0.70952275       5.26533311      -0.74075812       0.63412094       0.32276035       0.33659314
Cs       6.35885095       5.82630232       0.86457302      -0.57673135       0.69791464      -1.10597777
Cs      -0.03589904      -0.18723066       5.88222563       0.12709091      -0.01989905       0.02839192
Cs       6.69196987       1.00222994       6.25599664      -5.69654054      -2.99559924      -5.32178502
Cs       1.34744913       6.19030124       5.54931090      -2.51309702      -2.21677892       0.38897397
Cs       6.21268625       5.82533556       6.31436975      -0.43040498       0.41903659      -0.06015070
Sn       3.43383199       2.47275463       2.84443786      -1.09180919       0.53894925       0.38204382
Sn       9.33847795       3.21911421       2.91343626      -0.04360771      -0.77780601       0.23592031
Sn       2.70442666       8.55387758       2.84373696      -7.87331283      -1.26680515       0.03641736
Sn       8.40458981       8.95541673       3.21624275      -0.37760275       0.49408170      -1.61199838
Sn       2.84258694       2.97606816       8.77707273      -1.13387012      -0.24752447      -0.18809471
Sn       8.62592922       3.07738654       9.03505526      -0.08854828      -0.05861678       0.39125891
Sn       2.83163095       8.75929545       8.70320701      -0.26750400       0.06416754       0.50026391
Sn       8.53011916       8.98057874       9.00743887       0.54674534      -0.08360842       0.16874664
Br       0.19580412       2.51562380       1.98355364      -1.61986390       3.27044965       2.89934176
Br       5.87800100       3.33576289       2.69043542       1.21804110      -0.65943397       0.60307333
Br      -0.82121875       8.96719455       3.34328158       0.85959769       0.08984951       0.11445574
Br       4.84005836       8.88064410       2.73863510       8.82041802       0.57746180      -0.51236970
Br      -0.56518841       2.80311453       8.32272763       0.31489946      -0.05320692       0.11846872
Br       5.31252697       3.16274146       9.18356484       2.15020586      -0.22670599      -0.26876693
Br      -0.25981043       8.94613124       8.28119325      -0.04660793      -0.08587227      -0.00284930
Br       5.71679818       8.38420526       9.02961588       0.12387986       0.17745805       0.15190283
Br       3.06623920      -0.29437318       2.78929779      -0.22592026       0.32288865       0.22608096
Br       8.34389864       0.10966766       2.94395533       0.06912745      -0.05837561       0.20664830
Br       3.18102148       5.56494434       3.07357010       0.21017071       0.01403617      -0.54711841
Br       8.81406771       5.97199093       2.94441246       0.51274430      -0.25576254       0.25277595
Br       3.07283274      -0.30482283       8.62764192       0.01288226       0.41146187       0.04378666
Br       7.93657352       0.41733694       8.41975649       2.79537895      -1.80768735       4.99842226
Br       3.17978136       5.73708141       9.15741942      -0.56525292       0.06522400      -0.25497193
Br       8.61372102       6.09558518       9.00354423      -0.12997749       0.17917529      -0.12953758
Br       3.23828136       2.91768425      -0.09144924       0.02046624       0.10952360       0.45518810
Br       8.71215631       2.62541207       0.35430893       0.02446636       0.31475111      -0.11663938
Br       2.64035332       9.00372767      -0.27229986      -0.09339352      -0.10337532       0.46134692
Br       9.28933268       8.96190123      -0.07870801      -0.28723747      -0.00227260      -0.35854882
Br       3.17333983       2.17933267       5.90848286      -0.06236725       0.35873780      -0.22201347
Br       8.15742921       3.15982971       6.46338385       2.71596348       4.00039098      -0.78369770
Br       3.09393553       8.32228576       5.86631413       1.80065462       2.18722640      -0.09679869
Br       8.10011919       9.05382842       5.70620852      -0.25584430       0.02366880       1.61267998
40
Lattice="11.789424384493788 4.994228680623598e-17 7.707693397294342e-17 3.86384251277039e-17 11.789424384493786 1.074067569937025e-14 -3.701747836649174e-16 1.034220411604992e-14 11.7894243844938" Properties=species:S:1:pos:R:3:REF_forces:R:3 system=cssnbr3_cubic base_model=mace_mp0 config_id=cssnbr3_cubic_c34 T=600.0 draw=8 energy_qe_eV=-39965.18017298848 offset_eV=-39850.83154096018 split=train REF_energy=-114.34863202830456 mock=0 pbc="T T T"
Cs      -0.39614192      -1.00758657       0.04012532       0.52870263       1.88038967      -1.90739448
Cs       6.79895565       0.63628649       0.12466282      -0.95180516      -0.22057468       0.01464166
Cs       0.65014631       5.85589014      -0.77730407      -1.30645465      -0.68427185       0.49325714
Cs       4.82883431       6.09261792      -0.25841515       3.16845964      -1.25503181       2.19382977
Cs       0.78789943      -0.19648474       6.36520848      -0.22964476       0.25648425      -0.25100832
Cs       6.63927126      -0.24438824       6.06295509       0.25492591       1.02532612       0.37071605
Cs      -0.41118053       5.69493457       6.48861488      -0.06728397       0.18864312      -0.74388417
Cs       5.63531796       6.17428544       5.72209524       0.37844042      -0.21078238       0.23755039
Sn       3.17225971       3.14857397       2.93105745      -1.34494098      -9.05744082       5.77898296
Sn       9.03684132       3.34975292       2.65684968       0.02253006      -0.49031092       0.71204645
Sn       3.16500638       8.95039650       3.25139054      -2.35768437       1.43913051      -1.85699314
Sn       8.98975437       9.08489615       2.67845413      -6.76362419       0.31989151       1.59917629
Sn       3.05697095       2.78011847       8.64102428      -0.39959134      -0.54530681       7.34048333
Sn       8.81002451       3.23859421       8.77262806      -0.97297666       0.17697109      -1.47173519
Sn       2.93828860       8.81720686       8.97624691      -0.21658047       0.85138687      -0.34691972
Sn       8.55549718       9.15436510       8.48207252       0.13569357      -1.48668435       1.67256303
Br       0.13736238       3.12364208       3.41932195      -0.49677056       0.29121420       0.03007522
Br       5.89720596       2.95236314       2.75710045       1.14865294      -0.37322879      -0.20809661
Br      -0.62727702       8.95219059       2.21487244       6.62540863      -1.93885630       0.54743106
Br       5.49735107       8.56678529       3.07637840       3.12238522      -0.93693185      -0.43974554
Br      -0.23057651       3.36362324       8.70973289       0.73665165      -0.37186302       0.12821397
Br       5.86352790       2.42314285       8.59344637      -0.05109399       0.01124858       0.40983744
Br      -0.35246669       8.58669637       8.44268406       0.44111697       0.12457869       0.32656867
Br       5.64881766       8.62373939       8.38317305      -0.18981555       0.41399672       0.06291489
Br       4.14625350      -0.49153898       4.49159925      -1.47448858       0.63598216      -1.16380085
Br       8.85352750       0.37959593       2.71920666       0.41934384      -0.54388782       0.06981291
Br       3.63262974       5.22688855       3.07659267       1.28262978      10.72236819       0.25262940
Br       8.38980899       6.06740482       2.32805389       0.13569460       0.36656526       0.14908593
Br       2.84624475       0.16930781       9.23466859      -0.16534070      -0.79823189       0.00362808
Br       8.46695558      -0.10651407       8.98604029       0.46196605       1.07215156       0.05731709
Br       3.25488743       6.22758810       9.22689009      -1.06740736      -1.34917996      -3.23149384
Br       7.84925766       5.94512139       9.00337797       0.38239195      -0.35841024      -0.16944135
Br       2.71944770       2.52553135       0.81880396      -1.14443016      -1.28794399      -6.24767732
Br       8.99661119       2.94328768      -0.49166459       0.47895075       0.21688361       1.52885687
Br       2.70422068       8.15737078      -0.08091261      -0.73676401       2.17486068       0.68605517
Br       8.40233888       9.30051417       0.06199065      -0.36946315      -0.28312602      -0.39588612
Br       3.33465249       3.29612519       6.52454047       0.37536486       1.40680841      -7.24943876
Br       8.56936649       2.58107034       5.61784020       0.30009762       0.65563336      -0.26200852
Br       2.67591331       8.71078908       5.63844554      -0.84964367      -1.40573780       2.77568044
Br       8.78867259       9.29337082       5.96848525       0.75639695      -0.63271352      -1.49583080
40
Lattice="11.789424384493788 4.994228680623598e-17 7.707693397294342e-17 3.86384251277039e-17 11.789424384493786 1.074067569937025e-14 -3.701747836649174e-16 1.034220411604992e-14 11.7894243844938" Properties=species:S:1:pos:R:3:REF_forces:R:3 system=cssnbr3_cubic base_model=mace_mp0 config_id=cssnbr3_cubic_c35 T=600.0 draw=9 energy_qe_eV=-39963.140111866174 offset_eV=-39850.83154096018 split=train REF_energy=-112.30857090599602 mock=0 pbc="T T T"
Cs       0.28675753      -0.06775213       0.02471585      -0.24962506      -0.05494010       0.32570683
Cs       6.27987665      -0.38533141       0.63217233       0.05404330       0.71276173      -0.94724686
Cs      -0.78825656       6.58114638      -0.68526136      -0.56176110      -3.35880972       3.36250183
Cs       5.20976778       5.36370857       0.08140123       0.78030590       1.11014218      -0.26013162
Cs      -0.39221748      -0.04372463       4.41210041       5.39657867       0.90583127       4.19501320
Cs       6.42322025       0.12344678       5.47665904      -0.60950160      -0.90078856       0.55390587
Cs       0.09159794       4.85477407       6.10331452      -0.23989627       1.07827567      -1.32903742
Cs       6.72904663       5.70981661       6.39283115      -3.28257266      -0.29345209      -4.29234643
Sn       3.07610872       3.02956106       3.03411156       0.18437124      -0.80915419       2.31660020
Sn       8.84506080       2.91063075       2.81495091      -0.03846807       0.37485836      -0.94053448
Sn       3.37022130       8.60278363       3.26662551      -0.51938135      -0.28120978      -0.06506974
Sn       9.04986193       8.70977828       2.71167708      -0.13100388      -0.64713021       0.27501419
Sn       2.39325895       3.03095846       8.90269491       2.12770948      -0.09353905      -0.17724542
Sn       8.39133625       2.73679693       8.53101634       0.42040211      12.62932223      -1.91376413
Sn       2.91127956       8.96686939       8.94087188       0.28960392      -0.07006179       0.17904905
Sn       8.80308576       8.76565736       8.62113903      -0.09008863       1.83271164      -0.23410306
Br      -0.02694961       3.24633425       3.00174111      -0.01712509      -0.02328340      -0.09436257
Br       5.97297698       3.11818784       2.58069282      -0.65968285      -1.22996664       0.16747909
Br       0.13035028       8.57341774       3.03426563       0.07899329      -0.10755439      -0.34271005
Br       5.91921069       9.52708653       3.07783813       2.39250225      -2.75621668       0.32934983
Br      -0.07283194       3.59321799       8.80320616      -2.66660550      -1.57371028       0.98009527
Br       5.66978248       4.15593188       8.69584019      -0.21388262      -1.17057853       1.13051766
Br      -0.30796781       8.40230366       9.24456999       1.23628719       3.19715830      -3.28611230
Br       5.81959714       9.22454589       9.53894877      -0.45328266      -0.12639003      -0.23296586
Br       4.20407474      -0.14619595       3.21705095      -2.77848551       1.87023921      -0.15336476
Br       9.40420886      -0.36848757       2.89889941      -5.11602195      -0.19991227      -4.10094811
Br       3.49740316       5.51149992       4.34702059       0.28781906       2.37130942      -1.92627177
Br       7.77908979       5.52173501       2.65742931       1.20373162       1.12025664       0.09638269
Br       2.01513687       0.25334236       9.07812396       0.23819677      -1.08979473      -0.38679856
Br       8.37770331       0.71399342       8.94195746      -0.44742569     -12.68545019       2.09742908
Br       1.94840992       5.72708914       9.02363548       1.23988262       2.01617888       0.22600562
Br       8.67549783       6.31106290       8.06060831       3.31653256      -0.20965547       2.94833876
Br       3.07003392       3.26794731       0.59579714      -1.08514772      -0.52632102      -2.37337196
Br       9.22302008       2.36644163      -0.05076414      -0.07891410       0.30816497       0.26944236
Br       3.06128099       8.39723265       0.39544852      -0.01410456       0.08183410       0.10256799
Br       8.96924255       9.42009630      -0.44335968      -0.03242135      -0.04648323       0.61032693
Br       3.09863889       3.55334953       6.17245988      -0.34648598      -2.01327688       1.99831331
Br       8.38422415       2.43652529       5.60249064       0.87479831       0.88943226       0.50798082
Br       3.67997431       8.95045225       6.32526782      -0.03947800       0.05411529       0.02370583
Br       9.43977745       9.13809328       5.48989285      -0.45039608      -0.28491345       0.36065867
40
Lattice="11.789424384493788 4.994228680623598e-17 7.707693397294342e-17 3.86384251277039e-17 11.789424384493786 1.074067569937025e-14 -3.701747836649174e-16 1.034220411604992e-14 11.7894243844938" Properties=species:S:1:pos:R:3:REF_forces:R:3 system=cssnbr3_cubic base_model=mace_mp0 config_id=cssnbr3_cubic_c36 T=600.0 draw=10 energy_qe_eV=-39971.86460684924 offset_eV=-39850.83154096018 split=train REF_energy=-121.0330658890598 mock=0 pbc="T T T"
Cs      -0.16146691      -0.23725950      -0.67622326       2.09280315       0.51586640       2.01978665
Cs       6.82114990       0.16939463       0.29280046      -0.81619104      -0.27731404      -0.30286413
Cs      -0.32976794       6.34319540      -0.66194887       0.51207865      -0.47487067      -0.03185108
Cs       5.29851117       4.86436335       0.34716964       0.56478652       0.94168299      -0.61389047
Cs       0.22063163      -0.46992374       5.37484908      -0.85247085       1.33096138       0.61318111
Cs       5.82013773      -0.10231203       6.33718546      -0.32370960       0.42503523      -0.04236355
Cs       0.39438726       5.87395570       5.55062326      -0.70827207       0.46379256      -0.03162868
Cs       5.06747065       6.02026617       6.22517096       0.87423807      -0.00114388      -0.83721058
Sn       2.78256179       3.17104178       2.83601635       0.34816953      -1.41035627       2.21136161
Sn       9.06338955       2.74138856       2.95451076      -0.21497533       0.93614072       0.29103808
Sn       3.16171203       8.96700406       3.17511611      -0.05472233      -0.06473832      -0.79841958
Sn       9.05436457       8.70742253       2.92512690      -0.62039588      -0.02590746       3.87783832
Sn       2.38851304       3.08810173       8.86991351       3.70720629      -0.42501441      -0.33095266
Sn       8.61865335       3.03621598       8.90686664       0.22173502      -0.92580874      -0.89440811
Sn       3.20002950       9.09242667       8.90809336       0.19562855      -1.59222968      -0.12872228
Sn       8.97804410       8.92179716       8.91696116      -0.67086946      -1.22829208      -0.83272246
Br       0.15648101       2.72094690       2.18565396      -0.94291995      -0.05662315       0.45605174
Br       6.12511914       3.58603461       3.16804283       0.14555761      -0.50966952       0.36914177
Br       0.05402288       9.14824259       3.12542565       0.42561682      -0.62689871      -0.68983855
Br       6.11940913       9.03682966       2.85442820      -0.44949902      -0.02920979       0.04984443
Br       0.05905610       3.35218146       8.75648444      -3.59608963       0.44564494       0.32510314
Br       5.99149414       2.70039366       9.29964845      -0.69404230      -0.10793157      -0.42340541
Br       0.31632886       9.27591427       8.81110037      -0.62858561      -0.96198159      -0.36947987
Br       6.12717220       9.35945336       9.36963856       0.25306263      -0.00717518       0.12132239
Br       3.09012502      -0.19706851       3.57270831       0.40966364       0.67979402      -0.34411825
Br       9.12678414      -0.27786231       2.47724981       0.34404034       0.60821168       0.42154265
Br       2.96235618       5.73004889       3.13942353      -0.04301841       1.20122248      -0.12435912
Br       9.50180161       5.82488336       2.42048439       0.03888022      -1.10769269       0.57691184
Br       2.67345796      -0.25176241       8.65697743       0.20491846       2.13732695      -0.08206010
Br       9.34361162      -0.44305522       9.45330122      -1.90294364       1.51077430      -1.15073733
Br       3.19797826       5.81954504       8.66393167      -0.77415093      -0.24519531       0.86098840
Br       8.76057281       5.60598501       8.67506740      -0.13489113       0.92955329      -0.00952028
Br       2.73964485       2.88949506       0.36428010       0.22586678      -0.39266479      -2.57246250
Br       8.58173194       3.04345192      -0.26543164       0.47964855       0.20867690       1.22401223
Br       2.86004451       8.71244407      -0.26861556      -0.06959051       0.02640754       0.55985617
Br       9.39802915       8.41595602       0.62353909      -0.08876811       0.56359790      -4.51992608
Br       2.00669827       3.13312156       5.98225448       0.66527449      -0.58545613       0.17920846
Br       8.93485161       3.28252982       5.76993240       0.15449399      -0.26886874      -0.47728339
Br       2.26155365       9.02563143       5.70707179       1.00299017      -1.15830691       0.89910603
Br       8.11767206       9.41569690       6.16681356       0.71944634      -0.44133911       0.55192946
40
Lattice="11.789424384493788 4.994228680623598e-17 7.707693397294342e-17 3.86384251277039e-17 11.789424384493786 1.074067569937025e-14 -3.701747836649174e-16 1.034220411604992e-14 11.7894243844938" Properties=species:S:1:pos:R:3:REF_forces:R:3 system=cssnbr3_cubic base_model=mace_mp0 config_id=cssnbr3_cubic_c37 T=600.0 draw=11 energy_qe_eV=-39969.86067428129 offset_eV=-39850.83154096018 split=train REF_energy=-119.02913332111348 mock=0 pbc="T T T"
Cs       0.53639741       0.25852630      -0.26548609      -0.25356374      -0.76539119       0.39970164
Cs       6.16953287      -0.65554928      -0.08907854      -0.26118114       1.86985560       1.82746891
Cs      -0.39102870       5.25692942      -0.00530519       0.20557410       0.19442605       0.04305261
Cs       6.25255007       5.28941219      -0.11723224      -0.83834084       0.78838842       0.02399045
Cs      -0.28854861      -1.42337791       6.21050176       0.65751412       1.18200760       0.48886878
Cs       5.92686607       0.89713919       5.22758322      -0.67158423      -1.21964829       0.61541205
Cs       0.50592955       5.97830593       5.16858153      -0.76484406      -2.48242196       3.40690015
Cs       6.69468023       6.36217898       6.32991127      -1.56568253       0.58831777       0.31723454
Sn       2.66820232       3.16057935       3.13525488       0.10682599       0.03163357      -0.33942547
Sn       8.58442483       2.98624384       2.86491283       0.08163767       0.27977022       0.54358366
Sn       2.91673136       9.18024013       2.75875426       0.03270006      -0.32470693       0.47818611
Sn       8.72589624       8.69372749       2.73033790       0.85141516       5.27094583       1.51230103
Sn       3.12313064       2.98036646       8.89603526      -0.30228460      -0.01469463       0.21445494
Sn       9.23057358       2.81443949       8.71839058      -2.83502664       0.37037949      -1.41476237
Sn       2.94057040       9.00394999       8.66323434       0.37547285      -0.19037348       0.15991310
Sn       8.54697838       8.84579345       8.75749421       2.24915965       0.44099999      -0.00013010
Br      -0.17196515       3.12689377       3.36321633       0.12004121      -0.06046386      -0.23329547
Br       5.89632995       2.98634269       2.72879261      -0.60004560       0.14783380      -0.85432513
Br      -0.06868732       8.39131426       3.93412718      -0.77734990       2.04435869      -2.36070645
Br       5.85736220       8.81228201       3.28329974      -0.34583909       0.27470540      -0.41431888
Br      -0.25452027       2.23046953       9.03661355       2.82180937       0.03740389       0.29392826
Br       5.62478672       2.63545013       9.60941649      -0.13833769      -0.12345332      -0.74530676
Br       0.37637886       9.11172575       9.44348036      -0.69440174      -0.27136554      -0.36058153
Br       6.23964433       9.17875984       9.65780799      -1.80680444      -1.57454923      -1.44854024
Br       2.65978727       0.41087890       2.89185747      -0.03139420      -0.72774175       0.37771331
Br       8.83612575       0.50324304       3.67921358       0.27908476      -0.34076064      -0.33059939
Br       2.20420122       6.27032920       2.93179903       1.90977223      -0.03580338      -2.14873390
Br       8.35109418       6.46961491       2.44599815      -0.54379346      -5.62450954      -0.30878486
Br       2.97780151       0.01423412       8.62383780       0.02317541       0.43375667       0.03107512
Br       9.13137696      -0.01994396       7.99560000      -0.72812022       0.54811189       0.38646843
Br       3.20861260       6.08275760       8.95153398       0.03926512      -0.43513170      -0.01548807
Br       8.86750608       6.15102226       9.20936499       0.04343133      -0.67593222      -0.03209174
Br       2.95703920       2.32416220       0.22654900       0.09015753       0.92362664      -0.53190417
Br       8.24281765       2.89467661      -0.58164012       1.25858611      -0.72254967       1.17188028
Br       2.89727678       9.08148635      -0.13003234       0.42315524       0.05688334       0.31980332
Br       9.10426360       8.87331612       0.13422320       0.31327658       0.38659081      -0.83256948
Br       3.06110831       2.79676042       5.90717740      -0.07641447       0.25803720       0.27139717
Br       7.45292175       3.60660588       5.67240965       1.39614681      -0.82017034      -0.37284184
Br       3.35126778       9.23509414       5.68346529      -0.23306896      -0.12228964       0.18777769
Br       8.67770113       8.65930940       5.99884373       0.18987623       0.40392365      -0.32670545
40
Lattice="11.789424384493788 4.994228680623598e-17 7.707693397294342e-17 3.86384251277039e-17 11.789424384493786 1.074067569937025e-14 -3.701747836649174e-16 1.034220411604992e-14 11.7894243844938" Properties=species:S:1:pos:R:3:REF_forces:R:3 system=cssnbr3_cubic base_model=mace_mp0 config_id=cssnbr3_cubic_c38 T=600.0 draw=12 energy_qe_eV=-39960.57379768223 offset_eV=-39850.83154096018 split=train REF_energy=-109.7422567220492 mock=0 pbc="T T T"
Cs       0.32570009      -0.22562392      -0.80993447      -0.32229421       0.43926706       0.12634118
Cs       6.64234538      -0.01093885       0.57854054      -0.93470759      -0.12790415      -0.75684998
Cs       0.25189934       5.59578499       0.20983067      -0.13341686       1.51840380      -1.47840206
Cs       5.95190316       5.98502693      -0.98366758      -2.58020795      -1.47073014       2.03025876
Cs       0.29329126      -0.17692355       5.28301970      -0.13352176      -0.02105554       0.12909560
Cs       6.57720861       0.69092621       5.93776078      -0.54056236      -0.53667022       0.56903295
Cs       0.03699017       5.76626878       5.82030812      -0.14286875       0.12189754       0.02209503
Cs       6.01239695       5.76163343       5.59912766      -0.73332799       0.15700724       1.02265217
Sn       2.50618269       3.14828002       2.71053216       1.58632463       0.03723986       5.30460491
Sn       8.38487046       2.64991152       3.06540011       1.97368214      -0.53083562      -5.44630869
Sn       2.55095512       8.87417464       2.78603535       0.53187845       0.02338650       0.29822688
Sn       8.60619259       8.54695616       3.03434134      -1.07785015      -0.20736153      -0.11949253
Sn       3.20365338       3.10376927       8.49375399      -6.63777358       0.54926708      10.10946476
Sn       9.19016403       2.90927385       9.22714852     -12.75354380      -0.41984289      -1.55953708
Sn       2.70743323       8.96868118       8.82755673       6.39398389       1.53239420      -0.82332662
Sn       8.79551205       8.78684100       8.96607792       1.93457541      -0.20260370      -0.09775540
Br       0.15934566       3.48012912       2.18987542      -3.25023332      -1.37359309       0.99683212
Br       6.03991961       3.07003893       3.38137240      -3.89051026      -0.63223864       0.17797125
Br      -0.56778186       8.30544845       3.06644658       1.04172950       0.13627258       0.00358617
Br       5.52663458       8.08608469       3.31380227      -0.49146328       0.57139502      -0.50264964
Br      -0.57015732       3.28260763       9.00441039      13.13036776       3.74511437      -0.36080008
Br       5.39906114       2.91131790       8.99607651       6.16490194      -0.01325121       1.37856895
Br       0.61570157       8.30805522       9.22962767      -6.85709408      -1.44045515       0.66108410
Br       6.44540522       8.82463007       9.59468308      -2.82624941       1.23532791      -0.71646644
Br       2.17133833       0.08616238       2.43727202      -0.08423654      -0.25333619       0.56659812
Br       8.37411944      -0.32134918       3.14808000       0.59022964      -0.60317900       0.74009770
Br       2.17298526       6.02723795       3.07776179       0.53108835       0.30889336      -0.01016974
Br       8.13094998       5.30238369       3.45753836       1.48165656       1.98820682      -1.22150257
Br       3.38297200       0.40757391       8.41416997      -0.52967322      -1.16945059       0.06170210
Br      10.02655010       0.73217978       8.15965956      -0.29934686      -3.07491597      -0.72614792
Br       3.13634826       6.36382733       9.88922495      -0.83603893      -0.15391266      -0.73126930
Br       8.54833791       6.34046481      10.25983316       4.38342750      -0.60075728      -1.64130433
Br       2.91383279       2.69003638       0.51920551       1.44112698      -0.46602350      -5.31379815
Br       8.46524752       2.75310212      -0.21999550      -0.06880915      -0.25412295       2.15801302
Br       2.77569777       9.59889024      -0.05710994       0.58451948      -0.38361682       0.09019713
Br       8.76786554       9.02862779      -0.01546705       0.86124140       1.09989376       1.00708568
Br       3.35442463       3.11790117       6.38830369       0.67448032       0.47947680     -11.60797336
Br       8.97264815       2.82575963       5.26804494       1.97586193       0.03977522       5.58395913
Br       2.63440989       8.89654050       5.83290104      -0.20239107      -0.08167829      -0.21288657
Br       8.64037621       8.34938460       5.86138757       0.04504496       0.03431626       0.28917274
40
Lattice="11.789424384493788 4.994228680623598e-17 7.707693397294342e-17 3.86384251277039e-17 11.789424384493786 1.074067569937025e-14 -3.701747836649174e-16 1.034220411604992e-14 11.7894243844938" Properties=species:S:1:pos:R:3:REF_forces:R:3 system=cssnbr3_cubic base_model=mace_mp0 config_id=cssnbr3_cubic_c39 T=600.0 draw=13 energy_qe_eV=-39968.308635722926 offset_eV=-39850.83154096018 split=train REF_energy=-117.47709476274758 mock=0 pbc="T T T"
Cs      -0.37955936       0.12250703      -0.44194556       1.05496734      -1.20184649       0.18648083
Cs       5.66134853       0.21598658      -0.54750074       0.17165045      -0.25187375       0.47237387
Cs       0.81439505       5.90346300      -0.87480122      -0.64415030       0.05346558       0.61290703
Cs       5.91500058       5.24337029       0.44704536       1.31085818       3.23366488      -2.25416199
Cs      -0.74667384      -0.08531209       6.01790684       1.07306353      -0.13520146      -0.21156399
Cs       5.97526266      -0.86997099       6.66447994       0.23206700       0.20234119      -0.49585961
Cs       0.77651054       6.18754429       4.19382085      -0.48636042      -1.63701778       3.97264569
Cs       5.50812103       5.81527718       5.88366116       0.32191111       0.12275603      -0.08725064
Sn       2.83985985       3.18353772       2.96403368      -0.37267575      -0.43790643       0.63671827
Sn       8.74531483       2.84356952       2.92738918      -2.15889747       2.02637510       6.40879345
Sn       2.49507450       9.16311607       2.67670493       0.32752820       0.37114465       0.41865273
Sn       8.44181102       8.78293648       2.95510268       0.35696939       0.05664783      -0.13952863
Sn       3.06236241       3.06660076       8.95617859       0.39499395      -0.57002591      -0.70386314
Sn       8.94745556       2.86357328       8.87342713      -1.72212438       0.29151785       4.68949213
Sn       3.14637030       8.79373232       8.60620065      -0.60053257       2.00955726       0.01772339
Sn       8.98160784       8.55555383       8.89787779       0.30019249       0.11215255       0.61460010
Br      -0.03948251       3.69592922       2.81548180       0.75463652      -0.99639041      -0.44086475
Br       6.05950215       3.45652055       2.56541458      -0.38581023      -2.34762699       2.24924655
Br      -0.41348050       8.28981914       2.98770529      -0.98685984       2.92446041      -1.49939023
Br       5.67738020       9.44923087       3.20349589      -0.43062533      -0.06672887      -0.01084774
Br      -0.31242509       2.64048951       9.31538977       1.91123853       0.49993893      -0.12923136
Br       5.90254038       2.61547857       8.71705495      -0.67672772       0.42296138      -0.08724576
Br       0.14185993       8.80835145       9.01806341       0.16697875       0.03936667      -0.32152236
Br       5.94050860       8.29498073       9.05010559       0.43808333       0.27991266      -0.05269733
Br       2.27387034       0.28679976       3.49348585       0.04358843       0.44671066      -0.35982254
Br       8.63601460       0.06620134       2.99375604      -0.42033140      -1.02364513       0.99567873
Br       3.25335926       6.33880173       2.80736509       1.96105674      -0.08944199      -1.17716467
Br       8.13693868       5.96407166       3.20725033       0.23933191       0.55799983       0.09596565
Br       3.39131481       0.11410091       8.63937047      -0.69048955       0.66627156       0.16765572
Br       8.78375642      -0.37475771       9.44799954      -0.44945403      -0.13969498      -0.53819540
Br       3.19661533       6.31049852       8.73853013       0.07545751      -2.27255849      -0.11573924
Br       8.34304054       5.47613475       9.39071201       0.28824098       0.65026387      -0.17804041
Br       3.63955200       3.41961200       0.32849163      -1.83562548      -1.26751246      -1.03605764
Br       9.65179116       2.12746912       1.04747077       1.78712187      -0.73950712      -7.06268823
Br       3.11390816       9.16532175      -0.09648609      -0.04504496       0.02277535      -0.30313255
Br       9.85498181       8.81611670       0.02033397      -0.70734313      -0.36446184      -0.13606921
Br       2.73511226       3.80534076       6.08964118      -0.00618119      -0.46081831       0.34694003
Br       9.13861132       2.36855730       6.63919998      -0.13974871      -0.09107593      -4.68354440
Br       2.40435350       9.23216032       5.68114251       0.24370767      -0.24488883       0.20447881
Br       9.21479899       9.12579172       5.95960295      -0.69466065      -0.65206030      -0.06587141
