40
Lattice="8.07229364156986 2.904777715589395e-07 3.5974003450358844e-07 2.9047805627122115e-07 8.072288850344885 -1.5906224019387422e-06 3.5973984946264966e-07 -1.5906229804257139e-06 8.072291048783132" Properties=species:S:1:pos:R:3:REF_forces:R:3 system=batio3_cubic base_model=chgnet config_id=batio3_cubic_c01 T=100.0 draw=1 energy_qe_eV=-74136.93740683523 offset_eV=-73801.84934295047 split=train REF_energy=-335.0880638847593 mock=0 pbc="T T T"
Ba       0.09910566       4.02336794       4.10227288      -0.55413084       0.05199028      -0.29739102
Ba       4.04676625       4.05673941       3.97334172      -0.19004283      -0.26106699       0.76623374
Ba       0.06072841       8.01401368       4.07264065      -0.13612269       0.23815357      -0.35204213
Ba       4.02372111       8.03031625       4.03440421      -0.09596488       0.16951540      -0.11006841
Ba      -0.12105215       4.06639313       8.05640300       0.68701908      -0.26490642       0.11624009
Ba       4.05471672       4.06702805       8.07520004      -0.24956747      -0.36659534      -0.38962472
Ba      -0.06663408       8.12019803       8.09814170       0.45515802      -0.33788204       0.05264179
Ba       4.06446187       8.11581391       7.97481378      -0.27558858      -0.33779153       0.69965296
Ti       1.98409790       2.04041576       2.02705714      -0.00775830       0.25225067      -0.17279227
Ti       6.02426980       2.06256032       2.04885746      -0.30802227      -0.79879727       0.40079102
Ti       2.03023285       6.08438657       1.95909438      -0.67450963       0.71741466       0.06182012
Ti       6.03242236       5.99839930       2.00024255      -0.04947882       0.99722062       0.22795169
Ti       2.02420053       2.04503284       6.11728649       0.35419106       0.31158325      -0.22011368
Ti       6.07486954       1.97565397       6.05582638       0.23822736       1.40233700      -0.19696219
Ti       1.99803194       6.02841112       6.08712101       0.42514425       0.74398984      -0.54539449
Ti       6.07983007       6.08376507       6.02348376      -1.01775833      -1.74976811      -0.23674512
O        4.02577647       1.96319293       2.06904622       1.18274988       0.12504946      -0.11120304
O        8.12413741       1.99316660       1.80920487      -0.99415149      -0.03643485       1.13301677
O        4.10791972       6.03941814       1.91043875      -0.56429055      -0.22002241       0.72004207
O        8.11940214       6.00339940       2.07490653      -0.06081945      -0.06722406      -0.43526514
O        3.96942228       2.12705470       6.05905867      -0.01115422      -0.74842550      -0.14514597
O        8.04958215       2.06232687       6.13429002       0.03310552      -0.55032098      -0.16439736
O        4.08439114       6.08826529       6.06666626      -0.04610708      -0.17668390       0.00276034
O        8.11217627       6.07586335       6.09278720      -0.78502773      -0.08088639      -0.08731955
O        2.02230864       3.88838784       2.03484478       0.20159943       1.21597522      -0.29360095
O        6.09071336       3.98719671       2.13269480      -0.11306272      -0.06369574      -0.93194056
O        1.98981558       7.97193421       2.07089943       0.28536803      -0.60088121       0.03120085
O        6.05175647       8.05923427       2.04077372       0.25000739      -0.11249039       0.05588627
O        1.95927365       4.00050768       6.14099176       0.16514556      -0.28402385       0.14424634
O        6.10543951       4.07329711       6.03198691      -0.14992540       0.04492334       0.26845274
O        1.95729399       7.95390681       6.05401705       0.36009457       1.13157284       0.10413456
O        6.04507499       8.08231534       6.03532171       0.15666811       0.07796588      -0.14425149
O        2.07295725       1.87799688       0.08849482       0.00946526       0.22475015      -1.32662187
O        5.98267997       1.99971650      -0.07479010       0.08701153       0.20505550       0.64099890
O        2.08853097       6.06089164      -0.00516037      -0.37967043      -0.33106321       0.87239176
O        5.97049946       5.92003665       0.00064248       0.93210203       0.72826986       0.39110799
O        1.99775200       2.07947583       4.04826655      -0.26330667      -0.83193416       0.53869651
O        6.08949026       2.14919868       4.07917181       0.02301652      -1.06992267      -0.61139830
O        2.02070674       6.02138559       4.10518886       0.32852785      -0.31301253      -0.46936645
O        5.95063792       5.92936693       4.03324507       0.75185870       0.96581176       0.01337771
40
Lattice="8.07229364156986 2.904777715589395e-07 3.5974003450358844e-07 2.9047805627122115e-07 8.072288850344885 -1.5906224019387422e-06 3.5973984946264966e-07 -1.5906229804257139e-06 8.072291048783132" Properties=species:S:1:pos:R:3:REF_forces:R:3 system=batio3_cubic base_model=chgnet config_id=batio3_cubic_c02 T=100.0 draw=2 energy_qe_eV=-74137.36588082305 offset_eV=-73801.84934295047 split=train REF_energy=-335.51653787257965 mock=0 pbc="T T T"
Ba      -0.03286480       3.94902349       4.00910418       0.17567962       0.20177169       0.22449767
Ba       3.99493054       4.11045170       4.05799027       0.48951902      -0.26374608      -0.30103144
Ba      -0.02427411       8.01184220       4.01878944       0.00310615       0.60515489       0.07304607
Ba       3.98820946       8.06778847       4.00161842       0.58330849      -0.06936888       0.30555221
Ba       0.02427235       3.99044516       8.11800199      -0.04703808       0.28280052      -0.36557050
Ba       3.99950813       4.05919360       8.01484311       0.35482278       0.40920727       0.50544649
Ba       0.03445484       8.08310638       8.07025774      -0.13082133       0.04477011      -0.00429271
Ba       4.05044813       8.13173588       8.14849130       0.03290421      -0.78429368      -0.48369881
Ti       2.04837745       2.01109605       2.00778329      -0.27375050       0.28413595       1.00641925
Ti       6.03357400       2.07119381       2.02828282       0.16404564       0.00427472       0.37164653
Ti       1.99098287       6.03985097       2.03100063       0.54411048       0.15188792      -0.47761507
Ti       6.10700212       6.07456697       1.97775773      -1.51494875       0.15935775       0.25361824
Ti       2.04821680       2.05511964       6.08502616      -0.62897359      -0.38852531      -0.06519418
Ti       6.01895825       2.05483755       6.12867037       0.64284135       0.23143862       0.11753335
Ti       1.98442650       6.09293551       6.03379868       0.91492809       0.34323173       0.28396189
Ti       6.08901720       6.08529446       6.05182405      -0.79572892       0.47725537      -0.01801855
O        4.05048655       1.99853884       1.95080926       0.11194120       0.06099634      -0.05952438
O        8.09062957       2.08152875       1.96685901       0.63717567      -0.38840139       0.16377310
O        4.14298384       6.09253004       2.03456052      -0.14329504      -0.23185694      -0.07841890
O        8.15766767       6.04208763       2.01365876       0.15244379      -0.14398615      -0.03185957
O        4.01210021       1.95949478       6.05328436       1.01239630       0.59562639       0.08305306
O        8.09363926       1.95896050       6.10636183      -0.56880001       0.00316451      -0.58221603
O        4.03804725       6.05066149       6.02551323      -0.38461621      -0.43786530       0.01976793
O        8.03958956       6.04064737       6.02921246       0.97890948       0.21217772       0.13044003
O        2.12337310       4.00485796       2.01361796      -0.32476195       0.26494935      -0.21697282
O        6.08518174       4.05680855       1.98524302      -0.01847209      -0.29173613       0.21298607
O        2.05482066       8.03841786       2.14293709      -0.29930855       0.07483864      -0.73284025
O        6.12308847       8.04581088       1.94769579       0.13508962      -0.03044263       0.06482111
O        2.01919179       4.00974932       6.13668686      -0.10670232       0.16687694      -0.47996043
O        6.15557923       3.98454445       6.06009830      -0.71474277      -0.86098429      -0.21216795
O        2.03927677       8.10567921       6.05163123      -0.26382192      -1.11761561      -0.26242299
O        5.92082216       7.98990507       6.07503757       0.87034953       0.72648320      -0.00064818
O        2.00807302       1.98235135      -0.06927622       0.29538530      -0.01023556       0.62879542
O        6.10558927       2.11176718       0.05128853      -0.42625548      -0.62555583      -1.60833250
O        2.10721591       6.10229007       0.02666754      -0.50385266      -0.12424008      -0.06536438
O        6.08549534       6.04022864      -0.03667539       0.19909620      -0.17013555       0.15363524
O        2.13686464       2.02098420       3.95864063      -0.62130579       0.21632336       0.20634466
O        6.08375128       1.95619021       3.92401502      -0.16794266       0.24528787       0.84680902
O        2.06561658       5.97756528       4.04707275      -0.42952824       0.19562598       0.32257832
O        6.12263263       6.03341644       4.01744391       0.06661420      -0.01864744       0.07142319
40
Lattice="8.07229364156986 2.904777715589395e-07 3.5974003450358844e-07 2.9047805627122115e-07 8.072288850344885 -1.5906224019387422e-06 3.5973984946264966e-07 -1.5906229804257139e-06 8.072291048783132" Properties=species:S:1:pos:R:3:REF_forces:R:3 system=batio3_cubic base_model=chgnet config_id=batio3_cubic_c03 T=100.0 draw=3 energy_qe_eV=-74136.69319486931 offset_eV=-73801.84934295047 split=train REF_energy=-334.84385191883484 mock=0 pbc="T T T"
Ba      -0.01957037       3.96137191       4.00927773       0.47722606       0.48368673      -0.13723083
Ba       4.12786946       4.02563798       4.06067280      -1.09272964       0.01364664      -0.29380921
Ba       0.02069367       8.04296393       4.03898028      -0.30676140       0.15911735       0.00199235
Ba       3.99754757       8.11918248       4.08244172       0.48872737      -0.31827120      -0.14334389
Ba       0.01222569       4.02462426       8.06235313       0.20569982       0.44027262       0.24466515
Ba       4.07008472       4.02946118       8.06026029      -0.48904593       0.19343540       0.09184932
Ba      -0.04004789       8.09825581       8.09429121       0.03310115      -0.16244538      -0.14381414
Ba       3.98411189       8.08368086       8.05592941       0.42340747      -0.13151141      -0.16870756
Ti       2.07216567       1.96755969       1.96720107      -0.90784444       0.51632045       0.47154675
Ti       6.04495267       1.99805415       1.96390556       1.34848036      -0.39220687       0.96022347
Ti       2.02567465       6.10554854       1.99752057      -0.14134871      -1.92627075       0.63262996
Ti       6.05985141       6.02242700       2.04570657       0.09521335       0.37930225       0.55889278
Ti       2.01583765       2.03408774       6.04003793       0.43464293       0.34161322      -0.48308226
Ti       6.10427471       2.01829469       6.04778637      -0.00884125      -0.76188857      -0.81847033
Ti       1.98983519       6.06493490       6.07363368      -0.55450673      -0.57478914      -0.39216162
Ti       5.99688435       6.01590521       6.08532301       0.38093027       0.26800742      -0.44161319
O        4.02278255       1.95076155       2.01311285      -0.26164523       0.33312215      -0.42958660
O        8.02428861       2.03534244       2.05685960       0.30356784       0.24361845      -0.37930636
O        4.05283403       6.21163488       1.95289452       0.49465248      -0.34030222       0.32668360
O        8.09121412       6.05788299       2.01939706      -0.62472202       0.22656664      -0.33867342
O        3.99903281       2.01312838       6.03248558       0.35408564       0.08087251       0.41988274
O        8.03792556       2.08370277       6.02891882      -0.51494723      -0.08874548       0.11517617
O        4.03429968       5.95157115       5.91198224      -0.47980462       1.14433425       0.88382314
O        8.07267663       6.19613975       6.12100559       0.87425555      -0.86429767      -0.22638692
O        2.03573103       4.18938762       1.95874593       0.25902862      -1.06261868       0.39559379
O        5.96668038       4.02181791       2.18354237       0.22766861       0.66701358      -0.89983931
O        2.02153571       8.15339527       2.03658761      -0.14534189      -0.01086291      -0.57660871
O        6.13389716       8.09828994       2.03753692      -0.51470606       0.20800250      -0.59654684
O        2.04875511       3.98158810       6.07403410      -0.42735437       1.02739277      -0.21662367
O        5.89682060       4.11283073       5.96389880       1.17932877      -0.51846835       0.44386908
O        2.01735568       8.16646136       6.06675432       0.09204009      -1.48394844       0.38266757
O        6.03978017       8.09865344       6.11374507      -0.28141804       0.63918293       0.16790975
O        1.82645862       2.10688546      -0.02211770       1.16219211      -0.70664945       0.98002791
O        6.12626143       2.21512666      -0.01512649      -0.58206356      -0.80622879       0.25509534
O        2.04152058       5.95302041       0.02583737       0.14124689       1.23140029      -1.28369319
O        6.09314382       5.99667330      -0.02824574      -0.48403614       0.11003447       0.31979073
O        2.02867567       1.92037913       4.05591991      -0.13358218       0.82446665      -0.52542293
O        6.17349451       1.98339464       4.02855088      -1.02888529       0.11654425       0.59379576
O        1.96039725       6.00562195       3.98789764       0.34498857       0.60565189       0.86216519
O        6.13450007       6.11146372       4.06071830      -0.34089923      -0.10409960      -0.61335954
40
Lattice="8.07229364156986 2.904777715589395e-07 3.5974003450358844e-07 2.9047805627122115e-07 8.072288850344885 -1.5906224019387422e-06 3.5973984946264966e-07 -1.5906229804257139e-06 8.072291048783132" Properties=species:S:1:pos:R:3:REF_forces:R:3 system=batio3_cubic base_model=chgnet config_id=batio3_cubic_c04 T=100.0 draw=4 energy_qe_eV=-74137.18834491103 offset_eV=-73801.84934295047 split=train REF_energy=-335.33900196055765 mock=0 pbc="T T T"
Ba       0.00605527       4.03368727       3.95309885      -0.06929792      -0.01077884       0.66353333
Ba       4.00228482       4.03385657       4.09526771       0.46488630       0.05879316      -0.52627576
Ba       0.00485425       8.01509362       4.01344262       0.17493452       0.52368589       0.29374879
Ba       4.09595197       8.04949273       4.08224433      -0.10964932       0.27733718      -0.32055409
Ba      -0.03509388       4.03296242       8.04321423       0.35694368       0.22693816       0.07915244
Ba       4.01232234       4.05480951       8.06795851       0.19959628      -0.05013857       0.33725289
Ba      -0.05013154       8.10231879       8.07165314       0.51431705      -0.15671208      -0.08946771
Ba       3.97605701       8.04043107       8.05743372       0.43736522       0.26293361       0.29549174
Ti       2.01578070       2.02408141       2.07165997      -0.06282311       0.28665795       0.34167724
Ti       6.06066996       2.03457252       1.99243655      -0.05586159      -0.29573009       0.55100978
Ti       2.08346517       6.07916642       1.99028387      -0.13801219      -0.18305432      -0.46883938
Ti       6.11655003       6.06419360       2.08064454       0.07681762      -0.05895540      -0.33653452
Ti       2.00450128       2.05908022       6.06258757      -1.32294622      -0.43860912       0.15118627
Ti       6.03303743       2.09112019       6.06012302       1.21711036       0.46304180      -0.34826235
Ti       2.08922739       6.06543018       5.99773709      -0.82688015       0.67200769      -0.18469597
Ti       6.08299048       6.10841854       6.11245573       0.04495831      -0.28996079       0.49250767
O        4.03196611       1.98579409       2.05611475      -0.35705501       0.22995664      -0.26192805
O        8.08199360       2.03565737       2.05580204       0.42468274      -0.15901836      -0.40711336
O        3.95327557       5.95762692       2.07946653       1.28928739       0.52457241       0.14787700
O        8.14190848       6.11456773       1.95955099      -1.77656158      -0.41692392       0.24772039
O        4.22370349       2.08794281       6.09901237      -1.84648941      -0.60738121      -0.35120704
O        8.03331157       1.99262421       5.97147511       1.10027840       0.09056865       0.48111151
O        4.09404809       6.02139653       6.09371803      -0.71167313       0.06805067      -0.52749729
O        8.15135597       6.08807297       6.03251416      -0.02547038      -0.34892364       0.42139455
O        1.93322937       4.05755658       2.08113804       0.38129614      -1.12447891      -0.27660519
O        6.07008107       4.05707980       2.09015989      -0.03263167      -0.05003161      -0.46356630
O        1.96877129       8.01921592       2.00833795       0.43445087       1.27264284       0.17083926
O        6.06554684       8.09385690       1.94764995      -0.18024436      -0.51903631       0.34645024
O        1.96991039       3.97649843       5.99030663       0.53767655       0.56265122       0.39077374
O        6.02217253       4.05370648       6.09247371       0.58513397      -0.48469177      -0.30175161
O        2.10126297       8.08515243       6.08124520       0.06392534      -0.30065298      -0.22779948
O        6.12391936       7.96322704       6.12474300      -0.47321951       0.51177988      -0.36835861
O        2.00936943       2.00842661      -0.10261191       0.11635682       0.22977358       0.75624526
O        6.10234965       2.01938848       0.00853429       0.00725257       0.17944989       0.34640756
O        2.16078105       6.03268925       0.08003664      -0.58017174      -0.11521962      -0.86791598
O        5.93967289       6.02893603      -0.00734277       0.79937526      -0.06554179       0.29962582
O        2.04557522       2.07089632       4.06942257       0.22289433      -0.59549629      -0.87498574
O        6.14990429       1.95742123       4.01060036      -0.67310092       0.16578550       0.04635853
O        2.08618647       6.13087117       4.07828692      -0.08789676      -0.39929026       0.76285531
O        6.09790765       6.07459904       4.01081058      -0.11955475       0.06399990      -0.41986063
40
Lattice="8.07229364156986 2.904777715589395e-07 3.5974003450358844e-07 2.9047805627122115e-07 8.072288850344885 -1.5906224019387422e-06 3.5973984946264966e-07 -1.5906229804257139e-06 8.072291048783132" Properties=species:S:1:pos:R:3:REF_forces:R:3 system=batio3_cubic base_model=chgnet config_id=batio3_cubic_c05 T=100.0 draw=5 energy_qe_eV=-74137.34595120551 offset_eV=-73801.84934295047 split=train REF_energy=-335.49660825503815 mock=0 pbc="T T T"
Ba       0.01059160       4.01913472       4.03890949      -0.08812765       0.04928985      -0.38178388
Ba       3.94533878       4.10153430       4.06314709       0.56858172      -0.61265943      -0.38085957
Ba       0.09986628       8.07253464       4.05769489      -0.42714765       0.00184425      -0.24955307
Ba       3.98018395       8.04773222       3.98707728       0.29398508       0.28780106       0.46038713
Ba       0.03304163       4.06888564       8.12795217      -0.51211824      -0.05052655      -0.21490797
Ba       4.07605995       3.98755202       8.03958141       0.13218478       0.36123922       0.04433687
Ba      -0.05895124       8.12815983       8.16158651       0.23860840      -0.50335515      -0.61050536
Ba       4.00658403       8.03842339       8.08891537       0.27754879      -0.08893060      -0.60177209
Ti       2.05630462       1.95981052       1.92232985      -0.51963255       0.37164396       0.18269925
Ti       6.04049210       2.01691599       2.00089240       0.15168712      -0.15804288       0.06427501
Ti       2.00621577       5.98890330       1.99078226       0.36287059       0.15108291      -0.04233270
Ti       6.02669976       6.08347640       2.05307769       0.49631290      -0.55719328      -0.77396684
Ti       1.97482340       2.08825196       6.02084334       0.26926366      -0.43291335      -0.19194699
Ti       6.09891488       1.96291584       6.01315260      -1.23260537      -0.89885201      -0.02870714
Ti       1.96282073       6.05865737       6.07102941       0.29449698       1.07874927       0.51803512
Ti       6.03781155       6.02051297       5.98053473      -0.44140416       0.04171615       1.39783963
O        4.07520734       2.01708141       2.09280799       0.05167609      -0.04641304      -0.31299941
O        8.10865303       2.08346442       1.99335100      -0.00908139      -0.25375940       0.13113192
O        3.89906711       6.09736024       1.94682190       1.53946190      -0.14339017       0.38454550
O        8.05013907       6.11112826       2.00766931      -0.41864116      -0.38008824       0.03857477
O        4.15424710       1.92361610       6.08209195      -0.19904658       0.92180168      -0.24326184
O        8.14503820       2.01199186       6.15320382       0.39031120      -0.00935856      -0.41988043
O        4.03412122       6.01727867       5.95303950       0.48027076      -0.09244196       0.26334550
O        8.09981448       6.04728652       6.04617662       0.59227341       0.16539007      -0.28047290
O        2.06133679       3.95646774       1.96627787      -0.17528213       0.62564144       0.38558731
O        5.97463124       4.12021244       1.97530958       0.23762238       0.34674849       0.30176421
O        2.01720161       8.04952648       1.94493868      -0.16325554       0.49885109       0.25692185
O        6.06305500       8.13383519       1.94873736      -0.20991746      -0.31945031       0.49487977
O        2.02673590       3.99702587       6.11437466       0.06139357      -0.61841999      -0.51775256
O        6.19033198       4.15047876       6.01858802      -0.50215059      -0.70228552      -0.15526481
O        2.09281889       7.96774074       6.06749751      -0.44951291       0.16907883       0.00253099
O        6.07523285       8.12555005       5.97963286       0.45884293       0.32599763       0.09538150
O        2.08849396       1.96583034       0.03802152      -0.00560886       0.13435608      -0.37715178
O        6.12904237       2.02219557       0.01079069      -0.27515946       0.31037355       0.05768219
O        2.04397614       5.91691740      -0.00078486      -0.28044925       0.48315554      -0.55969291
O        5.99616445       6.12938778      -0.07704480       0.22053432      -0.11317508       0.40789909
O        2.01606117       2.00500532       4.06007989       0.06978540       0.00585903       0.93814772
O        6.17059448       2.02711437       4.01214454      -0.08656570       0.28907350       0.30208380
O        2.10792232       6.07954431       3.95849670      -0.88808449      -0.56257151       0.39702538
O        6.09220143       6.12465292       4.01277855      -0.30392085      -0.07586580      -0.78226174
40
Lattice="8.07229364156986 2.904777715589395e-07 3.5974003450358844e-07 2.9047805627122115e-07 8.072288850344885 -1.5906224019387422e-06 3.5973984946264966e-07 -1.5906229804257139e-06 8.072291048783132" Properties=species:S:1:pos:R:3:REF_forces:R:3 system=batio3_cubic base_model=chgnet config_id=batio3_cubic_c06 T=100.0 draw=6 energy_qe_eV=-74137.17022852405 offset_eV=-73801.84934295047 split=train REF_energy=-335.320885573572 mock=0 pbc="T T T"
Ba      -0.04653385       3.95781852       4.04842081       0.28880945       0.39467591      -0.11179388
Ba       4.05325134       4.06672023       4.04887779      -0.36225969       0.17762286      -0.20528922
Ba       0.04799740       7.99792626       4.03706535      -0.61687013       0.47226203       0.17388679
Ba       4.03741700       8.08277093       3.92092702       0.21127115      -0.23002580       0.70923212
Ba       0.05742530       3.99112358       8.04211459      -0.07019626       0.02641011       0.48576366
Ba       4.02328847       4.05961901       8.13442999      -0.40234833      -0.13027934       0.03265121
Ba       0.01869165       8.12623405       8.05143824      -0.05863349       0.04911656       0.12295118
Ba       4.03238499       8.09119226       8.04621977      -0.13294969       0.04527121       0.19700795
Ti       1.99586420       1.97144416       2.06882201      -0.33442133       0.90463571      -0.86101000
Ti       6.01175377       2.05984845       2.04627497       0.54987772       0.36208280      -0.02049298
Ti       2.01611787       6.03599430       2.00099421       0.11031112      -0.67807164      -0.00243715
Ti       6.11741492       6.09479367       1.97807426      -0.22171780      -0.45743988       0.94131249
Ti       2.01783444       2.04187916       6.04570212      -0.67971740       0.70579019       0.15749138
Ti       5.96339003       2.10257828       6.10658657       0.46101551      -0.62314825      -0.43138303
Ti       2.01191232       6.10463336       6.05470787       0.40484128      -0.49622162      -0.06832115
Ti       6.05765173       6.04288307       6.13735845       0.51085609       0.69239345      -1.05372009
O        4.02817828       2.08800097       2.02679456      -0.10967195      -0.71415141       0.14471943
O        8.01834795       1.93164753       2.00257777       0.10919038       0.49683329       0.49449770
O        4.01044037       5.99132755       2.02071100       0.29598565       0.63428087      -0.23689065
O        8.15935099       6.02033113       1.98829829      -1.54151467       0.23892413       0.31974933
O        4.03057281       2.09916747       5.99475789       0.62910755      -0.42401014       0.64625886
O        8.08702334       2.06086392       6.05569431      -0.33618459      -0.34170321       0.07324122
O        3.91521312       5.99281920       6.05523925       0.90406184       0.36475212       0.39337210
O        8.08052859       6.03079586       6.15284444      -0.54012450       0.17307741      -0.53952517
O        1.96573621       3.97770811       1.99615043       0.06377699       0.25593198       0.42452256
O        6.01335843       4.05173826       2.06557536       0.42190337      -0.29084499      -0.14000685
O        1.92359223       8.10481401       2.03495650       0.78571884       0.01300361       0.05944056
O        6.04848245       8.08612753       1.98336737      -0.16204429      -0.69117167       0.14126875
O        1.95661192       3.99046191       6.11374473       0.33680526       0.62546198      -0.29054134
O        5.98016433       4.06171028       6.12893965       0.32897059       0.03496649      -0.17968643
O        2.12275909       8.11344158       6.03859935      -0.55246888      -0.81839962       0.19231492
O        6.09459926       8.06019559       6.08429727      -0.60065444      -0.53799948       0.27039289
O        2.00206790       2.02771456       0.04686842       0.30967292      -0.41698202      -0.13541538
O        6.03938541       2.06627545       0.04724289      -0.29215368      -0.16402198      -0.70563155
O        1.97250099       6.03258762       0.06629619       0.41824984       0.46949398      -0.89856533
O        6.10875793       5.98475800       0.07049194      -0.44037058       0.44027673      -0.84175989
O        2.00387884       2.07662589       4.10751544       0.03702877      -0.45177522      -0.77806955
O        5.99808898       2.05044460       4.07459513       0.23086552      -0.10478891      -0.04493286
O        2.02780843       6.10770485       3.98166065      -0.25475210      -0.25582476       1.05677096
O        6.03478498       6.02908319       4.03355913       0.30073422       0.24959652       0.50862668
40
Lattice="8.07229364156986 2.904777715589395e-07 3.5974003450358844e-07 2.9047805627122115e-07 8.072288850344885 -1.5906224019387422e-06 3.5973984946264966e-07 -1.5906229804257139e-06 8.072291048783132" Properties=species:S:1:pos:R:3:REF_forces:R:3 system=batio3_cubic base_model=chgnet config_id=batio3_cubic_c07 T=100.0 draw=7 energy_qe_eV=-74137.09843591365 offset_eV=-73801.84934295047 split=train REF_energy=-335.2490929631749 mock=0 pbc="T T T"
Ba      -0.06530164       4.08816901       4.03874903       0.61368402      -0.61457824      -0.07903057
Ba       3.94967295       4.02220763       4.01454370       0.47420398      -0.22081045       0.22583747
Ba       0.01193903       8.16278454       4.02975328      -0.00213530      -0.17504790      -0.01730687
Ba       4.01166901       8.01560178       4.08525230       0.34860328       0.57756079      -0.05682498
Ba       0.00973629       4.02256576       8.07662816       0.06259248       0.14844264       0.14920652
Ba       4.02181552       4.06234043       8.06986325       0.34219532      -0.14997708      -0.01365024
Ba       0.06097971       8.08972480       7.98685550      -0.44321782      -0.20019869       0.60948360
Ba       4.00324830       7.96885087       8.06957022       0.70412745       0.56149216       0.07182968
Ti       2.02733785       1.98075572       2.00880005      -0.33429329       0.09494904       0.58555769
Ti       6.05837391       2.04743190       2.04451337      -0.66311167      -0.89252144       0.62502824
Ti       2.04845396       6.01892706       2.03931685       0.15983546      -0.35475927      -0.08701076
Ti       6.13335856       6.04855065       2.06274976      -0.14373649       0.44940389      -1.76634916
Ti       2.01698857       2.04182990       6.08099925       0.51795722      -0.18684592      -0.25293227
Ti       6.07452312       2.06871417       6.12070622      -0.95874534      -0.69422639       0.19726095
Ti       2.01131948       6.03553670       6.03611703       0.50538889       0.42247004       0.16868879
Ti       6.11363147       6.05760614       6.00188676      -0.85659901       0.76702692       0.89603279
O        4.15604834       2.14140702       1.96101427      -1.11695483      -0.41668455      -0.07900332
O        8.11895829       1.99750050       2.03905426       0.46891420       0.31533886      -0.71035364
O        3.97875500       6.05485806       2.13258249       0.76854027       0.01944165      -0.32296758
O        8.15628795       6.09206650       2.07847882      -1.34583238      -0.01534820      -0.00786269
O        4.09182958       2.04544227       6.04648199      -0.23466921      -0.12490908      -0.37433771
O        8.07673032       1.98745383       6.07810108       0.28414958       0.38230890      -0.24690612
O        4.05787173       6.09088211       6.11107939      -0.27646095      -0.33197210      -0.33117043
O        8.13322185       6.09401515       5.99954828      -0.02269436      -0.41717923       0.42624622
O        1.98494860       4.04739649       2.04209461       0.16191856      -0.17833403      -0.17125295
O        6.08028606       4.09186634       2.00167009       0.39794429       0.16148842       0.29840583
O        2.09708786       8.10051755       2.07002677      -0.11554718       0.68295339      -0.45100518
O        6.11602380       8.11165232       2.03467075      -0.18914989      -0.97388837      -0.07494971
O        2.00551779       3.96300928       6.08466584       0.00129686       1.11029645      -0.30526579
O        6.04248639       4.03522685       6.04380314       0.52378796      -0.01259918       0.08250979
O        2.09974351       8.08484106       6.11737311      -0.43553948      -0.67625695      -0.43556030
O        6.16676263       8.06755467       6.08058466      -0.38970725      -0.76266093      -0.38753672
O        2.13645233       2.01701540      -0.07581499      -0.64656123      -0.05215868       1.11297014
O        6.04485942       1.90493211      -0.12327523       0.37477120       0.77352693       0.69888960
O        2.08242479       5.95409074       0.01446899      -0.55944248       0.49847185      -0.29227504
O        6.09326297       5.98513368       0.08913996       0.12362018       0.40481479       0.39545238
O        1.95267553       2.07230385       4.03707065       0.57921658      -0.35100135      -0.44845516
O        5.97402904       1.97315503       3.89749793       0.70542920       0.47075588       0.56432141
O        1.98992227       6.06742620       4.00807379       0.19072418      -0.19509685       1.14408023
O        6.00201577       6.01439722       4.17421494       0.42549675       0.15631304      -1.33979466
40
Lattice="8.07229364156986 2.904777715589395e-07 3.5974003450358844e-07 2.9047805627122115e-07 8.072288850344885 -1.5906224019387422e-06 3.5973984946264966e-07 -1.5906229804257139e-06 8.072291048783132" Properties=species:S:1:pos:R:3:REF_forces:R:3 system=batio3_cubic base_model=chgnet config_id=batio3_cubic_c08 T=100.0 draw=8 energy_qe_eV=-74137.05690426691 offset_eV=-73801.84934295047 split=train REF_energy=-335.2075613164343 mock=0 pbc="T T T"
Ba      -0.01907609       4.09376622       4.06905026       0.33181860      -0.33049474      -0.07156023
Ba       4.01249916       4.04503363       4.04214105      -0.00466758      -0.21655425      -0.19029969
Ba      -0.06410180       8.04026410       4.08071616       0.19191125       0.02830013      -0.19195085
Ba       3.96053205       8.05256033       3.95524287       0.67031873       0.09166111       0.32625756
Ba       0.13279776       3.91873881       8.11796252      -0.78202108       0.74654449      -0.39045852
Ba       4.10351429       4.14086755       8.07872965      -0.15244276      -0.91716212       0.06902024
Ba      -0.04764585       8.10466971       8.05310100       0.04550673      -0.44774013       0.13241387
Ba       4.02921655       8.10959768       8.06986348       0.40486879       0.12071304      -0.07436710
Ti       2.07510596       1.96582153       2.08522015      -0.21404742       1.00795909      -1.34895473
Ti       6.11193690       2.00920127       2.01421937       0.35408873       0.02822480      -0.07312012
Ti       2.03061371       6.06690344       1.95346936      -0.49167463      -0.05181544       0.48242071
Ti       6.07701202       6.06160285       2.04470222       0.40296180       0.00440739      -1.32739577
Ti       1.99076323       1.97948335       6.02936475       0.10327170       0.74484062       1.57720467
Ti       6.02524012       1.99517778       6.01921477      -0.15889083      -0.33831244      -0.23397167
Ti       2.07606497       6.10831523       6.06622808      -1.48683682      -0.77939290       0.27893641
Ti       6.01148802       6.03019722       6.00591896       1.12515614       0.20770040       1.46733295
O        4.02012707       2.04709211       2.01410006      -0.34218478      -0.12765270       0.20787626
O        8.06588186       1.89526153       2.18723375      -0.21768245       0.27222377      -0.79571015
O        4.05159790       6.11394268       1.96939967       0.11326044      -0.78538794       0.34923474
O        8.07835495       6.03854515       1.94907084      -0.11000491       0.30608803       0.29209686
O        4.06003000       1.94174688       6.06586145      -0.41574018       0.13065189      -0.20385171
O        8.02902743       2.02253122       6.13403600       0.44014586       0.27740326      -0.81383334
O        4.05959635       6.17800627       6.07625530      -0.53974320      -0.26347328      -0.54412796
O        8.09679393       6.00802613       6.07620191       0.17682068       0.09806573      -0.26598114
O        1.92074476       3.97396515       1.97313325       0.68188767       0.09034445       0.48292902
O        6.15942383       4.03221514       2.08219429      -0.58952387       0.19148625       0.10454285
O        2.07541356       7.96866262       1.82976019      -0.25406973       0.47034399       0.68130377
O        6.03358028       8.07896438       2.03940662      -0.01145966      -0.54853663      -0.08394035
O        2.04209887       4.01448743       6.03010668       0.31123795      -0.08891543      -0.50018164
O        5.92394224       4.03821908       6.07266631       0.33813658       0.06272695      -0.53068855
O        1.92020352       8.12550446       6.10697460       0.49241511      -0.63362755      -0.51559514
O        6.13516599       8.07638101       6.06719934      -0.42279143       0.06232328       0.02633195
O        1.99614411       2.01127056      -0.01307943       0.13893907      -0.16560116      -0.46264816
O        6.07943350       2.07167610       0.06943648      -0.08680893      -0.31593459       0.06957482
O        2.09261982       5.96768717      -0.08433570      -0.14276539       0.35093244       0.13033719
O        6.08181737       6.04274562      -0.02912807      -0.27692735       0.03992795       0.50863440
O        2.01948825       1.92815504       3.95200566       0.13762730       0.01883539       1.08295508
O        6.01560793       1.88099184       4.03846989      -0.05372757       0.85832037       0.73070135
O        1.97952166       6.10140362       3.97000666       0.48155837      -0.15672622       0.14716146
O        6.06570868       6.05518277       4.07394814      -0.18791962      -0.04269754      -0.52862909
40
Lattice="8.07229364156986 2.904777715589395e-07 3.5974003450358844e-07 2.9047805627122115e-07 8.072288850344885 -1.5906224019387422e-06 3.5973984946264966e-07 -1.5906229804257139e-06 8.072291048783132" Properties=species:S:1:pos:R:3:REF_forces:R:3 system=batio3_cubic base_model=chgnet config_id=batio3_cubic_c09 T=100.0 draw=9 energy_qe_eV=-74137.21479138288 offset_eV=-73801.84934295047 split=train REF_energy=-335.365448432407 mock=0 pbc="T T T"
Ba       0.04350699       3.96318525       3.94044938      -0.38557471       0.74130201       0.83305774
Ba       3.99795408       3.99413578       4.03764375       0.35521898       0.53256622       0.05738214
Ba      -0.05979110       8.07064666       3.97209085       0.30185085      -0.20798193       0.79159021
Ba       4.02102369       8.02439007       4.10091376      -0.00635114       0.09762839      -0.08410541
Ba      -0.01722749       4.05226255       8.06922347       0.01469180       0.01395312      -0.05296190
Ba       4.02307872       4.06738420       8.05740635       0.20688613      -0.00145987       0.37752510
Ba       0.01545157       8.07143843       8.04368748      -0.06231557       0.09046889      -0.01333991
Ba       4.10515715       8.12066726       8.06360457      -0.31765362      -0.20450709       0.08975053
Ti       2.07382397       1.99203675       2.04928526       0.65330446       0.77002817      -0.82290779
Ti       6.13322553       2.03145193       2.04391623      -0.38630979       0.10706434      -1.61683565
Ti       1.96425789       6.08391329       2.08665345      -0.19109647      -0.71710741      -1.35702722
Ti       6.00978787       6.07679459       2.04634908      -0.36277366      -0.72227919       0.16748603
Ti       2.05802214       2.06023423       6.08984038      -0.50571157      -0.56269313       0.03302145
Ti       6.06612742       1.99111018       5.97744456       0.37976171      -0.17023608       1.64016096
Ti       2.00419486       6.05387161       6.06582743      -0.25278598       0.37800770       0.58807249
Ti       6.04654094       6.01955918       6.08310882       0.14862416      -0.29523566       0.12871842
O        4.02662209       2.08184368       2.12390340      -0.80825662      -0.46220619      -0.29797466
O        8.02085247       2.07566636       1.91732633       0.14839250      -0.40573139       1.00501286
O        4.07158915       6.04982655       2.07410702       0.02352225       0.25091987      -0.14530975
O        8.11752205       5.97171700       2.03838243       0.15789453       0.79465497       0.32232532
O        4.09991528       2.08991692       6.07783916      -1.23524049      -0.08604120      -0.17043123
O        8.03910759       1.96882838       6.15246376       0.40300217       0.30537044      -0.71552721
O        4.03210802       6.03239634       6.06496045       0.21439221       0.10872681       0.11098501
O        8.08349680       6.10327644       6.13401045      -0.09127673      -0.02890794      -0.61339965
O        1.94878448       4.02466007       2.04414699       0.57305853      -0.25192954       0.18129388
O        6.04531322       4.09995361       2.06883409       0.03964307      -0.19824080      -0.49821089
O        2.00299511       8.06727631       2.15250425      -0.06566675       0.19018296      -0.04520745
O        6.06733875       8.12285260       1.88746398       0.06042632       0.08484383       1.25998016
O        2.03594679       4.08793728       6.15675240      -0.20368382      -1.12483269      -0.12473707
O        6.08102791       4.10248774       6.03248937      -0.05345761       0.10913484       0.09685783
O        2.00918515       8.06852163       6.14833193       0.41299604       0.60604912      -0.56278569
O        5.91136777       8.09754937       6.06116075       0.69664991       0.48474036      -0.64834968
O        2.03008499       1.99257263       0.06972510       0.28551406       0.10780173       0.10537486
O        6.08448549       2.03346087      -0.02936265      -0.52952384       0.37535149       0.57088209
O        1.98605865       6.07968344       0.05996316       0.45135227       0.00348642       0.66731311
O        6.10164985       6.20080644      -0.03102320      -0.34388582      -0.90025352       0.23983790
O        1.95867509       2.05856753       4.13021704       0.17594985      -0.25263994      -0.06782904
O        6.05264406       2.10621821       4.04443247       0.34178883      -0.62508017      -0.34368810
O        2.04569896       5.98219660       4.14789410      -0.23912185       0.44074776      -0.86935528
O        6.09240828       6.05196561       4.01430437      -0.00423461       0.62433378      -0.21664449
40
Lattice="8.07229364156986 2.904777715589395e-07 3.5974003450358844e-07 2.9047805627122115e-07 8.072288850344885 -1.5906224019387422e-06 3.5973984946264966e-07 -1.5906229804257139e-06 8.072291048783132" Properties=species:S:1:pos:R:3:REF_forces:R:3 system=batio3_cubic base_model=chgnet config_id=batio3_cubic_c10 T=100.0 draw=10 energy_qe_eV=-74137.05139069632 offset_eV=-73801.84934295047 split=train REF_energy=-335.2020477458427 mock=0 pbc="T T T"
Ba      -0.04391506       4.04245592       4.07563744       0.23091335       0.09366657      -0.04103069
Ba       4.03088944       4.06046765       4.05416495       0.00510493      -0.16014065      -0.22688468
Ba      -0.01325994       8.06916778       4.01225562       0.00076722      -0.10503805      -0.05114361
Ba       4.10209206       8.06251278       4.07435064      -0.37584309      -0.05668305      -0.71066654
Ba      -0.04445915       4.05432889       8.03759492       0.30801404      -0.13071900       0.08061617
Ba       4.02451087       3.97746722       7.99652508      -0.11534123       0.32356331       0.40613120
Ba       0.07350739       8.09652654       8.05207508      -0.62361722      -0.03422215       0.40837757
Ba       4.07554172       8.08530333       8.10832810      -0.28842121      -0.09578259       0.23528422
Ti       2.00010949       2.02873810       1.99831040       1.18502710      -1.25688352      -0.02236988
Ti       6.03667923       2.04322908       1.94963037      -0.09370540      -1.18280567       0.69542761
Ti       2.07171553       5.96463074       2.04997626      -0.26802413       0.31366816       1.08887582
Ti       6.09037764       5.99839331       2.02976535       0.03580081       1.12461723       0.93318472
Ti       2.03161469       2.00675303       6.00278547      -0.05401322       0.30704525      -0.67151507
Ti       6.02403263       2.02759275       6.01401526       0.73488916      -0.27716801      -0.02377808
Ti       2.03767130       6.08813377       6.11550391      -0.54995151      -0.35189481      -0.62489557
Ti       6.02847708       6.08195468       6.13268986       0.66578562       0.52199976      -0.17202351
O        3.97801564       1.93224932       2.12749333      -0.54743466       1.00770686      -0.51389796
O        7.90726155       2.02181822       1.98084641       1.34747429       0.38351629      -0.09655367
O        4.09399138       6.03806068       2.02884856      -1.07397447      -0.01202608      -0.40741958
O        8.08364944       5.95186512       2.09766111       0.21082326       0.54675434      -0.86602468
O        3.96829352       1.97135081       5.92353879       0.71128952      -0.00510235       0.83034342
O        7.99613541       2.00010352       6.09738438      -0.47684322       0.34506647       0.00860754
O        3.98003749       6.06115214       5.98631222       0.74612925       0.17905240       0.57141328
O        8.09571779       6.02745195       6.14984873      -0.50713416      -0.12206569      -0.62607648
O        2.01197051       4.10732494       2.12318333       0.07963838      -0.57651383      -0.67574402
O        6.03042222       4.09295271       2.01065244      -0.15771147      -0.75266114      -0.41112994
O        2.00762673       8.19773631       2.14256876      -0.38834816      -0.08653665      -0.54106449
O        6.01430073       8.05495033       1.93920069       0.26527614      -0.07001500      -0.06801571
O        2.08448987       4.02693116       5.94350960      -0.48213635       0.34440338       1.19228173
O        5.98338979       4.00158728       6.06339682       0.08292759      -0.08626514      -0.20318040
O        1.90449563       8.11304865       6.12275593       0.59003989      -0.38718165      -0.31914461
O        6.06959620       8.05879151       6.12696390      -0.31758806      -0.29559099      -0.48391787
O        2.06383058       2.12342106       0.08156317      -0.39752443      -0.14601552       0.26661568
O        5.91538695       1.95789365      -0.01254470       0.09209743       0.75621595      -0.44067937
O        1.99155791       6.16248419      -0.02209334       0.45116073      -0.71821736       0.46769086
O        6.05829286       6.04630710      -0.07519054      -0.17263518      -0.23958799      -0.10865611
O        1.96795285       2.03827916       4.16383394      -0.46279728       0.00957427      -0.83853444
O        6.03104610       1.94235218       3.92377211       0.06001469       0.45247456       1.49096833
O        2.04369325       5.98563626       4.02496356      -0.13255477       0.84244560      -0.23828136
O        6.11912951       6.12247914       3.95963757      -0.31757392      -0.40265352       0.70681091
40
Lattice="8.07229364156986 2.904777715589395e-07 3.5974003450358844e-07 2.9047805627122115e-07 8.072288850344885 -1.5906224019387422e-06 3.5973984946264966e-07 -1.5906229804257139e-06 8.072291048783132" Properties=species:S:1:pos:R:3:REF_forces:R:3 system=batio3_cubic base_model=chgnet config_id=batio3_cubic_c11 T=100.0 draw=11 energy_qe_eV=-74137.26998191982 offset_eV=-73801.84934295047 split=train REF_energy=-335.4206389693427 mock=0 pbc="T T T"
Ba       0.06113058       4.01640047       3.97914479      -0.45731878       0.22602208       0.43654323
Ba       4.02753273       4.09852993       4.06394530      -0.04870466      -0.61295382      -0.06428812
Ba       0.07843261       8.01942169       4.01269488      -0.36167348       0.49056751       0.39130082
Ba       4.09536050       8.06493148       4.09849242      -0.63970744       0.33155969      -0.42262560
Ba      -0.10564378       4.04328386       7.99101539       0.25436875       0.02279643       0.35465694
Ba       4.03777758       4.04099558       8.07679313      -0.00989258      -0.17798359      -0.12257220
Ba      -0.00715207       8.07691425       8.17306522      -0.16352268       0.10041932      -0.84562735
Ba       4.06119320       8.02314933       8.05156270      -0.18021685       0.49820729       0.16668179
Ti       2.06517243       2.03404952       1.94870023       0.36606133      -0.27346973       0.54809157
Ti       6.06894590       1.99852671       2.07221030       0.19997732      -0.02938719      -0.60211302
Ti       1.98019733       6.09153413       2.03147943       0.01315556      -0.78339508       0.25192980
Ti       5.98484906       6.01272469       2.07142323      -0.16693736       0.06009362      -0.00637505
Ti       1.95437809       2.06192909       6.05546162      -0.06811598      -1.22330234      -0.69707492
Ti       6.00833005       1.96026388       6.03061884      -0.16314549       0.80791440       0.29384701
Ti       2.00885179       6.03694297       6.06682616      -0.64655634       0.03564732       0.64230091
Ti       5.98886571       6.07752127       6.07240305       0.65590590      -0.97587069       0.22595934
O        4.03077306       2.03464630       2.01878944      -1.02222871       0.02720587      -0.06722046
O        8.01621022       2.18934355       2.10838507       0.42720267      -0.87889331      -0.46875582
O        4.02911502       6.04322545       2.06805793       0.51115228       0.42432638      -0.29310447
O        8.08522321       6.11523688       1.92695333      -0.26665065      -0.24014335       0.15379336
O        4.08163512       2.11012872       6.00815672       0.00811157      -0.42203039       0.56572960
O        8.07652929       1.95016140       6.08667547       0.33162808       0.64964526      -0.24700691
O        4.02570769       6.00496625       6.02785557       0.52319532       0.62697970      -0.39462551
O        8.07449015       6.06749199       6.04668240       0.02849168       0.19978243       0.00378389
O        1.97531499       4.20004747       1.90602936       0.27084129      -1.05467320       0.17400738
O        5.94659422       3.97874457       2.10626118       0.46190537       0.69368363      -0.34749668
O        2.04950315       8.11077165       1.95234899      -0.24806646       0.80413205      -0.02449156
O        6.08078170       8.09287650       2.05715613      -0.18499704      -0.24862979       0.05333419
O        2.04381726       4.11414073       6.04950940      -0.35397534      -0.30875941      -0.24370818
O        6.04639415       4.04649164       6.05037847       0.24023334       0.27517951       0.02166669
O        2.06714681       8.20650381       5.97999012       0.09285693      -0.53395411       0.32161158
O        6.06659456       8.05584354       6.06781802      -0.30652743      -0.61468726      -0.02271364
O        1.93502654       2.07126008      -0.03147066       0.41462612       0.05816272       1.02282777
O        6.04854677       1.93197420       0.02005116       0.04106926       0.37148378       0.34157028
O        2.09015423       6.10295018      -0.15553295      -0.24896326       0.27531758       0.51765331
O        5.91490482       6.01754103       0.01374384       0.58269399       0.15169791      -0.19095763
O        2.04800810       2.03676131       4.05588612      -0.23424910       0.47658071      -0.82554626
O        6.03638580       1.92418927       4.12446472       0.16248472       0.26943361      -0.71828318
O        1.98247705       6.09365754       3.93906163       0.11035509       0.04736795       0.12822760
O        6.05477601       5.98986096       4.00485427       0.07513278       0.45392569      -0.01093079
40
Lattice="8.07229364156986 2.904777715589395e-07 3.5974003450358844e-07 2.9047805627122115e-07 8.072288850344885 -1.5906224019387422e-06 3.5973984946264966e-07 -1.5906229804257139e-06 8.072291048783132" Properties=species:S:1:pos:R:3:REF_forces:R:3 system=batio3_cubic base_model=chgnet config_id=batio3_cubic_c12 T=100.0 draw=12 energy_qe_eV=-74136.92440578024 offset_eV=-73801.84934295047 split=train REF_energy=-335.0750628297683 mock=0 pbc="T T T"
Ba      -0.08137769       4.09389342       4.01738512       0.45585710      -0.48218237      -0.06718653
Ba       3.98108646       3.96941494       3.99124654       0.38699628       0.49857547       0.28983686
Ba      -0.01561286       7.99373895       4.09581942      -0.02156538       0.43544255      -0.60741721
Ba       4.10007634       8.07639144       4.03658925      -0.46838378      -0.16730040       0.21567956
Ba       0.01898416       4.02663594       8.04005426      -0.14446566       0.13653972       0.48742331
Ba       4.07129004       4.05392356       8.08784364      -0.14002202      -0.02114887      -0.11338925
Ba       0.00914224       8.08826694       8.01395256      -0.11098578      -0.19568435       0.46896922
Ba       4.10229892       8.15316417       8.14801586      -0.33266964      -0.54091434      -0.54326458
Ti       2.02455424       2.05559882       1.97648762      -0.28213383      -0.11614341      -0.61504747
Ti       6.09904730       1.94124894       2.03286106       0.34537783       1.08758486       0.56996086
Ti       1.99518598       6.05133954       2.00241447      -0.38972859       0.71311654       0.69440354
Ti       6.01577682       6.02359024       2.04812305      -0.27632571      -0.75032684      -0.29864263
Ti       1.98524642       2.05249519       5.98132197       0.53028926       0.39000035       0.17269457
Ti       6.06158457       2.01655202       6.08112867      -0.51885736      -1.05049979      -0.93443453
Ti       2.02198927       6.09615814       6.08383682       1.02665795      -0.64349698      -0.23912005
Ti       6.07355807       5.97620172       6.03924966      -0.63539955       0.83307985       0.57388591
O        4.04492590       2.07696014       2.04183400      -0.38290899      -0.74129892       0.03037707
O        8.09181704       1.89303869       1.92209732       0.26661568       0.41480764       0.63144880
O        4.10667443       6.00739387       1.97995679      -0.69467248       0.17610643       0.26854684
O        8.11090180       6.01995259       2.09324101       0.30376915       0.07539709      -0.70251897
O        4.10075779       2.03103378       6.09951241      -1.20893091       0.18743034      -0.27296554
O        7.90054496       2.13932034       6.02616913       1.90280583      -0.19624125       0.54571433
O        4.00338955       6.12339375       6.04791518      -0.67964335       0.07974971       0.00092045
O        8.03160274       5.97171893       6.16837503       0.00440147       0.65694463      -0.75291928
O        2.05786629       4.00411323       2.01803379      -0.38032452      -0.19832718      -0.33251357
O        6.03998047       3.99003021       2.09822777       0.34226217       0.31572298      -0.24166776
O        1.99776920       8.00358503       2.00792756       0.45447899      -0.17195589       0.15444797
O        5.99888877       8.04269439       2.13096415       0.26424976       0.41092039      -0.76553594
O        1.99976844       4.04416938       6.12898099       0.00717415      -0.60589229      -0.30723114
O        5.98013125       4.19269507       5.94409131      -0.07195181      -1.42730987       0.48884230
O        1.84598623       8.14447493       5.99829072       0.48726904      -0.15724121       0.22703561
O        5.96732229       8.12707274       5.97475028       0.70169879       0.31777704       0.74660773
O        2.03904166       1.99379937       0.02034685      -0.14344724      -0.02367112       0.06157201
O        6.13568370       2.14357918       0.08601002      -0.56770446      -0.73540878      -0.73113484
O        1.99576647       6.07710531      -0.06817044       0.17482936       0.07168441       0.65688600
O        5.95655349       6.00721773       0.01219997       0.76395265       0.38989314      -0.13066166
O        1.96132679       2.06006848       4.06798883       0.16093692      -0.15533757       0.31863990
O        6.18613009       2.00712194       4.05493532      -0.75067188       0.11205767      -0.32869111
O        2.06310234       5.93724357       4.03806209      -0.26606547       0.60848987      -0.12796509
O        6.07844946       6.01515893       3.98629091      -0.11276447       0.46906126       0.50841405
40
Lattice="8.07229364156986 2.904777715589395e-07 3.5974003450358844e-07 2.9047805627122115e-07 8.072288850344885 -1.5906224019387422e-06 3.5973984946264966e-07 -1.5906229804257139e-06 8.072291048783132" Properties=species:S:1:pos:R:3:REF_forces:R:3 system=batio3_cubic base_model=chgnet config_id=batio3_cubic_c13 T=300.0 draw=0 energy_qe_eV=-74136.85010210336 offset_eV=-73801.84934295047 split=train REF_energy=-335.0007591528847 mock=0 pbc="T T T"
Ba      -0.06592756       3.98927527       4.00944137       0.38007770       0.50783915       0.41039023
Ba       4.10264176       3.96181493       3.97944115      -0.28065596       0.60663534       0.45736711
Ba      -0.01566420       8.07798298       3.97040336       0.45103886      -0.22985662       0.38707110
Ba       3.99589360       8.03872731       4.13050400      -0.24439107      -0.23332324      -0.50366265
Ba      -0.10104134       4.03348835       8.09071208       0.55433653      -0.00524968      -0.26805113
Ba       4.07570703       4.11118977       8.11999382      -0.24299907      -0.33107247      -0.37793854
Ba       0.11826444       8.09076358       7.95634940      -0.25993056       0.03913630       0.68003930
Ba       3.98470475       8.12638361       8.11708810      -0.03526294      -0.34766380      -0.10981644
Ti       1.91376007       2.11142108       2.08265387       0.01904210      -1.73587130      -0.46483051
Ti       6.00558153       2.01716698       1.87943325       0.05483752       0.42251992       0.42068801
Ti       1.96256492       5.98856602       2.02262993       0.64284341       1.93848194      -0.06255494
Ti       6.07718858       6.12146031       2.04769019      -1.02985177      -0.18278101       0.24632711
Ti       1.99978474       2.07055087       6.09368003       0.60560664       0.75213484       0.63058670
Ti       6.06056000       2.01910357       5.93416467      -0.00240707       0.06383098       1.77542335
Ti       1.96605876       5.97807408       6.06752221       0.35732035       0.65674485      -0.89584793
Ti       6.03389911       6.09120488       6.10395322      -0.78526350      -0.47547745       0.06132492
O        4.15697046       1.97834865       1.96011471      -0.38114856       0.00131949       0.78439601
O        8.15050523       1.98479689       2.05051927      -0.88521976      -0.01232253      -0.15008275
O        4.10875305       6.04103367       2.07308258       0.86973555      -0.26016633      -0.50884188
O        8.17800910       6.00945389       2.02921509      -0.22477689      -0.32421637       0.47416722
O        3.96007393       2.05181281       6.10698196       0.33111618      -0.52809045      -0.33990627
O        8.02875706       2.09614848       6.06273389       0.41382471      -0.41304489       0.14606309
O        4.13740873       6.09088643       6.18604303       0.78390519      -0.15255563      -0.17507053
O        8.17642834       5.99648920       5.94425770      -0.03109852      -0.08696911       0.48130048
O        2.02394132       3.91229967       1.93266467       0.23754191       1.50679912       0.61166981
O        6.12539329       4.00542822       2.03472214      -0.08969319      -0.31341490      -0.22539319
O        1.98000882       7.99527671       2.06301013       0.39057294      -0.16844480       0.07912673
O        6.10938012       7.96562506       2.05910883       0.08872337       1.04311378       0.23258122
O        2.13317246       3.96105705       6.07956841      -0.59401379       0.41440321      -0.02598922
O        6.03655286       4.06561170       6.17903350       0.03706991       0.16305525      -0.22618920
O        2.02027058       7.91123853       6.05504620       0.01584288       0.93693442      -0.03598027
O        6.03042095       8.14492648       6.06364294       0.30584429      -0.20198741      -0.18337879
O        1.93779184       2.12839918      -0.00611015       0.36865377      -0.98729564      -0.61847681
O        6.05032374       2.01044197       0.11247331       0.37517820      -0.20336552      -0.67893193
O        2.12699838       6.10293902       0.09407533      -0.48102640      -0.88035909      -0.40259362
O        6.35588821       6.24229674      -0.01968587      -1.08737918      -0.92713312      -0.02014177
O        1.93790850       2.02430962       4.00200575       0.58877877      -0.04730110       0.44167541
O        6.13509554       2.09810791       4.19213662      -0.54527673      -0.39911723      -1.84613666
O        2.24585270       5.91584852       4.10090641      -0.74699726      -0.00805629      -0.20896564
O        6.10272859       5.99006615       4.05247739       0.07550173       0.40218635       0.00858234
40
Lattice="8.07229364156986 2.904777715589395e-07 3.5974003450358844e-07 2.9047805627122115e-07 8.072288850344885 -1.5906224019387422e-06 3.5973984946264966e-07 -1.5906229804257139e-06 8.072291048783132" Properties=species:S:1:pos:R:3:REF_forces:R:3 system=batio3_cubic base_model=chgnet config_id=batio3_cubic_c14 T=300.0 draw=1 energy_qe_eV=-74136.08151125985 offset_eV=-73801.84934295047 split=train REF_energy=-334.232168309376 mock=0 pbc="T T T"
Ba       0.11281350       4.02865557       4.14308610      -0.66861023      -0.28548835      -1.42472951
Ba       4.06557119       3.95698218       4.02072199      -0.19239282       0.51060515       0.00010413
Ba      -0.01857235       8.08385472       4.01966860      -0.14625309      -0.21583177      -0.18544621
Ba       3.97679861       8.00436507       4.02121248       0.48399474      -0.03715295       0.12212714
Ba      -0.02598287       4.15263537       7.99158576       0.89065919      -1.63542524       0.97870996
Ba       4.05097190       4.06326785       8.07844219      -0.24015338      -0.08543930      -0.18494768
Ba      -0.05053098       8.13075030       8.10401803       0.36560187      -0.13737353       0.23506593
Ba       3.99749025       8.23728233       8.08519716       0.31554532      -1.26495730      -0.22779383
Ti       2.07840085       2.01060634       2.00739104      -1.60976923       0.23754216      -0.29354028
Ti       6.02440524       2.03936352       2.06748042       1.21897106      -0.56114584       0.31314854
Ti       2.13897375       6.02776199       1.95191548      -0.36378590       0.46047789       0.25945285
Ti       6.17533058       5.98249214       2.06489281       0.05124620       1.25687298       0.29418151
Ti       1.97595508       2.03945816       6.03808699       0.56584350      -0.46615669       0.38555826
Ti       6.02040032       2.00779320       6.10106383       0.00598861      -1.07636071      -0.03827961
Ti       1.96790720       6.06246026       6.03476012       1.22414927       0.96929381       0.92784274
Ti       6.04297029       5.99332707       6.11745206      -1.93393366       0.71929208      -0.72354880
O        4.11733481       1.99978155       2.01029646      -1.40125457       0.25274484       0.17602029
O        8.08701060       1.90141693       1.98661269       0.23659934      -0.03106947       0.03942915
O        3.92964272       6.00502759       1.95975549       1.51435714      -0.68189333      -0.19897150
O        8.04373611       5.99996930       1.98800757      -0.75041631       0.19987756       0.40651969
O        3.97227225       1.92086805       6.00552490       0.53067029       0.52720573      -0.03225500
O        8.01239556       1.98044807       5.98134656      -0.06585804       0.46178684       0.53378236
O        4.10721856       6.07296892       6.02682701      -0.11063920       0.00157249       0.50655463
O        8.19642493       5.91882018       6.01054830      -0.84844373       0.60486307      -0.15578905
O        1.97256249       3.97074466       1.97161672       0.33954657      -0.84582146       0.35785359
O        6.10952090       3.87796395       1.94318300      -0.23570820       1.17558601       1.09750778
O        2.17223731       7.99802366       1.88844570      -0.86335433       0.64926680       0.21417829
O        5.93261623       7.99212161       2.13872424       0.70079350      -0.75957072      -1.05654574
O        2.05395356       3.95563669       5.93756879       0.04389156      -0.04489172       0.13940727
O        5.90705616       4.14771601       5.87806037       1.01341034      -1.65364974       1.03074883
O        2.01018254       8.03686743       6.19002782      -0.41072627      -0.77574733      -0.76287588
O        6.06962839       8.06049746       6.29218996       0.24360765       0.11054947      -0.89555251
O        2.02163081       2.01944768      -0.01734618      -0.02810524       0.11083049      -0.17755216
O        5.99402890       2.09535912      -0.00887518       0.24739386      -0.23643890      -1.21174986
O        2.04198541       5.89951261      -0.05570005      -0.24809757       0.28671837      -0.92129414
O        6.19293744       5.77169106       0.08894163      -0.99210026       1.42597367      -1.05870726
O        1.91699979       1.83755609       4.02208005       0.64379523       0.61242777      -0.17792368
O        6.05285953       1.91187367       4.02308926      -0.13619288       0.49576448       0.52802668
O        2.06172240       6.06329897       3.86357269      -0.39144789      -0.20960944       1.70842735
O        5.94115983       6.02774387       4.05833560       1.00117677      -0.06522786      -0.52714377
40
Lattice="8.07229364156986 2.904777715589395e-07 3.5974003450358844e-07 2.9047805627122115e-07 8.072288850344885 -1.5906224019387422e-06 3.5973984946264966e-07 -1.5906229804257139e-06 8.072291048783132" Properties=species:S:1:pos:R:3:REF_forces:R:3 system=batio3_cubic base_model=chgnet config_id=batio3_cubic_c15 T=300.0 draw=2 energy_qe_eV=-74136.75642419326 offset_eV=-73801.84934295047 split=train REF_energy=-334.9070812427817 mock=0 pbc="T T T"
Ba       0.11467308       4.02647135       4.01278312      -1.25819993       0.23448101       0.47018689
Ba       3.99118673       3.98818798       4.02356944       0.45933041       0.31711524       0.28321421
Ba       0.07957407       8.08951468       3.97842205      -0.93180378      -0.18671377       0.23923086
Ba       4.02364100       8.14904883       3.97605172       0.30864062      -0.31434539       0.70706597
Ba      -0.05824302       4.05389361       8.06162198       0.38803449       0.09968784       0.12814995
Ba       4.00804355       3.99642761       8.09844079      -0.21084743       0.38758763      -0.02218991
Ba      -0.01731900       8.05417170       7.97809407       0.06858058      -0.17729453       0.62745844
Ba       4.14392910       8.01961380       8.17199403      -0.93342178       0.25357531      -0.42133696
Ti       1.91768513       2.04942512       2.06802310       0.68586799      -0.97845979      -0.27287683
Ti       6.00273216       2.08480948       2.07357267      -0.11627120      -0.56609804       0.31763228
Ti       2.02886129       6.05156791       2.06355648       0.32806222       1.08927434      -1.29331708
Ti       6.07890996       6.08188902       2.02642655      -0.28836105      -0.29543904       0.35902525
Ti       2.00173402       1.91079754       6.13135075       1.26112430      -0.26768141       0.62476753
Ti       6.04277317       2.07313032       6.13076942      -0.24918926      -0.25901499      -0.73309607
Ti       2.04485650       5.99901886       6.01717781       0.11738423      -0.04244763       0.87007879
Ti       6.02841331       6.04220153       6.02599571      -0.20675552       0.59833119      -0.80615474
O        3.95567156       2.13333569       2.10555630       0.52985191       0.18803506      -0.17333195
O        8.03460631       1.94740873       1.94435541      -0.20468707       0.10864479      -0.05269116
O        4.05736735       6.12437938       2.06435306      -0.17357826      -0.97137846      -0.38450385
O        8.07366490       6.14194190       2.03254922       0.10182366       0.13065266       0.31716152
O        3.95624809       1.98166928       6.01679043      -0.46596000       0.46900598      -0.07784221
O        7.95727391       2.15854152       6.17127500       0.43975326      -0.88733244      -0.19957546
O        4.06203358       6.06624354       6.01540006      -0.57133589      -0.21004216       0.46204292
O        8.07713042       6.05659696       6.01113698       0.18684489       0.03630372      -0.05945470
O        1.80788547       3.95934482       1.96849240       0.89859901       1.08382874       0.14227096
O        6.06748799       4.10224927       2.09370056       0.08241234      -0.18743162       0.24443915
O        2.19164196       8.12629324       2.09334998      -1.27557570      -0.63831210      -0.42612950
O        5.92586129       8.15576505       2.09614450       0.71785200      -0.45863492      -0.68578212
O        2.04735971       4.12903993       6.07689293      -0.20874632      -0.22423928      -0.22064076
O        6.01576570       4.01734886       5.98333840      -0.30127801      -0.02904087       0.31046199
O        1.95701551       8.07366809       6.05163918      -0.15395072       0.61853132      -0.24855137
O        5.88471564       8.05285692       6.17123098       1.22213686       0.27103747       0.01123958
O        2.10361352       1.92090042      -0.04765142      -0.70299385       0.38424648      -0.47431685
O        5.88340009       2.12370854       0.08748521       0.52366507      -0.24341122      -0.69050806
O        2.02880734       6.08459457       0.05467120       0.00746340      -0.05291279      -0.20239261
O        6.16447906       5.87861944       0.03773054      -0.69248164       1.04674392       0.09247538
O        1.83183885       2.01603337       3.97768825       0.42245076       0.28185950       0.71496285
O        6.04266533       1.99095974       4.05635994       0.19832744       0.29858684       0.02764913
O        2.10674311       6.08433496       3.98131378      -0.52638324      -0.46341718       0.51664055
O        5.99808715       6.15914600       4.07748882       0.52361519      -0.44388168      -0.02146177
40
Lattice="8.07229364156986 2.904777715589395e-07 3.5974003450358844e-07 2.9047805627122115e-07 8.072288850344885 -1.5906224019387422e-06 3.5973984946264966e-07 -1.5906229804257139e-06 8.072291048783132" Properties=species:S:1:pos:R:3:REF_forces:R:3 system=batio3_cubic base_model=chgnet config_id=batio3_cubic_c18 T=300.0 draw=5 energy_qe_eV=-74136.01092397771 offset_eV=-73801.84934295047 split=train REF_energy=-334.1615810272342 mock=0 pbc="T T T"
Ba      -0.05000231       4.10690091       4.19530570      -0.06197336      -0.34249614      -1.17840831
Ba       3.98760623       4.00677245       4.03492607       0.21843244       0.20961407      -0.45280829
Ba      -0.03204434       8.04451845       3.94256468      -0.30708922       0.35414349       0.33989161
Ba       4.13293312       8.03166098       4.09202482      -0.45942991       0.24157468      -0.43508336
Ba       0.08799650       3.96159394       8.04160205      -0.71108974       0.54874489       0.64251534
Ba       3.86603889       4.06673507       8.02371014       0.99172668      -0.13366034       0.67035679
Ba       0.21329614       8.12354901       7.85332035      -1.99911215      -0.44665153       1.58272688
Ba       4.07779348       8.07708039       8.25159274       0.18442394      -0.05545844      -0.91359909
Ti       2.01101741       1.91966807       2.09017886      -0.62835833       0.82856190      -0.23836672
Ti       6.04786565       2.07354090       1.98264434       0.15003930      -0.26485114       1.06789150
Ti       1.95038871       6.06833997       2.01850592      -0.79906595      -0.83316701       0.01116836
Ti       5.98849932       6.02568694       2.02269770       0.16062453       0.74022060      -0.81870558
Ti       1.93923589       2.02189210       6.06082125       0.98752396      -0.56611861       0.18116893
Ti       5.90676784       1.98446743       6.03279120       1.32755672      -0.26171465      -0.23084958
Ti       2.03662937       6.04323861       6.02588981      -0.08936049       0.09952355       0.77176675
Ti       6.01563440       6.02737843       6.08026440       0.96192503      -0.04786006       0.05183884
O        4.06448190       2.07377544       2.12848865       0.25822309      -0.50831789      -0.79059365
O        8.13179115       1.98328542       2.04516247      -1.07442673       0.23682585      -0.87150293
O        4.05846219       6.05459770       2.06127465      -0.21442898      -0.02056805      -0.02555162
O        8.11504756       6.08435965       2.01593853      -0.19410235      -0.25322924      -0.02087324
O        4.16137308       2.01010868       5.87571657      -1.44308667       0.12261591       0.42930429
O        8.26331473       2.16291640       6.05129373      -1.76840733      -0.12945787      -0.26481668
O        3.95654619       6.07161733       5.99897949      -0.21776447       0.24491249       0.38821909
O        8.01121027       5.96889110       6.20528220       0.61210896       0.41118779      -0.87929877
O        1.92944828       4.03718833       2.00771789       0.65021888       0.59742333       0.24906791
O        5.94933451       4.03075136       2.16273957       0.86720096      -0.12729815      -0.78895895
O        2.01994695       8.10332399       1.78121390       0.24799498      -0.32531063       0.51434970
O        6.08473357       8.02341736       2.17650262      -0.48960592       0.50386526      -0.77039712
O        2.10807110       4.06574545       6.02719118      -0.21194220       0.72500533      -0.83336267
O        6.06989743       4.10429402       6.18260033      -0.50292552      -0.20518766      -0.48122669
O        1.93062445       8.19914418       6.09408957       1.04063344      -1.38592591      -0.76044053
O        6.13329953       8.08262672       5.99764840      -0.28957461       0.49868886       0.43873381
O        2.08129213       2.04781429      -0.12357549       0.36695196       0.29174385       0.16081145
O        5.99159062       1.96293137      -0.09118272       0.28746733       0.32204558       1.27667896
O        1.96365272       5.99363784      -0.05180816       0.58128169       0.39032020      -0.52429473
O        5.97661905       6.10100157       0.09260793      -0.05549418      -0.15398208       0.15273484
O        1.92495650       1.83308541       3.88417237       0.81500808       0.69438632       1.21314649
O        6.10710281       2.08195449       4.02895031       0.21926136       0.00879112       0.16015093
O        1.94887447       6.30309610       3.93042969       0.36300454      -1.00399959       1.06583179
O        6.01345590       6.13419558       4.15651377       0.22563050      -1.00494035      -0.08921497
40
Lattice="8.07229364156986 2.904777715589395e-07 3.5974003450358844e-07 2.9047805627122115e-07 8.072288850344885 -1.5906224019387422e-06 3.5973984946264966e-07 -1.5906229804257139e-06 8.072291048783132" Properties=species:S:1:pos:R:3:REF_forces:R:3 system=batio3_cubic base_model=chgnet config_id=batio3_cubic_c20 T=300.0 draw=7 energy_qe_eV=-74136.19221451649 offset_eV=-73801.84934295047 split=train REF_energy=-334.34287156601204 mock=0 pbc="T T T"
Ba      -0.10207340       4.19303196       4.06568971       0.72092601      -1.01928994      -0.15032495
Ba       3.89961858       4.05065362       4.06371114       0.78002642      -0.05532654      -0.46740033
Ba      -0.03646097       8.02854265       4.07004428       0.47862577       0.17325559      -0.17841296
Ba       4.07602929       8.11338330       4.05125891      -0.01416061      -0.45014797      -0.53601844
Ba       0.09093966       4.03406197       7.86009747      -1.08078070      -0.10454671       1.37364375
Ba       4.04109764       3.84460352       8.10449330       0.38982063       0.96450256      -0.30538278
Ba       0.02041183       8.17305723       8.03292925      -0.77632609      -0.72892832       0.23525157
Ba       4.06685909       8.07163352       8.26956908       0.40121551      -0.05800846      -0.97887040
Ti       2.02463477       1.97594201       1.97024527       0.10121328       1.40896736       0.20846916
Ti       6.14102080       2.15013720       2.06748425      -0.48831445      -0.55956178      -0.86687366
Ti       1.97232041       6.08006024       1.99093135      -0.24745017      -0.19433709       0.33764472
Ti       5.99833916       6.05919579       1.99507959      -0.05296061       0.82159833      -0.76238042
Ti       2.02721427       1.91656920       5.97059208      -0.42138375      -0.81817645       0.04482513
Ti       5.97390200       2.03492434       5.98035275       0.95134982       1.33783214       0.74062323
Ti       2.10054083       5.99196817       6.10875038       0.10910553       0.43417756       0.67261704
Ti       6.01858006       6.13599331       6.02633799       0.09454615      -0.75361142       0.46848816
O        4.11668819       2.00526140       2.04681210      -1.30528120      -0.84372884       0.22562382
O        8.01927180       2.11342825       1.95576442       1.54230528      -0.24577818       0.17769742
O        4.09290368       6.10433239       2.09997618       0.84729136      -0.14146724      -0.16940099
O        8.19514602       5.94137197       1.94843693      -0.02474250      -0.25997067      -0.01581820
O        4.09301371       1.95334413       6.01063312      -1.20236559       0.34524825      -0.16430789
O        7.99191799       2.02636838       5.93071224       1.41569234      -0.40575839       0.64297351
O        4.06887863       6.00221177       6.09148436      -0.34659962       0.16561761      -0.49141906
O        8.06976884       6.09327070       6.13929197       0.55078223       0.03708971      -0.34927382
O        2.15905666       3.87592564       1.81228395      -0.61712672      -0.33064438       0.85469897
O        5.97242719       3.97706389       2.03288833       0.42625394       1.06555205       0.03981096
O        2.01291365       7.97459237       2.03466348      -0.09309116       0.98978987      -0.28993353
O        6.36574695       8.00032773       2.13723850      -1.36594638      -0.70746577      -0.21648971
O        1.95094635       4.08514086       6.15251764       0.80592463      -0.33452983      -1.04234013
O        5.97260337       3.98619351       6.11462106       0.37968766      -0.24937875      -0.14418489
O        2.20191780       8.08107584       5.91892864      -0.95356920       0.15898956       0.50905837
O        6.05401068       8.00494910       6.03108978      -0.20469246       0.21302952      -0.16431200
O        1.95419358       1.83533358      -0.07329485       0.53707003       0.46709411       0.13243572
O        5.90457503       2.00810925       0.04068452       1.07723695      -0.49351965      -0.33096731
O        2.24135609       6.04959789      -0.01967678      -0.89460275       0.19697761      -0.67073911
O        6.07304706       6.14030478       0.08167296      -0.16943158      -0.51768442       0.02095835
O        2.06500414       1.94421774       4.01854233      -0.31692960       0.47425978      -0.01638024
O        6.15503651       2.10212933       4.03577837      -0.75671217      -0.51660867       0.25629039
O        2.04487932       6.00953654       3.91032684      -0.04779655      -0.35726070       1.02660138
O        6.09132114       5.88558271       4.08672236      -0.22880864       0.89174831       0.34352021
40
Lattice="8.07229364156986 2.904777715589395e-07 3.5974003450358844e-07 2.9047805627122115e-07 8.072288850344885 -1.5906224019387422e-06 3.5973984946264966e-07 -1.5906229804257139e-06 8.072291048783132" Properties=species:S:1:pos:R:3:REF_forces:R:3 system=batio3_cubic base_model=chgnet config_id=batio3_cubic_c21 T=300.0 draw=8 energy_qe_eV=-74136.35502743718 offset_eV=-73801.84934295047 split=train REF_energy=-334.50568448670674 mock=0 pbc="T T T"
Ba      -0.07974626       4.04174937       4.00319082       0.99856273      -0.52199153       0.41746693
Ba       3.99828248       3.93966169       4.01998098       0.06044818       1.08796025       0.18423060
Ba       0.09213607       7.98932933       3.96564360      -0.59195331       0.60564855       0.64622467
Ba       4.03252575       8.19761096       4.02425443      -0.12442905      -1.09368326       0.00885411
Ba      -0.10710151       3.99292916       8.01789388       1.27785216       0.21635113       0.40919595
Ba       4.09709427       3.99279380       7.91689814      -0.73311304       0.40519789       1.00123642
Ba       0.03094745       8.10214917       8.23947719      -0.05961514       0.09970404      -0.81373178
Ba       4.00243442       8.11745559       8.06265499       0.17851452      -0.21676225       0.45011275
Ti       2.07669175       2.05024618       2.05822264      -0.88916486       0.99700490      -0.52058823
Ti       6.02762425       2.09459610       1.97498070       0.92577814      -1.05476165       0.33333324
Ti       2.07026838       6.05500857       2.08830003       0.23739664      -0.55698065       0.17077396
Ti       6.07409621       6.03012808       2.03193388      -0.84326167       1.26769090       0.14409542
Ti       1.95667603       2.07753580       6.07273858      -0.94314235       0.44800367       0.63286933
Ti       5.95758492       1.93135442       5.99173033       1.13835387       0.35654336      -0.61879717
Ti       2.06257920       6.13606553       6.14103104      -0.55411773      -0.09164363       0.08696319
Ti       6.08794922       6.03997331       6.12030041       0.53610329      -0.31758935      -1.33861401
O        4.03946785       2.15714488       2.01853540       0.13310370      -0.61669606       0.30117748
O        8.04520302       1.98712855       2.12268573       0.07977028      -0.19782556      -0.38094416
O        4.04439931       6.07342219       2.09821751       0.60768357      -0.64758401       0.17389502
O        8.18145947       6.11441854       2.00403339      -0.78847841      -0.32467222      -0.17254005
O        3.96179842       2.00569588       6.03298451       1.13018110      -0.40714267       0.14586331
O        8.08962614       2.02899817       6.16300909       0.28154762       0.22375334      -0.39441082
O        4.06665411       6.25263042       6.12506096       0.73579008      -0.66304482      -0.60628284
O        8.10597941       6.02117640       6.19904022      -0.80596217       0.09919599       0.03318214
O        2.02818583       3.98268400       2.03741502      -0.07011270       0.61014643      -0.30656420
O        6.13807872       3.96863699       1.99426279      -0.35612864       1.54425264       0.58280275
O        2.12101219       8.05174822       1.96605511      -0.19365343       0.03308033       0.39926532
O        5.93034415       8.05512482       2.17060105       0.63898007      -0.69222865      -0.43021832
O        2.18162314       4.00429820       6.05518519      -0.73851956      -0.16080888      -0.13548274
O        6.10159941       4.01579670       6.03527213      -0.72172383       0.73026092       0.77026394
O        1.84098042       8.04867653       6.04946348       0.95408779      -0.00530059      -0.01129897
O        6.06896926       8.16428929       6.10827999       0.05962054      -0.86425859       0.22047518
O        2.12164514       2.04213479       0.00905183      -0.59140978      -0.20866096      -0.31615544
O        6.14060828       2.08987702       0.17257259      -0.76824562      -0.78906847      -1.34538809
O        2.15942496       5.99782724      -0.05690021      -0.32290922       0.21592381       0.38722948
O        6.00896147       6.12234184       0.12341460       0.40427975      -0.44955173      -0.38704307
O        1.94342545       2.11725380       3.96903192       0.65966100      -0.92243005       0.70867779
O        6.01299004       1.94997402       4.14359402      -0.00545665       0.49267222       0.19323871
O        1.98383619       6.00090963       4.05091435       0.36683677       0.23514821      -0.50097045
O        6.29293737       5.89892163       4.13954473      -1.30315464       1.13414754      -0.12239711
40
Lattice="8.07229364156986 2.904777715589395e-07 3.5974003450358844e-07 2.9047805627122115e-07 8.072288850344885 -1.5906224019387422e-06 3.5973984946264966e-07 -1.5906229804257139e-06 8.072291048783132" Properties=species:S:1:pos:R:3:REF_forces:R:3 system=batio3_cubic base_model=chgnet config_id=batio3_cubic_c22 T=300.0 draw=9 energy_qe_eV=-74136.24424009735 offset_eV=-73801.84934295047 split=train REF_energy=-334.39489714687807 mock=0 pbc="T T T"
Ba      -0.07156170       4.09930944       3.94474190       0.75060529      -0.85938738       0.48018334
Ba       4.08083861       3.97378017       4.03641935      -0.11795399       0.56326571      -0.26425310
Ba      -0.02899649       8.12153718       4.10455206       0.34353126      -0.24072108      -0.26669385
Ba       3.92477413       8.08510889       4.11811342       0.60715161      -0.38026384      -0.94211905
Ba      -0.16438248       4.02807752       8.04982338       1.48018126      -0.34137231       0.05752663
Ba       4.10614912       4.14211145       8.00718018      -0.70280154      -0.43547237       0.48388007
Ba       0.15870561       8.05286754       8.14562517      -0.55386216       0.01618818      -0.51690641
Ba       4.03552891       8.05375318       8.04706631      -0.12653067      -0.18448874       0.36662260
Ti       1.98241108       2.01534634       1.99521953       0.78494031      -1.29386216      -0.10864351
Ti       6.02095957       1.96114247       2.04453093       0.41492540       0.91484221       0.76216985
Ti       2.03205274       5.96200334       2.00227528      -0.07098276       1.86209344       0.60697241
Ti       6.06933500       6.11013415       1.89654937      -0.20986218      -0.12732643       0.57258570
Ti       2.08217040       2.09157303       6.03370774      -1.66714314       0.67268826      -0.76828676
Ti       5.97853913       1.98258667       6.13491738       1.98188474       0.14619215      -0.96794784
Ti       2.05981808       6.08145040       6.00303588      -0.02517984      -0.59496921      -0.02720998
Ti       6.16651885       6.00197256       5.93846582      -0.67246098       0.81831143      -0.11319899
O        3.88021689       2.00423749       2.07381774       0.72105714       0.25156959      -0.40671638
O        8.01598531       1.93745733       2.22027357       0.56545192       0.31456059      -0.71259770
O        4.06492446       6.02860881       2.15603680       1.08490475       0.07337003      -0.90439582
O        8.12979128       6.05086112       2.02583784      -1.11100042       0.15847637      -0.55751904
O        4.00431484       2.06904587       6.16140093       1.29323378      -0.34556218       0.27762721
O        8.04773936       1.91579161       5.97939317      -0.32651545       0.27296631       0.74986172
O        4.11049953       5.96759957       6.06235251       0.02639289       0.08453016      -0.36655961
O        8.17547755       5.92109914       6.03083626      -0.62245302       0.66079485       0.28533434
O        2.00192089       4.21018409       2.15496710       0.04096153      -2.71401279      -0.80469410
O        6.02183507       3.92588211       1.96763840       0.05008817       0.29569640       0.30599059
O        2.12243722       8.06141465       1.95827098      -0.70209217       1.10091963       0.23820088
O        6.06484216       8.03559976       2.03948581      -0.23198447      -0.86733774      -0.34022971
O        2.07804966       4.04054785       5.93046506      -0.04810740      -0.52040876       0.82327983
O        6.13418090       3.95285926       6.07121502      -0.50254242      -0.71283527       0.06318177
O        2.19419798       8.07438509       6.05301450      -0.75667515      -0.10239418       0.21506147
O        6.06270888       7.93358644       6.06641156      -0.04603534       0.75396777       0.22518801
O        1.92160142       2.02934938       0.07366157       0.07047008       0.57182800       0.14859536
O        6.14666120       1.96803998       0.12942437      -0.71533644      -0.37989849      -1.64506534
O        2.04868810       6.03529044      -0.09826597       0.21089911      -0.08984257       0.60008725
O        6.12359177       5.92690360      -0.00970724      -0.28572541       0.76754140       1.09295461
O        2.09301317       2.11979562       4.13576701      -0.27831035      -0.74772925      -0.22299152
O        5.96011018       1.92180380       4.02279551      -0.32929969       0.14880414       0.88634051
O        1.96671342       6.11973687       3.98404586       0.38021422       0.14676294       0.82590107
O        6.22436495       5.95582667       4.08333213      -0.70403772       0.34251594      -0.13151707
40
Lattice="8.07229364156986 2.904777715589395e-07 3.5974003450358844e-07 2.9047805627122115e-07 8.072288850344885 -1.5906224019387422e-06 3.5973984946264966e-07 -1.5906229804257139e-06 8.072291048783132" Properties=species:S:1:pos:R:3:REF_forces:R:3 system=batio3_cubic base_model=chgnet config_id=batio3_cubic_c23 T=300.0 draw=10 energy_qe_eV=-74136.73273382641 offset_eV=-73801.84934295047 split=train REF_energy=-334.8833908759407 mock=0 pbc="T T T"
Ba      -0.00030017       4.00505808       4.02320348       0.11170363       0.37572225       0.00611203
Ba       4.00069502       4.00333825       4.04330519       0.02189706       0.22635401      -0.19691513
Ba       0.05961667       8.10292646       4.00438093      -0.05167275      -0.26876307       0.12690220
Ba       4.15655969       8.05858299       4.01481431      -1.27402918       0.08192177       0.03562880
Ba       0.05191493       3.96652839       8.11184032      -0.58923848       0.44248454      -0.42645963
Ba       3.97995322       4.10388257       8.05820048       0.59091073      -0.31685761       0.08331171
Ba      -0.07570477       7.96595877       8.13710170       0.36601633       0.78638270      -0.52037097
Ba       4.01417666       8.13403453       8.10757481       0.08041099      -0.12722178      -0.24561748
Ti       1.99924452       1.95524903       1.99116398       0.33744392      -0.10382809       0.47320871
Ti       6.04956667       2.06601149       1.99122703      -0.62227536       0.70968078      -0.39678472
Ti       2.07634608       6.01776799       2.05613720       0.27472957      -0.21942411       1.07107350
Ti       6.06092994       6.13505317       2.02003821       0.18278795      -0.37851909      -0.77723112
Ti       2.05162295       1.99781853       6.03314147       0.17813888      -0.26015450       0.13526471
Ti       6.10460459       1.99892024       6.01623061       0.58804729       0.40616565       1.40114452
Ti       1.95439572       6.09878745       6.17302792       0.40943044       0.57204834      -0.76745655
Ti       6.02969668       6.11680064       6.01423285      -0.37988358      -0.43315272       0.43669030
O        4.03636964       2.09789252       1.94701312      -0.50232414      -0.34655642      -0.05434849
O        8.13149133       2.16297917       1.92107531      -0.10458091      -0.75313731       0.40837217
O        3.89676360       6.01553694       2.04684526       1.86869860       0.56391029      -0.59781722
O        7.88532721       6.09920446       2.04270382       0.85627403      -0.26124619       0.13821248
O        3.95004729       1.87102169       6.01205619       0.65276350       0.66034002      -0.08251493
O        8.04136509       1.94593149       6.05564232      -0.85573718       0.34982044      -0.57597570
O        4.03516111       6.22766261       6.20456649       0.21374300      -0.93158884      -0.78050439
O        8.07244822       6.07983016       5.92825621       0.32960308      -0.14359148       0.68084072
O        2.04817134       4.15744430       2.00268652      -0.64330055      -0.93488576      -0.22298792
O        6.03392929       3.94197410       2.12759715       0.00269683       0.84422995      -0.39142037
O        1.96319104       8.15702824       2.04627592       0.05381062       0.38385362      -0.45025416
O        6.04113134       8.11211132       1.83205165      -0.23585681      -0.51499273       0.86441645
O        2.02296002       4.04118967       5.98952680      -0.03543109       0.24526704       0.40715013
O        6.10900508       4.06117965       6.02109693      -0.55427893      -0.45321838      -0.40062595
O        1.93164580       8.03607538       5.97198928       0.10492081      -0.17386494       0.36675013
O        6.07034383       8.04607921       6.16768025       0.07996902       0.40012227      -0.60447767
O        2.02181112       1.99981033      -0.09963982      -0.11777144       0.14279753       0.36807219
O        6.10044438       2.08233214      -0.05055211      -0.39202793      -0.05196482      -0.69886209
O        2.01741213       6.14504092       0.06391565      -0.64059395      -0.22459383      -1.69389161
O        6.02173985       6.00938060       0.06527112       0.09388692      -0.14905456      -0.34811246
O        1.97893767       2.00325569       3.99936628       0.05732969       0.35703444      -0.18911415
O        5.93814564       1.92709060       3.89688241       0.95575206       0.00404923       1.58061524
O        2.17050060       6.10721969       3.92331390      -1.14462556      -0.07414239       1.13223850
O        6.01926458       6.19551851       4.01682917      -0.26733816      -0.43142571       0.70573799
40
Lattice="8.07229364156986 2.904777715589395e-07 3.5974003450358844e-07 2.9047805627122115e-07 8.072288850344885 -1.5906224019387422e-06 3.5973984946264966e-07 -1.5906229804257139e-06 8.072291048783132" Properties=species:S:1:pos:R:3:REF_forces:R:3 system=batio3_cubic base_model=chgnet config_id=batio3_cubic_c24 T=300.0 draw=11 energy_qe_eV=-74136.73378908387 offset_eV=-73801.84934295047 split=train REF_energy=-334.8844461333938 mock=0 pbc="T T T"
Ba       0.04889801       3.99870541       4.05926150      -0.19681306       0.52260397      -0.43582950
Ba       3.90135600       4.06085009       4.06648455       1.08328752       0.41204756      -0.30577050
Ba       0.09824714       8.11269968       3.98846899      -0.43749043      -0.56868637       0.08169269
Ba       4.06753066       8.14760871       4.01555977       0.04662824      -1.10354319       0.06202324
Ba      -0.05982863       3.91869367       8.00029830       0.53634729       0.29116303       0.73386766
Ba       3.99537552       4.06705780       8.04667533       0.44798362      -0.12904804       0.39366649
Ba      -0.11533017       7.98770718       8.09577662       0.79969690       0.68172723       0.29062362
Ba       4.01128760       8.15643474       8.07982238       0.34481887      -0.51157805       0.16931897
Ti       2.04095737       1.96436662       2.07699677      -0.41851672      -0.41812668      -2.03014177
Ti       6.01011956       2.01849777       2.00098213       0.55467103       0.56514133       0.09894479
Ti       2.07595705       5.99950455       1.99946167      -0.16419759       0.04553347       0.83863523
Ti       6.10796224       6.03885404       2.08788245      -0.50909205       0.37033579      -0.14677991
Ti       2.02903807       1.99236761       6.07235279      -0.16669773       0.27974117       2.06441895
Ti       6.02789266       2.03914764       6.00091881       0.20903711      -0.67234065       0.34066011
Ti       2.07795578       6.09086918       6.15758542      -0.21416698      -0.41361697      -0.25774152
Ti       6.15168437       6.05437877       6.12465679      -1.09695654       0.82197885      -0.36549594
O        3.99666571       2.04654069       2.00716120       0.67937107       0.02944222      -0.28250690
O        8.05227874       2.04613791       1.96652617       0.03298417      -0.26251169       0.34172095
O        4.06729259       6.02049225       1.98100939       0.54700965       0.04705839       0.14281270
O        8.18924448       6.09684418       2.03457629      -0.77408254      -0.18308106       0.10853681
O        4.07059066       2.13751055       6.05745928      -0.62940580      -0.61225474      -0.41699154
O        8.02243420       2.00973337       5.99720631       1.03672202      -0.00506045      -0.28603574
O        4.16898557       6.10792738       6.18765276      -0.41002488      -0.40205626      -0.47694966
O        8.18159993       6.05518955       6.13078436      -0.18967517       0.14698534      -0.37649306
O        2.07118357       4.13925190       1.99575736      -0.29772166      -0.80150490      -0.15744099
O        6.08226927       3.99202222       2.18828859      -0.15586439      -0.17684202      -0.35880953
O        2.03835443       8.12046549       1.95125554       0.03864831       0.58046845       0.29848502
O        5.95827144       7.95017342       1.95049382       0.54018723       0.69560425       0.07649032
O        2.02490551       4.04698499       6.06166402       0.05925647      -0.02358910      -0.20989098
O        6.08499953       3.98506103       5.94348808       0.14494568       0.46820200       0.20801690
O        2.08648241       8.12223145       6.10920907      -0.16268655       0.10047254      -0.70237910
O        6.04507611       8.09360474       6.25500448       0.19140166      -0.46512439      -0.86670448
O        2.03283151       2.00882500      -0.04274888      -0.09569954       0.34970063      -1.30588978
O        6.07385636       1.99537228      -0.00749268      -0.31649097       0.52316910       0.24098513
O        2.09680076       6.04986797      -0.01000537      -0.10925723       0.22461620      -0.83386609
O        6.20981398       5.95185409       0.07920311      -0.24616436      -0.35340919      -0.79516122
O        2.10056424       2.06482520       3.86608584      -0.53604570      -0.13676598       2.35618568
O        6.01293204       1.78820495       3.95188473       0.31724919       0.68594204       0.72470399
O        2.16194837       6.09065375       3.98567757      -0.36553039       0.13063801       0.80647639
O        6.17896493       6.22732288       4.08820210      -0.11766525      -0.73343263       0.23261285
40
Lattice="8.07229364156986 2.904777715589395e-07 3.5974003450358844e-07 2.9047805627122115e-07 8.072288850344885 -1.5906224019387422e-06 3.5973984946264966e-07 -1.5906229804257139e-06 8.072291048783132" Properties=species:S:1:pos:R:3:REF_forces:R:3 system=batio3_cubic base_model=chgnet config_id=batio3_cubic_c25 T=300.0 draw=12 energy_qe_eV=-74136.24303136769 offset_eV=-73801.84934295047 split=train REF_energy=-334.39368841721443 mock=0 pbc="T T T"
Ba      -0.12119610       4.06704203       4.03272583       0.34137205      -0.22682015       0.09836629
Ba       3.88245192       3.88396047       3.99715540       1.14486133       0.86249532      -0.11300307
Ba       0.07138777       8.22188166       4.04514931      -0.37342831      -0.58020491       0.42998512
Ba       4.11563557       8.07731219       3.96788426      -0.55253675       0.14513954       0.66297155
Ba      -0.01872408       4.02246503       8.14184154      -0.01198905       0.43683506      -0.43336561
Ba       4.12936921       4.08213243       8.11798555      -0.51287029       0.02562721      -0.05614647
Ba       0.02223924       7.96532847       8.09047154      -0.16175993       0.40230925      -0.86051095
Ba       4.12300806       8.06378283       8.14345805      -0.62597723      -0.40484410      -1.10663031
Ti       1.99449578       2.03767873       1.93139518      -0.25253067       0.58249628       0.21915312
Ti       6.02923334       1.97192849       1.95337587       0.01806149       0.57008659       1.72140242
Ti       2.02104558       6.11135965       2.11128405      -0.00724974       0.13879175      -0.03980016
Ti       6.06286696       6.10897311       1.95164010       0.04406202      -1.21622615      -0.50613888
Ti       2.10260638       2.10877475       6.12517019      -0.28976693      -0.44749305      -1.12212789
Ti       6.04295920       2.03929004       6.11661336       0.85591844      -1.16367795      -1.21184911
Ti       2.01218422       6.03546496       6.10804791      -0.39134041       1.47377819       0.34939518
Ti       5.94526004       6.01094167       5.87804655       1.17456271       0.60701329       1.00872527
O        4.02293150       1.89082205       1.91346151       0.60325819       0.57910859       0.38139050
O        8.16207405       2.07975683       2.03283565      -0.59721661      -0.66606099       0.36048949
O        4.04386614       6.02781018       2.02114697      -0.28001396       0.18224159       0.23933782
O        8.06586809       6.14018868       1.95562762       0.01536003      -0.57838894       0.12561047
O        4.07635627       2.04876346       6.15631433      -1.61383260       0.19989761       0.34816079
O        7.98685103       2.00188288       6.01434101       0.44453371       0.21608065       0.49080765
O        4.11831802       6.04783448       6.10097852      -1.72895169      -0.37869136      -0.73698050
O        7.94752413       6.10156964       5.97714048       1.09957212      -0.29862823       0.53556979
O        2.07130457       3.91185960       1.88800874      -0.01788022       1.07194742       0.81327927
O        6.13657477       4.08870220       2.05384714      -0.55958106      -0.02214877       0.09654981
O        1.99581417       7.99066671       1.92389210       0.22251895       0.00971620       0.53022266
O        6.06415839       8.09323149       1.93979864       0.25369589      -0.24352049      -0.10440247
O        1.90721580       4.04518113       6.16676964       0.68658353      -0.71582957      -0.51994699
O        5.91380668       3.99976508       5.95290501       0.58362885       0.14455745      -0.04087540
O        2.12281143       7.96669617       5.87033127      -0.43243693       0.35073421       1.04961353
O        5.93318696       8.14806877       5.99449695       0.30174878       0.28295247       0.78221520
O        1.91697438       2.07031232       0.08993054       0.45329783      -0.95828074      -1.91995663
O        6.13858024       2.07554052       0.09660221      -0.22733360      -0.09713088      -1.09808268
O        2.05874228       6.08062243      -0.10353772      -0.26934671      -0.12821243       0.10380752
O        5.94036563       5.95495714      -0.03199716       0.82265197       0.77261907       1.29196905
O        2.13120038       2.08605576       4.16596239      -0.56787184      -0.31156037       0.14148575
O        5.99219261       1.92631684       3.97074934       0.08166621       0.64430971      -0.22815738
O        1.92629493       6.02620877       3.97931045       0.49501629      -0.52609450      -0.66889794
O        6.06276238       6.23209159       4.05028596      -0.16845611      -0.73492387      -1.01363582
40
Lattice="8.07229364156986 2.904777715589395e-07 3.5974003450358844e-07 2.9047805627122115e-07 8.072288850344885 -1.5906224019387422e-06 3.5973984946264966e-07 -1.5906229804257139e-06 8.072291048783132" Properties=species:S:1:pos:R:3:REF_forces:R:3 system=batio3_cubic base_model=chgnet config_id=batio3_cubic_c26 T=600.0 draw=0 energy_qe_eV=-74134.98646122635 offset_eV=-73801.84934295047 split=train REF_energy=-333.13711827587395 mock=0 pbc="T T T"
Ba      -0.05903615       3.97438174       3.92468689       0.54543768       1.26011334       0.39020630
Ba       4.16170698       3.83880466       3.98849208      -0.81548270       1.71034899       0.79821106
Ba       0.04200652       8.24633026       4.24299784       0.03131501      -1.36037917      -1.27517615
Ba       3.85496779       7.97729857       4.00239725       1.27980902       0.81533332       0.30890236
Ba      -0.06511053       4.03988671       8.03808429       0.45873520       0.85248036       0.54174223
Ba       4.02199477       4.02883185       7.97576477       0.44971320       0.47950328       0.58880731
Ba       0.10286191       8.09690507       8.20303855      -0.50108024      -0.70952497      -0.34761289
Ba       3.91171733       8.02427748       7.99375683       0.93177704       0.36383192       0.37591302
Ti       1.98772197       2.03551630       1.98180679      -0.41114459      -0.54085366      -0.26107547
Ti       5.98776190       2.16336687       2.10101833      -0.02536728      -0.59208778      -1.99848069
Ti       2.16895579       5.97126744       2.14191047      -2.74289913      -0.29291061      -0.78052804
Ti       6.05688004       6.22292153       1.99582159       1.39018957      -3.86216050       0.54585343
Ti       2.06616111       2.12514804       6.07436476       1.10471304      -0.13862951      -0.17118148
Ti       6.22158994       2.01824087       6.15879394      -1.58782152       0.02192303       1.33243719
Ti       2.01736222       6.02532961       6.04300186      -0.88952585       0.01714026       1.13069661
Ti       6.10391471       6.10633561       6.02757751      -0.70923032      -0.87319883      -0.21255644
O        4.10295276       2.09163661       2.05368264      -0.86052432      -0.50196264      -0.55999630
O        8.13412968       2.09064532       1.91774890      -0.26145625      -0.36329122       1.06300923
O        4.02516869       6.04630655       2.10249816       0.21625369      -0.06108530      -0.60493249
O        8.19812504       6.13845588       2.04003347      -0.74614776      -0.39071306      -0.12942393
O        3.86236063       2.32247022       6.09998582       1.51363723      -1.91800619       0.16969512
O        8.05260610       2.10074988       6.15529846      -0.29969241       0.09009377      -0.75618561
O        4.29782360       6.06339055       5.85337669      -1.75953702       0.50228917       1.06845971
O        8.20396627       6.13769730       6.06783807      -0.15802591      -0.20616211      -0.54080815
O        1.98652908       4.06357377       2.09224718       0.58065511      -0.40346856      -0.33391200
O        6.09643070       3.96869730       1.97283517      -0.04004236      -0.04347658       0.51608957
O        1.99001149       8.16084860       1.94040724       0.89710674       0.39388632       0.63108807
O        6.01203351       7.85264039       1.94495234      -0.05886386       5.05831920      -0.09548537
O        2.12884864       4.04626073       6.03511625      -1.21658431       1.02960057      -0.27645118
O        6.03283134       4.11572111       5.99213304       1.05930967      -0.83864397       0.10384429
O        2.15631991       8.05377474       6.12893754      -0.45163612      -0.09541441      -0.75162936
O        6.15313439       8.23627998       6.21235432      -0.25599214      -0.43491341      -0.90332933
O        1.87100988       2.00933173      -0.02928581       1.06388804       0.53090581       0.73646987
O        5.93618660       1.96138938       0.04753193       0.62691234       0.54270048      -1.00524760
O        2.05527119       5.95969716      -0.10562957       0.68405459       0.23158338      -0.09958294
O        6.10900807       6.00402668      -0.02020360      -0.29321040       0.23976668      -0.15762636
O        2.11029425       2.02768242       4.11384458      -1.08139288      -0.15782588      -0.84672366
O        5.97064879       1.93551572       3.95026395       0.95625317      -0.07702562       1.08436199
O        2.01128072       6.05873191       3.98224391       0.30932325       0.07388605       0.73111761
O        6.04343259       6.20942647       4.02497682       1.06657381      -0.35197168      -0.00895978
40
Lattice="8.07229364156986 2.904777715589395e-07 3.5974003450358844e-07 2.9047805627122115e-07 8.072288850344885 -1.5906224019387422e-06 3.5973984946264966e-07 -1.5906229804257139e-06 8.072291048783132" Properties=species:S:1:pos:R:3:REF_forces:R:3 system=batio3_cubic base_model=chgnet config_id=batio3_cubic_c27 T=600.0 draw=1 energy_qe_eV=-74133.93057368045 offset_eV=-73801.84934295047 split=train REF_energy=-332.0812307299784 mock=0 pbc="T T T"
Ba       0.11951215       4.11018806       3.88498670      -1.88349556      -0.52363396       1.51639345
Ba       4.00261877       3.80456009       3.91265146       1.06713714       1.05708772       1.57304745
Ba      -0.24469689       8.27976165       4.21563968       1.39866495      -0.56777851      -0.70906886
Ba       4.09371337       7.92554903       3.86046354      -0.61067531       1.56125046       1.03265967
Ba       0.06383816       4.01386984       7.97897108      -0.17920923       0.90934057      -0.08530792
Ba       3.95953660       3.97589992       8.28970569       0.84258393       0.77069614      -1.88898512
Ba       0.11866423       8.18370082       8.18491065      -0.70369062      -1.04879077      -0.95324524
Ba       4.06577522       7.88414112       8.07401215      -0.39188086       1.36921194      -0.49192531
Ti       1.92799956       2.14441509       2.02723666      -0.10744434      -2.91218082      -0.89836453
Ti       6.04753049       2.04889573       1.97798314      -0.33491910      -0.20500640       0.33840140
Ti       2.01759725       6.16135887       2.09341323       0.76800163       2.00854296      -3.29745549
Ti       6.22638936       6.08876182       1.96883742      -1.00763461      -0.66171376      -0.10948426
Ti       2.06212790       2.01458751       6.02132164       0.57010227       0.28342453       1.09665572
Ti       6.06531678       2.16707520       6.21507851      -0.58226385       0.33563952      -1.89437415
Ti       1.97511492       6.04859112       5.87508128      -0.34852872       1.58303567       1.97233951
Ti       5.94443942       6.14236984       6.00797443       0.80839469      -0.67318294       0.50833178
O        4.08101263       1.86473007       2.05313743      -0.65122906       0.70161137      -0.05827071
O        8.00395774       2.21938029       2.14194180       1.12095470      -0.36869414      -0.58861627
O        3.93111551       6.25149739       1.97065466      -0.04049719      -0.84918909       0.36706997
O        8.02575679       6.04588125       2.09360344       0.32078240      -0.23453192      -0.75145041
O        4.02621559       2.09920222       6.27014081       0.37056821      -0.75469154      -0.54853586
O        8.05234067       2.00108099       6.09338801      -0.01581177       0.30781324       0.50535495
O        3.97947413       6.00471453       6.07056513       0.60567554       0.00029131      -0.87738947
O        8.03996717       5.95573366       5.85802118       1.51823770       0.31250679       0.50747354
O        2.17078659       3.96127016       1.93393541      -1.22034686       0.27036590       0.51149475
O        5.96516575       4.10087046       2.18049760       0.23096040       0.63254331      -0.28152268
O        1.75024818       8.13327642       2.21528533       0.80098271      -0.52509126       0.06754442
O        6.14512096       8.21567263       1.76763392       0.05208926      -0.39610467       0.93352848
O        2.13131229       3.85660050       6.37777756      -0.82980735       1.53385690      -1.50628464
O        6.07684526       4.08611140       5.95653880      -0.14387328       0.00253022       0.23879738
O        2.09033292       7.98140365       5.80140880      -0.38906576      -1.20588209       0.30681488
O        6.12320581       8.08155234       6.27324903      -0.65987568      -0.74815374      -0.37924466
O        1.90256551       1.81536757       0.00593355       0.63275569       0.79566361       1.84823262
O        6.07627371       2.34411450       0.07634175       0.20387254      -0.66387863       0.26558956
O        2.04416728       6.27076902       0.02319560      -0.95706744      -1.00943541      -0.31789222
O        6.08486106       6.00277082      -0.01734823       0.01021242      -0.14399103       0.35364907
O        1.99224231       2.10873402       4.17507178       0.13564549       0.21037023      -1.52374501
O        6.02836970       2.00577083       4.20178515      -0.49944682      -0.05900939      -0.66899410
O        1.98665800       5.88256738       3.83853183       0.56495467      -0.28683921       3.36113914
O        6.07702862       6.34427768       3.94552212      -0.46581190      -0.80800336       0.52563916
40
Lattice="8.07229364156986 2.904777715589395e-07 3.5974003450358844e-07 2.9047805627122115e-07 8.072288850344885 -1.5906224019387422e-06 3.5973984946264966e-07 -1.5906229804257139e-06 8.072291048783132" Properties=species:S:1:pos:R:3:REF_forces:R:3 system=batio3_cubic base_model=chgnet config_id=batio3_cubic_c28 T=600.0 draw=2 energy_qe_eV=-74134.31033303254 offset_eV=-73801.84934295047 split=train REF_energy=-332.4609900820651 mock=0 pbc="T T T"
Ba       0.13848894       3.99123604       4.08817613      -0.74292052      -0.18960497      -0.52678356
Ba       4.23165539       3.98648493       3.88540183      -1.76178802       0.14252808       1.75721814
Ba       0.04354065       8.11579060       3.94443127      -0.55558145       0.02574574       0.34881745
Ba       4.05125956       8.01873161       4.17924023      -0.28695954       0.60500423      -1.00356430
Ba      -0.22502209       4.10904544       8.11780165       1.96131720      -0.46469296       0.16242404
Ba       4.03739232       4.01675558       8.04685813      -0.98219020       0.63192753       0.13630806
Ba       0.07419499       8.02008153       8.10279586      -0.26324523       0.34243057       0.09568180
Ba       3.98337264       8.16674576       7.96501121       0.01789411      -1.05173340       1.35297825
Ti       2.04572310       2.06076112       1.93249720      -1.04552316       0.13777899       2.30640501
Ti       5.92011090       2.04264862       2.06550990       1.28606786      -2.52590857       1.00364400
Ti       1.94334149       6.02328561       2.01842525       0.33387137       0.52342672      -1.33434906
Ti       5.91238034       6.09937241       1.90566407      -0.39928718       2.21104562       2.12678465
Ti       2.00671945       2.07042989       6.06847630      -0.23764861      -0.10894818      -1.51131501
Ti       6.01056872       2.00925167       6.22524687       0.57799659      -0.60553825      -1.10928678
Ti       1.94590508       6.03559115       5.96296377      -0.03112603      -0.69017408       1.87245550
Ti       5.98143408       5.98325223       6.04327332      -0.27477894       0.54842350      -2.07710914
O        3.99626675       1.85142533       1.94168233       0.55577043       0.52650331       0.68231961
O        8.10677585       2.09308862       2.21236544       0.60032302      -0.18877554      -0.96588658
O        3.95438924       6.03060401       2.13636615       2.27224456       0.02513588      -0.96914880
O        8.05834691       5.99570951       1.96804384      -1.11291872      -0.36056688       0.65654585
O        3.99672307       2.16359251       6.18653155       1.05806089      -0.51623509       0.15909806
O        8.12335854       1.97474456       6.14359103       0.32040085       0.26307193      -0.00747085
O        4.02468664       5.94350686       6.16567065       1.00397053       0.46133561      -0.43215950
O        8.08577973       6.09066774       5.89202754      -0.03815569       0.09393423       0.77828450
O        2.15946428       4.07161227       1.79968005      -0.59219705      -1.04388974       1.36490508
O        5.86186737       3.80697846       2.09270730       0.89520927       3.23293854      -0.78925462
O        1.94668617       7.96761153       2.15114979       0.15761762       1.08461910      -0.95528310
O        5.92795286       8.07949315       1.94270002       0.62874271      -1.54666022       0.28433187
O        1.99543659       4.10764112       6.07981854      -0.33389888       0.04399826       0.04608882
O        6.15801131       3.95029509       5.93720455      -0.32522758       1.46912475       0.80502757
O        2.08756632       8.14276971       6.28552503      -0.32930304      -0.20287572      -1.58793362
O        5.97814353       8.13220623       6.22935248       0.15555765      -0.34389842      -0.18625868
O        2.02584919       1.93990443       0.23289136      -0.32167560       0.23666619      -3.28811518
O        6.09415123       2.16641071       0.04484470      -0.14088128      -0.66107896      -0.79042036
O        1.94886375       5.94261888      -0.03341178      -0.02515850       1.01633445      -0.78260035
O        6.06755930       6.11415694       0.16172310      -0.35060411      -0.98038195      -2.18663634
O        2.25304907       2.22078560       4.17377654      -1.00970461      -0.95213144       0.66832587
O        6.15799336       1.90358138       4.02446972      -1.15177683       0.17846721       0.21992368
O        2.02668144       6.14449977       3.86433818      -0.19446076      -1.00608347       3.31173591
O        5.90800780       6.14801263       4.18343425       0.68196660      -0.36126288       0.36427107
40
Lattice="8.07229364156986 2.904777715589395e-07 3.5974003450358844e-07 2.9047805627122115e-07 8.072288850344885 -1.5906224019387422e-06 3.5973984946264966e-07 -1.5906229804257139e-06 8.072291048783132" Properties=species:S:1:pos:R:3:REF_forces:R:3 system=batio3_cubic base_model=chgnet config_id=batio3_cubic_c29 T=600.0 draw=3 energy_qe_eV=-74134.74903020123 offset_eV=-73801.84934295047 split=train REF_energy=-332.89968725075596 mock=0 pbc="T T T"
Ba       0.02988799       4.07612876       4.01496141       0.01120641      -0.42735848       0.59339056
Ba       4.04853717       3.97638699       4.02751936      -0.38699345       0.39764064      -0.21268474
Ba       0.01711807       8.19058268       4.00111077       0.04315005      -0.40429492       0.63919939
Ba       4.20470223       8.01560717       4.07422414      -1.62744582       0.63838949      -1.31571833
Ba      -0.07504485       4.10878069       8.08131351       0.87637260      -0.78307009       0.20911939
Ba       4.16987436       4.11032581       8.18678314      -0.95317453      -0.73276337       0.15684655
Ba      -0.11945117       8.07889680       7.89408654       0.28553695       0.51370461       1.23470827
Ba       3.90665861       7.78260681       7.85974493       1.22924905       2.15815725       2.48461974
Ti       1.98114310       1.98114859       2.11527250       0.31586568      -0.32219342      -0.94948474
Ti       6.12158936       2.08242394       2.11682959      -1.45767151      -0.85754184      -0.16302697
Ti       1.85704043       6.07203350       1.92836705       2.02829778       0.27004117       2.28911896
Ti       6.12700034       6.08994590       2.09357039      -1.58925491       1.16948016      -0.35200459
Ti       2.05645789       2.08150758       6.18481472      -1.15541982       0.93666111       0.72324541
Ti       5.99447397       2.15344773       6.14932083       0.32648896       0.07781572       0.54851812
Ti       2.11325286       6.06645328       5.99296016      -1.38143085      -0.80712688      -1.13829550
Ti       6.11334503       6.10287951       6.04455039      -0.06378110      -0.61058892       0.06107321
O        4.19075301       1.92939358       2.14327261      -0.36984059       0.46697815      -0.63473801
O        8.11244440       1.98520810       1.98270794      -0.45619855       0.59772646       0.49526955
O        3.92296268       6.28570099       2.21492429      -0.52727592      -1.30225167      -1.41144128
O        7.93529758       6.03902816       2.10268098       1.99299447      -0.20047920       0.22815378
O        4.13149797       2.15816251       6.19797935      -0.95339282      -0.18774092      -0.55507983
O        8.15101814       2.01352889       6.20704614       0.36890625      -0.12024664      -0.93960914
O        3.89855591       5.95790516       6.02849639       1.39478721      -0.23763241       0.59227521
O        7.87329914       5.99142535       6.11238169       1.52914175       0.94523985      -0.69455344
O        1.98923096       4.02631395       1.99270092       0.06265753       0.49422182       0.60169188
O        6.06328170       4.05491782       2.01626303      -0.03102447      -0.97400767      -0.02833870
O        1.81817849       8.09517571       2.10992816       0.41404171      -0.20358638      -0.23646641
O        6.16318997       8.02890570       2.11144123      -0.00496017       0.06750894      -0.32821880
O        1.99035772       4.04047988       6.15949295       0.05171414      -0.75986306       0.11075515
O        6.13852522       4.11246086       6.32290537      -0.98511483      -1.24421364      -1.85755981
O        2.10874988       8.00973564       6.09303592      -0.64986895       0.34551873      -0.03516112
O        5.82033503       8.05068624       5.89114500       1.55644558      -0.69803754       1.42181336
O        2.06170593       2.11248136       0.10686077       0.45110571      -0.88698817      -1.11311335
O        6.11924714       2.03126754      -0.07588760      -0.19037862      -0.39689502       0.58805063
O        1.80468034       6.17142914       0.20366935       0.46121503      -0.48576572      -2.32622950
O        6.15127002       6.03724931       0.01138708      -1.32553223       0.77830584       0.00210830
O        2.01406162       1.94986899       4.06107532       0.22627945       0.63402993       0.33993121
O        6.05067285       1.98242896       4.04907657       0.82704650       0.91868421       0.13344951
O        1.95802052       5.87527042       4.22129163      -0.50491452       0.78254404      -0.57423507
O        5.99662467       5.86400138       3.97561347       0.16117037       0.44999756       1.41262064
40
Lattice="8.07229364156986 2.904777715589395e-07 3.5974003450358844e-07 2.9047805627122115e-07 8.072288850344885 -1.5906224019387422e-06 3.5973984946264966e-07 -1.5906229804257139e-06 8.072291048783132" Properties=species:S:1:pos:R:3:REF_forces:R:3 system=batio3_cubic base_model=chgnet config_id=batio3_cubic_c30 T=600.0 draw=4 energy_qe_eV=-74134.21108291132 offset_eV=-73801.84934295047 split=train REF_energy=-332.36173996084835 mock=0 pbc="T T T"
Ba      -0.03665135       4.11284499       4.20369305       0.06606552      -0.55939132      -1.56514182
Ba       3.97357306       3.83578950       4.06283091       0.85465449       2.08314326      -2.01163986
Ba       0.06062017       8.07162963       4.06666702      -0.22592875       0.39592392      -0.34846290
Ba       4.16577120       7.98135546       4.20976970      -1.49744391       1.48724614      -1.99165313
Ba       0.07989133       3.93818391       8.19822406      -1.06095903       1.22575723      -0.91096705
Ba       3.99341297       4.02239672       8.09387531       0.87778208       0.67173053       0.19880490
Ba      -0.10022619       8.06495144       7.93711945       0.53530445      -0.28974070       0.46099597
Ba       3.97105508       8.17722613       7.95243344       0.72886455      -0.87606561       1.40999272
Ti       2.06118558       1.95243911       1.91462651       0.58378826       0.52832982       0.47645524
Ti       6.15887750       1.95731912       1.85525598      -1.04202492       0.62425151       2.70694457
Ti       2.07593914       6.14391603       2.01181331       0.67669404      -1.68629837       0.80421279
Ti       6.05980723       6.13602950       1.99774141       0.05470125      -1.74424127      -0.24331789
Ti       2.13706319       2.05589124       6.00703805      -1.70885132      -0.61351098      -0.82852745
Ti       6.06951621       2.04299914       6.03723004       1.37020515       1.46525009      -1.98049428
Ti       1.93256604       6.01588351       6.07120422      -0.01590562      -0.00756753      -0.70596991
Ti       5.92488906       6.13820688       6.03554995       0.90017124      -2.63482744       1.57230440
O        4.09190808       1.95807157       2.01201143      -1.89226508       0.56347294       0.23742929
O        8.11323139       2.01803045       1.97210047       0.32369983      -0.29413883      -0.00517383
O        3.94160479       6.06992727       1.72489135      -1.16855944       0.71041046       0.67763506
O        7.91173886       6.23800153       2.12643246       0.71363359      -0.12734571      -0.85153394
O        4.22060786       2.29184414       5.83826389      -2.05489404      -1.54546054       2.25380178
O        8.09224267       2.11612547       6.19238612       0.81601389      -0.62115384      -0.22532711
O        4.12926930       6.06167839       6.08729401      -0.89332722       0.09708974      -0.52212935
O        8.12946620       6.07965228       5.90902861      -0.39450570       1.05704402      -0.09557228
O        1.97181862       4.11205171       1.75390123       0.33277711      -0.15225893       1.24281162
O        5.97910794       4.19564526       1.92614216       0.39762830      -0.03102704       0.34501608
O        2.01865209       8.04161883       2.03450683      -0.15303386       0.65403028      -0.16367797
O        5.93988785       8.23171518       1.80084774       0.64779278      -1.50474224       0.63060547
O        2.11338695       4.14779368       6.06263587      -0.14695809      -1.73668763       0.22671216
O        6.21761781       4.14905270       5.90838879      -0.94860877       0.13936999       0.54925808
O        2.28173213       8.15309050       6.10670802      -1.11373941       1.20400442      -0.87053799
O        5.95387347       8.20999108       6.07692087       0.74755262      -0.55631216       0.07686853
O        2.09865280       2.03582662       0.05130141       0.02237914      -0.41002205      -0.66752214
O        6.03971634       2.00358842       0.09118733      -0.01971213       0.97444064      -2.77080177
O        1.77660844       6.15900938      -0.23481958       0.68911710       0.07020063       2.43713994
O        5.98044213       5.96946631      -0.15577266       0.84467475       1.26041776      -0.12363741
O        1.93875034       1.99626161       4.10029247       0.49676001       0.39298618       0.55776972
O        6.12791796       2.09909433       4.04748159       0.36688768      -0.71213413       0.66628956
O        2.01142155       5.87219870       4.02258794       0.56361667       1.31381340      -1.58323262
O        5.86047600       6.31142924       3.84466416       0.72595201      -0.81598638       0.93427307
40
Lattice="8.07229364156986 2.904777715589395e-07 3.5974003450358844e-07 2.9047805627122115e-07 8.072288850344885 -1.5906224019387422e-06 3.5973984946264966e-07 -1.5906229804257139e-06 8.072291048783132" Properties=species:S:1:pos:R:3:REF_forces:R:3 system=batio3_cubic base_model=chgnet config_id=batio3_cubic_c31 T=600.0 draw=5 energy_qe_eV=-74134.57299554122 offset_eV=-73801.84934295047 split=train REF_energy=-332.72365259075013 mock=0 pbc="T T T"
Ba       0.16357977       4.09876423       4.05450022      -1.03049635      -0.43059833      -0.33073925
Ba       3.77296605       4.04862673       4.04669048       1.80229138      -0.06471621      -0.02715908
Ba      -0.05841316       8.26001431       3.97366054       1.63357533      -1.40851896       0.55600080
Ba       3.90759082       8.03860817       4.11231898       0.73552217      -0.35335879      -0.62055863
Ba      -0.07685506       3.89313405       7.99648972       0.84090140       0.74327661       0.73309427
Ba       4.21565394       4.00836503       7.99901812      -0.47075048       0.20606081       0.74152364
Ba      -0.12672616       8.17323499       7.97980914       0.90450098      -1.01216027       0.60498032
Ba       4.12862761       8.06456818       8.24176368      -0.06066492      -0.37046871      -1.07969646
Ti       2.26830357       1.95023456       1.90533424      -2.33272050      -0.22385670       0.90423436
Ti       6.15844608       1.95517508       2.10852297      -0.73334110       1.81409737      -1.60248607
Ti       2.06113330       5.97346341       1.95595614       0.29571132       1.26006424       1.30623019
Ti       6.15445927       6.13500084       2.01008605      -0.41246768      -1.90195814      -0.46507220
Ti       2.12649165       1.92520180       6.11584304      -1.13100951       0.88063523      -1.21547154
Ti       6.05242839       1.91524973       5.95445962      -0.43860346      -0.12061842       2.86188876
Ti       2.01124550       6.08653293       6.13707850      -0.34128232      -1.15935901      -0.60367060
Ti       6.04841500       5.99437550       5.93744290       0.70971986       0.65706830       0.32865512
O        3.98668808       1.86584073       2.18374799       1.29061768       0.22829699      -0.58911635
O        7.89205850       2.04727493       1.90150021       1.91646250      -0.02523923       1.48326761
O        4.04245423       6.13515494       2.10105234      -1.47417619      -0.38740045      -0.69370163
O        8.04627434       5.99672278       1.96719489       0.51309218      -0.04431913       0.28089508
O        4.18512496       1.99195389       6.06512346      -0.56109621       1.16956937       0.46946981
O        8.28230198       1.85978994       6.10790420      -1.40686317       0.46819351      -0.18414009
O        3.92615326       5.90868575       6.09828026       0.74912844       0.52391806      -0.28437069
O        8.03692442       6.23850801       6.01411481       0.00114954      -0.08778209      -0.02875136
O        2.06464801       3.86729843       2.00362910      -0.04127778       1.29313711      -0.81440952
O        5.93558647       4.06926253       2.09405427       0.14637136      -0.30214859       0.38217623
O        1.94512666       8.03863424       1.89423219       0.10150252      -0.28125529       0.38718243
O        6.11993769       8.07866087       2.19269584      -0.38435807      -0.00190699      -0.12973632
O        1.79091010       4.05835602       5.99449997       1.21253868       0.69641543       0.70263004
O        6.16756712       4.16482358       6.26661925      -0.24520045      -0.62456647      -1.12049730
O        2.29409384       8.20524361       6.00425648      -0.87724471      -2.23527801       0.44820602
O        5.99935960       8.14969136       6.00996187       0.12873616      -0.87986415       0.86653504
O        2.09475331       1.86479649      -0.03784057       0.51317316       0.93235220       1.03400976
O        6.10891019       1.96305298       0.21177614      -1.27351625       0.04787111      -0.76402002
O        1.95389262       6.07211147      -0.15872672       0.16796246      -0.13335721       1.92415987
O        5.98811930       6.15361185       0.15698512       0.18152245       0.04975393      -0.32469999
O        2.10454298       2.04033066       4.07868583      -0.43891508      -0.39439463      -0.52697819
O        6.09097725       1.91288918       4.26183764       0.26770789       1.28183377      -3.78240874
O        2.03202383       5.96330383       3.90949244      -0.45773427       0.64307610      -0.56164977
O        6.02600991       6.12366844       4.14685717      -0.00046845      -0.45249462      -0.26580604
40
Lattice="8.07229364156986 2.904777715589395e-07 3.5974003450358844e-07 2.9047805627122115e-07 8.072288850344885 -1.5906224019387422e-06 3.5973984946264966e-07 -1.5906229804257139e-06 8.072291048783132" Properties=species:S:1:pos:R:3:REF_forces:R:3 system=batio3_cubic base_model=chgnet config_id=batio3_cubic_c32 T=600.0 draw=6 energy_qe_eV=-74134.75963474963 offset_eV=-73801.84934295047 split=train REF_energy=-332.91029179915495 mock=0 pbc="T T T"
Ba      -0.01188000       3.96176933       3.94464153       0.37663499       0.41321742       0.11894232
Ba       4.26467644       3.98322962       3.99754405      -1.57200873       0.88715812      -0.16926832
Ba      -0.01910724       8.12838172       3.97567993      -0.17275448      -0.19947672       1.16036868
Ba       3.94265301       7.93370213       4.04646273       0.92746530       0.73521209       0.74558752
Ba      -0.00317313       4.14986915       8.11716656      -0.18630445      -1.28997336       0.18203128
Ba       3.90878176       4.03527134       8.05295408       0.43839340       0.26883892       0.07188470
Ba       0.07471193       8.10981882       8.18347474      -0.39307616       0.36168428      -1.12435010
Ba       4.06925441       8.02837964       8.12678815      -0.02872411       0.11806017      -1.01519134
Ti       2.05661648       1.91057874       1.98498493      -0.79697590       1.04216453       1.22592898
Ti       6.01666059       1.99527492       2.08072536       0.32658384       0.55194900      -1.13956846
Ti       2.03513044       6.08010297       2.12098820       0.87820091      -1.99118236      -0.51276359
Ti       6.14253566       6.15701888       1.96290253      -0.88687401      -0.97313632       1.36400931
Ti       1.90158764       2.13614214       5.95834412       0.03410800      -0.28805200       0.56741907
Ti       5.93210175       2.08699463       6.08411227       1.20090727      -1.16654190       1.63134413
Ti       1.95890270       6.11676326       6.09184358       1.57750343       0.31655885       0.47384223
Ti       6.18122417       6.05310474       6.07066002      -1.37831081       0.95895232      -1.28689832
O        4.07768548       1.85921027       1.96992424      -0.49623011       1.03770855      -0.02193562
O        8.13737484       1.96294961       1.97409148       0.38791442       0.14883499      -0.14518865
O        4.04296260       6.03231016       1.82386225      -0.10672469       0.50872644       1.40853619
O        8.12117085       6.11917254       2.16157813      -0.36328145       0.07595604      -0.25683726
O        3.91711409       2.08814078       5.81916073       0.75392201      -0.00772719       0.67801456
O        7.90991396       2.12057030       5.96932293       0.53845508      -0.54015946      -0.53114312
O        3.98798267       6.14913976       6.23610218      -0.56572060      -0.83481791      -0.30082190
O        8.09317107       6.11218936       6.08168219      -1.16576800      -0.16311104      -0.08049661
O        2.14310053       4.11384148       2.07565126      -0.35515059      -0.84967426       0.38219191
O        6.12273946       4.04471765       1.87226057      -0.21364865      -0.59025355       1.10983133
O        2.21871698       8.06849110       1.97878548      -1.22347435       0.31507301      -0.65235726
O        6.16331597       8.13183510       2.17714582      -0.45713957      -0.99096486      -0.98105198
O        2.04364217       4.05217926       5.83187945      -0.52904458      -0.01046233       0.11830623
O        6.22306098       4.02981692       6.32697593      -1.61182200       1.20247152      -1.55818622
O        1.82910238       8.11525569       6.08788422       0.66433963      -0.83026038       0.18877605
O        5.84053659       8.05162145       6.02285042       1.28146995      -0.20272840       0.27368442
O        1.76796783       2.21036855      -0.19391501       1.38368493      -0.83787804       1.06924904
O        5.97744002       1.98662676      -0.11790289      -0.28868578      -0.50956128       0.11323627
O        1.80095472       5.86251979       0.03023459       0.90469433       1.42810948      -0.69533351
O        6.03204651       6.10537857       0.24018571       0.95362962       0.61231027      -2.67511997
O        1.90026864       1.79529358       3.96154434       0.45648291       1.04645133      -0.94071625
O        6.05863521       2.00323636       3.88952256      -0.15874479       0.72731238       0.96406547
O        2.08635113       6.12538565       4.04576902      -0.36309659      -0.02058297      -0.24403600
O        6.01166407       6.01992372       4.16842433       0.22917065      -0.46020510       0.48401428
40
Lattice="8.07229364156986 2.904777715589395e-07 3.5974003450358844e-07 2.9047805627122115e-07 8.072288850344885 -1.5906224019387422e-06 3.5973984946264966e-07 -1.5906229804257139e-06 8.072291048783132" Properties=species:S:1:pos:R:3:REF_forces:R:3 system=batio3_cubic base_model=chgnet config_id=batio3_cubic_c34 T=600.0 draw=8 energy_qe_eV=-74135.11124474145 offset_eV=-73801.84934295047 split=train REF_energy=-333.26190179097466 mock=0 pbc="T T T"
Ba      -0.00147151       3.86952580       4.15712646      -0.15450530       1.25822872      -0.78530129
Ba       4.08971742       4.23835977       4.16497070       0.17097810      -1.24239896      -1.52316239
Ba       0.03622513       7.90539500       4.19023214      -0.66565090       1.28669855      -1.23337644
Ba       3.99877684       8.03195211       3.82935719       0.88420212       0.92149623       0.77601730
Ba       0.11470018       4.11424706       8.20106448      -0.53902149      -0.21921277      -1.08845133
Ba       4.02119137       3.99494089       8.10079331       0.62735508       0.53238445       0.02166463
Ba      -0.13661762       8.00969660       8.01685646       0.77495132       0.73416848       0.47238158
Ba       3.86629588       8.08328952       7.85409067       1.32644009      -0.12253723       1.42589473
Ti       2.04250939       2.11447488       1.92843669       0.47831826      -1.61924966      -0.30490584
Ti       6.11673302       2.10614541       2.05970549      -0.39521481      -0.03320040       0.61642378
Ti       2.18339953       6.06636100       1.95242509       0.02085602       1.61705137      -0.18841892
Ti       6.28419849       6.04803961       1.98609886      -3.90749985       0.94826990       0.78915872
Ti       2.03188079       1.99307327       5.97139019       0.02696496      -1.36630119      -0.00925263
Ti       6.06091806       2.04433978       6.13279227      -0.20105024      -1.69615058      -0.14143381
Ti       2.07690856       5.99045662       5.95172384      -1.11985452       1.67820866       0.31747802
Ti       6.04329729       5.99901810       6.07531177       0.46591937       1.41922503      -0.62250753
O        4.06003288       1.95622903       1.88094406      -1.38967535       0.47708336       0.77120574
O        8.02099790       2.25577704       1.95844555       1.24341711      -0.82764428       0.11449765
O        4.00780130       6.23767206       2.02210790      -0.81386497      -1.20967293      -0.18066988
O        7.95681695       5.90820513       2.13204389       3.15271781       0.24385448      -0.55881205
O        4.03034606       2.03986811       6.00521090       0.17131492       0.69658384       0.24701102
O        8.08213664       2.14282232       6.11212995      -0.63177455      -0.12108482       0.23393002
O        4.03891704       6.03854753       6.00954299      -0.37512472       0.61802147       0.24703802
O        8.14130402       6.28037646       6.09398446      -0.35540050      -1.55606866       0.24757281
O        2.09692638       4.18528760       2.09874986      -0.05920068      -2.08084187      -0.09114226
O        6.06151524       4.04783533       2.19233480      -0.73255871      -0.41225814      -1.21398132
O        1.88379158       8.04135191       1.97009499       0.06172422       1.36410007       0.03957493
O        6.06332041       7.93084903       1.90950472       0.61325284       0.95235872       0.60828598
O        2.06507470       4.22296182       5.97238133      -0.31404611      -1.86524330       0.35295641
O        6.00207505       4.17765419       5.92472344       0.47547771      -1.97725238       1.13574548
O        1.98178687       8.18688511       6.16145135       0.13149933       0.71511146      -0.50202795
O        5.99293896       8.11177004       6.01300921       0.18862770       1.52405919       0.31614619
O        2.08266180       2.10227543       0.00939583      -0.55662018       0.60095114       0.96042067
O        6.06712609       2.04783922       0.04035499      -0.10967426       0.46553705      -1.57896587
O        1.97748028       6.07785209       0.03991843       0.29649550      -0.38014686       0.08604660
O        5.97978824       6.09099079      -0.06373052       0.60977208      -0.87453452       0.33828467
O        1.92279426       1.95263404       4.12410727       0.47670952       0.59495404      -0.82339424
O        6.07460413       2.05272861       3.96767389      -0.07018829      -0.36803645       0.40120162
O        1.97142279       6.25550074       4.04421313       0.66240025      -0.96920176       0.52825603
O        6.14013234       6.04958740       4.10308842      -0.46846837       0.29269104      -0.20138885
40
Lattice="8.07229364156986 2.904777715589395e-07 3.5974003450358844e-07 2.9047805627122115e-07 8.072288850344885 -1.5906224019387422e-06 3.5973984946264966e-07 -1.5906229804257139e-06 8.072291048783132" Properties=species:S:1:pos:R:3:REF_forces:R:3 system=batio3_cubic base_model=chgnet config_id=batio3_cubic_c35 T=600.0 draw=9 energy_qe_eV=-74135.14761738192 offset_eV=-73801.84934295047 split=train REF_energy=-333.2982744314504 mock=0 pbc="T T T"
Ba      -0.14889286       4.13918054       3.90624161       1.97455786      -0.67800119       0.70570483
Ba       3.94537732       4.19048588       4.13816329       0.12371943      -0.99582322      -0.87935868
Ba      -0.09922366       8.08653303       4.14519663       0.41359177      -0.16548288      -0.80495532
Ba       4.06543313       8.11455853       4.06533431       0.07812014      -0.50983844      -0.53786270
Ba       0.03368085       3.97322526       7.99852507       0.24612425      -0.16334733      -0.05665272
Ba       3.91643823       3.91655275       8.01536363       0.44608434       0.60302731       0.18806154
Ba       0.20239744       7.91275690       8.25110126      -1.50025052       2.01193013      -1.94880338
Ba       4.14898015       8.15762432       8.04305553      -0.07543154      -0.51917695       0.45573575
Ti       2.06110605       1.96532744       2.11343957       0.54035332       1.73069824      -0.80708574
Ti       6.08933532       2.20883422       2.02824980      -0.65063848      -0.92793787      -0.84966398
Ti       2.14817437       6.07022995       1.87742466      -0.26494575      -1.00913228       0.63365352
Ti       6.10210411       6.09096351       1.94107745      -0.23381406       0.64509210      -0.34583986
Ti       2.00344930       1.81228860       6.04306761      -0.68667018       1.70428324       1.06822651
Ti       5.99734145       2.04020831       6.01475260       1.20709000      -0.16429041       0.21363322
Ti       1.99051190       6.01972346       5.99767357       0.21036689      -1.41571419      -0.74758038
Ti       6.05946263       6.01588545       6.06888068       0.30333927      -0.07093417      -0.41191875
O        4.09503947       2.09285916       2.09412180      -0.86402385      -0.54634991      -0.04635442
O        7.98862381       2.02989128       2.01240288       0.56643665      -0.06265496       0.31745025
O        4.03939843       5.93711930       1.93274795       0.83203624       0.70906320       0.48695126
O        8.17645569       6.17615983       1.77191671      -1.69988820      -1.78276102       1.98069046
O        3.98780333       1.84784581       6.07424899       0.36445233       0.60746580      -0.35273967
O        8.01932097       1.89469258       6.09356113       0.45580440       0.54192273      -0.17820290
O        3.89457304       5.97385739       6.05113712       2.13558297       0.88863753       0.27125755
O        8.12683693       6.07527195       6.00284532      -1.03057142      -0.17819802       0.66376602
O        1.99830024       3.96627155       1.94621250      -0.18726296      -0.53755468       0.70855387
O        6.00921174       4.12437824       1.88268264       0.66971735      -0.26555716       0.64301079
O        1.99005376       7.95425190       1.95183584       1.04080467       1.60336641       0.55340553
O        5.99387955       8.09983481       2.11162402       0.16033759      -1.10603921      -0.14358043
O        2.01417516       4.01987388       5.98972516      -0.45858607       0.04025833       0.14282709
O        6.04544236       4.05941549       5.94070107      -0.17889633       0.22409581       1.42785931
O        1.93225206       8.05339851       6.16007109       0.46494853       0.05590247      -0.44634711
O        6.05504720       8.08797641       5.88878258      -0.60825616      -0.57743532       0.71025902
O        2.12313480       2.04011636       0.00150449      -0.63956371      -0.83077434      -0.15402605
O        6.00976357       2.12504666       0.01824691       0.00814448      -0.38311494      -0.09856144
O        2.12976187       5.96299600       0.02050843      -0.34844541       0.41580857      -0.39341504
O        6.08341139       6.07081011      -0.01572277      -0.10246026       0.28029267      -0.28658519
O        2.10138940       1.93564682       4.00730124      -0.57944618      -0.32574797       0.03985930
O        6.06646525       2.24311152       4.12182365      -0.23773423      -0.80979954      -0.77794563
O        2.12252260       6.08834808       4.06005884      -0.69226696       0.26527177      -0.00899140
O        6.21387946       5.85842196       4.10731539      -1.20246073       1.69854994      -0.93443531
40
Lattice="8.07229364156986 2.904777715589395e-07 3.5974003450358844e-07 2.9047805627122115e-07 8.072288850344885 -1.5906224019387422e-06 3.5973984946264966e-07 -1.5906229804257139e-06 8.072291048783132" Properties=species:S:1:pos:R:3:REF_forces:R:3 system=batio3_cubic base_model=chgnet config_id=batio3_cubic_c36 T=600.0 draw=10 energy_qe_eV=-74135.90937599118 offset_eV=-73801.84934295047 split=train REF_energy=-334.0600330407033 mock=0 pbc="T T T"
Ba      -0.12687244       3.95088328       4.00027124       1.21489098       0.21364402       0.62603739
Ba       3.84563300       4.02137190       4.24006545       0.89026118       0.62813207      -1.27771460
Ba       0.08257690       8.02147332       4.07581078      -0.90916239       0.76754731      -0.59012165
Ba       4.12861694       8.05387219       3.91746110      -0.38419480      -0.02598640       0.26830927
Ba      -0.09904072       4.05552838       7.93107076       1.04083990      -0.30677349       0.60692021
Ba       4.03754029       4.05867238       7.94933483      -0.58497945       0.01499853       1.04964361
Ba       0.05441132       8.12754580       8.14229148      -0.52210261       0.17086369       0.22596629
Ba       4.18518487       7.97890714       8.08440847      -0.56043056       0.79295675       0.40996857
Ti       2.08212274       2.08775075       2.00335107       0.33668776      -1.15711855      -1.06222145
Ti       6.01651714       2.18029580       1.98959602       0.53669722      -2.79428597      -0.18511094
Ti       2.01400220       6.06580134       1.94142582       0.67566586      -0.32243202       0.40133866
Ti       6.14985343       6.00159180       2.10452119      -1.07629155       2.09701488       0.03738307
Ti       2.04689947       1.97301971       6.02199439       0.27180006       0.44986001       0.28913263
Ti       6.06142992       1.99470947       6.04290681      -0.05916777      -0.65419972      -0.74535098
Ti       1.85800096       6.17343071       6.06359888       0.95503730      -1.25797650      -0.86529577
Ti       5.91083056       6.01985351       6.12519169       1.25080749       0.91005122      -0.06823811
O        3.98431151       1.95324354       1.94139702       0.32401222       0.63846508       0.57949014
O        7.97952585       2.15143625       2.14513964       0.41183133       0.00005605      -0.51533983
O        4.12900853       6.18923201       1.95662313      -0.20028199      -0.55360916       0.57738184
O        8.10715063       5.93398197       2.05903584       0.81333840       0.22368546      -1.22002907
O        4.02449840       2.16551944       6.10907763       0.10598833      -0.84576310       0.22473447
O        8.03638233       2.03821891       5.97382957      -0.03880540      -0.14614356       0.67157780
O        4.11386987       6.14707658       5.89635670       0.04341745      -0.56397662       0.55838421
O        8.17097646       6.13284872       6.16478811      -0.79271790       0.01726907      -0.08471296
O        2.22577369       4.19832231       2.09161717      -0.72588876      -0.29112858      -0.14696708
O        5.93363421       3.95900249       2.11413490      -0.03547788       1.07006074      -0.39019550
O        2.00178448       8.22845717       2.03133295      -0.39508625      -0.31859388       0.11078652
O        6.12568969       8.05420554       2.12965512       0.25607519      -0.83461840      -0.53327919
O        2.02176677       4.12620229       6.05590654      -0.36315958       0.09650739       0.40474023
O        6.08283188       4.07385032       6.09515944      -0.17469592      -0.70114240      -0.35973050
O        2.03446065       8.14721856       6.15598385       0.05595338       0.56685497      -0.08310860
O        6.04574454       7.95629413       6.17386909       0.27873869       1.08808366      -0.67750445
O        2.05015042       2.13188193       0.07199156      -0.71736581       0.08832459       0.12404313
O        6.04810242       1.92556783       0.05630290       0.18414678       0.84153903      -0.05766830
O        2.12873378       6.20569331       0.00908625      -0.41303050      -0.50405758       0.66016210
O        6.14639821       5.97572094      -0.04473042      -0.47198255      -0.06725672       0.04210413
O        2.13009050       2.04656167       4.13501311      -0.49736962      -0.05748884      -0.22550760
O        5.95294338       1.88454985       4.15557802       0.10097828       0.88705245       0.26909089
O        1.92123871       6.25180181       4.10979720       0.72420597      -0.58605031      -0.19381490
O        6.37814611       5.93514279       3.92413084      -1.54918299       0.42563456       1.14471632
40
Lattice="8.07229364156986 2.904777715589395e-07 3.5974003450358844e-07 2.9047805627122115e-07 8.072288850344885 -1.5906224019387422e-06 3.5973984946264966e-07 -1.5906229804257139e-06 8.072291048783132" Properties=species:S:1:pos:R:3:REF_forces:R:3 system=batio3_cubic base_model=chgnet config_id=batio3_cubic_c38 T=600.0 draw=12 energy_qe_eV=-74135.25617270797 offset_eV=-73801.84934295047 split=train REF_energy=-333.4068297574995 mock=0 pbc="T T T"
Ba      -0.13219425       3.97504468       3.96633227       1.18872769       0.80437657      -0.17242281
Ba       4.04928590       3.85111066       4.22071835      -0.09631841       1.27262305      -1.57395274
Ba       0.03522725       8.18242364       4.10373206      -0.36821540      -0.79381447      -0.44308464
Ba       4.10595023       7.99889636       4.03834045      -0.21393712       0.18358885      -0.03835443
Ba       0.09940826       4.21869687       7.93391294      -0.41250316      -1.48327147       0.84177326
Ba       3.89955705       4.18522997       8.16687134       0.87472838      -1.33681295      -0.06604727
Ba      -0.06575408       8.06658822       8.09530514       0.81176206       0.80681217      -0.36505140
Ba       4.13854079       7.90544164       8.02790905      -1.04646804       1.65421435       0.14837168
Ti       1.95420940       1.90164127       2.05826709       0.26518049       0.92296561       0.18704544
Ti       5.99067846       2.04705848       1.94553743      -1.03348577       0.72189532      -0.56264659
Ti       1.97056857       6.03485820       1.97661746       1.54446861      -0.18668086       0.84400369
Ti       6.10800631       6.12115444       1.99184115      -0.84927368      -1.45134891       2.08066652
Ti       2.07817444       1.96456491       6.08929997       0.78427234      -0.48029698       0.47116417
Ti       6.15381822       2.02548763       6.06949750      -0.40811403      -1.72309240       0.14527633
Ti       2.00594861       6.06642674       5.96001118      -0.13639959       0.41548539      -1.27859520
Ti       6.12108751       6.04595542       6.15469378      -0.41901808       1.53886361      -1.99626363
O        4.10699769       2.07049043       2.01100621       0.53670416      -0.29797697       0.59059834
O        8.19899335       2.03435437       1.88263047      -0.97130827       0.00967840      -0.05178922
O        3.92548334       6.09226551       2.05541844      -0.20369513       0.05165706      -0.17580021
O        7.91372143       6.08380427       1.77630553       1.23789258       0.02496284       0.87882620
O        3.98990004       1.98286239       5.92950253       0.01818001       0.22552868       0.16102742
O        7.99267640       1.89767013       6.03061189       1.12784808       1.40967081       1.03179424
O        4.05516086       6.11233068       6.12841076      -0.75704770      -0.22795272      -0.72207375
O        8.11042296       6.20832289       6.12514670       0.07128229      -0.43114598       0.08417715
O        2.03636191       3.96387610       2.11817969      -0.31799635       1.32962723      -0.47579781
O        6.08303994       4.10159148       1.97463576      -0.15087850      -0.54062226      -0.53173679
O        1.94628794       8.05496595       1.98978565       0.18600517      -0.27154038       0.08784534
O        6.04308385       8.18544262       1.93506157       0.16402815      -0.64690447       0.27638356
O        1.97877542       4.04779881       5.91018252      -0.06617454       0.18742494       0.79780457
O        6.14323844       4.30633743       6.05382887      -0.03102165      -3.13271977      -0.09611221
O        2.03273742       8.07499788       5.97450746       0.09880364      -0.06072894       0.58707695
O        6.13717372       8.19794035       6.00868863      -0.81369244      -0.32362810       0.16971415
O        2.14658391       1.98577944      -0.10053707      -0.45815516       0.20030925      -0.21535046
O        5.81821456       2.05759635      -0.05398707       1.25073807       0.35212106       0.17185742
O        2.08495065       6.07405296       0.13656782      -0.88369073      -0.21624160      -1.01317200
O        6.08836474       6.10998222      -0.14141748      -0.43565775       0.18394649       2.04757694
O        1.99776401       1.89989092       3.97631933       0.02139595       0.29161915      -0.12338698
O        6.32796766       2.06040394       4.10900839      -1.92654045       0.25443920      -1.08072362
O        1.74107962       6.11889666       4.10168836       1.10200310      -0.26411194      -0.22039753
O        5.95913655       5.96732258       3.89645950       0.71557092       1.02708064      -0.40022357
40
Lattice="8.07229364156986 2.904777715589395e-07 3.5974003450358844e-07 2.9047805627122115e-07 8.072288850344885 -1.5906224019387422e-06 3.5973984946264966e-07 -1.5906229804257139e-06 8.072291048783132" Properties=species:S:1:pos:R:3:REF_forces:R:3 system=batio3_cubic base_model=chgnet config_id=batio3_cubic_c39 T=600.0 draw=13 energy_qe_eV=-74135.29375611898 offset_eV=-73801.84934295047 split=train REF_energy=-333.44441316850134 mock=0 pbc="T T T"
Ba       0.03443383       3.87590739       3.88951290      -0.74167276       1.25329658       1.07225749
Ba       4.05772475       3.98592133       4.04056858       0.26420708       0.13419899       0.30235762
Ba       0.04594344       8.19865498       3.99960656      -0.37155732      -0.54325559       0.11062300
Ba       4.11577886       8.10138371       4.20235068       0.09474078       0.24142453      -1.39654816
Ba       0.10761739       4.15048154       7.96011885      -1.12061994      -0.69145577       0.17903543
Ba       3.85933510       4.16154246       8.24523655       2.03050892      -0.68167118      -1.57527685
Ba       0.01362891       7.83184444       7.99157243      -0.49662400       1.37497275       0.67673595
Ba       3.86219975       8.04119652       8.06058584       1.60998315       0.23070689       0.77033902
Ti       1.93748408       2.02067226       1.88144512       0.41056944      -1.14166365      -0.03932811
Ti       5.98342385       2.01044962       1.90965310      -0.38571561       0.03293892       0.31990694
Ti       2.14801747       6.01945570       1.99088961      -0.84126650       0.78972513       1.00417159
Ti       6.08533150       6.08700062       2.13182376       0.48984580      -0.33859963      -0.18091130
Ti       1.98141078       2.05427448       6.01182875      -1.05335165       0.98345056       0.64064949
Ti       5.91922752       2.06300935       6.16957935       5.60234637       0.57268958      -1.26577440
Ti       2.10650355       6.14851991       5.95605780       0.69126345      -1.84579445      -0.47255693
Ti       6.09167408       6.09931103       6.07016230      -0.06858623      -0.98411313       0.95107009
O        4.01325977       1.98339668       2.12118552       0.24355957       0.34636591      -0.30572114
O        8.06106806       2.07781652       1.99120978       0.68588393      -0.17017001       0.09389977
O        4.00038447       6.17644530       2.07877527      -0.74005939      -0.41170226      -0.54588197
O        8.05401926       6.06669404       2.17076037      -0.44081358       0.11139022      -0.60458205
O        4.30862225       2.06418197       6.37667298      -6.08685174      -0.03242521      -0.59734131
O        8.27343241       1.86665343       6.24727485       0.26775314       0.52779040      -0.41439472
O        3.95477830       5.95170152       6.06041401       0.44605452       0.82922216      -0.12159878
O        7.99748232       6.02681116       6.02804139       0.55464789       0.65153502      -0.48936475
O        1.98011145       4.14347118       1.91753014       0.11228676      -0.28907504       0.90246029
O        5.93936516       4.08420939       1.94378107       0.36836015      -0.41769653       0.42593358
O        1.99103566       8.16774132       2.06508794      -0.18199297       0.10481051      -0.32584799
O        5.99487813       8.02728453       1.92219329       0.43642034      -0.04830177       0.43502937
O        2.08798211       4.08596698       6.10595221      -0.41855940      -0.71259538      -0.22099043
O        6.12380510       4.00636243       6.03124268       0.06692736      -0.05717619      -0.09963616
O        2.23630401       8.13106525       6.05971432      -0.78161356      -0.47060804      -0.16081222
O        6.08665171       8.12170499       6.15729835      -0.23018032      -1.51018089      -0.42663677
O        2.09253578       2.14361232       0.04628920      -0.05458606      -0.63890911       0.70100819
O        6.09959958       1.95333241       0.11297397       0.19432295       0.30492692      -0.02308285
O        2.09015176       6.03844471      -0.03046315      -0.82547504       0.86960802       0.92312836
O        5.97357763       5.93446427      -0.14806855       0.34763449       0.74323188       0.33071740
O        2.03068896       2.14875903       4.16532185       0.23074262      -0.51290551      -0.52819406
O        6.15015179       1.92395631       4.15260322      -0.40588334       0.28030270      -0.33397576
O        2.14373713       6.01488719       4.06419562      -0.67633254       0.45891415      -0.19527220
O        5.84801836       5.97908561       3.96393294       0.77368274       0.65679756       0.48440612
40
Lattice="8.114870309777642 1.0311789206707726e-07 -1.6384903408977124e-07 1.0311785748845261e-07 8.114869930248256 2.242601906454912e-07 -1.638490223110111e-07 2.2426020397351547e-07 8.11487040810358" Properties=species:S:1:pos:R:3:REF_forces:R:3 system=knbo3_cubic base_model=chgnet config_id=knbo3_cubic_c00 T=100.0 draw=0 energy_qe_eV=-62339.54747535369 offset_eV=-62025.985953285344 split=train REF_energy=-313.5615220683467 mock=0 pbc="T T T"
K        4.09617443      -0.03870901       3.92886570      -0.21038797      -0.12806511       0.45280572
K        8.05153907      -0.01465066       4.07016962       0.36592891       0.17737655       0.06429403
K        4.06956809       4.11904298       4.06966021      -0.10178843      -0.19675161      -0.17695103
K        8.14114498       3.99852801       4.09148816       0.21998436      -0.05611150      -0.15139735
K        4.09630554      -0.03147666       8.09705155      -0.52703115       0.09453818       0.12701867
K        7.93407615      -0.06009108       8.12781889       0.70875261       0.18533257      -0.13062207
K        4.13608112       4.09640518       8.06310403      -0.11326609       0.05993447       0.31705044
K        8.18382067       4.10547623       8.14027154      -0.50324665       0.16442462      -0.01137430
Nb       1.85992271       2.19777793       1.74620039      -0.09122377      -0.81107558       5.03717419
Nb       5.94416865       1.74530169       2.03069642       1.85450354       4.02816763       0.41295054
Nb       2.05948385       6.18869861       2.00883800       1.77213363       0.45366524      -0.51057481
Nb       6.22605688       5.81331937       2.33381365      -1.58203243       2.61195928      -9.28405708
Nb       2.25694561       1.96891822       5.84982529      -1.05002028      -1.32689466       2.48626730
Nb       6.30444224       2.33106932       6.10227278      -2.97169003      -3.97970800      -0.20988429
Nb       1.88299991       5.97022805       6.06380262       0.80424724       1.18693795       0.02608718
Nb       5.93331088       6.33476362       6.29064545      -0.22747424      -2.98497158      -0.93744298
O       -0.00414794       1.93991970       2.09001942       0.88637033       0.55548658      -0.61362565
O        4.17075847       2.06877803       2.02905551      -2.64483494      -0.12194742      -0.48684044
O       -0.02870943       6.09071908       1.97646140       1.61808444       0.26257880       0.41510203
O        4.11466685       6.01520587       1.95438965      -1.11807146       0.29757691       0.65771159
O       -0.06988163       1.92387502       6.12670682       2.56917483       0.52905204      -0.34937744
O        4.07083980       1.97602597       6.20562438      -0.52596595       0.30243038      -0.80487485
O       -0.03528239       6.06538682       6.16923829       0.52542884      -0.14969503      -0.49783216
O        4.04034478       5.99838110       6.06044532       0.23685285       0.60148773       0.13353847
O        2.02983324       4.11331556       2.14297117      -0.37610508      -1.74841546      -0.93354288
O        6.22743415       4.08731046       2.07369279      -0.11069448      -3.58515113      -0.08702541
O        2.08765376       8.11753927       2.21164812      -0.18981966      -0.22358133      -0.93455512
O        6.14011529       8.10597675       1.92416982      -0.32100043      -1.72701899       0.49614115
O        2.01437928       4.03799403       6.21911449      -0.09559464      -0.64042323      -0.56209406
O        6.04981926       4.06261954       5.95211463       0.39586093       3.19860454       0.33991166
O        2.06807369       8.09254550       6.24842852      -0.12020524       0.38860733      -1.10668713
O        6.13044391       8.07545750       5.96320040      -0.32094284       1.52409390       0.31673574
O        1.93213240       2.06387925       4.07501911       0.79401682      -0.05607370      -0.30430034
O        5.92919549       2.12407278       4.10254963       0.80363866      -0.89606442      -0.90509259
O        2.12240151       6.00928691       4.09016924      -0.94517583       0.17765474       0.79884484
O        6.06873952       6.11564065       3.95808574      -0.32509928       0.96941953       8.02832901
O        1.93108008       1.92207219       8.14394785       0.28734855       0.45659398      -2.26474234
O        6.07378451       2.11888843       8.06615124       0.18741337      -0.28846492       0.85532786
O        2.02512958       5.98257342       8.17375921      -0.12018210       0.57685168       0.10486116
O        5.96668616       6.10958858       8.09141227       0.56211334       0.11763903       0.19274301
40
Lattice="8.114870309777642 1.0311789206707726e-07 -1.6384903408977124e-07 1.0311785748845261e-07 8.114869930248256 2.242601906454912e-07 -1.638490223110111e-07 2.2426020397351547e-07 8.11487040810358" Properties=species:S:1:pos:R:3:REF_forces:R:3 system=knbo3_cubic base_model=chgnet config_id=knbo3_cubic_c01 T=100.0 draw=1 energy_qe_eV=-62341.13144742343 offset_eV=-62025.985953285344 split=train REF_energy=-315.1454941380871 mock=0 pbc="T T T"
K        4.11353893      -0.05622809       4.01322656      -0.07689167       0.20619090       0.23257222
K        8.18555040       0.07979966       3.98572344      -0.09274792      -0.16955037       0.36233477
K        4.01792421       4.00896959       4.09580801       0.17450437       0.25718694      -0.42070344
K        8.09774065       4.12757999       4.11356856      -0.06881018      -0.30139037      -0.07637076
K        4.06683781       0.06969453       8.05408720       0.08497959      -0.14330095       0.23346851
K        8.09360004       0.02639483       8.21914993      -0.05574537      -0.21872272      -0.41260395
K        4.01076174       4.07227975       8.03327921       0.10983984      -0.15625777       0.55739794
K        8.17910232       4.00895816       8.06365677      -0.51776361       0.18414832       0.22271898
Nb       2.21409356       1.93623639       2.25195781      -1.75952519       0.04194241      -3.99252417
Nb       6.24873065       1.90341822       2.03273111      -1.63705404       2.04890311      -0.81741617
Nb       1.76541204       5.97237184       2.02162006       1.60051995      -0.13966772      -1.17314578
Nb       5.82733690       5.94488124       1.84330984       1.08979961      -0.08718379       1.31264612
Nb       1.90810781       1.90611379       6.31426920      -1.16285905       0.17664301      -2.70935523
Nb       5.94534528       2.30104398       6.04763589       1.95552939      -1.04122042       0.51115613
Nb       2.31131694       5.92822654       6.03125303      -4.81166479       1.32410039       0.52447008
Nb       6.32182762       6.33986335       5.89416880      -2.68715016      -0.89823572       1.27228135
O       -0.06195378       2.09472868       2.00896934       1.04819968      -0.16500003       0.49375542
O        3.98368741       2.04822137       2.08570104       2.27095412      -0.02187777      -0.47291637
O       -0.08507308       5.96022555       2.07257539       0.69048672       0.58868698       0.13250309
O        4.02174282       6.22450041       2.17023492      -0.18693617      -0.62878770      -0.99124871
O       -0.02667587       2.00869347       6.01255324       1.10352365      -0.06545463       0.30564426
O        4.10127486       2.16410021       6.17084905      -1.71703694       0.05419577      -0.02923807
O       -0.06796941       6.19097886       6.08217173       3.41437718       0.02118023      -0.08620420
O        4.05262788       6.15482555       6.06738587       2.01428218      -0.50821248       0.34518834
O        2.15759335       4.05832042       2.04235197      -0.85660750       1.33357207      -0.03665313
O        6.04564891       4.10168694       2.13425492      -0.60254677       0.27317303      -0.46880107
O        2.04718007       8.15183328       1.95833781      -0.61857708      -0.81090203       0.45067042
O        6.03923184       8.20315919       2.05331262       0.30507682      -1.26584999      -0.19083088
O        1.84099429       4.11223696       6.17696116       1.36558359      -0.41942354      -0.59045461
O        6.23821764       4.14314818       6.12839278      -0.80108221      -0.31906310      -0.37331415
O        2.09546618       8.18291433       6.01275204       0.07986592      -0.24349530       0.48218623
O        6.10027074       8.15308005       6.16288876      -0.30718924       1.12483784      -0.21783466
O        1.98891542       2.04426365       3.97030253      -0.18259203       0.23880792       3.98597789
O        5.87574476       2.10600572       4.08092060       0.91263492      -0.16757576      -0.12036877
O        2.03042786       6.08260157       4.10830337      -0.21212475      -0.12656692      -0.36157372
O        6.05724746       6.15730704       4.07796933       0.12515127       0.06487845      -1.05195015
O        1.96305702       2.04409947       8.08783456       0.18289774      -0.06343400       1.38652266
O        6.12141836       2.15372484       8.12045327      -0.32971287      -0.33228037       0.67015341
O        1.86344383       6.06489558       8.10935021       0.79685378       0.16912074       0.70757967
O        6.10069060       6.05948673       8.11480371      -0.64044303       0.18588562       0.40428052
40
Lattice="8.114870309777642 1.0311789206707726e-07 -1.6384903408977124e-07 1.0311785748845261e-07 8.114869930248256 2.242601906454912e-07 -1.638490223110111e-07 2.2426020397351547e-07 8.11487040810358" Properties=species:S:1:pos:R:3:REF_forces:R:3 system=knbo3_cubic base_model=chgnet config_id=knbo3_cubic_c02 T=100.0 draw=2 energy_qe_eV=-62341.809505856756 offset_eV=-62025.985953285344 split=train REF_energy=-315.8235525714117 mock=0 pbc="T T T"
K        3.99151925      -0.03847949       3.94669451       0.47783387       0.28124475       0.36829767
K        8.04445988       0.02350981       4.09544517       0.20839511      -0.17105601      -0.27023271
K        4.08721404       4.00195012       4.05737584      -0.02736014       0.01209498       0.11215383
K        8.16148399       4.10576493       4.09877020      -0.20593405       0.07080407      -0.01971650
K        4.06263243      -0.05264211       8.06121889       0.26011131       0.22693482       0.23044798
K        8.14027562       0.00709718       8.19460126      -0.12491936      -0.12205515      -0.21414615
K        3.92050109       4.10202320       8.05174047       0.43735622      -0.30740367       0.16272435
K        8.10948958       4.09557609       8.09442667      -0.00304933      -0.06611438       0.03662896
Nb       1.91981724       2.12081200       2.25994906      -0.45754092      -1.44550376      -1.57074091
Nb       5.99094777       2.01854763       1.84624496       0.78496731      -0.61043080       0.95667406
Nb       2.12316944       6.16375593       2.03441919      -1.27740427       0.69656198      -0.14030150
Nb       6.12951281       6.02571794       2.04749623       1.77543286       0.85127914       0.58734486
Nb       2.08040682       1.92259440       6.30513509       0.57147524       1.72044571      -3.35163146
Nb       6.18488490       2.01920955       5.89826244      -0.37485501      -0.42685043       0.82507857
Nb       2.01104573       6.06987399       6.07536646      -2.16671029      -1.30388123       0.15452253
Nb       5.99275020       6.06578788       6.12767950       1.77446022      -0.14840973      -0.57886485
O        0.03751720       1.95186537       2.04432366       0.06489696       0.23073980       0.35110419
O        4.12178102       2.02561302       2.05591557      -0.44655125      -0.24604814      -0.23941007
O       -0.04841244       6.00069729       2.05873075       0.61364313      -0.01346641      -0.16508616
O        4.02676308       5.92391084       2.04156087      -0.39521224       0.43457377       0.02151988
O        0.01608998       2.16373401       6.06802408      -0.30403475      -0.74438065      -0.16091840
O        4.03896703       1.99684287       6.11007552       0.80110895       0.98542722       0.16849493
O        0.01387598       6.22199767       6.05046355       1.16863606      -0.20466521       0.25740008
O        4.10419160       6.09593230       5.95098490      -0.62941351      -0.00620279       0.57921118
O        2.01386906       3.90193464       1.89424915       0.25578028       2.29005202       0.36198819
O        6.12116644       4.06177444       1.97721624      -0.21280584      -0.26058413       0.52529592
O        2.07527464       8.08381195       2.01196415       0.22284574      -0.85436087      -0.03705165
O        6.22874331       8.05813883       1.82030883      -1.16847511       0.27065849       0.73166423
O        1.98562196       4.10406541       6.14133184       0.56334850       1.94758622      -0.38647306
O        6.13846841       4.07030875       6.04370295      -0.40989452       1.13358833      -0.05246773
O        2.30441834       8.22905661       6.06652098      -1.23693742      -2.80545639      -0.05517999
O        6.14294595       8.19688361       6.03042491      -0.30837323      -0.47253097       0.78951868
O        2.04983333       2.08832127       4.06351011      -0.06426447      -0.00973317       0.61862413
O        6.12358451       2.00168281       4.06135242      -0.11404617       0.24672126      -0.57767366
O        1.95398462       6.16032766       4.02618038       0.49481729      -0.43423130       0.12402410
O        6.15098843       6.27813223       4.07315107      -0.64038441      -0.97013430      -0.33988313
O        1.90125054       2.04282274       8.03460203       0.29228224      -0.20214167       3.26079156
O        6.16115867       2.07816833       8.16949170      -0.26233711       0.07484070      -1.40726066
O        1.95990518       6.14080338       8.11648254       0.62802177      -0.00287192      -0.35336933
O        6.10263948       6.00339019       8.13064993      -0.56490993       0.35495982      -1.30310142
40
Lattice="8.114870309777642 1.0311789206707726e-07 -1.6384903408977124e-07 1.0311785748845261e-07 8.114869930248256 2.242601906454912e-07 -1.638490223110111e-07 2.2426020397351547e-07 8.11487040810358" Properties=species:S:1:pos:R:3:REF_forces:R:3 system=knbo3_cubic base_model=chgnet config_id=knbo3_cubic_c03 T=100.0 draw=3 energy_qe_eV=-62341.38195134159 offset_eV=-62025.985953285344 split=train REF_energy=-315.3959980562431 mock=0 pbc="T T T"
K        4.08794751       0.01539644       4.09866653      -0.21161207      -0.03121036      -0.24874549
K        7.99016625      -0.01232158       4.23748067       0.44795970       0.15405125      -0.69956889
K        4.10515153       3.97871506       4.04599692      -0.08261237       0.27345559      -0.26620225
K        8.16303580       4.04575002       4.08513185      -0.26592200       0.02989267      -0.19454381
K        4.07962327       0.06055533       8.21281139       0.15181413      -0.08707709      -0.27155143
K        8.16908891      -0.03913408       8.07334848      -0.39420436       0.33005997       0.32133313
K        3.99525448       3.96371680       8.03896725       0.20652412       0.29829373       0.32880656
K        8.01164914       4.06431847       8.06409247       0.40553213      -0.28063694       0.32751123
Nb       1.86358240       2.15276314       2.10060827       0.67074425      -0.00280199       0.06959848
Nb       5.94908496       2.16357991       2.02827103      -0.30972254      -0.22483320      -0.56461220
Nb       2.10652069       6.22759821       1.78735708       0.74444749      -0.24198246       3.33019000
Nb       6.18124179       6.20655318       2.18834401      -0.94712987      -0.16884563      -0.68674217
Nb       2.03507654       1.84271151       6.17157556       0.17041966       3.62457026       0.14397689
Nb       6.08529733       1.94132811       6.07548404      -0.41723862      -0.13323277       0.85871915
Nb       2.19656681       5.86650248       5.88449345      -0.24867118       5.63912652       0.06410326
Nb       6.23125128       5.98598334       6.25809908      -3.08000495       0.12037802      -1.51758387
O        0.01345897       1.94766784       2.01510232      -0.75631185       0.30536555      -0.04296879
O        4.00207444       2.04983101       1.91948670       1.41130732       0.17205540       0.71027188
O       -0.04342142       6.02026245       1.99006410       0.82769621       0.53030185       0.15393452
O        4.12513826       5.96925588       2.05579160      -2.04923401       0.63403095      -0.86167463
O        0.04877083       1.98573056       6.09989024      -1.89247745       0.25903633      -0.17759895
O        4.02723345       2.24104066       6.00001227       0.65162398      -0.89815884       0.27646867
O       -0.13853567       6.27309191       6.06466606       3.02183451      -0.28253184      -0.20323902
O        4.02406723       6.21436552       6.11432504      -0.69157533      -0.99919882      -0.22193094
O        1.98557830       4.06233762       1.95385447      -0.09074374       0.35219305       0.30401547
O        6.18707209       4.02730245       1.98034403      -0.41122790      -0.39203410       0.21393558
O        2.01905820       8.19517480       1.89870918       0.25290451      -1.83051592       0.23769823
O        6.07020083       8.10516690       1.96681666       0.12100588      -0.19511511       0.34260875
O        1.88581415       4.18610236       6.07486090      -0.12786765      -3.58249544       0.26894973
O        6.14037951       4.09691283       6.00731865       0.06466093      -0.76391254       0.23900461
O        1.94487956       8.23452592       6.13830527       0.60672455      -3.74585151      -0.11324758
O        5.91334657       8.10944042       6.19388338       0.61793559       1.88585840      -0.73612098
O        2.01643474       2.02318197       4.05346833      -0.06171213       0.19340506      -0.38445474
O        6.09540115       2.05985556       4.01504360      -0.09024778      -0.38888989       0.56924275
O        1.93978125       6.15396502       4.05613126       0.38335765      -0.21589656       0.01439355
O        5.89956015       6.04008273       4.00725883       1.02310982       0.41627934       0.47683731
O        2.01184879       2.13155606       8.09505414       0.04011821      -0.30285770      -0.61139111
O        6.00821648       2.08120386       8.10839308       0.43259351      -0.12032866      -0.95837588
O        1.99997287       6.14803821       8.13809440      -0.00522680      -0.27372453      -2.26787420
O        6.08740082       6.04614359       8.05075060      -0.11857131      -0.05622103       1.77682743
40
Lattice="8.114870309777642 1.0311789206707726e-07 -1.6384903408977124e-07 1.0311785748845261e-07 8.114869930248256 2.242601906454912e-07 -1.638490223110111e-07 2.2426020397351547e-07 8.11487040810358" Properties=species:S:1:pos:R:3:REF_forces:R:3 system=knbo3_cubic base_model=chgnet config_id=knbo3_cubic_c04 T=100.0 draw=4 energy_qe_eV=-62340.723236528655 offset_eV=-62025.985953285344 split=train REF_energy=-314.73728324331023 mock=0 pbc="T T T"
K        4.04629002       0.02301249       4.10523646       0.01053535       0.31745822      -0.29765378
K        8.12743378      -0.03631546       4.14520139       0.02491322       0.23161063      -0.28818210
K        4.13615083       4.11111322       4.15179248      -0.33947098      -0.64988078      -0.74490901
K        8.06961084       4.10069320       3.96798387       0.10869596      -0.38464218       0.02556602
K        3.98136000      -0.11781772       8.12268426       0.30877329       0.61356677       0.02195876
K        8.06467595      -0.01437093       8.16042267       0.24933684       0.32396491      -0.16456449
K        4.07089400       4.18683790       8.14630326       0.00159306      -0.61943660       0.12180987
K        8.16539083       4.09789140       8.13897626      -0.28292548      -0.54473937       0.01100766
Nb       2.17697459       1.93364711       1.96500412      -0.43425778       0.20726511       0.33859809
Nb       6.19122356       1.96743160       2.03071600       0.80098657       0.69723561      -0.10038127
Nb       1.76788324       6.00409278       1.95009725       2.04078280      -0.06203558       0.53610175
Nb       5.82493842       6.08558276       2.21386328       2.61346851      -0.62252013      -2.42388771
Nb       1.86800875       2.20752062       6.01408574      -0.25887384      -2.34737271      -0.41609937
Nb       5.90475751       2.05041030       6.10364048       0.46550517      -0.86054849       0.54932776
Nb       2.40152366       6.19231206       6.00192164      -9.05833299       1.40822817       0.34229662
Nb       6.37936596       6.07271728       6.25579347      -4.18249964       0.64796993      -0.26089164
O        0.03257393       2.06396635       1.98830775      -0.74630074      -0.27567497       0.36496064
O        4.07547946       1.87542926       1.95010096      -0.12560970       0.21235307       0.02355876
O       -0.04382450       6.00799840       1.87994403      -0.23271800       0.05948144       0.16779405
O        4.07260072       6.20061794       1.91491193      -1.53032292      -0.34645024       0.71227477
O       -0.03724520       1.97950912       5.92012693       0.90658769       0.56882855       0.60912853
O        4.04307576       1.90541719       6.14479464      -0.27831832       0.83886380      -0.22038365
O       -0.01330363       6.03356934       6.00200994       2.05541957      -0.04926439       0.37775805
O        4.05245828       5.98268278       5.91675551       5.81171464      -0.01341216      -0.00050959
O        2.11669778       4.01517548       2.00275291      -0.28848549       1.17974374       0.12701892
O        5.98083409       4.03449849       1.90137725       0.01686387       0.55306409       0.90421636
O        2.07138862       8.02573875       2.16985983      -0.61630834       0.43623316      -1.18440181
O        6.16412020       8.10764508       2.02497676      -0.21623749      -0.47837174       0.09032363
O        2.01393746       4.02005038       6.01101974       0.24546682       1.15639170       0.15120941
O        5.90762339       4.07836384       6.11921294       0.92912546      -0.14468677      -0.14128443
O        2.01576107       8.09812756       6.17662924       0.69558214      -0.80307507      -0.60645562
O        5.94183468       8.12082916       6.05292985       0.95813831      -0.88215938       0.22701992
O        2.09937266       2.09669481       3.99201483      -0.13077633      -0.21918012       1.32963083
O        6.08085330       1.93476745       4.01774460      -0.32558368       0.77990044       0.41370464
O        1.94992264       6.13368223       3.97812012       0.52955006      -0.64506561       0.72803331
O        6.16721368       5.99622025       4.00382894      -0.43533276       0.29003329       1.31493466
O        1.97509912       2.09013438       8.15300679       0.06998131      -0.29561799      -0.96179981
O        6.16506767       2.06569719       8.13096751      -0.26346557      -0.39146948      -1.29915246
O        2.06109589       5.98720592       8.01227058       0.10397464       0.26852704       0.28549170
O        6.00254791       6.14281603       8.09587876       0.79882607      -0.15511594      -0.66316824
40
Lattice="8.114870309777642 1.0311789206707726e-07 -1.6384903408977124e-07 1.0311785748845261e-07 8.114869930248256 2.242601906454912e-07 -1.638490223110111e-07 2.2426020397351547e-07 8.11487040810358" Properties=species:S:1:pos:R:3:REF_forces:R:3 system=knbo3_cubic base_model=chgnet config_id=knbo3_cubic_c05 T=100.0 draw=5 energy_qe_eV=-62341.55222018145 offset_eV=-62025.985953285344 split=train REF_energy=-315.5662668961086 mock=0 pbc="T T T"
K        4.07535682       0.00301118       4.07785594      -0.02154636       0.00936447      -0.29784559
K        8.16719550      -0.06317912       4.08020825      -0.27706079       0.15786265      -0.14589493
K        3.95760455       4.04352738       4.04819547       0.24314640       0.06353196      -0.10673241
K        8.10619841       4.13536682       4.06667553      -0.03030534      -0.15839641      -0.08324435
K        3.97016606       0.06266348       8.08919159       0.48084926      -0.19277154       0.32499387
K        8.08755799      -0.02464193       8.02513109       0.05929555      -0.02686006       0.41592607
K        4.11056942       4.07486564       8.11696634      -0.04319710      -0.11838567       0.09790941
K        8.20170898       4.00174337       8.14406123      -0.39156796       0.22897525       0.04383988
Nb       1.95913128       2.08526768       2.07181245      -0.56879615       0.27435136       0.71877940
Nb       6.01843774       2.10249880       2.07435194       0.23487207       0.24567045      -0.98401877
Nb       1.94027830       6.16412230       2.22664417      -0.45602166      -0.39745064      -1.80705872
Nb       5.99190618       6.16666395       1.77677890       0.82702490       0.29552260       1.39631702
Nb       2.29737392       1.87867086       6.17364751      -5.86764102       1.10918599      -0.44234673
Nb       6.33941389       1.93212044       6.07188565      -6.58675415      -0.11475605       1.00239728
Nb       2.01884095       5.94267414       6.28167768      -1.19930110       0.29155204      -1.36964131
Nb       5.98492187       6.00436690       5.87686272       0.80122825       0.27824761       1.11329127
O       -0.01518478       1.98896536       2.00264542       0.76019036       0.41588468       0.10139402
O        4.07619025       2.06075259       1.99229727      -0.43646430      -0.22829211       0.21796219
O        0.01935464       6.10837331       1.94396983       1.38172858      -0.10467347       0.52383322
O        4.13056437       6.20494413       2.02599518      -0.85896880      -0.34296228      -0.12181090
O       -0.09144596       2.09065452       6.11343856       4.23102279      -0.06984402      -0.11091919
O        3.97628978       2.14743054       6.07711399       3.93443216      -0.10941227      -0.18392644
O        0.00771172       6.14026324       6.09919218       0.19711542      -0.22078706      -0.08200148
O        4.03497972       6.18781664       6.13256680      -0.10654420      -0.54536518      -0.48282541
O        2.11519028       4.11720954       1.95939220      -0.33527031      -0.04366890       0.23853127
O        6.22711453       4.05785993       2.00688235      -0.63064250      -0.16010028      -0.14712546
O        1.98286075       8.16646260       2.05458262       0.41771428      -0.34256839       0.16643239
O        6.22726956       8.07044249       2.04495292      -0.51486958       0.35149526      -0.16449430
O        1.96520984       4.06158808       6.09465503       0.34220149       0.35952198       0.35183027
O        6.07665725       4.12470599       6.04536597      -0.06075722      -0.73621071       0.00049288
O        1.87546326       8.16799038       6.01492285       1.11954599      -0.00150307       0.21912458
O        5.90699236       8.13969499       6.02595261       1.22391272       1.13719070      -0.06458123
O        1.94857112       2.16940773       4.06555760       0.40769263      -0.51874526      -0.45219045
O        5.93933028       2.10943120       3.99603259       0.76149031      -0.35937774       1.13527369
O        2.04665870       6.05841328       4.04447546       0.02609233       0.20781944       0.27245877
O        6.01257565       6.10227565       4.06078566       0.27586086      -0.08751649      -0.62596977
O        1.97703196       2.07182821       8.13163145       0.46359227      -0.36581939      -0.60949209
O        5.92599346       2.00831898       8.09640774       0.98325927       0.05366484      -0.99428467
O        2.17495913       6.18907528       8.06579348      -0.51533726      -0.20191464       1.23490753
O        6.11239747       6.11866963       8.06673256      -0.27122156      -0.03245992      -0.29929055
40
Lattice="8.114870309777642 1.0311789206707726e-07 -1.6384903408977124e-07 1.0311785748845261e-07 8.114869930248256 2.242601906454912e-07 -1.638490223110111e-07 2.2426020397351547e-07 8.11487040810358" Properties=species:S:1:pos:R:3:REF_forces:R:3 system=knbo3_cubic base_model=chgnet config_id=knbo3_cubic_c06 T=100.0 draw=6 energy_qe_eV=-62341.12953745639 offset_eV=-62025.985953285344 split=train REF_energy=-315.14358417104813 mock=0 pbc="T T T"
K        4.10220329      -0.06998030       4.16993607      -0.26360569       0.45849917      -0.43983296
K        8.18471871      -0.04807569       4.05090412      -0.30388177       0.38031192      -0.02507545
K        4.01199613       4.08028713       4.08320959       0.18232490      -0.36911760       0.07309004
K        8.00910015       4.15169325       4.02253225       0.19579645      -0.71124658       0.04830049
K        4.11829094      -0.01381402       8.10532744      -0.15446031       0.28811705      -0.11853043
K        8.13794778       0.07488269       8.16404786      -0.00068083      -0.34461421      -0.02329831
K        3.97546424       4.05767581       8.14360805       0.31925799      -0.08669631      -0.34035209
K        8.08259260       4.06650960       8.11396481       0.25980843       0.14938984      -0.01074721
Nb       2.23294852       2.00080279       2.02718149      -1.66189526      -0.11293031       1.35967957
Nb       6.22127728       2.13647699       1.84045408       0.75735032      -1.59555103       1.51123556
Nb       1.79660233       6.02472901       2.30436781       0.99962845       1.01536412      -7.43498037
Nb       5.81574915       6.15947687       1.97641769       7.51537105       1.02932650      -0.29670813
Nb       1.97693967       2.16725388       6.12788511       1.01347153      -1.61322248      -0.59706878
Nb       6.09139411       1.91054549       5.89837993      -1.11120610      -0.29025775      -0.43953806
Nb       2.12883694       6.26090498       6.28724820      -2.14713879      -0.07701071      -1.38110097
Nb       6.17619309       5.95319075       6.04448027       1.41043238       0.70380864      -0.13939082
O       -0.02106936       1.98047112       2.09205637      -0.02020990      -0.01686772      -0.53481465
O        4.05801443       1.93185792       2.09009480       0.70237576       0.14821947      -0.73337067
O        0.00827498       6.08231081       2.09817232      -1.49743568      -0.49644762      -0.18595247
O        4.15254627       5.97388037       2.09910468      -5.56133805      -0.44504176       0.18769773
O        0.03527896       2.05796945       6.00200594      -1.05756441       0.09442299       0.10456034
O        4.03858559       1.91959168       6.11353256       1.09340250       0.50244087      -0.33519575
O        0.02448230       6.05938568       5.95051029      -0.83782405      -0.18572235       0.70634066
O        3.93491634       6.21005552       5.97319522       2.22211756      -0.66014308       0.20093403
O        2.10797324       3.99671838       1.85263218      -0.24597255      -0.43265573       0.63157298
O        6.12174366       3.95357113       1.96429809      -0.49659032       2.13665589       0.06282336
O        2.03257271       7.96031937       2.12922531       0.38770205       0.61795076      -0.41662618
O        6.02754821       8.05062754       1.95671669      -0.28260512      -0.68666606       0.13080744
O        2.08276546       3.98957831       6.06594571      -0.09172153       1.05182853       0.20207097
O        6.08014860       4.09263455       6.12490582      -0.33284010      -0.92023253      -0.32050086
O        1.92435526       8.11056573       6.04514476       0.17744726      -0.22313087      -0.00386977
O        6.09822874       8.13388432       6.07745965       0.21187587       0.62019353      -0.16978948
O        2.08546979       1.91270795       3.97789824      -0.08001710       0.75547855       0.23273934
O        6.03549550       2.05845259       3.95228014       0.12240842      -0.31010435       2.45447201
O        2.03122370       5.89807891       3.96147563       0.67273840      -0.33402255       6.31727631
O        6.16849131       6.04765934       4.09723723      -1.04863008       0.06331342      -0.84529182
O        2.06860407       1.91836411       8.07798611      -0.23649238       0.14749699      -0.00119788
O        6.15187071       2.02324736       8.11220109      -0.21377797      -0.12550866      -1.46658604
O        2.06475572       6.15399718       8.07568877       0.01163476      -0.35482612       1.11777681
O        6.11339157       6.02890531       8.04436451      -0.60925606       0.22919919       0.91844202
40
Lattice="8.114870309777642 1.0311789206707726e-07 -1.6384903408977124e-07 1.0311785748845261e-07 8.114869930248256 2.242601906454912e-07 -1.638490223110111e-07 2.2426020397351547e-07 8.11487040810358" Properties=species:S:1:pos:R:3:REF_forces:R:3 system=knbo3_cubic base_model=chgnet config_id=knbo3_cubic_c08 T=100.0 draw=8 energy_qe_eV=-62340.47273655614 offset_eV=-62025.985953285344 split=train REF_energy=-314.4867832707969 mock=0 pbc="T T T"
K        4.04366314       0.05294196       4.02238414       0.06470335      -0.13718558       0.14796056
K        8.17702409      -0.01677199       4.06842487      -0.34136537       0.14937544      -0.02163172
K        4.07281597       4.06581426       4.08549381       0.10597470       0.04439138      -0.03969063
K        8.11853339       3.98587262       4.03738389      -0.45348166       0.01566547       0.15277983
K        4.06963152       0.08221554       8.10779161       0.14292582      -0.16049392      -0.01537648
K        8.19568801       0.00863487       8.08383487      -0.33080507      -0.09104353       0.01166432
K        4.17495981       4.10716534       8.19685013      -0.60683357      -0.29452347      -0.10860597
K        8.16867788       4.00798846       8.03919231      -0.16696384       0.13979602       0.31009612
Nb       2.03169027       2.31612894       2.25384304       0.80715156      -2.46641221      -4.05556197
Nb       6.11305905       1.97484632       1.87226208      -0.25965699      -0.23438382       1.66916069
Nb       2.23755074       6.40500910       1.86195297      -2.61963633      -2.92053022       0.03615305
Nb       6.30426368       6.03351158       2.13734250      -9.97619445       0.35631685      -0.22022578
Nb       2.06657067       1.87998480       6.25457552      -0.17195975       0.42000461       1.24553827
Nb       6.12624644       1.99355559       5.93871443       0.16552788      -0.05571992       1.45362382
Nb       1.77375942       5.88839043       5.85759625       1.60665177       0.53330670       2.61379119
Nb       5.87475162       6.04609301       6.15453641       0.13817365      -0.21089191       0.70286890
O       -0.04621066       1.83835870       2.03688597      -0.24530715       1.04493026       0.15006784
O        4.00759032       2.01603310       2.00752519       0.05994450       0.35477855       0.39531200
O       -0.19042614       6.03815365       2.00008363       9.57227158       0.39302166      -0.54143602
O        3.94894502       6.05128277       2.12686649       1.01776167       0.33346925      -0.33335458
O        0.09248163       2.14164410       6.16465169      -1.53565667      -0.70186514      -0.50831352
O        4.03235226       2.11114568       6.19231049       0.94542240      -0.30403115      -0.67551982
O       -0.03921102       6.12071031       6.07235228      -0.72196140      -0.11269582      -0.06877110
O        3.99843831       6.09537332       6.06322641       0.40896661      -0.08299598      -0.11465012
O        2.00229006       4.10548948       2.18774114      -0.38651394       1.58291663      -0.49296352
O        6.03297383       3.99748419       2.12629522       0.36737285      -1.03286896      -0.42572763
O        1.94422958       8.18992993       2.14081688       0.49207675      -0.35209998      -0.50614634
O        5.88134572       8.01041486       2.12060695       0.88035086       0.81304016      -0.40181406
O        1.99452319       4.01938965       6.13473641      -0.06159489       0.55715754      -0.69757166
O        6.17156534       4.10847682       6.15240494      -0.57244995      -0.77469189      -0.47399007
O        1.93619551       8.09718833       6.01814497       0.48770073       0.60983225       0.30325699
O        6.02839659       8.14238915       6.07610575       0.26719444       0.18426248       0.18657467
O        2.04146795       2.06566395       3.99466108      -0.07075650      -0.32287965       3.65507794
O        6.16114542       1.92569092       4.14167431      -0.25938111       0.48849777      -0.57565251
O        1.91008186       6.04460966       4.06106157       0.05298272       0.20509304      -1.56223648
O        6.04431910       5.98283386       4.02304677       0.19243807       0.22457043       1.60178133
O        2.04261754       2.02934592       8.16891660      -0.12082694      -0.25105974      -1.16939531
O        6.09262436       1.90564077       8.19246454       0.08496468       0.29461217      -1.50924475
O        1.90003135       5.99103181       8.13209631       0.67615899       1.05439784       0.82163484
O        5.95291377       5.97006272       8.13759092       0.36462845       0.70693587      -0.93946207
40
Lattice="8.114870309777642 1.0311789206707726e-07 -1.6384903408977124e-07 1.0311785748845261e-07 8.114869930248256 2.242601906454912e-07 -1.638490223110111e-07 2.2426020397351547e-07 8.11487040810358" Properties=species:S:1:pos:R:3:REF_forces:R:3 system=knbo3_cubic base_model=chgnet config_id=knbo3_cubic_c10 T=100.0 draw=10 energy_qe_eV=-62342.34852119348 offset_eV=-62025.985953285344 split=train REF_energy=-316.36256790813786 mock=0 pbc="T T T"
K        4.07729507      -0.06574978       4.06297248       0.14073396       0.09350048      -0.13789983
K        8.01539894      -0.07954663       4.10494898       0.32322058       0.39949981      -0.21265903
K        4.04836256       4.03859330       4.11682506       0.23996260       0.12735522      -0.12585370
K        8.11277032       4.07855293       4.00930551      -0.17783883      -0.06598685       0.25695888
K        4.00534486      -0.10343160       8.05961394       0.26743201       0.25398231       0.25730006
K        8.11888152       0.03374492       8.08958623      -0.05862295      -0.07251565       0.15125363
K        4.06697092       4.02292689       8.23617593      -0.20548591       0.36237205      -0.60952346
K        8.10143995       4.14391843       8.08627477       0.13769312      -0.24580878      -0.00651158
Nb       2.10568446       2.23085043       2.05968672      -0.48222814      -0.11662473      -0.91698831
Nb       6.11278505       2.03944498       2.08829169       0.67476134      -1.06637224       1.67574014
Nb       1.99845394       6.24685857       1.99730055      -0.34479933      -1.88953174      -0.50329627
Nb       6.06933057       6.04365933       1.97761236      -0.07879506       0.59873331       0.63343831
Nb       2.08568583       1.82457849       6.07417841      -1.16653624       0.67376812       0.62037685
Nb       6.09354356       2.04774477       6.21053342       1.50134684       0.40006957      -3.05646496
Nb       2.01367014       5.91746789       6.04386079      -0.66449184       1.38729116       0.10557490
Nb       6.05367810       6.11483536       6.07351447       0.18889715      -0.43829621      -0.46761810
O       -0.07407598       2.07423434       2.01024813       0.28705467      -0.04865016       0.01478513
O        4.05701186       2.10403707       1.93560896      -1.66980218      -0.12269536       0.21039337
O       -0.00709877       6.04670325       2.03329636       0.32892791       0.26885254      -0.29526729
O        4.14019534       6.05656753       1.99628821      -0.48408499       0.14565865       0.34616742
O       -0.00817511       2.13182802       6.04814301      -0.18213489      -0.55791653       0.11480258
O        3.99974694       1.98244837       6.09138932       0.10756261       0.01583080      -0.03139008
O        0.04669520       6.16200272       6.13392771       0.45697991      -0.65452188      -0.05278706
O        4.08395553       6.07404527       6.09713066       0.52496759       0.31481127      -0.23275966
O        1.92796933       4.11600939       2.11999970       0.66415400      -1.69293413       0.00727031
O        6.02155179       4.03630195       1.91465854       0.35987551       0.80053380       0.30036476
O        1.99886232       8.02361948       2.00228995       0.18475536       2.41101959       0.13994412
O        6.05351954       8.16487364       1.95690962       0.02228195      -0.16551785      -0.34928848
O        2.15129895       4.12736448       6.06395218      -0.39724649      -1.87667725       0.04307343
O        6.17729523       4.08049750       5.93689705      -0.63700701      -0.22208906       0.48282463
O        1.97683599       8.10464039       6.19114013       0.37381552       0.70070223      -0.24055653
O        6.17037566       8.09017221       6.04254375      -0.49818440       0.96493476       0.39096992
O        2.04197344       1.85123964       4.02081517       0.02333585       0.62869463       0.00559343
O        5.95246229       2.03143623       4.00613441       0.20684474       0.02878607      -0.82562725
O        2.04326009       6.08951678       4.09164302       0.18552052       0.24849506      -0.21807634
O        6.19077546       6.22697931       4.03469966      -0.57179663      -0.84669950      -0.59753517
O        1.91740033       2.11229073       8.14226917       0.53411969      -0.29293581       0.05311385
O        5.96102794       2.09982511       7.98487681       0.24448209      -0.18013046       1.95954159
O        2.14194946       6.10503709       8.14250673      -0.41242012      -0.31736026       0.41791019
O        6.10680849       6.07471204       8.04359290       0.05274952       0.04837376       0.69270533
40
Lattice="8.114870309777642 1.0311789206707726e-07 -1.6384903408977124e-07 1.0311785748845261e-07 8.114869930248256 2.242601906454912e-07 -1.638490223110111e-07 2.2426020397351547e-07 8.11487040810358" Properties=species:S:1:pos:R:3:REF_forces:R:3 system=knbo3_cubic base_model=chgnet config_id=knbo3_cubic_c11 T=100.0 draw=11 energy_qe_eV=-62334.29985807226 offset_eV=-62025.985953285344 split=train REF_energy=-308.313904786919 mock=0 pbc="T T T"
K        4.07375826      -0.04190131       4.04971908       0.40685034       0.07565008       0.03845985
K        8.20136865      -0.13634814       4.03506837      -0.84605003       0.88847118      -0.41153489
K        4.08015573       3.99380415       4.07141986      -0.04094173       0.29898047       0.22018208
K        8.14128337       4.04399186       4.01465890      -0.24129726      -0.28672480       0.08119107
K        3.99565984      -0.01458758       8.13337076       0.28122161       0.17041092       0.02443731
K        8.00557115       0.10237804       8.02768618       0.08517936      -0.44371970       0.18406630
K        4.16380296       4.10738131       8.26152148      -0.05624905      -0.31132280       0.11467069
K        8.14949711       4.07266297       8.16536996      -0.50508705       0.30850075      -0.34402929
Nb       1.76401361       2.04154312       1.56956467       0.36611403      -1.00912611      10.81119312
Nb       5.86291882       2.06707242       2.23384491       1.41641019       0.01125449       0.54325301
Nb       2.06310343       6.07167449       2.45636924       1.34446352      -1.43853325     -26.46916792
Nb       6.12208501       6.13176071       1.86802028       0.07224748      -0.01759200       0.57133923
Nb       2.00425678       1.74929123       5.66727879       0.26484188       3.62440082       3.70340979
Nb       6.08404126       2.20564647       6.25628337       0.31821978      -1.13256220      -2.43612256
Nb       2.33015700       5.82091773       6.56049729      -4.33209440       2.84944976      -7.61787013
Nb       6.34748683       6.21948946       5.91269749      -7.40792234       0.89594101       0.63528180
O       -0.05163960       2.13895484       1.99357946      -0.55759746      -0.28718965      -1.07833764
O        4.00020703       2.04951524       2.15459366       0.31131508       0.15011000      -0.70146251
O       -0.08593514       6.07701721       1.85286554      -0.08172714       0.29832150       1.46645594
O        4.00771673       6.12430113       2.04535238      -0.32477147      -0.10211085       0.45873031
O        0.03824238       2.09016278       6.16558280      -0.04884145      -0.04773819      -0.60447278
O        4.02801422       1.96253083       5.89778919       0.16925469       0.52207921       0.45021122
O       -0.09927601       6.14768071       6.00047983       6.64798523      -0.39604476       0.37860471
O        3.95182520       6.17811281       6.04953363       4.51389504       0.43450924       0.04390467
O        1.95483799       4.15825135       1.90417286       0.18595864      -0.68732195       0.98139316
O        6.06233520       4.08119315       2.27209805      -0.43392714      -0.04647655      -1.15834985
O        1.93544322       8.16540825       1.88131926      -0.11031575       0.21997125       0.28417915
O        6.02361113       8.11798435       2.10177352       0.10497634       0.34490989      -0.57591220
O        2.00021390       4.16054878       6.05764046      -0.13617976      -3.55089324      -0.55645794
O        6.12585508       4.14852233       6.04496676      -0.35865886      -0.92380894       0.24057684
O        1.94737241       8.14994670       6.15778422       0.09832618      -2.26240597      -0.37879600
O        6.11154477       8.19428731       6.11629466       0.16720244      -0.27527079       0.04071419
O        1.96786487       1.99358835       3.91931161      -0.29106996      -0.24856731      -1.12392149
O        6.21282117       2.05339471       4.06597686      -0.54044331      -0.23620982      -0.33180472
O        1.99243535       6.20945695       3.93227047      -1.04292737       1.42910193      22.59373744
O        5.99183848       6.22376833       4.08578079       0.58575386      -0.35823540      -0.64430380
O        2.15897352       2.11774447       8.09196564       1.11033347       0.26097006      -7.84175254
O        6.10556393       2.07747232       8.05464527      -0.72468779       0.32130562       1.89228976
O        1.79230328       6.08358766       8.11520946      -0.50136306       0.74386411       6.23836016
O        5.99010848       6.03804584       8.09926070       0.13160346       0.21365147       0.27765394
40
Lattice="8.114870309777642 1.0311789206707726e-07 -1.6384903408977124e-07 1.0311785748845261e-07 8.114869930248256 2.242601906454912e-07 -1.638490223110111e-07 2.2426020397351547e-07 8.11487040810358" Properties=species:S:1:pos:R:3:REF_forces:R:3 system=knbo3_cubic base_model=chgnet config_id=knbo3_cubic_c12 T=100.0 draw=12 energy_qe_eV=-62339.571054698106 offset_eV=-62025.985953285344 split=train REF_energy=-313.585101412762 mock=0 pbc="T T T"
K        4.06573013       0.03954574       4.07636465      -0.36655498      -0.17398912      -0.03777336
K        8.05876559      -0.00437488       4.03794747       0.48052581       0.03155592      -0.03500351
K        4.05964342       4.01750961       3.94554330      -0.14968860       0.16721992       0.33806561
K        8.04285213       4.09552023       4.14549911       0.46931992      -0.22717676      -0.46907257
K        4.02888297      -0.16141032       8.11906051       0.02991016       0.69031626      -0.00471617
K        8.00433861       0.14518720       8.21421238       0.62749238      -0.36777985      -0.06911382
K        4.11517829       4.05957491       8.14981522      -0.31849052      -0.22078860      -0.24688890
K        8.19910526       4.11277047       8.13232438       0.01506152      -0.32193117       0.02343149
Nb       2.02693143       1.99252701       2.02772345       0.41453716      -1.14209534       0.49187389
Nb       6.07458907       1.90691297       2.33075258       0.33597119       0.57904997      -9.45680745
Nb       2.07778585       6.00659980       2.09122600      -0.09863600       0.79595209       0.72830225
Nb       6.13405244       5.96951362       1.64054218      -0.07819727      -0.59772621      11.80834508
Nb       2.05040676       2.26472294       6.11991110       0.83907797      -3.33231759      -0.33238245
Nb       6.14446819       1.94103603       6.33957279      -0.69017742       0.09944539      -4.85504290
Nb       1.90935131       6.36103347       6.15909442       0.75721585      -3.63739286      -0.23339112
Nb       6.02964849       5.99629524       5.74512659      -1.15308089      -0.11131540       4.61858008
O       -0.08946451       2.09382989       1.93375809       0.23152835      -0.35656316       0.74332881
O        3.98234817       2.07540378       1.98444521       0.62273533      -0.18547681       0.29779828
O        0.03931139       6.09280858       2.07057372      -0.31265154      -0.06716621      -0.95060189
O        4.06672638       6.05424292       2.03294073       0.67878898       0.09824519      -0.46293124
O        0.01740960       1.92192299       6.05925408       0.07733904       0.63547797       0.19226272
O        4.07578037       2.01491339       5.98847648      -0.74218209       0.16765495       0.49421694
O        0.02923838       5.97054124       6.19790226      -0.46239722       0.78839536      -0.62994007
O        4.08205180       6.12840960       6.01662679       1.20300194      -0.31032135      -0.37667330
O        2.13369472       4.07428363       2.10346210      -0.71178266       0.37983833      -0.45315179
O        6.12227224       4.02912892       2.05665933      -0.27815094       1.27174039      -0.71252545
O        2.09380760       8.12112420       1.93238584      -0.44126815       0.18984589       0.41261295
O        6.04278907       8.13590090       1.98931882       0.06967612      -0.73167991       0.08209275
O        2.08453999       4.01081475       6.09147768      -0.20133152       2.05935439      -0.08937977
O        6.11377245       4.03084421       6.11703631      -0.02469519       0.86522918      -0.68352469
O        2.07361546       8.09277782       6.16238452      -0.23739304       2.75423153      -0.27000157
O        6.09667204       8.11836758       6.14012120       0.18958800      -0.68099138      -0.32249655
O        1.96615426       1.96487126       4.01889884      -0.05707103       0.35546812       0.43334015
O        5.98007935       2.13098738       3.95420385       0.08443966       0.12275372       7.75495313
O        2.03078017       6.12366182       4.06269746      -0.07289335       0.08270365      -0.43964501
O        6.23557225       6.16514820       4.04137968      -0.15849308      -0.14798781      -2.36155491
O        1.98407046       2.04036409       8.16063214       0.02012917       0.47494652      -1.35061849
O        6.01723532       2.04674727       8.02080687      -0.11638098       0.14755124       4.39612052
O        2.14178579       6.12142656       8.04354992      -0.39427610      -0.50323868       0.82994104
O        6.17993187       5.98843188       8.13986484      -0.08054546       0.35896200      -8.80202846
40
Lattice="8.114870309777642 1.0311789206707726e-07 -1.6384903408977124e-07 1.0311785748845261e-07 8.114869930248256 2.242601906454912e-07 -1.638490223110111e-07 2.2426020397351547e-07 8.11487040810358" Properties=species:S:1:pos:R:3:REF_forces:R:3 system=knbo3_cubic base_model=chgnet config_id=knbo3_cubic_c13 T=300.0 draw=0 energy_qe_eV=-62333.39169895245 offset_eV=-62025.985953285344 split=train REF_energy=-307.4057456671071 mock=0 pbc="T T T"
K        4.00660678       0.05354298       4.08982894       0.19357733      -0.18512586      -0.23852638
K        7.92166756      -0.04001302       4.00172923       0.69000824      -0.11987794       0.28565547
K        4.04267653       3.99679066       4.15103474       0.07876137      -0.18887864      -0.48446217
K        8.33165383       4.09608408       4.02806571      -0.55214286       0.52047330       0.71069097
K        4.14456863       0.20510037       7.98465240      -0.60990038      -1.22843864       0.09369974
K        8.09312561       0.03403224       8.21828145       0.05561502       0.01485583      -0.15296881
K        4.02869515       3.97476746       8.12577196       0.05661595       0.40766975      -0.08339219
K        8.13856751       4.06319222       7.99950488       0.02211097       0.28040605       0.04695811
Nb       1.60580267       2.12251557       2.06239836      27.43910167      -0.37981776      -3.60233227
Nb       5.66611843       1.71729488       1.80608058      15.96809227       3.75571735       1.19786462
Nb       1.94217405       6.16823892       1.91189144       0.26810487       0.21950588       1.03021764
Nb       5.97993006       5.75404401       2.22918276      -0.46859666      10.55578898       1.22080683
Nb       2.08676418       1.82555019       6.13761668       0.20723323       5.05825800      -0.24055730
Nb       6.16820999       2.23439071       5.91952399      -0.08638547       0.21155782       2.10994830
Nb       2.41427274       5.91176155       5.95246764      -4.44187279       0.90576159       0.11665584
Nb       6.39082406       6.35037682       6.30791193      -0.68858231      -1.48696795      -1.67437051
O        0.16516292       2.12067193       2.31291101     -25.14265609      -0.21317068       3.06230728
O        4.16794842       2.09322045       1.96955155     -14.92985484       2.45666644       1.64776371
O       -0.00124279       6.11629271       2.04648172       0.14375372      -0.08828114      -0.20134643
O        4.08570854       6.22414020       2.10818775       0.57275668      -1.12404774       0.19347423
O       -0.01844998       2.08043800       6.16398624       0.60171296      -0.20170716      -0.45364390
O        4.09431378       1.99447162       6.13071795      -0.64682785       0.23427224      -0.14302893
O        0.13011430       6.28990333       6.21346642      -0.04645521      -0.50539918       0.23109024
O        4.16508321       6.17258007       6.11950662       0.98128466      -0.07404597      -0.12173993
O        2.01594576       4.11730626       2.13087439      -0.19566661       0.67585895      -0.38259815
O        6.18445921       4.14420326       2.00661216       0.24169552      -8.38756098      -0.64063715
O        2.04005494       8.19144785       1.86861073      -0.68993702       0.02368295       0.43785913
O        6.17635957       8.22874439       2.16920865       0.17426963      -5.50046795       0.14014132
O        2.06455160       4.08212094       5.91737613       0.61410465       0.78974442       0.51682182
O        6.11274927       4.12770234       6.18766110       0.14574633      -0.60398813      -0.56570363
O        2.03230019       8.22104574       6.15555419       0.24798804      -3.66283676       0.17347182
O        6.12943889       8.17659893       6.06124488       0.06133418       0.21695071       0.56779085
O        2.16782517       2.08352560       3.97097290      -0.57873989      -0.65757197       1.40763733
O        6.08620461       1.92768429       4.14934932      -0.31223168       1.00277934      -1.95970846
O        2.07534450       6.28011934       4.11946407       0.40578024      -0.40356318       0.51706967
O        6.18419714       6.03753183       4.16508398      -0.25807602      -0.50600673      -1.00213039
O        2.04966554       2.28946077       8.11134600      -0.72817550      -1.01591639      -0.76976772
O        6.06949824       2.11693070       8.18998209       0.45262240      -0.26162980      -2.16297370
O        2.13883219       6.12477709       8.21974226       0.11282309      -0.46495264      -1.99569310
O        5.98045618       6.17090573       8.10997419       0.64100816      -0.06969721       1.16765622
40
Lattice="8.114870309777642 1.0311789206707726e-07 -1.6384903408977124e-07 1.0311785748845261e-07 8.114869930248256 2.242601906454912e-07 -1.638490223110111e-07 2.2426020397351547e-07 8.11487040810358" Properties=species:S:1:pos:R:3:REF_forces:R:3 system=knbo3_cubic base_model=chgnet config_id=knbo3_cubic_c14 T=300.0 draw=1 energy_qe_eV=-62340.31847086719 offset_eV=-62025.985953285344 split=train REF_energy=-314.33251758184633 mock=0 pbc="T T T"
K        4.13495341      -0.18124954       4.06785486      -0.12437352       0.45912112      -0.15258983
K        8.24324304       0.03623849       4.04830368      -0.64952237      -0.50510273      -0.02331065
K        3.93994141       3.98512535       4.14470367       0.36181772       0.19877070      -0.47500900
K        8.01713693       4.05156418       4.32492994       0.66406864       0.40143302      -1.23425010
K        4.10134180       0.10176717       8.00637943      -0.17956919      -0.48394075       0.41372624
K        8.14843679      -0.16866258       8.16523109      -0.12890611       0.62606465      -0.08479190
K        4.17701121       4.17918186       7.96146887      -0.56973126      -0.43292724       0.68721371
K        8.03087694       4.20899806       8.00084496       0.62375066      -0.73741296       0.75761977
Nb       1.98896486       2.07283793       2.18775353       0.97066009       0.22874565      -3.27281815
Nb       6.06145981       1.91363103       1.68475151      -0.15617395      -1.11615779       4.38501156
Nb       1.89326139       6.12679443       2.08893981       2.29781983      -0.92029372       0.43496226
Nb       5.98845963       5.88811464       2.15114469      -0.54578915       2.51992561      -0.28984252
Nb       2.06272888       2.17840077       6.25666131       1.12383819      -0.42557080      -1.40616254
Nb       6.17309515       2.00001685       5.79295340      -2.09692823      -0.34030427       0.49591875
Nb       2.04618731       6.23907951       6.21739946       0.13011428      -0.82543544      -0.81820987
Nb       6.11398674       6.04060747       6.18400401      -0.45002507       0.69365612      -0.27151389
O       -0.00913767       1.98868912       1.82905693      -0.94332052      -0.19760882       0.06632855
O        4.00056462       2.21666899       1.98524562      -0.21126549      -0.08766099       0.02457512
O        0.08949073       6.16513141       1.95806413      -1.01861785       0.40590083       0.40706014
O        4.11541996       5.89389998       2.03558002       0.61587974       0.32796015       0.44391099
O       -0.13546766       2.22194967       6.11348096       0.66479138      -1.14648472      -0.43481674
O        3.96660997       1.98237926       6.16012348       1.01463624      -0.09368843      -1.00328970
O        0.15448115       5.98442084       6.11424542       0.12441954       0.35547018       0.16644345
O        4.20114744       6.03944821       6.05190083       0.06298971       0.26744898       0.17332141
O        1.91336859       4.12846642       1.84957908       0.08023333      -0.32467145       1.00646090
O        6.18237273       4.11269558       2.04978386       0.37970180      -2.38699855       0.18172171
O        2.25775993       8.18808395       1.81915255      -1.00037639      -0.31179999       0.78530155
O        5.88566520       8.12293395       2.05838659       0.76736579       1.10120374      -0.97017570
O        2.23931282       4.01468022       6.00649027      -1.01862196       0.88832591      -0.00000000
O        6.13105668       4.03183078       6.13890973      -0.49112647      -0.53850059      -0.71287126
O        2.11287521       8.10764837       6.17820140      -0.57464130       0.01393924      -0.51949422
O        6.19322254       8.00897441       6.20309609       0.11514917       1.57202621      -0.54364717
O        1.73106269       1.93549407       3.95318335       0.68606520       0.54889916       1.88052105
O        5.91382647       1.96089320       3.89516547       1.03454995       0.34333997       2.90273613
O        2.15585784       6.11675398       4.00787238      -0.60276634       0.25031592      -0.32431561
O        6.39709952       6.16965356       4.14586978      -0.97131289      -0.65799081      -0.42211678
O        1.91987405       2.15152109       8.00659175      -0.21853143      -0.28968516       1.72813485
O        5.87523806       2.03105948       8.05985265       0.54441258       0.11258938      -2.54454752
O        2.14948874       6.08873508       8.07125795       0.00796965       0.03285818      -0.03842539
O        6.21670140       5.98717681       8.23793424      -0.31863450       0.47424024      -1.39876857
40
Lattice="8.114870309777642 1.0311789206707726e-07 -1.6384903408977124e-07 1.0311785748845261e-07 8.114869930248256 2.242601906454912e-07 -1.638490223110111e-07 2.2426020397351547e-07 8.11487040810358" Properties=species:S:1:pos:R:3:REF_forces:R:3 system=knbo3_cubic base_model=chgnet config_id=knbo3_cubic_c15 T=300.0 draw=2 energy_qe_eV=-62324.656708538634 offset_eV=-62025.985953285344 split=train REF_energy=-298.6707552532898 mock=0 pbc="T T T"
K        4.02099096      -0.05666578       4.06897789      -0.01876494      -0.11813756      -0.17389759
K        8.03237900      -0.03528563       4.14406092       0.17243283       0.12477461      -0.09049486
K        4.09648855       4.24772335       4.15573613       0.05063402      -0.87204594      -0.43713382
K        8.03394849       3.99137853       4.08476584       0.24022717       0.33887037      -0.22618226
K        4.18633694       0.20825439       8.15150612      -0.02685723      -0.84639353      -0.13897635
K        8.26876083       0.10587592       8.33648738      -0.91792728      -0.18487157      -1.02608048
K        3.96793190       3.97712936       7.98937553       0.40595765       0.20962744       0.54162114
K        7.96339025       4.06967854       8.10631889       0.45837884      -0.03527836      -0.03383083
Nb       2.11190323       1.95647251       1.90818550       0.37976942       0.63326348       0.90249346
Nb       6.18731158       2.07166295       1.70531063      -0.18948773       1.16716179       7.40850675
Nb       2.26727403       6.00392966       2.42803822       1.70627765       0.19978783     -19.81220954
Nb       6.34642703       6.15415324       2.06468435      -6.97673728      -1.06235052      -0.24418230
Nb       1.72023240       2.10775423       5.97138538       5.87244436       0.30863317      -0.52051778
Nb       5.72186119       1.81331459       5.73960085       7.44970173      -1.34636306       8.72771844
Nb       2.08872790       6.23028898       6.59045991       8.62545332       4.71427320     -61.66005178
Nb       6.10223892       5.87838446       6.10383999       0.05207230       2.76856748       0.87824719
O       -0.05144990       2.15944396       2.11100780      -0.12468102      -0.69549318      -1.31192673
O        3.94994974       2.32003899       2.14583400       0.54776016      -0.95635062      -0.74911816
O       -0.05110123       6.18381812       1.94126589       4.90330533       0.37807763       0.15997687
O        4.09991139       6.17262898       1.82790090      -1.13675413      -0.28929821       1.51849250
O        0.03058025       1.94669368       6.07478481      -3.92122183       0.14209073       0.48093642
O        4.08981222       2.03719508       6.02629533      -7.19190673       0.58218903       0.15910398
O       -0.06616996       6.17668794       5.85849714       0.55504332      -0.90424464       1.59157353
O        4.07370479       6.01074997       5.97713410       0.01748787       0.51369844       1.28844767
O        1.94377232       4.19872390       1.90416869      -0.01022785      -0.48337536       0.33395159
O        6.08846946       4.12105961       1.98834078       0.39141292      -0.53740915       0.01897551
O        2.14160117       8.13877003       1.71416363      -0.26903715      -0.01168746       1.50572414
O        5.95821850       8.21763325       2.18229047       0.79644137       0.60279925      -0.94199641
O        2.14118145       4.02826856       6.04179125      -1.33711763      -0.66749078       0.42869263
O        6.03138981       4.07179504       6.20055934       0.27758015      -1.96426111      -0.57703371
O        2.12867119       8.06225226       5.99955019      -0.51354392       2.03925813       1.00721552
O        6.12274464       8.10587741       6.16513726      -0.85125883       0.34124992      -0.72597720
O        1.92711687       1.97506246       3.94457829      -0.13073700      -0.05123232       0.90123311
O        6.25898198       2.14819770       4.20911923       0.74312209       0.91356772      -7.69724575
O        2.04116886       6.05162607       3.93398558      -1.77824617       0.59087293      16.39385152
O        6.05085407       6.07471180       4.02662918       0.31116699      -0.09179970      -0.36490896
O        2.05356922       1.99021128       8.05548147      -0.42173805       0.52060365      -0.04557203
O        6.07739953       2.06010887       8.12921078      -0.17038803      -0.26017841      -4.52826417
O        1.87845675       6.07220142       7.85915534      -8.92526684      -6.32157983      57.54862231
O        6.01838912       6.01832262       8.13878192       0.95522962       0.61047399      -0.48978307
40
Lattice="8.114870309777642 1.0311789206707726e-07 -1.6384903408977124e-07 1.0311785748845261e-07 8.114869930248256 2.242601906454912e-07 -1.638490223110111e-07 2.2426020397351547e-07 8.11487040810358" Properties=species:S:1:pos:R:3:REF_forces:R:3 system=knbo3_cubic base_model=chgnet config_id=knbo3_cubic_c16 T=300.0 draw=3 energy_qe_eV=-62328.12767130174 offset_eV=-62025.985953285344 split=train REF_energy=-302.14171801639895 mock=0 pbc="T T T"
K        4.09911579      -0.06306311       4.08356761       0.17339237       0.45919800       0.18051587
K        8.31299833       0.02057247       4.02576253      -0.33041632      -0.24604917       0.75071970
K        4.05752692       3.94743315       3.95366389       0.13722466       0.10078390       0.43304165
K        8.17094090       4.22270943       4.06621131      -0.12599588      -0.41096153       0.28829780
K        4.00156033      -0.01685510       8.26466387       0.29651993      -0.14193646      -0.60065701
K        8.19680197      -0.13200543       8.24432478      -0.43204638       0.67820662      -1.04348890
K        4.02709144       4.12553828       8.07709746      -0.12024381      -0.06130153      -0.41008453
K        8.06903922       4.07494311       7.96025376      -0.49169057      -0.50749900       0.38685821
Nb       1.59938502       2.08770870       2.14606524      15.09892236       2.47707638      -0.01995613
Nb       5.64434803       2.26278211       1.63388361       7.17988811      -5.91258365       5.80154619
Nb       2.48393516       6.15128732       2.35678774     -10.46835605      -0.68090037      -7.71650665
Nb       6.57744063       6.35856297       2.10708367     -16.58456696     -10.07608104       1.85690341
Nb       2.12584792       1.91037966       6.22414154      -1.08466126       1.02502633      -1.00798454
Nb       6.12974169       2.00269708       5.71869492       0.82098615       1.07548140      12.73605593
Nb       1.81872139       5.93004651       6.40692179       1.33159747      -0.48190109     -12.84356558
Nb       5.88900771       6.08383855       6.15991160       1.96432590      -0.13033565       0.22621980
O        0.06618688       1.78712052       1.88427357     -12.38670960      -1.78630529      -1.37170411
O        4.07986509       1.89763433       2.10239707      -7.66795188      -0.87002454       1.46529560
O       -0.05266411       5.91693882       1.94215621      16.51435398      -2.37865532      -1.43912409
O        4.02688539       5.88725960       1.87724275       9.08029022      -0.93820711      -1.21745180
O        0.03047747       2.27658810       6.06538944       1.32154008      -1.21188048       0.17009956
O        4.22553942       1.92180327       6.05892455      -2.60473550       0.17456042      -0.43304653
O        0.01890162       6.10438126       6.02231898      -0.16152467      -0.28773421       0.36161100
O        4.07464065       6.12277725       5.98785209      -1.16668357       0.21471437       0.55919463
O        1.91178697       3.94503541       1.78279391      -0.12002449       0.76671865       1.07328465
O        6.14260317       3.82409672       2.02307281       1.40352999       7.08163392       0.91631700
O        2.05919990       7.90462216       1.89872721      -0.10989409       2.00813596       0.53497021
O        6.01492871       7.88548250       2.00272279      -1.80063096      11.70036184      -0.69005786
O        2.18443755       4.08849500       5.82231846      -0.39197573      -0.03657883       1.84718875
O        6.06772793       4.03188879       6.05415179      -0.36839692       0.47180771      -0.32862555
O        1.95458972       8.17312757       5.88818725       0.43060527      -0.11968922       1.21194347
O        6.17281288       8.09479119       6.19238994      -0.03699817      -0.72479552      -0.94061444
O        2.04098160       2.03520861       3.94978965      -0.64818256      -0.26635780       1.01503502
O        6.27078673       1.86537341       4.13384982       0.31113305      -0.71783092     -11.40608262
O        2.10527270       6.07863547       3.97368692      -0.64747500      -0.31581092       7.56942207
O        6.18627522       5.90480755       3.94326319      -0.09485597       0.99956880       1.01644501
O        2.15432168       2.06206870       8.08737300      -0.31495859      -0.76004329      -0.81802552
O        5.95460582       1.88911657       8.15336296       0.96924367      -0.78289217      -7.20550350
O        1.88530413       6.14526522       8.00348186       0.96882330       0.38455193       9.52799975
O        6.08185166       5.98539159       8.08461960       0.15659869       0.22852916      -0.43648641
40
Lattice="8.114870309777642 1.0311789206707726e-07 -1.6384903408977124e-07 1.0311785748845261e-07 8.114869930248256 2.242601906454912e-07 -1.638490223110111e-07 2.2426020397351547e-07 8.11487040810358" Properties=species:S:1:pos:R:3:REF_forces:R:3 system=knbo3_cubic base_model=chgnet config_id=knbo3_cubic_c17 T=300.0 draw=4 energy_qe_eV=-62305.67601018324 offset_eV=-62025.985953285344 split=train REF_energy=-279.6900568978963 mock=0 pbc="T T T"
K        4.24922279      -0.08940301       4.27373601      -0.50793866       1.15542394      -1.96748579
K        8.16654937       0.00542667       4.04876262      -0.44607380      -0.00590377      -0.37947991
K        3.93282683       4.01283722       4.13700213       1.02127303       0.02257917      -1.00869339
K        8.01009108       4.16945766       4.06748397       0.68801358      -0.24897869      -1.12531298
K        4.05091892      -0.02007990       8.10080296      -0.48606500      -0.27325916       0.68976913
K        8.02920360      -0.10785170       8.14739229       0.10545354       0.44544182       0.23951831
K        3.83457529       3.99346937       7.87477826       0.71820990       0.81869350       1.50781471
K        7.97786786       4.24442101       8.12374249       0.35275895      -0.77624793       0.79877670
Nb       2.01750331       1.81354695       2.02358321      -0.83220336       5.59957215       0.96721481
Nb       6.06296591       1.79929033       1.78456428       1.02966331       4.17264718       7.80937824
Nb       1.95887463       5.92321055       2.35471186      -0.65092156       0.73089701      -9.43282240
Nb       5.96799178       5.83902877       2.03953367       1.58343959       4.35161498      -0.35325440
Nb       2.62295179       2.08283361       6.04614429     -39.42107078       0.69092638      -2.89409928
Nb       6.82851218       2.35355606       5.80234665     -49.15882010       7.76993366     -12.40132812
Nb       1.50587460       6.09105637       6.32747265      47.71467105       2.76964580       6.59161919
Nb       5.55324780       6.36678422       6.09907691      35.51339353      -1.85270274       6.26848295
O       -0.03283668       2.31983032       2.18861562       0.09152896      -1.57176524      -1.40032254
O        4.10161098       2.24223011       2.24272852      -0.91652963      -1.43435418      -0.78543782
O        0.09757263       6.12500618       1.75248575       0.68739189      -0.17305735       1.77056577
O        4.15887013       6.23895537       1.94884245      -1.66523076      -0.43048572       0.76371688
O       -0.07527419       2.07140612       6.28881100      45.63941387     -10.07570386      16.39911766
O        4.01521714       1.98540628       6.17699906      33.41216795      -2.11593357       2.30739205
O        0.20320749       6.01897232       5.96774381     -43.53667289      -1.94986833      -9.57289250
O        4.19936381       6.02628908       5.84736331     -31.96473689      -5.93897602      -4.98889427
O        2.11069424       4.16129267       2.00777972       0.11410350      -0.60344460       1.21450583
O        6.26647625       4.14732633       2.05678734      -0.71484998      -3.84656136      -0.87856266
O        1.93293167       8.21181989       1.85126421       0.42728778      -3.41986777       0.26454183
O        6.21120600       8.20586403       2.16904346      -0.13169782      -2.85970332      -0.22691862
O        2.05669993       4.10762295       5.78592357      -0.06879398       0.22628742       1.47506040
O        6.14679828       4.06261904       6.10834100       0.11675277       2.29434602       0.58934544
O        2.05626582       8.19272837       6.08432826       0.30485262       0.05151514       0.52351414
O        6.20385436       7.99725761       6.06755639       0.44704542       5.86861084      -0.51829969
O        1.67752104       1.97439661       4.11252969       2.48173367       0.06241430      -0.06653218
O        6.03593393       2.06059816       4.17733478       0.51616850      -0.94580961      -3.58126208
O        2.05090302       6.38579939       3.99214139      -0.06914313       0.25569698       5.70075817
O        6.26373097       5.89404172       3.95092500      -1.21133797       1.44793757       1.40094398
O        1.90440002       2.19809300       8.21597334       1.28779590      -0.36293487      -1.25048919
O        5.86075298       1.89853392       8.21572088       0.36549440       0.41758341      -6.03433515
O        2.26123489       6.11685755       8.04324969      -1.38185688      -0.32785448       1.81215182
O        6.17247617       6.12201717       8.04501515      -1.45467026       0.06164503      -0.22776477
40
Lattice="8.114870309777642 1.0311789206707726e-07 -1.6384903408977124e-07 1.0311785748845261e-07 8.114869930248256 2.242601906454912e-07 -1.638490223110111e-07 2.2426020397351547e-07 8.11487040810358" Properties=species:S:1:pos:R:3:REF_forces:R:3 system=knbo3_cubic base_model=chgnet config_id=knbo3_cubic_c18 T=300.0 draw=5 energy_qe_eV=-62341.02317400731 offset_eV=-62025.985953285344 split=train REF_energy=-315.0372207219625 mock=0 pbc="T T T"
K        3.99012029       0.11264906       4.09389156       0.25379256      -0.42784725       0.00726465
K        8.19083901       0.04268599       3.85031166      -0.18946202      -0.25716945       0.66028577
K        4.25835877       3.88107501       4.11883408      -0.79074946       0.59483192      -0.09987270
K        8.11034556       4.14658329       4.02201490       0.15804443      -0.38881713       0.23715650
K        4.12923386       0.12438955       8.23334999      -0.35589493      -0.45468083      -0.43493681
K        8.05213621      -0.13000387       8.08540186       0.34643224       0.27905777       0.13891336
K        4.04148456       4.07402304       8.17254828      -0.01342836      -0.11133699      -0.38285063
K        7.98590209       4.09776616       8.12591420       0.61460344      -0.10454363      -0.05820798
Nb       2.09352496       1.82163427       1.92458862       0.86013737       1.19905504       0.83125616
Nb       6.22223006       2.16447210       1.99711330      -0.84056201      -0.90595854       0.57658377
Nb       2.13380737       5.86335980       1.89984931      -0.46316855       1.38480516       0.54009184
Nb       6.12354840       6.17792284       2.12388103       0.07710738       0.70763932      -0.20646575
Nb       1.98190134       2.02821511       6.05352161      -0.32247470      -0.14410416      -0.11440458
Nb       6.08323983       2.11548703       6.11666510       0.39076037       0.82138441      -1.26971770
Nb       1.79418193       6.11426647       5.94787978       6.73498339      -0.59202041       0.56276280
Nb       5.89343844       6.21288394       6.20516859       1.33250969      -3.12542375      -0.29444993
O       -0.00331285       2.11370451       2.12322495      -0.39578199      -0.09527480      -0.39740873
O        4.04403617       1.99929837       2.11561839      -0.06023838       0.00428037      -0.24693003
O        0.05542958       5.90612368       2.10291144      -1.53897339       0.90426752      -0.50233674
O        4.05315677       6.03981665       1.85306975       1.44803065       0.18222899       1.13780545
O        0.04770333       1.92294925       6.10439030      -0.79504989       0.04007193       0.52022827
O        4.03415351       2.15798807       6.16240377       1.61975205      -0.19528120       0.02730923
O        0.10836384       6.15884017       6.01754606      -5.49138887       0.55145766       0.14826446
O        4.14231928       5.99770362       6.08661087      -1.86468691      -0.19807162      -0.14683750
O        2.06896317       4.04839255       2.09124031       0.06424056      -1.28391122      -0.31377640
O        6.00462300       4.07358376       2.14377681       0.35951633      -1.40084756      -0.19079308
O        1.96182507       8.10032811       2.07238426       0.13308467       0.23530608       0.09274740
O        6.01392068       8.11186977       1.91740484       0.80058985      -0.41865736       0.18468491
O        1.83552990       4.13371421       6.29110317       0.56824182      -0.34216267      -0.50128464
O        6.27716154       4.02765301       6.09567076      -0.49379167      -1.50506260      -0.53839389
O        2.14943150       8.16750104       6.23733672      -0.36575151      -0.30999199      -0.55134325
O        6.05445329       7.96762489       6.23884889       0.17699474       3.81231504      -0.02498752
O        2.06520931       1.96197693       4.19388760      -0.16515687       0.47161951      -0.75562588
O        6.28655126       1.76076754       4.15961995      -1.19710640       1.10577593      -0.13052797
O        2.10136848       6.02236279       4.07472031      -0.08146489       0.44581978       0.44535980
O        6.03928340       6.24879139       4.00302863       0.17319851      -0.52728518      -0.10691290
O        1.96575535       2.00036721       8.20586619       0.16867234       0.02120594       0.21339411
O        6.12003804       2.00780612       8.12320035       0.20326473       0.32959434       1.02470957
O        2.18831092       6.26154428       8.20274987      -1.14915919      -0.81124887      -0.99336910
O        6.14116698       5.90056301       8.06773288       0.09033314       0.50897995       0.91261564
40
Lattice="8.114870309777642 1.0311789206707726e-07 -1.6384903408977124e-07 1.0311785748845261e-07 8.114869930248256 2.242601906454912e-07 -1.638490223110111e-07 2.2426020397351547e-07 8.11487040810358" Properties=species:S:1:pos:R:3:REF_forces:R:3 system=knbo3_cubic base_model=chgnet config_id=knbo3_cubic_c19 T=300.0 draw=6 energy_qe_eV=-62334.51009077498 offset_eV=-62025.985953285344 split=train REF_energy=-308.5241374896359 mock=0 pbc="T T T"
K        4.07510426      -0.07988117       4.03499242      -0.01305658       0.39261697      -0.09548229
K        8.24843266       0.06327922       4.00203017      -0.39045158      -0.94257413       0.17979647
K        4.04657418       4.08211082       4.06639835      -0.00029902      -0.11372401      -0.24122476
K        8.06563881       4.03477622       4.03335469       0.12917145       0.71009061       0.07961935
K        4.02906266      -0.02933221       8.11311929       0.05790561      -0.04680976       0.15549466
K        8.15480656       0.11842385       8.05225455      -0.06543740      -0.50139211       0.37827690
K        4.17010445       3.81292664       8.03486814      -0.30892782       1.70739608       0.54371658
K        7.99233368       4.11630358       8.07500559       0.32874485       0.07373872       0.40944638
Nb       2.32175029       2.09615734       1.60310777      -1.29764862       1.03059662      16.23909194
Nb       6.40260969       1.99120458       2.41845121      -3.49996791      -0.84393427     -10.35679871
Nb       1.92701961       6.15729900       2.09131333      -1.45812300      -0.80933365      -0.33253851
Nb       5.88284905       6.02433025       1.86852663       4.80334804       0.01493014       1.59238060
Nb       1.89081683       1.92365408       5.70959942       0.77414913      -1.83144460      22.13698199
Nb       5.95910209       1.99194362       6.44507903       0.67190793       0.90572123      -2.67024413
Nb       1.91495623       5.94593337       6.16696159       0.59107399       4.82979801       0.20628192
Nb       5.94399026       6.08249475       5.96440301       0.51388459      -1.14048763       0.93625925
O        0.03220791       2.02246912       2.21421582       3.57857811       0.27945397      -0.44714775
O        4.07299068       2.10621472       2.06993584       1.33212583      -0.27170107      -0.54543280
O        0.04202743       6.05195946       2.22641671       0.92887658       0.54205334      -0.53229446
O        4.15456146       6.15465792       1.89195968      -3.98804711       0.08019091       0.75919611
O        0.10933668       2.24188833       6.13800072      -2.05087669      -0.16001955      -0.17570790
O        4.06473718       2.14590707       6.18940600       0.64841936      -0.61441164      -0.34630420
O        0.06026721       6.27380526       6.07346727      -0.33061790      -0.95539365       0.13550999
O        4.10388193       6.15717047       6.51638203       1.45780212       0.04864142      -2.34802628
O        1.93990653       4.06945191       2.17565487       0.93691128      -0.56220976      -1.17180083
O        6.03896945       4.08077370       1.99740573       0.31804006      -0.15154519       0.76732954
O        2.07306386       8.14356206       2.12422510       0.14386582       0.63866023      -0.63381781
O        6.15052130       8.18413265       1.95200529      -0.08439286      -0.02643171       0.85759737
O        2.16263581       4.23525570       6.29707788      -0.24375523      -3.99984385      -0.84940404
O        6.13385623       4.12129415       6.00440635      -0.33274960       0.90021084       0.48290125
O        2.05685686       8.21414177       6.13630545       0.09979814      -0.66241876      -0.78545916
O        6.26514822       8.27617417       6.17273517      -0.83083785      -0.87410617      -0.15245768
O        1.99400540       2.14563127       4.22632100       1.50471267       2.40171349     -19.96138340
O        6.06132373       2.10252667       4.02164103      -1.19705318       0.15067384       8.72764876
O        2.22459003       6.17287106       4.05957659      -0.05539005      -0.56272167       1.20328014
O        6.06699278       6.14496208       4.09818245      -0.75974453       0.28317410       0.89610427
O        1.97746543       1.99061390       8.18806153      -1.62431833      -0.34522176     -12.43549448
O        6.11412763       2.12905992       8.22027272       0.19913477      -0.16050780       0.06341652
O        2.13562376       6.11386180       8.19925116      -1.17051734       0.16624033      -0.08365598
O        6.14326407       6.03257745       8.20783401       0.68376252       0.42033192      -2.58565483
40
Lattice="8.114870309777642 1.0311789206707726e-07 -1.6384903408977124e-07 1.0311785748845261e-07 8.114869930248256 2.242601906454912e-07 -1.638490223110111e-07 2.2426020397351547e-07 8.11487040810358" Properties=species:S:1:pos:R:3:REF_forces:R:3 system=knbo3_cubic base_model=chgnet config_id=knbo3_cubic_c20 T=300.0 draw=7 energy_qe_eV=-62309.41219454966 offset_eV=-62025.985953285344 split=train REF_energy=-283.42624126431474 mock=0 pbc="T T T"
K        3.91484049      -0.05263460       4.13796239       0.65662607       0.79090579      -0.20662182
K        8.00426191       0.05494458       4.12278479      -0.37269529      -2.05798759      -0.60074597
K        4.07641381       4.00495256       4.13488877       0.28913366       0.02567092      -0.22662963
K        8.22240663       4.18878529       4.05091943      -0.60425964       0.78185807       0.28381277
K        4.04891273       0.15544273       8.18210867       0.33755165      -2.21032211      -0.65243774
K        8.16494199      -0.13496684       8.32279143       0.32901276       0.82689712      -1.14515804
K        4.02316005       3.96746665       8.13292789       0.51410750       2.25667293       0.34803224
K        8.08475207       4.25816381       8.12323217      -0.26300200      -1.18802604       0.33815586
Nb       2.55589789       1.96404647       1.35038658      -4.49416260      -7.05693539      32.78857259
Nb       6.61386852       2.13040444       2.59904120     -19.56056256       3.43731502     -10.50343181
Nb       2.14329959       6.04698156       2.41340637       0.31731604       1.06382144      -7.03226437
Nb       6.18089835       6.17137637       1.64290396      -1.27055202      -0.73701212       3.60239347
Nb       1.49150013       1.72370662       5.40995659       7.85853953     -13.09283480      41.06052263
Nb       5.62164868       2.23316574       6.63400943       6.70481458       2.60256395     -15.63838222
Nb       1.84397264       5.72634761       6.47447637       1.65765371      10.01503122      -3.27926442
Nb       5.92445117       6.29309678       5.67128097       2.65476994      -1.04630169       6.56231967
O       -0.06683558       1.98704202       2.04924392      18.38743478      -1.49421743      -4.12339538
O        3.99889207       2.28185950       2.09327134      10.87105097       1.68526453       1.91364072
O        0.01702476       6.22923253       1.93175633       0.83518584      -0.90566260       1.23515539
O        4.10257283       6.10662064       1.76766527      -0.64222326      -0.02106453       1.19138390
O        0.02573948       2.03583734       5.98915029     -12.67037761       3.23641210       2.76950491
O        4.04467699       1.98097522       6.01413588      -5.50414643      -0.51636827      -0.13414576
O        0.12917226       6.14290136       5.94766037      -1.47361029      -0.86232409       0.07613191
O        4.20338599       6.14902443       6.13246567      -2.22616062      -0.47931996      -0.11112694
O        2.07162988       4.20188466       2.22082642      -0.24491994      -1.58771611      -0.44462190
O        6.08702718       4.01802045       2.04794758       1.42541291      -0.36717307       0.38975250
O        1.98657998       8.23286431       2.11614591       1.24835235       0.47440041      -1.01595470
O        6.01036145       8.03447151       1.98230689       0.69795963       1.35555089       0.38821832
O        2.21267017       4.09335145       6.24132206       0.27448609      -7.07192029      -1.84621122
O        6.16945229       4.05290931       6.03399621      -1.00479406      -0.64261947       1.05998073
O        2.13609508       8.10470422       6.46325304      -1.14275894       0.31653211      -2.34689654
O        6.25442493       8.11058009       6.08101003      -0.88252216       0.88467855      -0.16368337
O        1.82976388       2.06890928       4.11634440       8.05503018      10.17407092     -38.73735197
O        5.95252619       2.02294522       4.07939831      -1.80146168      -1.13713542      11.46318091
O        2.21595881       6.26113966       4.11669808      -0.33901744      -0.50675106       3.85279886
O        6.12503987       6.03731177       3.97287720       0.02471164       0.03450395      -3.71086959
O        1.99639785       2.11158705       8.15608286      -9.64709248       4.31841921     -30.37592189
O        6.06306558       1.90149743       8.13004336       2.02450591      -1.79742222      11.90026151
O        2.12969190       5.94936035       8.18360720      -0.47432405      -0.01008464       2.74577337
O        6.30625162       5.96331662       8.00729586      -0.54501242       0.50862977      -1.67447670
40
Lattice="8.114870309777642 1.0311789206707726e-07 -1.6384903408977124e-07 1.0311785748845261e-07 8.114869930248256 2.242601906454912e-07 -1.638490223110111e-07 2.2426020397351547e-07 8.11487040810358" Properties=species:S:1:pos:R:3:REF_forces:R:3 system=knbo3_cubic base_model=chgnet config_id=knbo3_cubic_c21 T=300.0 draw=8 energy_qe_eV=-62338.237611581004 offset_eV=-62025.985953285344 split=train REF_energy=-312.2516582956596 mock=0 pbc="T T T"
K        4.10739613       0.21299458       4.16761611       0.06628921      -0.51621632      -0.31281712
K        7.98431641       0.13860301       4.09217935       0.44420589      -0.45628442      -0.10109783
K        4.07189688       4.23886770       4.04497176       0.47361417      -0.99063628      -0.42307785
K        8.14907707       3.87175723       4.03850572      -0.36346348       0.93732291      -0.21453722
K        3.96579607      -0.12583400       8.17772784       0.47223632       0.39998652       0.04414070
K        8.13598905      -0.17501017       8.20266779      -0.43627713       0.59089170       0.06638383
K        4.04637963       3.88102065       7.91783857       0.35741856       0.46582347       0.97081641
K        8.18821537       4.02769807       7.99011092      -0.38398989       0.24475951       0.44822299
Nb       1.90842383       2.08284612       1.69648072       1.32144392      -0.12153399       4.80122559
Nb       6.00457956       1.96698285       2.14807254      -0.60125350       0.02052846      -0.09221647
Nb       2.12158971       6.12783054       2.28410910      -1.45714932       0.76403467      -9.50069746
Nb       6.11254861       6.02824664       1.97598299       1.40465716      -0.76207935       0.53751688
Nb       2.08634902       2.23903033       5.77013342       0.28528318      -5.52377449       6.98373916
Nb       6.16951421       1.97771190       6.24082541      -0.65846106       0.42152722       0.24256636
Nb       1.83999054       6.30750706       6.33035951       2.66501270      -6.05383671      -2.84263891
Nb       5.87998420       6.05218218       6.02839797       6.35306453       0.03945821       0.22083976
O        0.10564867       2.03088423       2.13180944      -0.99023133      -0.05874971      -0.58912432
O        4.09613341       1.92654065       2.09813070       0.51230285       0.14896843      -0.09393885
O        0.08378708       6.01732859       1.83057336       0.44493789      -0.04436670       0.73184266
O        4.16061231       6.03925030       2.04153650      -0.43208289       0.47892787       0.06014453
O        0.02474224       1.96329117       6.17728066       0.15118755       0.23694618      -0.40894219
O        4.07632674       1.89005508       6.30759629       0.42669668       0.06739144      -1.41016652
O        0.13199466       5.91634497       6.07290211      -2.24795869       0.12846131      -0.11607605
O        4.19099607       5.91802656       5.96455980      -5.24871144       0.60950263      -0.28015820
O        2.10815528       3.94961697       1.93934267       0.14178400       0.75915909       0.34032767
O        6.08197368       4.09333590       2.04066685       0.20867433       0.28254573      -0.12219862
O        2.06129703       8.06670524       2.05439393       0.16158072      -0.71223851       0.03488498
O        6.26164952       8.16028884       2.13113224      -0.61198657       0.00290046      -0.46812332
O        2.24513991       3.89903692       6.11411780      -0.47153158       4.92876131      -0.42437215
O        6.10366750       4.01600141       6.11088157       0.06080530      -0.60901798      -0.02452421
O        2.09083544       7.99234645       6.16385743       0.24995262       5.00355059      -0.55080460
O        6.15741034       8.04482931       6.06646839      -0.29699121       1.01963524       0.15205376
O        2.06176998       1.98491884       4.09485685       0.09415894      -0.27483987      -4.93168311
O        6.19869068       2.19896638       4.08911608      -0.61618724      -0.90466656       0.46717407
O        2.12005388       5.95364386       3.91457810      -0.31456702      -0.36177067       8.34487192
O        6.31793647       6.21952072       3.98291407      -0.92925299      -0.90749863       0.31284695
O        2.04151084       1.95962494       8.09526689      -0.19999275      -0.32851705      -3.25573625
O        6.11662359       1.99628619       8.25566022       0.39309031       0.07494663      -1.71213205
O        2.24609237       5.80660176       7.97862985      -0.10047074       0.74922589       2.49697414
O        6.11779593       6.08009372       8.00628201      -0.32783854       0.25077126       0.61849018
40
Lattice="8.114870309777642 1.0311789206707726e-07 -1.6384903408977124e-07 1.0311785748845261e-07 8.114869930248256 2.242601906454912e-07 -1.638490223110111e-07 2.2426020397351547e-07 8.11487040810358" Properties=species:S:1:pos:R:3:REF_forces:R:3 system=knbo3_cubic base_model=chgnet config_id=knbo3_cubic_c22 T=300.0 draw=9 energy_qe_eV=-62324.83500827421 offset_eV=-62025.985953285344 split=train REF_energy=-298.84905498886656 mock=0 pbc="T T T"
K        4.17311777       0.04955667       4.15154575      -0.08306437      -0.48168384      -0.37598810
K        8.01642195       0.03925078       4.00811716       0.31603820      -0.23164894       0.14139910
K        4.15429631       3.91859580       4.00669879      -0.87206626       1.10636395       0.51083835
K        8.34175894       4.04683241       4.01735785      -0.99796958       0.23295095       0.33003889
K        4.12085705       0.03009217       8.14447932      -0.02247041      -0.13826467      -0.09037273
K        8.00579276       0.07996013       8.13825880       1.04550825      -0.35957623       0.26000024
K        3.89235730       4.03498777       7.98085252       0.48152109       0.06823374       0.32953829
K        8.01682531       4.04136348       8.25058350       0.48828977       0.17023068      -0.20333055
Nb       1.67593408       2.27502104       2.10518324       3.75396900      -2.09180454      -3.67451599
Nb       5.66705726       2.13958535       2.30610052      11.76365983      -0.01124935      -1.56147183
Nb       2.09442493       6.33561830       2.14776656      -0.02443216      -9.03213268       1.34962219
Nb       6.16610506       6.13072349       1.57228320       0.12349908       2.12267372      40.07917240
Nb       2.44890121       1.69043490       6.07052695      -9.10082613      10.99200312       1.80731069
Nb       6.57846856       2.03759292       6.36651629     -14.56584834      -0.72175031      -1.39195154
Nb       1.81978082       5.76542684       6.19400382       0.87843616       7.28822746      -1.22984683
Nb       5.94159719       6.07375798       5.65147961       0.87827727      -1.30759982      21.86573241
O       -0.04464928       2.02222993       1.84051108      -1.98843539       0.48493602       0.51578463
O        4.07463873       1.82306397       2.04337609      -8.15985765      -1.24283244      -0.66594477
O       -0.01868891       5.76056346       2.22882060       0.30618213       1.09467931      -1.63049952
O        4.05167586       6.04089367       1.99071839      -0.31612382       0.91067497      -0.34312683
O       -0.00229197       2.30021008       6.02012354      11.83005162       0.62839432      -1.46564656
O        3.99898839       2.26448776       5.95484329       7.55096643       0.74744437      -0.56404218
O        0.01913415       6.30376544       6.16584530      -1.32262817      -0.81337260      -0.81267506
O        4.10519623       6.06478794       6.03892393      -0.86572232       0.34395498      -0.06482677
O        2.15954480       4.00687310       2.04764539      -0.41303975       1.00320229      -0.05884252
O        5.98782212       3.97160398       2.07595895      -0.63391011       0.50183074      -0.26380573
O        1.85377632       7.96054108       1.94943254      -0.53380498       7.17596229      -0.65678727
O        6.35987243       8.00962592       2.12106453      -1.58868927       0.73728800      -1.19627362
O        2.00863230       4.10205838       6.07978607       0.14329349      -5.76568958      -0.70411640
O        6.10332908       4.16080775       6.22380326       0.57856557      -0.06767632      -1.04263041
O        2.28725364       8.19801524       6.05996829      -0.39039476     -10.46557874      -0.16888060
O        6.20656152       8.22474466       6.35401889      -0.25786262      -0.73862343      -1.49795993
O        1.94497487       1.93355362       3.86119915       0.43957662      -0.55517471       3.03060789
O        6.11719596       2.00728649       4.10885798      -0.40724706      -0.06412511       0.62611401
O        1.95164401       6.09610274       4.12398938       0.67325365       0.56386529      -1.52427028
O        6.01310288       6.14980982       4.15026818       0.77345879       0.64151775     -18.67850037
O        2.12629758       2.09375056       7.99522056      -0.15323672      -0.87685648       0.28587967
O        6.06865613       2.09598022       8.10474775       0.01992039       0.17652603       2.53128089
O        1.92332133       6.04269123       8.01066986       0.62585562       0.33130130       2.60314631
O        6.16429720       6.01385214       8.30212453       0.02730743      -2.35662096     -36.40016006
40
Lattice="8.114870309777642 1.0311789206707726e-07 -1.6384903408977124e-07 1.0311785748845261e-07 8.114869930248256 2.242601906454912e-07 -1.638490223110111e-07 2.2426020397351547e-07 8.11487040810358" Properties=species:S:1:pos:R:3:REF_forces:R:3 system=knbo3_cubic base_model=chgnet config_id=knbo3_cubic_c23 T=300.0 draw=10 energy_qe_eV=-62320.52519813982 offset_eV=-62025.985953285344 split=train REF_energy=-294.5392448544735 mock=0 pbc="T T T"
K        4.20758725      -0.00181216       4.15669404      -0.99739545      -0.51960658      -0.40783455
K        8.20004876       0.02579255       4.02831426      -0.00729011      -0.32407264       0.15546895
K        4.03489681       4.17409957       4.15383063       0.35178348       0.02202587      -0.20853164
K        8.00481366       4.02257378       3.92021139       0.43699678       0.33479286       0.40627647
K        3.86659375       0.00598945       8.18649118       0.90935831      -0.40705680      -0.29591932
K        8.00623548      -0.03693059       8.19081887       0.26717541      -0.37915518      -0.32391966
K        4.01643260       4.10202044       8.04740324       0.00138788       0.29746018       0.39145046
K        7.86971859       3.82279091       8.14755975       1.93901390       1.91092306      -0.28881253
Nb       2.16998342       2.18916398       2.54527824      -1.50876833      -1.06279609     -34.20261402
Nb       6.23902549       2.16975581       1.57281813      -1.63963182       0.41719903      18.29521728
Nb       1.85072277       6.30893923       1.90817465       1.22224305      -3.11719699       1.27105184
Nb       5.95888390       6.18827022       2.07441354       0.30369691       0.61751393      -0.82178293
Nb       1.97496555       1.99913820       6.62604511      -2.91588398       0.99671077     -55.61866126
Nb       6.08428550       1.65729982       5.62998315      -1.32596418       8.19484934      15.44309305
Nb       1.93876092       6.03637708       6.01931819       1.11889216       0.39059454      -1.66006181
Nb       6.09392066       5.79116087       6.09661042      -0.85323087       5.48538817       0.61261829
O        0.02874584       2.07562457       2.01663686       0.58357177       0.18305149       0.11274776
O        4.14755824       1.96156642       1.85395382      -0.08401799       0.22959771       0.79286291
O        0.08055813       5.98726450       2.15270186      -1.11128761       0.36590500      -0.14566456
O        4.08687601       6.16968218       1.92851482       0.27091740       0.22082177       0.35932452
O        0.11418360       2.15131210       5.82601119      -0.85431202      -0.69892226       1.41593556
O        4.12390879       2.05470133       6.10235984       0.42603334      -0.32474756       0.13757099
O        0.12788236       6.25328384       6.07435379      -1.99830329      -0.81591028      -0.13052205
O        4.16746147       6.19382031       6.11729193       0.88000659      -1.11990363       0.47856612
O        2.10507161       4.09242801       1.78043305       0.02572132      -1.57232600       1.43222042
O        6.20121101       4.12459565       2.11401473      -0.78689126      -0.57539206      -1.10515424
O        1.87270023       8.16364319       2.07406133       0.75389733       1.48374610       0.65246834
O        6.37301157       8.07466544       2.13452807      -1.06211783       0.25621891      -0.64196795
O        2.00078643       4.07532594       6.17561546       0.43593748       0.63165088       0.89425590
O        6.38336422       4.07388705       6.21007130      -1.01006893      -2.00237334      -0.67651972
O        2.05247242       8.16727466       5.82089691       0.32467839      -0.28188264       1.62930627
O        6.40241499       8.23265112       6.17040077       0.49186592      -8.18742091       0.78576281
O        2.23789440       2.27803530       3.95882147       1.33895931       1.85737135      29.63955872
O        6.16520770       1.98739977       4.10381050       0.29267150       1.77168111     -14.63061803
O        2.11426538       5.84072343       4.04137117      -0.19264042       1.08615687       0.80669673
O        5.95143358       6.23924397       4.10756358       0.90542940      -1.27910145       0.75494197
O        2.08222239       1.97300031       7.94525392       3.07830314      -1.36853805      50.83718019
O        6.26012705       1.93871370       8.15619564      -0.23637617      -1.71530042     -14.37130479
O        1.93186588       6.24651733       8.14843198       0.34757047       0.06240299      -0.92085320
O        6.18237369       6.22759587       8.17122194      -0.12193071      -1.06435855      -0.85383328
40
Lattice="8.114870309777642 1.0311789206707726e-07 -1.6384903408977124e-07 1.0311785748845261e-07 8.114869930248256 2.242601906454912e-07 -1.638490223110111e-07 2.2426020397351547e-07 8.11487040810358" Properties=species:S:1:pos:R:3:REF_forces:R:3 system=knbo3_cubic base_model=chgnet config_id=knbo3_cubic_c24 T=300.0 draw=11 energy_qe_eV=-62337.16099943697 offset_eV=-62025.985953285344 split=train REF_energy=-311.1750461516276 mock=0 pbc="T T T"
K        4.01585515      -0.21169127       4.21689774      -0.24296359       1.53730526      -1.21925877
K        8.15135994       0.03945829       4.17405177      -0.05937808      -0.29202255      -0.36804005
K        4.17075453       4.01605225       4.01180158      -0.21609942       0.00206974       0.19198582
K        8.12092438       4.29971364       3.90296869      -0.03895967      -0.93777568       0.65451930
K        3.87744792       0.05065222       7.95711133       0.72385013      -0.29225781       0.28606659
K        8.05870564      -0.03955333       8.13510252      -0.01918197       0.18630702       0.11713895
K        4.05540811       3.97865192       8.11151369      -0.13346519       0.27976893      -0.27182654
K        8.09833400       4.08221976       8.19568398       0.30122479      -0.09365680       0.06394719
Nb       2.21120453       1.91617425       1.69247214      -1.08115711       0.64157586       7.18663777
Nb       6.25598799       1.78441884       2.21581738       0.22204047       5.74829221      -1.84194396
Nb       2.01329687       6.06018748       2.27174301      -0.34183202      -1.02929204       0.14400466
Nb       6.02317303       5.80802400       1.91403494       0.46353828       6.59014184      -0.58323187
Nb       2.07164167       2.07240586       5.70620006       0.57499611       0.24207862      14.26435615
Nb       6.21162834       2.27132025       6.31378646      -1.60602982      -1.13911311      -1.54588580
Nb       1.75741225       6.05235550       6.35084819       6.99041709       0.30302045      -1.04325956
Nb       5.83095345       6.33641050       5.91433980       3.81533634      -2.43909784       1.11381989
O        0.03157269       2.14642130       2.14797867       0.66534596      -0.50578253      -0.61087303
O        4.04474986       2.14236275       2.03334247       0.07447020      -0.68322876      -0.65761080
O       -0.00471795       6.19511023       1.99309849       1.31542446      -0.76297409       0.21797504
O        4.12522391       6.26452200       2.16567101       0.16893562      -1.03111110      -0.38705130
O       -0.11942952       1.94479982       6.06741285       1.36677941       0.79035583      -0.16806993
O        3.95123150       2.11078494       6.09644347       1.03997035      -0.43674044      -0.26261068
O        0.08904555       6.12192667       6.18532067      -5.44815449      -0.17863613      -0.24592267
O        4.07292512       6.24012695       5.93926496      -1.36862521      -0.71425889       0.78228745
O        2.10209517       4.05387366       2.31285055      -0.15522958       1.05063374      -1.01244283
O        6.08323879       4.09939616       1.84777920      -0.11481467      -3.55849651       0.21240372
O        2.04768622       8.08988358       2.12189234       0.16467299       0.81477231      -0.87277254
O        6.15500526       8.24101286       1.98318288      -0.40478111      -5.76540856      -0.21363039
O        2.11688800       4.08701762       6.02999659      -1.08299879      -0.03964333      -0.12062870
O        6.14375337       4.11965545       6.07205621      -0.18963557      -0.12225955       0.36506400
O        1.93400948       8.14770896       6.24483231       0.07661090      -0.09650559      -0.53352010
O        6.15090631       8.10478719       5.98949450      -0.46038867       1.53013574       0.09271115
O        2.05501037       2.01079423       4.13409546      -0.21154677      -0.75946865     -12.15103894
O        6.08550162       2.06084456       3.96963432      -0.44789131       0.24776127       3.18249427
O        2.06590433       6.16478829       4.21273345      -0.58578138      -0.14048508      -1.73900316
O        6.31826285       6.10074480       3.96954083      -1.19404448      -0.08131782       0.70844948
O        1.94535603       2.12032918       8.15057279      -0.28508469       0.27662936      -4.00722214
O        6.09808441       1.93008415       8.13766498      -0.06020315       0.76051252      -0.67005468
O        2.25916339       5.87810565       8.18751210      -0.92834745       0.66023332       0.43586575
O        6.22924764       6.18646383       8.04288305      -1.28701942      -0.56206038       0.50617025
40
Lattice="8.114870309777642 1.0311789206707726e-07 -1.6384903408977124e-07 1.0311785748845261e-07 8.114869930248256 2.242601906454912e-07 -1.638490223110111e-07 2.2426020397351547e-07 8.11487040810358" Properties=species:S:1:pos:R:3:REF_forces:R:3 system=knbo3_cubic base_model=chgnet config_id=knbo3_cubic_c25 T=300.0 draw=12 energy_qe_eV=-62334.21553611622 offset_eV=-62025.985953285344 split=train REF_energy=-308.2295828308779 mock=0 pbc="T T T"
K        4.25093247       0.15229409       4.14634514      -1.03235011      -0.88957470      -0.48246417
K        8.10876080      -0.06992782       4.01579059       0.15392989       0.19182821      -0.21711938
K        3.99683423       4.00106597       4.33055324       0.05410295       0.32783648      -0.94259702
K        8.10563013       4.15061118       4.04743693       0.29780522      -0.16346174      -0.62430833
K        3.99889128       0.11412868       8.13104101      -0.06085004      -0.25999047       0.35268696
K        8.04397214      -0.12892141       8.07758354       0.22470722       0.54083026       0.41246640
K        4.00349899       4.01655065       8.07801924      -0.00465704      -0.03626670       0.06717238
K        7.97763827       4.03696037       8.17240886       0.86472267      -0.22098143      -0.22257294
Nb       1.89486237       2.15200206       2.01207273       0.66702592      -0.30093606      -0.08656827
Nb       5.95364093       1.85089685       2.20428458       0.07292240       0.97601133      -2.61601853
Nb       2.39452768       6.21535268       2.05649736     -13.73981434       0.00788866       1.80773955
Nb       6.33314024       5.88154133       1.92024242      -0.74719806       0.90253640       1.77367989
Nb       1.73716242       2.44711663       6.01685798       7.00741311     -12.75914315       0.24226374
Nb       5.85152708       1.65969712       6.23074499       2.51750029      10.38965715       0.28153528
Nb       2.10287029       6.55739177       6.09823511       1.01712404     -16.93347054       0.33926400
Nb       6.21560867       5.75194990       5.99865987      -1.67467776       7.51864664      -0.34077890
O        0.06539927       1.86577396       2.07268835      -1.17910971       0.10725177       0.03839274
O        4.04223637       2.02779809       1.99147890       1.59763105      -0.00062555      -0.02107868
O       -0.01749200       6.15976339       2.24623145      -0.49912131      -0.45483535      -1.11153341
O        3.95095288       5.92440832       1.89153539      11.95131719      -1.69784803      -1.21653340
O        0.11620849       1.98345043       5.95312816      -6.69336006      -0.74595802      -0.14319219
O        4.11754642       2.05159740       6.08924697      -2.52272426      -0.24818293      -0.05012700
O       -0.01356356       6.08609740       5.89278032      -0.12715262       0.24635153       0.51917926
O        4.05882615       6.02075806       6.13954662       0.10341028       0.79831956       0.09929909
O        1.83831335       4.02356227       2.01253069       0.57635031       0.12922982      -0.24817522
O        6.25731362       3.99408830       1.92254739      -0.36290915       0.25096898       0.63458734
O        2.15240260       8.01315195       2.06576636       0.38131671       1.54147610      -0.04560289
O        6.11778605       8.12348750       1.87383270      -0.54993017       0.03108181       0.32325092
O        1.90533803       4.03051041       6.09826270       0.52793130      10.82442710       0.53633572
O        6.18066778       4.09046299       5.88363549      -0.07319211      -5.84543980       0.04297599
O        2.07110419       8.11257162       6.03654021      -0.18974947      13.62239129      -0.69612927
O        6.21695442       8.18600028       5.99588757       0.73844191      -7.99241559      -0.33190499
O        2.23694833       1.91797989       3.96451481      -1.02040271       1.03734011       1.14203954
O        6.06912269       2.04892868       4.00780517       0.08834208      -0.30879592       1.24464199
O        2.15513036       5.95987860       4.09320770       0.16525380       0.96503143      -0.32251687
O        5.88683895       6.19131795       3.93259155       0.56621734      -0.96196462       0.31469763
O        2.01567823       1.94484859       8.09764390      -0.25116387       0.70041632      -0.61327984
O        6.13198521       2.18196681       8.00913442      -0.05152156      -1.09399257       0.47880831
O        1.87783466       6.24139613       8.05931074       0.58371935      -0.17703151      -0.04143873
O        6.07285359       5.99536825       8.06729784       0.62269882      -0.01860605      -0.27707776
40
Lattice="8.114870309777642 1.0311789206707726e-07 -1.6384903408977124e-07 1.0311785748845261e-07 8.114869930248256 2.242601906454912e-07 -1.638490223110111e-07 2.2426020397351547e-07 8.11487040810358" Properties=species:S:1:pos:R:3:REF_forces:R:3 system=knbo3_cubic base_model=chgnet config_id=knbo3_cubic_c26 T=600.0 draw=0 energy_qe_eV=-62310.31786382785 offset_eV=-62025.985953285344 split=train REF_energy=-284.33191054250346 mock=0 pbc="T T T"
K        3.94508558      -0.01591205       4.25090336       0.35100829       0.61538454      -0.68727284
K        8.08054480      -0.08044332       4.00476092       0.10693012       0.67917258       0.51451862
K        4.22780443       4.15183258       4.02415477      -0.47040646      -1.58626395       0.40030894
K        8.22854739       4.07813703       3.82846581      -0.33879838      -0.43870142       0.92284246
K        3.90131958      -0.14078406       8.06420102       0.44160934       0.95394252       0.29713159
K        8.05699862      -0.01804640       7.96508722       1.01093282       1.37166682       1.15440295
K        4.04059708       4.15097595       7.97220839       0.26425747      -0.67080287       0.75021731
K        8.10211652       3.96155714       8.16673892       0.12484608      -0.17347336      -0.30350896
Nb       2.30835335       2.27438219       1.89850809      -2.23453213      -4.58784614       0.06862223
Nb       6.26566376       1.70241052       2.13240482      -0.32341727       3.30063594      -0.20097979
Nb       1.38555193       6.35017217       1.95289942      67.12993003       7.65871237      -2.04458443
Nb       5.42874619       5.89663191       2.26439309      35.98470862      -5.13311053       1.83749492
Nb       1.83556145       1.75103713       5.93332796       0.69190443       4.97466244       0.01580226
Nb       5.94543870       2.30308405       6.23211398       0.79982237      -1.52269214      -1.85466269
Nb       2.59717850       5.78768702       6.01381312     -34.60113501      -3.59168739      -1.85067234
Nb       6.65985261       6.38074179       6.35107824     -25.35656853      -3.42942224      -0.33547137
O        0.01739907       1.80616587       1.92171642      -0.86620543       0.67604844       0.37419141
O        4.07210255       1.96748428       2.09332236       2.03586813       0.10383349      -0.56415120
O        0.12208332       6.13575579       1.99025883     -61.57187502      -9.18642073       1.58995888
O        4.07708198       6.17849616       1.96248026     -31.06274402       5.49520465      -5.48408102
O       -0.00532076       2.00186393       6.04425740      -0.01401200      -0.07377292      -0.18059634
O        4.11083371       1.99028976       6.08204856      -1.02495665       0.05165089      -0.30821819
O       -0.04022957       6.05639937       6.08229909      23.93498734      -4.54167247      -3.53845810
O        3.98282871       6.15717040       6.10708272      29.62266811       5.95416301       1.44644890
O        2.06475343       4.01823823       2.01202620      -0.64662756       3.68873857      -0.37780201
O        6.21049374       4.07529104       1.92324740      -1.64601922       0.18294145       0.63062861
O        2.02874940       8.14521745       2.12363671      -1.10455260       0.74461384      -0.24016469
O        6.13373179       8.03612688       1.77884519      -0.66831070      -1.13248095       0.85417883
O        1.74079002       4.11126619       6.04810610       2.11085718      -2.40736786       0.31975113
O        6.11275628       4.12939485       6.21054956      -0.17428248       0.36911580      -0.83522389
O        1.86084537       8.09244242       6.08231507       0.85620923      -1.87554031      -0.48266343
O        6.37916136       8.04450826       6.17342852      -1.28947663       7.82511211      -1.48228648
O        2.11723386       2.21564180       3.95957095      -0.53901147      -1.23979057       1.96703944
O        5.97870449       2.08777736       4.01377509       0.94055196      -0.93191151      -0.72884913
O        2.18361546       6.02340488       4.04749038      -0.28029318       0.22831525      -0.14573861
O        6.18758293       6.33719900       3.93276220      -1.09828580      -0.50909282       1.95077696
O        2.10929717       2.05466997       8.07204136      -0.07360888      -0.19915302      -0.49542201
O        6.01316324       2.05747994       8.01884204       0.41778987      -0.41547150       2.18223769
O        2.15209465       6.15566178       8.06837826      -1.08383980      -0.42253407       0.29542258
O        5.99089602       6.15572811       8.01552216      -0.35592244      -0.80470592       4.56883155
40
Lattice="8.114870309777642 1.0311789206707726e-07 -1.6384903408977124e-07 1.0311785748845261e-07 8.114869930248256 2.242601906454912e-07 -1.638490223110111e-07 2.2426020397351547e-07 8.11487040810358" Properties=species:S:1:pos:R:3:REF_forces:R:3 system=knbo3_cubic base_model=chgnet config_id=knbo3_cubic_c27 T=600.0 draw=1 energy_qe_eV=-62335.577668059275 offset_eV=-62025.985953285344 split=train REF_energy=-309.591714773931 mock=0 pbc="T T T"
K        4.08445213       0.23077427       3.96769804      -0.08428359      -0.74149252       0.53283516
K        8.06945296      -0.25793889       3.99552995       0.44338031       0.65372560       0.43900712
K        4.14406125       4.49400891       4.08204912      -1.11359157      -2.55196541       0.17148950
K        7.83508420       3.95885865       3.99256896       1.52321793       0.39928152       0.68555946
K        4.00291217       0.02194692       8.16934914       0.33114035       0.40088666      -0.29859481
K        8.27965050      -0.12329480       8.25208576      -1.35111291       1.01990160      -1.23091744
K        4.00302894       4.27262372       8.20043979       0.23813249      -1.32475242      -0.14365345
K        8.19468791       3.86919547       8.01323530      -0.13597870       0.23375724      -0.00254719
Nb       1.86265202       2.11857372       1.92327316       4.30882720      -2.43991159       0.46394888
Nb       6.01725340       2.27627085       2.27159270      -2.86799204     -13.20589212      -3.63561238
Nb       1.92436806       6.24038947       1.67617823       0.05677844      -4.50124445      10.37277323
Nb       5.99009149       6.27919273       2.18799700       0.26909089      -5.13532168      -1.96548547
Nb       2.01479352       1.90734999       5.97249324      -0.25948627       0.51609111      -0.05396874
Nb       6.08457027       2.03692886       6.26891700      -0.59294627       0.51533032      -1.00230086
Nb       2.34765012       5.98464057       5.86191210      -3.57129134       0.67926026       1.42995348
Nb       6.35792326       6.14762453       6.34180071      -4.35741719      -0.41069928      -2.39753956
O        0.08765738       1.96268823       1.94753829      -3.82568760      -0.34627335       0.42821235
O        3.99336983       1.82088481       2.10321871       1.27553199       1.33250584      -0.79863812
O       -0.14938759       5.92861320       1.86972603       0.52967630       0.52734689       0.30774459
O        3.95432752       5.96471897       2.10332612       0.08565707       0.73610375      -0.92224365
O        0.05295499       2.03393444       5.95897822      -0.24825801      -0.74666276       0.06957431
O        4.12362601       1.92150313       6.13039588       0.15269525      -0.03758464      -0.46675370
O       -0.04919767       5.87556327       6.22723540       3.90095922       0.29624482      -0.40747923
O        4.09362355       6.02358545       6.38284691      -0.01050707      -0.05891503      -1.80668462
O        1.96377089       3.87489036       1.97603617       0.15999589       2.59723663      -0.35594686
O        6.13854386       3.84326062       2.03545807       0.21688952      11.50101110      -1.55072565
O        1.85626064       7.95622889       1.93619075       0.33980574       2.89024006       0.66095426
O        5.99788384       7.97908517       2.06715429       0.46069746       3.99341583       0.07988932
O        2.14125635       3.85268034       6.18255138       0.19684314       1.62919392      -0.55526932
O        6.22715350       3.92795290       6.14712087      -0.76248070       0.52763716      -0.27392687
O        2.00415883       7.95712400       6.10340860       0.44824690      -1.73551160      -0.72890440
O        6.04944128       8.01845626       5.96555708       0.91607069      -0.56204367       0.40708045
O        2.05507306       1.66765236       3.99097786      -0.61241543       1.09281732       0.00706051
O        6.08578813       1.95126976       3.99427768       0.46744841       0.08342973       3.11111453
O        1.89609466       5.81087047       4.08814961       0.78539694       0.69868211       0.22142932
O        6.01397265       5.71108017       3.93264819       1.28919021       2.12044920       1.51870873
O        1.95949895       1.75038970       7.94300791       0.13067195       0.63321411       2.01320797
O        6.11272516       2.00064171       8.07232887       0.30122170      -0.52222422       1.60627330
O        1.93766565       6.13461570       8.15596803       0.58678153      -1.13628901      -8.51715949
O        5.97597197       5.97643678       8.07437469       0.37910170       0.37902097       2.58753457
40
Lattice="8.114870309777642 1.0311789206707726e-07 -1.6384903408977124e-07 1.0311785748845261e-07 8.114869930248256 2.242601906454912e-07 -1.638490223110111e-07 2.2426020397351547e-07 8.11487040810358" Properties=species:S:1:pos:R:3:REF_forces:R:3 system=knbo3_cubic base_model=chgnet config_id=knbo3_cubic_c28 T=600.0 draw=2 energy_qe_eV=-62328.70131979124 offset_eV=-62025.985953285344 split=train REF_energy=-302.71536650589405 mock=0 pbc="T T T"
K        4.19184457      -0.06268205       3.83608594      -0.72895043       0.29480834       0.89760888
K        8.12579086       0.17415304       4.15003455       0.25765488      -0.50733290       0.06576805
K        3.81514531       4.04493717       4.03463179       1.14567483       0.56606410       0.60056188
K        7.99045338       4.20926537       3.96515327       0.62294127      -0.38030112       0.41182156
K        4.00581021      -0.28208618       7.95240003       0.50712619       0.66469753       0.61897020
K        8.12038631       0.28315067       7.98449559       0.12277326      -1.04224783       0.30489093
K        3.98291840       4.05184875       8.08334710       0.54347542      -0.57068514      -0.26621948
K        8.12104707       3.97951948       8.15029583      -0.26461845       0.02958928      -0.02472424
Nb       2.12201621       2.44971381       2.34622109      -0.01521913     -15.78077069      -5.32428645
Nb       6.17075393       1.77813043       1.79748567      -0.62373446       4.39307556       1.87461266
Nb       1.74368197       6.53363627       2.28694705       3.65790153     -18.56695717      -1.16777629
Nb       5.84162466       5.86136482       1.87634886       9.07199738       1.61026160       0.35679044
Nb       2.22419758       1.75317595       6.29405105      -0.21532218       2.79798990      -4.23385203
Nb       6.23950449       2.05364151       5.72690781      -0.66886272       1.49775732      25.44004711
Nb       1.82483198       5.81472975       6.33624769       1.16238417       2.33637918      -6.33901268
Nb       5.91554239       6.09594723       5.90528399       5.01067151      -0.93495904       4.26790475
O        0.09441821       2.09003280       2.08133747      -0.44937021      -0.15312616      -0.06904466
O        4.18647838       1.98197936       2.15098006      -0.34042203       0.58856485      -0.33182966
O        0.09425390       6.17159921       2.21948339      -6.85444533      -0.51482201      -1.05755412
O        4.18266679       5.98009556       1.94174824      -7.47910024       1.23931338       0.24284686
O        0.21831461       2.01719367       6.06383485       0.89305546       0.15147731      -0.00800539
O        4.24765377       2.16002655       5.83992681      -1.51687810      -0.37811389       0.70975123
O        0.06511589       6.13920897       6.12421828      -0.54929485       0.17830549       0.14679945
O        4.16455814       6.14722218       6.01293430      -3.06177789      -0.21328561       0.00697746
O        2.09984601       3.97624564       1.98031727      -0.21804729      13.68637294      -2.19045391
O        5.99287685       4.08077642       2.20414943       0.53538750      -1.37134467      -0.37541243
O        2.02436791       8.03202501       2.05123660       2.78501097      17.50369700      -2.08810241
O        6.00854286       8.17527750       2.21077527       0.73816192      -3.02485736      -0.35063676
O        2.18095276       4.07479929       6.01764735      -0.30466056      -1.80735234       0.37478637
O        6.27675677       4.19023831       6.23345768      -0.77914659       0.36733402      -0.75096241
O        2.32659661       8.09698465       5.93176953      -0.61055935      -1.51628032       0.42454467
O        6.26038097       8.36823429       6.26659771      -0.73901501      -2.85957914      -1.06132207
O        2.07678598       2.04821330       3.99074531      -0.02497235      -0.31097441       6.01880415
O        6.22940581       2.07574793       4.24875080       0.38801983       0.13518938     -24.11529443
O        2.02406828       5.94297630       3.95924682       0.84844733       0.41976524       3.20899977
O        6.45940740       6.08433198       4.23715962      -1.48237056       0.81743571      -3.69273046
O        2.32100223       1.85454469       8.04081193      -0.14572190       0.40131064       2.94002355
O        6.27398225       2.10986979       8.18241353      -0.56781965      -0.30799116      -0.74714587
O        1.97746570       5.86410915       8.04551522       0.69685792       1.13128796       5.54993700
O        6.37455994       6.22686132       8.23627949      -1.34723235      -0.56969527      -0.26808121
40
Lattice="8.114870309777642 1.0311789206707726e-07 -1.6384903408977124e-07 1.0311785748845261e-07 8.114869930248256 2.242601906454912e-07 -1.638490223110111e-07 2.2426020397351547e-07 8.11487040810358" Properties=species:S:1:pos:R:3:REF_forces:R:3 system=knbo3_cubic base_model=chgnet config_id=knbo3_cubic_c29 T=600.0 draw=3 energy_qe_eV=-62312.23434200129 offset_eV=-62025.985953285344 split=train REF_energy=-286.24838871594693 mock=0 pbc="T T T"
K        4.08442298       0.17626872       4.11731959      -0.53803753      -0.97176464      -0.47676892
K        8.19897877       0.19658369       4.07861091      -0.58288194      -1.40174333      -0.04081112
K        4.15781993       3.85586856       4.01620047       0.40398356       0.83108827      -0.05401553
K        7.90596234       4.03397066       3.90094947      -0.50101545       0.62133279       0.77937824
K        3.91327547       0.00687035       8.23813511       1.49542662      -0.87630498      -0.80143677
K        8.00043390      -0.07540666       8.15579370       0.19057557      -0.01201168      -0.36304619
K        3.91825608       3.73112464       7.87619081       1.05399314       1.48788969       1.10484854
K        8.08259547       4.22005698       8.29263985      -0.13001580       0.14293122      -0.91694229
Nb       2.43185036       1.80147506       1.52755318     -18.22264918       0.39111878       7.36504122
Nb       6.61419180       2.16802758       1.94534858     -39.10266768       0.33042172      -6.25203046
Nb       1.97574079       5.77348113       2.66989362      -3.38554714      -1.01910456     -34.95417550
Nb       5.98842135       6.27646948       1.98213480      -0.65867344      -1.53726772      -0.91839291
Nb       1.56313381       2.26295055       5.60185050      34.86965126       2.04296900       5.31111135
Nb       5.67592539       1.86848732       5.95504186      13.81823736       1.77046961       1.91484708
Nb       2.34079861       6.23594693       6.69498185      -1.97905549       0.45410490     -17.37049714
Nb       6.30608392       5.99962126       6.00410456      -2.88209454      -0.50335104       1.20811612
O       -0.12862247       2.08366232       2.21055614      34.73435955      -0.88477085       5.87125317
O        3.94737990       1.79139864       1.88184676      14.96909939       0.00193861       2.09584143
O       -0.20795614       5.87751694       2.23484707       0.62517890       0.82348603       0.62081343
O        3.98938554       6.23517571       1.90348109      -0.99257129      -0.38945528       1.56776152
O        0.15396592       2.13665413       5.71226266     -32.52121283      -2.11088469       1.90809073
O        4.10487761       2.02416493       6.18565807     -11.10449917      -0.27810594       0.78702882
O       -0.01339263       6.08802409       6.08535506       1.46549769      -0.16310101      -0.27788637
O        4.03891194       5.91812533       6.30802741       2.55385312       0.88594610       0.33802370
O        1.80896767       4.15697639       1.90165812       1.21432251      -5.16789241       0.63302565
O        5.85537318       3.95733328       1.82676907       1.06012805       1.18491886       1.54593054
O        1.47562938       8.26620968       2.05988077       2.71517416      -0.21119298      -0.63191057
O        6.15410874       8.10687335       2.29552442       0.26148428       0.37168716      -0.80868805
O        2.16873664       4.07265891       6.13921990      -1.54720144       0.67446052      -0.39364541
O        6.07517058       4.13278439       6.26896103       0.38177540      -1.03227684      -0.91115474
O        1.95102801       8.08316588       6.05758418       0.41170921       0.80331367       0.58374686
O        6.29379723       8.25709339       6.10051983      -0.82006904      -2.13699630       0.13571902
O        2.19045681       2.40983904       3.95996249      -0.13581467      -1.15680539      -4.60305345
O        6.01840418       1.95082648       4.15079465       0.11662190       1.11846407      -2.09483150
O        2.14436764       6.17398844       4.02092990       3.64602663       6.69589234      31.04626788
O        5.65183908       6.06014686       4.20260089       1.39624786       0.08003690      -0.63183523
O        1.79257332       2.18896158       8.10334850      -0.87695109       0.23960907      -6.16931241
O        6.24013644       2.01248888       8.20213001       0.50784764      -0.82121832      -1.65036258
O        1.97192128       6.04450370       8.19386319      -2.69258084      -0.92053052      13.98204491
O        5.98062180       6.20991291       8.09137355       0.78234478       0.64269840       1.52190718
40
Lattice="8.114870309777642 1.0311789206707726e-07 -1.6384903408977124e-07 1.0311785748845261e-07 8.114869930248256 2.242601906454912e-07 -1.638490223110111e-07 2.2426020397351547e-07 8.11487040810358" Properties=species:S:1:pos:R:3:REF_forces:R:3 system=knbo3_cubic base_model=chgnet config_id=knbo3_cubic_c30 T=600.0 draw=4 energy_qe_eV=-62294.66268679024 offset_eV=-62025.985953285344 split=train REF_energy=-268.6767335048935 mock=0 pbc="T T T"
K        3.98011011      -0.08817665       3.86907724       0.24202488       0.47947912       0.64323139
K        8.13726523      -0.30616587       4.14481081       0.10708490       2.37580319      -0.41691852
K        4.09540140       4.11101519       4.02310819       0.66254089      -0.29563418      -0.33108404
K        8.37210731       4.33399122       4.34660749      -3.35149493      -1.89145184      -1.16116161
K        4.12761326       0.21867579       8.02035992       0.62872780       0.35034777      -0.06085904
K        8.08879763       0.03356863       8.07825657      -0.77869484       0.37176403       0.28551638
K        3.99040780       3.94929499       8.00513324       0.67082730      -0.93496470      -0.11700499
K        8.19003181       3.86500372       8.39810998      -0.30170764       0.88218509      -0.73715302
Nb       2.21815501       1.75757743       1.68015185      -0.70497900       2.53250936       2.90808557
Nb       6.33438312       1.99090953       2.35478359      -2.17207206       0.61689147      -7.23398232
Nb       1.61870214       5.79257628       2.72956383     -17.35330212     -12.63895873     -71.63061783
Nb       5.59547545       5.93667480       1.45582825      17.37635180      -1.60069375      16.16012076
Nb       1.97187038       2.49304112       5.63926665       0.37116625     -17.02254461      13.38287375
Nb       6.06754003       1.92878485       6.21870774       1.15453151       1.44200552       1.96701733
Nb       2.20293405       6.45031321       6.92386104      -2.21662491      32.86802379     -69.77470558
Nb       6.27157170       5.99382905       5.62043413      -1.50574394      -0.57379386      14.56800035
O       -0.02495087       2.20415098       2.11549864       3.38303183      -0.92192817       0.02484251
O        4.06610347       1.97412776       1.94601119      -0.69839467       0.12068810       0.07653917
O        0.04546428       6.14166669       1.84417844      -4.27466315       0.95981364       0.41082320
O        4.13410533       6.11213030       1.97356395     -17.92909450       1.86442800       3.88490937
O       -0.05292032       2.21230033       6.03989974      -0.37056410       0.12122083      -0.57116877
O        3.97967854       2.07877506       6.08548486       0.94558567       0.36809764      -0.43518852
O        0.09698086       6.19682942       5.96992229      -0.45185981      -0.98260647       0.91626532
O        4.04967686       6.27153137       5.87433736      -0.92327312      -0.33669779       1.66487491
O        2.11917125       4.05272937       1.94311221      -0.05763102      -0.48862556       1.45259718
O        6.16434371       4.17780734       2.05322550      -1.26846480      -0.84588343       0.06631544
O        2.03220617       8.02067538       1.85934882       0.05101917      -0.57736230       0.38421023
O        6.04322449       8.28586818       1.97570838      -0.02622345      -1.24423884      -0.23278897
O        1.97999525       4.05683642       5.76992491       1.33640080      15.85775594       2.00340127
O        5.95746440       4.15341782       5.98399266       0.52067950       0.14145104      -0.83345883
O        1.79394425       8.12542104       6.11242119       0.08231644       3.91491285       0.89500307
O        5.99746929       8.15215847       6.30093478       0.71249357       0.07048319      -1.09051335
O        1.91819317       2.03234971       4.10588981       0.16018795      -2.55633192     -12.41451839
O        6.22321582       2.00617935       4.05294890      -0.96509828       0.00596882       5.96789013
O        2.06380623       6.01550301       3.88224780      23.44130134      13.31183185      66.65464078
O        6.17327234       6.15199075       4.04180104      -0.77917487       0.97224415     -10.99890190
O        1.98901704       2.08052737       8.06178802       0.18224468      -0.01726033      -0.84511827
O        6.36207033       2.28194917       8.09872454      -1.87966616      -1.20363418      -1.85882094
O        2.26290196       5.79237987       7.98005070       2.79144130     -36.32713585      64.27894480
O        6.09799220       5.97818332       8.11042388       3.18876930       0.83184135     -17.85213830
40
Lattice="8.114870309777642 1.0311789206707726e-07 -1.6384903408977124e-07 1.0311785748845261e-07 8.114869930248256 2.242601906454912e-07 -1.638490223110111e-07 2.2426020397351547e-07 8.11487040810358" Properties=species:S:1:pos:R:3:REF_forces:R:3 system=knbo3_cubic base_model=chgnet config_id=knbo3_cubic_c31 T=600.0 draw=5 energy_qe_eV=-62297.06255342896 offset_eV=-62025.985953285344 split=train REF_energy=-271.0766001436132 mock=0 pbc="T T T"
K        3.86222389       0.00183165       4.33625803       1.59781566       0.19376476      -1.39765888
K        8.10856921      -0.05185801       3.92298167      -0.11672063      -0.04352389      -0.03415196
K        4.37782893       4.39260370       3.92305768      -1.23657515      -0.90390783      -0.43960388
K        8.16525988       4.10378284       4.13866975      -0.18700970       1.63546432      -0.54310106
K        4.18165899      -0.02700785       7.93130958      -1.46907204      -2.21387923       1.53411169
K        8.26355022       0.18587428       8.10675396      -0.64371013      -0.72958755       0.24995365
K        3.95134755       4.21383560       7.84778193       0.47477862      -1.20615566       1.57434534
K        8.03141969       3.81635468       8.39990459      -0.31336785       0.92333560      -1.30690922
Nb       2.49565407       1.51651223       1.79821744     -26.81269558       5.16068098      -3.98023250
Nb       6.50013472       2.34681321       2.57423993      -7.14585159       0.03217273     -15.11162515
Nb       2.01291319       5.52404160       1.73153432      -3.65450098      29.99188212       3.78854031
Nb       6.04940495       6.47193449       1.90089105       0.97586812     -11.07173688      -0.77462659
Nb       1.64645025       2.64626492       5.84079106       4.22873914     -18.88932260      -0.70514433
Nb       5.70463418       1.48870930       6.68205724       7.72289096       4.06293023     -10.69758275
Nb       1.73657872       6.67937405       5.92936996       3.57187524     -43.22643639       2.15720158
Nb       5.81966277       5.58067886       6.03986095      19.70989300      24.81476948      -6.75437722
O       -0.02869977       2.26094312       2.08259606       8.79653427      -1.24956719      -0.01473499
O        3.85598461       2.06379345       1.95876068      26.25137620       6.63777667       3.11723838
O        0.06064083       5.94758855       2.08060241       0.76638903      -0.84389288      -0.08308803
O        4.14124721       6.14545462       1.85265243       0.48187050       0.11195534      -0.35500995
O        0.09822272       2.19952871       6.17031969     -11.58220756      -1.03205984       1.78122659
O        4.16099455       1.91280847       6.27463328      -9.89629537       1.83140218      -2.02010675
O        0.22756856       5.92077906       5.98164299      -7.67031858      -1.13198036       0.27468046
O        4.37499251       6.03182043       6.27815991     -19.75604327       5.22421809       2.66190475
O        2.20079370       4.07764233       1.73258546       3.01298092     -26.03132627       0.22510702
O        5.95508713       3.98332765       1.90912154       0.26041007       0.93911497       0.86260383
O        1.81812284       8.13817855       1.96404382      -1.10147345     -10.21243281       1.71716601
O        6.09245396       8.08044150       2.17186913       0.30675240      10.15726671       1.63228310
O        2.37145028       3.95677155       6.10850290       7.08565229      18.77812547       2.97179956
O        6.09891183       4.15111679       6.28994558       3.11134439     -25.87570717       4.21171946
O        2.01389103       8.03282831       5.84051463       4.95329220      39.86589811      -1.61874675
O        6.39078215       8.17642515       6.05721069       1.05454156      -5.66255878      -1.40361252
O        2.00503542       2.10112468       4.17384081       0.90265673      -0.84460713      -4.55781720
O        5.99611212       2.12847390       4.06040760      -3.00879131      -1.46177062      13.89861416
O        2.49067636       6.01369794       3.90776115      -1.92205774       0.45356702       1.58246566
O        6.34816090       6.15579713       4.21974642      -1.44620850      -1.14114737      -1.29948439
O        1.80215438       1.84931083       8.09077308       2.37515450       0.71133940      -0.07361660
O        6.20236604       1.95789453       8.13884449       2.64893842       2.35277922      12.04578363
O        2.17077374       6.05603881       8.05434289      -0.46339532       0.98020248      -2.38561709
O        6.55246852       6.46633847       8.19329043      -1.86345947      -1.08704493      -0.72989711
40
Lattice="8.114870309777642 1.0311789206707726e-07 -1.6384903408977124e-07 1.0311785748845261e-07 8.114869930248256 2.242601906454912e-07 -1.638490223110111e-07 2.2426020397351547e-07 8.11487040810358" Properties=species:S:1:pos:R:3:REF_forces:R:3 system=knbo3_cubic base_model=chgnet config_id=knbo3_cubic_c32 T=600.0 draw=6 energy_qe_eV=-62289.04562313514 offset_eV=-62025.985953285344 split=train REF_energy=-263.0596698497975 mock=0 pbc="T T T"
K        4.13706377       0.13971784       4.23788913      -0.64571585      -1.15131146       0.07493480
K        7.98763350      -0.06503766       3.89082532       0.42353422       0.25684498       0.08057889
K        3.73783131       4.09493580       4.24780977       2.90100964       0.26802645      -1.02447791
K        7.97032656       4.17225805       3.91156856       0.59259711      -0.26739139       1.45314560
K        4.16269449      -0.10322820       8.14014252      -0.93441808       0.39479186      -1.56652302
K        8.26604712      -0.07056483       8.18092361      -0.56715553       0.18144969       0.16615137
K        3.90250065       4.00437861       8.05515658       0.91414750      -0.05105465       0.39746452
K        8.05056352       4.10016703       8.28379956      -0.23359449       0.76378425      -1.97546109
Nb       2.62976026       1.64150337       2.11610213     -21.53003015      20.26653683       3.38378773
Nb       6.64152448       2.67897398       1.89916442      -3.58935000     -31.56867207      -9.22766842
Nb       2.03003650       5.70963905       2.31512708       3.45497824      18.86003465      -1.27247984
Nb       5.89931906       6.72118550       1.69773116       8.95757583     -62.22090168      -8.37210967
Nb       1.65843089       1.56697590       6.16095570      -5.11860591      58.60828422       7.29298323
Nb       5.80651498       2.01711109       5.97247392       3.46002865       1.27082842       2.06081169
Nb       2.10917926       5.72093351       6.37339794      -0.42326297      21.40071497       1.32572687
Nb       6.18021133       6.10206100       5.77828599       0.03370691       0.45919003       9.34069103
O       -0.04865289       1.92639065       2.07172190      15.08865568      -3.94488292       3.22643288
O        4.06616488       2.06932448       2.05177458      24.06036410       3.99445507      -1.67482534
O       -0.26824246       6.08674825       2.00378961       0.44302679       1.25623458       0.62760011
O        3.96648900       5.99760186       2.11423012       0.04769576       0.25497630      -0.37704637
O        0.01582261       2.28677385       6.15409447      -4.99631370      -0.38351835      -0.98868250
O        4.04686700       1.97073965       6.40373115      -1.35266946      -0.95904539      -1.11625961
O        0.05389480       6.15303562       6.07279337       0.28323452      -1.13110619      -0.50752034
O        4.05180876       6.42722524       6.15985339      -0.80502937      -0.98394241      -0.46690154
O        1.65639086       4.30910190       1.81653384      -2.64977018     -15.75579756      -2.57530717
O        5.88386842       3.86350379       2.06853241     -15.01521469      32.14188898       5.60787476
O        1.99942914       8.38965321       1.95453412      -5.79285612     -22.29024391      -2.04164309
O        5.71825630       7.97655758       1.98842679      -7.10262183      56.49335235      11.48486020
O        2.12796519       4.32854665       5.80213360      -0.57043266     -18.30280460      -3.86828924
O        5.84807411       4.09420569       6.05718119       0.56735068      -1.35795667      -0.46964336
O        1.95927050       8.41780658       5.99049090      10.35050259     -54.23982157      -6.89403312
O        6.46299989       8.07052795       6.22828955      -1.87732414       0.64577498      -1.33476250
O        2.17731327       2.45436422       4.05811058      -0.65472139      -3.43901631      -0.18183716
O        5.93761050       1.83176893       4.06680611       0.66213260       1.00635703      -0.17792265
O        2.10120803       6.30768762       4.00839892      -0.91659365      -0.44951548       3.89466876
O        5.93587654       5.83222801       4.14321494      -0.45445637       0.78695169      -6.26446020
O        1.78762878       2.45068334       8.25621326       1.73297521      -2.82447869      -0.61120959
O        6.09338556       1.95941536       8.09697813       0.91670035       1.09397586       1.56261006
O        1.95637232       6.27018100       8.10984567       0.21762691      -0.99077743       3.25977417
O        5.90131919       5.77775782       8.14706190       0.12229349       1.90778606      -2.25103296
40
Lattice="8.114870309777642 1.0311789206707726e-07 -1.6384903408977124e-07 1.0311785748845261e-07 8.114869930248256 2.242601906454912e-07 -1.638490223110111e-07 2.2426020397351547e-07 8.11487040810358" Properties=species:S:1:pos:R:3:REF_forces:R:3 system=knbo3_cubic base_model=chgnet config_id=knbo3_cubic_c33 T=600.0 draw=7 energy_qe_eV=-62315.30041216184 offset_eV=-62025.985953285344 split=train REF_energy=-289.314458876499 mock=0 pbc="T T T"
K        3.88812748      -0.26672073       4.23890418      -0.25253941       1.63795392      -1.24138131
K        8.12397926       0.27033053       4.13305580       1.73709077      -0.89430887      -0.50488624
K        4.10794439       4.00868679       4.05464188      -0.14236301      -0.48258218      -0.34711975
K        8.12232951       4.10956050       4.13398138      -0.22944396      -0.17732616      -0.13462862
K        4.05142975       0.05995835       8.21413121      -0.17065260       0.07178340      -0.10689696
K        8.13095379       0.34605309       8.16519341      -0.11008512      -1.44182349      -0.13206857
K        3.78900118       4.06542255       7.91329887       0.18594578      -0.38124215       0.49926041
K        8.35911658       4.01522026       8.12860371      -0.20853189      -0.00479871       0.14826344
Nb       1.86890485       2.06638063       2.02473855       2.22376846       0.35149371       0.46442042
Nb       5.82764303       2.45891845       1.52420604      -2.85236873      -7.07092990      21.18317214
Nb       2.19345247       6.13917809       1.77659450      -8.06222464      -0.81815639       2.45581078
Nb       6.25369705       6.57094125       2.66773886       2.31791018      -9.70738870     -11.45792918
Nb       2.02726780       2.13024717       6.12386737       0.05058003      -4.96129116      -0.56491842
Nb       6.08151702       1.40664793       5.59874624       3.84305283      28.86497378      11.42237725
Nb       2.35493633       6.16314255       5.83729317     -20.98948656       2.49876672       0.33939127
Nb       6.34969487       5.50874249       6.75295964       7.97748262       9.17687088     -13.33175842
O        0.08387448       2.42935509       1.98802474      -2.54308174      -1.12562819       0.31236769
O        4.06897657       1.84072935       2.12948649      -0.62485083       0.43765498      -1.09826317
O       -0.19896072       5.98481258       2.08261629       0.58363502       0.28671246       0.63599451
O        3.81616944       6.31083781       2.20211227       6.31288796       0.36554685       0.54441464
O       -0.06959494       1.94214274       6.21350909      -0.20700363      -0.68748727      -1.15835576
O        3.96636792       1.82233562       6.23798592       0.99310171       0.41576229      -0.90117346
O       -0.14368708       6.07837502       5.96963224       0.36592583      -0.38491985       1.51549819
O        3.86158233       5.84780633       5.97296634      16.29047003      -2.65520112       1.80393200
O        2.03786953       4.00826594       1.78843775       1.22882636       0.93699972       0.92188524
O        5.68573640       4.04980369       1.86867776      -0.26852036      10.59486101       0.66867965
O        1.69683569       8.09575095       1.93192542       0.71755915      -0.11347435       0.65241511
O        6.08823207       8.05801162       1.98640006      -0.78154054      10.16310903      -1.74019487
O        1.89063474       3.85462878       6.14893769       0.49138821       4.91786934      -0.03490581
O        5.99487853       4.08944458       6.11231521      -3.50978387     -13.12947225      -3.02377441
O        1.96751249       8.01930400       6.09309013       0.94065635      -0.58341133      -0.41137856
O        5.85169467       8.13820048       5.98506063      -4.01938192     -28.70422147       5.00758619
O        2.09148380       2.09246387       4.09216592      -0.61670506      -0.51101395      -0.20244249
O        6.12751964       2.09686088       4.14978909      -0.15256438       2.96501313     -13.84628861
O        1.82563468       5.84910818       4.05685464       1.59482084       0.72892832      -0.34774967
O        5.92485455       5.99191036       4.15563332      -2.02783729      -1.83330094      10.46598395
O        2.03298935       1.96876198       8.16650936       0.05818612      -0.03417639      -0.45176262
O        6.20452946       2.02080177       8.23229109       3.55196513      -4.20227246     -19.16894421
O        1.85977520       5.97822482       8.13075143       1.27213428       0.44077039      -2.76519574
O        5.87840670       6.20338900       8.08841865      -4.96842212       5.04935736      13.93056372
40
Lattice="8.114870309777642 1.0311789206707726e-07 -1.6384903408977124e-07 1.0311785748845261e-07 8.114869930248256 2.242601906454912e-07 -1.638490223110111e-07 2.2426020397351547e-07 8.11487040810358" Properties=species:S:1:pos:R:3:REF_forces:R:3 system=knbo3_cubic base_model=chgnet config_id=knbo3_cubic_c36 T=600.0 draw=10 energy_qe_eV=-62304.055861258945 offset_eV=-62025.985953285344 split=train REF_energy=-278.0699079736005 mock=0 pbc="T T T"
K        3.96925432       0.13096631       3.90420029       1.53078494      -0.92092930       0.04846478
K        8.11542795      -0.03856846       4.09278842      -1.12775578      -0.23894136      -0.28189369
K        4.02976576       4.21356064       3.87141602       0.07302524      -0.07863282       0.68251862
K        8.02500138       4.04861130       4.06990514       0.65995025      -0.21667123      -0.48246211
K        4.36560219       0.08838030       8.15124965      -1.81455091      -0.09792535       0.40439930
K        8.18849841      -0.01988691       8.29468825      -0.26955548       0.34149418      -0.30640119
K        3.87761160       3.88098450       8.07566331       1.43266136       0.94722654       0.42791204
K        8.10477004       3.81343832       8.27481680      -0.48181830       0.59231635      -0.34799084
Nb       1.85275401       1.58417002       2.25890844       0.59641109      19.60566999      -3.67509912
Nb       5.97875522       2.17864424       2.29235239      -0.49165020      -0.98734449      -8.95140030
Nb       2.05439748       5.72384271       1.91083555       0.14385219       7.07062728       0.70131698
Nb       6.17173971       6.19453142       1.63230183      -0.93148522      -0.58812828       9.54012739
Nb       2.11842330       2.70034452       6.34574021       5.57546266     -47.72612069       5.71041035
Nb       6.15416178       1.52091527       6.36416164       2.30908255      24.34643121      -5.22553500
Nb       2.12444266       6.86709229       5.90234312      12.03498808     -79.45133617     -12.64516769
Nb       6.26073126       5.60494858       5.76033841      -2.90699619      10.98301068       1.59674762
O       -0.00209912       2.13344577       1.95023435      -0.86207649      -0.71745271       1.30319603
O        4.12461863       2.10936216       1.58747483      -0.47659151      -1.04264301       2.63579726
O       -0.10015776       6.06853056       2.26612698       0.15900010      -0.27571816      -1.48900169
O        3.98690307       6.16322012       2.10871887      -0.70829290      -0.35508015      -1.30940782
O       -0.01540490       2.12828397       6.10157964       0.66277100      -0.68029178      -0.69019413
O        4.01917786       2.03229554       5.88830462       0.02625508       0.44902363       1.11694635
O       -0.11558783       5.97344204       6.13584270       2.69030156       0.90760944      -0.07195258
O        4.02161263       6.00085157       6.08894984      -0.15315856       1.39092876       0.36498481
O        2.05929162       4.04827752       2.17695047      -0.23590540      -4.16511025      -0.02251541
O        5.86861250       4.10897993       1.92987912       1.07526800       1.10002438      -0.36580730
O        1.85901185       8.18432412       2.05122600       0.26034425     -17.53991998      -2.08691481
O        6.01555689       8.21551894       2.00699704       0.55508703      -0.54925243       0.17495509
O        1.89946384       4.00227288       6.05680054      -6.42031662      42.48025417      -8.12294252
O        6.00462665       4.05311732       6.21471539      -0.90732996      -8.06834489       0.93151068
O        1.93227762       8.05538966       6.18723892     -11.23387193      74.00349176      16.06666913
O        5.97618693       8.15982342       6.14880850      -1.60103057     -20.89194997      -2.38938787
O        2.10688691       1.71493289       3.99507390      -0.29912163       1.18842173       4.10149473
O        6.11634870       2.21932105       3.95305892      -0.11025610      -0.51392496       6.52226574
O        2.02199095       6.15373032       4.15074286      -0.65135325       0.78997942      -3.24260332
O        6.05104913       6.28334390       4.08601646      -0.08284840      -1.12035769      -1.80379779
O        1.86875490       1.86676966       8.09528346       0.76381818       1.56471656       0.68354397
O        6.19739548       2.10654910       7.96241090      -0.40366551      -0.11273825       6.09827000
O        1.69302174       6.14940456       8.21294253       1.26513908      -0.63410269      -0.03595893
O        6.10551711       6.44486830       8.09805890       0.35542802      -0.78830974      -5.56509571
40
Lattice="8.114870309777642 1.0311789206707726e-07 -1.6384903408977124e-07 1.0311785748845261e-07 8.114869930248256 2.242601906454912e-07 -1.638490223110111e-07 2.2426020397351547e-07 8.11487040810358" Properties=species:S:1:pos:R:3:REF_forces:R:3 system=knbo3_cubic base_model=chgnet config_id=knbo3_cubic_c37 T=600.0 draw=11 energy_qe_eV=-62326.64934157943 offset_eV=-62025.985953285344 split=train REF_energy=-300.6633882940878 mock=0 pbc="T T T"
K        4.25237593       0.18758875       4.11551770      -0.91135657      -0.90977148      -0.58734795
K        7.59099999       0.25464476       4.35611632       3.78801323      -1.69371755      -3.39276577
K        3.98092454       4.24847136       3.78907087       1.14616051      -0.25371055       1.06642957
K        7.77802455       4.03328390       4.36036607       1.14671947      -0.16318406      -0.91042660
K        4.18154214      -0.29266591       7.88069369      -0.33376056       1.30786824       0.86123703
K        8.31714796      -0.22048978       8.06362371      -0.78079029       0.95334680       0.09272581
K        4.28930967       4.18195088       8.07629792      -0.53878264      -0.96042762       0.52537254
K        8.46977864       4.09189093       8.33580195      -1.50168828      -0.08034723      -0.72729386
Nb       2.27837201       1.93780414       2.43292699      -1.23391097       0.54335457     -13.20719618
Nb       6.33106627       2.22833064       2.18954259      -1.04716661      -2.09673540      -2.29274911
Nb       2.11498856       6.07077613       1.56774735       0.43344711       1.58189307      22.34893833
Nb       6.24276656       6.26737360       1.91382793       0.69666894      -1.06195122       0.52294053
Nb       1.86666936       1.95880501       6.50332415       0.32325323       1.13402876     -10.32045077
Nb       5.88193844       1.90964466       6.23784559       1.69570501       0.56389923      -1.61981736
Nb       1.70095017       6.02944379       5.54210364       1.80995995      -1.23463165      22.09469814
Nb       5.71617612       5.94264128       6.02093871      17.28496502       0.15483235      -0.88247022
O        0.05640904       2.19630976       1.82819357      -0.59699910      -0.58482107       1.72130189
O        4.08904946       1.96956817       1.89312438       0.76407401      -0.29026855       0.47307501
O        0.05023925       5.98925308       2.17410174       0.40461116      -0.09282505      -1.56060203
O        4.14641750       6.20263804       1.95369560      -0.58006916      -0.24554164      -0.63808044
O        0.05821004       1.89653122       5.83668131      -0.25312896       1.62710541       2.09630165
O        4.06311843       2.12582988       6.26802423      -1.01138174      -0.31653262      -0.45301064
O        0.09557430       6.13461121       6.23273462      -4.08903387       0.20871804      -0.65283652
O        4.13596121       6.01310868       5.97758339     -12.53881169       0.64711607      -0.24624663
O        2.22377085       4.03937062       2.36849655      -1.23407012       0.98966543      -2.49717983
O        6.09836338       3.99641972       1.95549318      -0.22797740       1.50714236      -0.17478462
O        1.86372367       8.10013753       2.13066839       0.84899780      -0.92522201      -1.10484648
O        6.25189312       8.05020288       1.92808063      -0.06784653       2.01782002       0.63644651
O        2.10151512       4.16841913       6.03007418      -0.49225158      -0.76920953      -0.23826799
O        6.25200069       4.06356783       6.22853732      -1.56780883       0.03172201      -0.02464248
O        2.03208394       8.26176096       6.09130223       0.78906796      -2.25134509       0.28061457
O        6.12443717       8.09599289       5.80104522      -3.29480417       0.10955342       3.53208279
O        2.22249807       1.95864861       4.01304090      -0.11285626       0.08237377      11.48696002
O        5.93566602       1.99749938       3.99143728       0.52641872       1.21263201       0.02594166
O        2.05448755       6.11925417       4.08572262       3.28727829       1.48296654     -20.07980275
O        6.31870447       6.07950776       4.08872869      -1.98452089      -0.44654328       0.39706240
O        1.90924382       2.12737030       8.13513666       0.33301982       0.16859289       7.03304958
O        6.06006117       1.84902994       7.97622643       0.80523891       0.06726726       3.07464549
O        2.11509213       5.92514218       8.16667160       0.20808761      -0.92478621     -16.88759975
O        6.36883955       6.29085736       8.04639905      -1.89267003      -1.09032643       0.22859421
40
Lattice="8.114870309777642 1.0311789206707726e-07 -1.6384903408977124e-07 1.0311785748845261e-07 8.114869930248256 2.242601906454912e-07 -1.638490223110111e-07 2.2426020397351547e-07 8.11487040810358" Properties=species:S:1:pos:R:3:REF_forces:R:3 system=knbo3_cubic base_model=chgnet config_id=knbo3_cubic_c38 T=600.0 draw=12 energy_qe_eV=-62306.64744556663 offset_eV=-62025.985953285344 split=train REF_energy=-280.6614922812878 mock=0 pbc="T T T"
K        4.15158018       0.10331802       3.90466393      -0.32780588      -0.00278630       0.43003140
K        8.10146961       0.10518475       3.90021039       0.44804841      -0.07896835       0.28162553
K        4.00554147       4.27354902       4.24792132      -0.46200487      -0.54633782      -0.55916120
K        8.01228827       4.27922558       4.00045809       2.34344303      -1.72614559       0.04759472
K        3.94996243      -0.00523048       8.19654170      -0.90494809       0.39200350       0.40880952
K        8.12024058       0.02936092       8.06981585       0.68480484      -0.43138277       0.50076991
K        4.15195999       3.79173327       8.30145130      -0.47320537       0.92036803      -0.89561808
K        7.85623810       3.99997786       8.10536839       1.20784204      -0.10440839       0.56098257
Nb       1.85417790       2.08851749       2.05919077       2.17146683       1.07536621       2.64678975
Nb       5.89978353       1.71783082       1.62805882      -0.95939609       2.68500175      13.76297921
Nb       2.49616689       6.09752490       1.93391024     -15.30447845       0.14912064      -0.04196657
Nb       6.50447796       5.72270905       2.40211804      -9.60577665       2.00761608      -6.04127790
Nb       2.17986390       1.79487051       6.22887084       0.52807374       3.11202444      -3.09613168
Nb       6.28308279       2.61409922       5.57635336       0.45486183     -42.32984386       2.48104667
Nb       1.48847399       5.87079915       5.98151230      46.23123246       0.19899773      -2.48995786
Nb       5.48706301       6.74531826       6.53772228       5.01580215     -16.33763872       8.85067579
O        0.00079089       2.23951623       2.13328892      -0.37545691      -1.42929810      -0.62187144
O        4.09358358       2.17201014       2.20177631       0.97515669      -1.30651713      -2.26960995
O       -0.04901957       5.89003900       1.87065121       7.20344404       0.92261672      -0.42322261
O        4.06759274       5.90145418       1.93878884      12.50219250      -0.91575521       0.10874275
O        0.22913530       2.03785268       5.96549923      -1.09719076       0.63097957       0.04835551
O        4.28152699       1.82763829       6.20025272       0.44188547       1.03069689      -0.34730899
O        0.12363632       5.86869362       6.10352652     -40.35054154      -0.32450561       3.10273633
O        4.09423415       6.04802210       6.24042170     -15.24679473      -4.72993713      -4.54339640
O        2.04881237       3.97927225       2.03992765       0.13020195      -0.06504480      -0.08018139
O        6.07405565       3.96810678       2.30775188       0.12194665      -1.75754056      -0.99472690
O        2.14855040       7.96205982       1.90195251      -0.03397070       2.20380822       0.16149536
O        6.01840809       8.07986670       2.04477010       0.46574917      -2.08432674      -0.33231585
O        2.28611425       4.00958443       5.95855577      -2.15324619       0.81132523       0.59122337
O        6.24717932       3.85126386       6.17173994      -1.61024566      42.54061801      14.87674228
O        2.27322735       8.11461870       6.09869850      -1.36442531      -2.24647208       0.20466418
O        6.43889977       7.89221294       6.26109998      12.04646420      19.49343800      -6.39477271
O        2.37518717       1.94946641       4.04424199      -1.90943619      -0.20600218      -1.17255391
O        6.31280327       1.82818414       4.16814985      -0.50894061      -3.80306781     -16.28348975
O        2.00391881       6.16802292       3.95288826      -0.75681270      -0.56454098       0.79946936
O        5.97171058       5.99122962       4.04194580       0.08549792       1.57544449       5.57052717
O        2.04027826       2.02907376       8.10915483       0.09277389      -0.34585091       1.28121413
O        6.26142541       1.84583874       8.17020358       1.30341149       1.17075440      -9.63068447
O        1.97771428       6.02663929       8.13304773      -0.06028646      -0.19477109      -0.96195331
O        6.20655488       5.96261808       8.10781686      -0.94933562       0.61096276       0.46372545
40
Lattice="8.114870309777642 1.0311789206707726e-07 -1.6384903408977124e-07 1.0311785748845261e-07 8.114869930248256 2.242601906454912e-07 -1.638490223110111e-07 2.2426020397351547e-07 8.11487040810358" Properties=species:S:1:pos:R:3:REF_forces:R:3 system=knbo3_cubic base_model=chgnet config_id=knbo3_cubic_c39 T=600.0 draw=13 energy_qe_eV=-62295.321191123105 offset_eV=-62025.985953285344 split=train REF_energy=-269.33523783776036 mock=0 pbc="T T T"
K        3.97580714       0.05036866       3.91673872       0.39438511      -0.80089246       0.17786506
K        8.29462785       0.01992458       4.08408777      -1.05797655      -0.02977209       0.25092630
K        4.06251549       3.94685748       4.32667197      -0.51715683       2.73782506      -2.15632560
K        8.06288870       4.00846116       3.99004117      -0.50829321      -0.47663625      -0.14902860
K        4.06934724      -0.28232099       8.23459829       0.53738601       2.13855671       0.35187115
K        8.17696007      -0.17776094       8.01125288      -0.45658087       0.79281869       1.09430084
K        4.14093538       3.99253138       8.01944798      -0.38764882       0.51200023       0.07707704
K        8.09037634       4.14032450       8.09720632       0.06110638       0.64662165       0.71946717
Nb       1.81962911       1.65856263       2.37999236       2.60325635       3.31003615     -17.32061774
Nb       5.93651009       2.30429838       1.29663112      -2.77039322       3.09162171      26.93158956
Nb       1.87945944       5.72672057       2.69049651      -5.25236215      -1.86744493     -38.46702310
Nb       5.98050193       6.31273740       1.96364084      -0.53652932      -4.54653777       0.31703142
Nb       1.60903637       2.18286380       6.49160090      13.64915930       4.05582602     -15.95982128
Nb       5.76931628       2.00902242       5.35800106      15.39288532      -3.51033872      15.98560019
Nb       2.63065960       6.24803703       6.74084586     -11.67782329       6.26321553     -34.83390187
Nb       6.67950791       6.09008723       5.92758267     -33.37810032      -3.33358746      -3.11456341
O        0.17489205       1.99970819       1.87496558      -5.62474608       1.35992331      -1.05273022
O        4.11061298       2.11806187       1.87098096       0.25624514      -0.93502743      -1.05582300
O       -0.16349401       6.11291276       2.13033533       2.13428173      -0.60910051       0.95445777
O        3.99902146       6.10918850       1.86645441      -0.87854826      -0.07944169       1.38938841
O        0.19690863       2.06287255       5.81588765     -16.32152588      -1.87847805      -3.99775200
O        4.24782787       2.17404405       5.64924090     -16.48755332       0.08450265       2.73730930
O       -0.02457534       6.29893789       6.16511167      27.46683153       2.73043494       3.16236510
O        4.01658705       6.00998380       6.20094392      25.34902234      -4.68327084      -5.05031664
O        2.07436490       4.19338291       1.92010602       0.55639624      -7.99513324      -0.37249474
O        5.99605026       4.10389833       2.15101276       0.66753860      -0.87166876      -2.59883379
O        1.89564811       8.10462943       1.93947062       0.78148552      -6.15873130       0.32533814
O        6.06563215       8.06306856       2.03962386      -0.00005322       4.44395898      -0.39450313
O        1.92394432       4.08006935       5.96249049       0.33823042       0.71786692       1.56062594
O        6.15841006       4.12553833       6.07746056       1.09118184      -1.01228934      -0.36810638
O        2.07158223       8.07092267       6.00100594       0.54369473       0.64868907       0.99978735
O        6.17779722       8.16761586       5.92934869      -0.08758977       0.33424135      -0.57764666
O        2.17720089       2.06705861       3.83679676       2.34997003       3.09743420      15.97998182
O        6.38728736       2.09251730       3.91757052       3.25873313       0.60052819     -14.21329816
O        2.05310006       6.24978532       3.97812710       5.03698650      10.46876048      35.17737605
O        5.83126006       6.02937047       4.11590097       1.79670772       0.60909948      -0.67063884
O        2.17171732       1.90621957       7.90514456       3.97892432      -3.00442069      18.18085924
O        6.17699643       1.93954799       7.98033613       2.71875904      -3.86663988     -20.43295714
O        1.89120625       6.21426935       7.93784392     -16.48867921      -2.67550692      36.76523074
O        5.98774637       6.19006338       8.10378863       1.46839353      -0.30904197      -0.35206630
40
Lattice="11.841087389565814 -5.299540211115622e-07 5.134422012396998e-08 -5.299543174639322e-07 11.84110017440169 5.370282133059492e-08 5.1344211613704544e-08 5.370297858733353e-08 11.841077618801604" Properties=species:S:1:pos:R:3:REF_forces:R:3 system=cssnbr3_cubic base_model=chgnet config_id=cssnbr3_cubic_c00 T=100.0 draw=0 energy_qe_eV=-39977.85839823615 offset_eV=-39837.13142525455 split=train REF_energy=-140.72697298160347 mock=0 pbc="T T T"
Cs       6.43993674       6.17918965      -0.05374960      -0.17392922      -0.03714601       0.00178229
Cs      11.89058737       6.09561489       0.43303339       0.03702826      -0.16366306      -0.20125799
Cs       5.69402113      11.73607286      -0.41386726       0.01244105       0.04845398       0.16118529
Cs      11.34991725      11.74130061       0.02869759       0.33667876       0.04922403       0.03027088
Cs       5.57929076       5.61034264       5.67320644      -0.19561184       0.01219963       0.18466666
Cs      11.57559640       6.04193602       6.15144705       0.19244939      -0.17782984       0.03985338
Cs       6.22611799      11.62079891       5.98401755      -0.09466185      -0.03914016      -0.06836769
Cs      12.26784633      11.88684102       6.08369887      -0.26419242      -0.13956976      -0.14645106
Sn       3.04112413       3.09453511       2.67892911      -0.37652546      -0.29955409       0.41563914
Sn       8.91585878       2.66119891       3.11195583       0.20760244      -0.13039015      -0.23125505
Sn       3.02709408       8.95512756       2.88164822       0.42987636       0.23884417      -0.04364705
Sn       9.02804922       8.51759888       3.06532626      -0.51651894       0.53959485       0.06216388
Sn       3.06035732       3.04569209       8.88067215      -0.47618116      -0.01887215      -0.56994801
Sn       8.94753665       3.00797123       8.95246000       0.18097275      -0.03984336       0.27193067
Sn       2.87682776       8.86777488       8.85163315       0.34873801       0.01249942      -0.11151209
Sn       8.88304794       8.93554836       9.00855483      -0.09219153      -0.06128327      -0.06677463
Br       5.80811155       3.06847337       2.76668571       0.00150564      -0.13193102      -0.03262139
Br      11.77408042       2.89571243       3.09046195      -0.35286360       0.05636012      -0.00386000
Br       6.02926823       9.54327911       2.70094345      -0.12664046      -0.62299629       0.12903030
Br      11.97316465       9.04850778       2.61210821      -0.30523288      -0.11496148       0.19658115
Br       6.01671230       3.15017996       8.99939565       0.30609472       0.02030194       0.05755492
Br      12.05061496       3.07075941       8.97311847      -0.37805578      -0.03993952      -0.09100240
Br       6.00362873       8.94755840       8.91996678       0.21770070      -0.08194800      -0.04318656
Br      11.95072256       8.88310783       8.86122253      -0.30731805       0.07561769       0.03658577
Br       2.70187934       6.01990327       3.05344086       0.08050561      -0.31999641      -0.04928316
Br       8.09826167       5.67042113       3.28918206       0.51848635       0.36146265      -0.23052511
Br       2.89543894      11.83122277       2.59259393      -0.05238803       0.24868661      -0.00017741
Br       8.60694936      11.60236642       3.09473830       0.47578547       0.38692891       0.09822874
Br       2.81105774       6.03239232       8.47285287       0.08049121      -0.00669490       0.07744266
Br       9.24717148       5.89151647       9.26792387      -0.11979747       0.09218742      -0.01181525
Br       2.75503355      12.00110485       8.71252959       0.27584877      -0.21877928       0.26375739
Br       8.73894379      11.80990650       8.94999244       0.05323803      -0.05757703      -0.00129686
Br       2.77402340       3.48084301      -0.18985917       0.13438616      -0.00449943       0.34181248
Br       9.36286597       2.71788296       0.09625468      -0.33542458       0.23777485       0.11419812
Br       3.31758956       8.88993794      -0.14307803      -0.15614284      -0.16940973      -0.06201038
Br       8.99778527       9.12159985       0.21122868      -0.13041098      -0.31256104      -0.46162280
Br       2.45432446       2.68989524       5.80654663       0.57775979       0.43068523      -0.08823460
Br       8.73993371       2.72897273       6.10440711       0.02324534       0.07375184      -0.23164071
Br       3.14514270       8.63758341       5.76117686      -0.04352209       0.27202580       0.06685151
Br       8.94375229       8.68041954       5.96772481       0.00677460       0.03198632       0.19695576
40
Lattice="11.841087389565814 -5.299540211115622e-07 5.134422012396998e-08 -5.299543174639322e-07 11.84110017440169 5.370282133059492e-08 5.1344211613704544e-08 5.370297858733353e-08 11.841077618801604" Properties=species:S:1:pos:R:3:REF_forces:R:3 system=cssnbr3_cubic base_model=chgnet config_id=cssnbr3_cubic_c01 T=100.0 draw=1 energy_qe_eV=-39976.729011926094 offset_eV=-39837.13142525455 split=train REF_energy=-139.5975866715453 mock=0 pbc="T T T"
Cs       5.84837633       5.70768117       0.07486069      -0.02030246       0.05323418      -0.07502299
Cs      11.78928137       5.61225071      -0.08455326      -0.00456448       0.12262337      -0.04688021
Cs       6.36874864      12.05664731       0.12243795      -0.10099550      -0.01926939      -0.14846450
Cs      12.08513621      11.53562556       0.24369962       0.00744797       0.23380841      -0.14426640
Cs       5.94448158       6.14972691       5.80572146      -0.07194692      -0.13337983       0.14146672
Cs      11.79182294       6.14605249       6.00049375       0.09635415      -1.20264944      -1.22963806
Cs       5.44247475      12.17084988       5.84257089       0.51213110      -0.16279094       0.31733327
Cs      12.04718354      11.59704009       5.62143637      -0.25807371       0.06526077       0.28027158
Sn       2.76109644       3.39669103       3.11002959       0.38163450      -0.30702391       0.10913150
Sn       8.87167515       2.94911897       2.75963482      -0.22129716       0.03391079       0.38792110
Sn       2.79186746       9.20608764       3.28941655       0.14314231      -0.38385927      -0.27829158
Sn       8.60920024       8.72781198       2.91897003       0.41269934       0.29694133      -0.12742773
Sn       2.92555738       2.90972526       9.01049866      -0.14148806      -0.09542109      -0.16481080
Sn       8.89690527       2.97383482       8.62708269       0.24749233       0.01482061      -0.02110181
Sn       2.82417382       8.84127199       9.13310738      -0.00834246      -0.15952050      -0.34853463
Sn       8.66166801       8.89646315       8.76966022       0.72476544      -0.07770748       0.28811319
Br       5.96570071       3.52558068       3.05070008      -0.23140108      -0.44395444      -0.06649310
Br      11.80739207       3.05134933       3.15557021       0.20632177      -0.06120922      -0.25528098
Br       5.68525382       8.61638283       3.26074691      -0.23697369       0.30516346      -0.18379325
Br      11.61811952       8.74536820       2.38704398       0.40397816       0.02135558       0.83085841
Br       5.95462297       2.50409434       8.90696001       0.19351331       0.20498583       0.04816808
Br      11.90117887       2.34679459       9.24426191      -0.05545818       0.27236621      -0.12897913
Br       5.80070777       8.43031940       8.83766094      -0.06281719       0.17208933       0.16471412
Br      11.65975194       8.16469516       8.10391378       0.29824180       1.79300815       1.56856345
Br       2.55777803       6.14738167       3.25206978       0.02683923      -0.02477566      -0.11205690
Br       8.31485047       6.01647341       2.97172276       0.37632054      -0.14410519      -0.18118024
Br       3.07954279      12.05599164       3.55113375      -0.29885038      -0.14286952      -0.54317408
Br       8.74243694      11.85377465       2.83815461       0.00366356       0.29125097       0.04296236
Br       3.05213448       5.98780901       8.67677789      -0.08790293      -0.15262428       0.27980673
Br       9.29264534       5.89421010       8.86739933      -0.45127026      -0.34094165       0.05670414
Br       3.05818033      11.86551195       8.80762562      -0.02411695      -0.13778310       0.02874648
Br       9.10121585      11.82099905       8.72125412      -0.16443105      -0.17865233      -0.03886505
Br       2.86739267       2.90532104       0.01966383       0.12327411       0.09334930       0.23272495
Br       8.94484263       3.29340482      -0.07195079      -0.14305875      -0.14078512      -0.22077420
Br       3.17794678       9.11376471       0.16060162      -0.00113283      -0.01950670       0.04838559
Br       9.62953874       9.01969705      -0.11123008      -0.79093150      -0.11339491      -0.78163747
Br       3.21688127       2.96639992       5.97027938      -0.25109213       0.32063430      -0.09450167
Br       9.44563799       3.29893630       5.66602730      -0.35979683      -0.17140953       0.57606029
Br       3.04408289       8.78568908       6.09933816      -0.06149359       0.20741758      -0.12731203
Br       8.92529668       8.68587588       5.75984427      -0.11008178       0.11141284      -0.08344464
40
Lattice="11.841087389565814 -5.299540211115622e-07 5.134422012396998e-08 -5.299543174639322e-07 11.84110017440169 5.370282133059492e-08 5.1344211613704544e-08 5.370297858733353e-08 11.841077618801604" Properties=species:S:1:pos:R:3:REF_forces:R:3 system=cssnbr3_cubic base_model=chgnet config_id=cssnbr3_cubic_c02 T=100.0 draw=2 energy_qe_eV=-39977.34771743316 offset_eV=-39837.13142525455 split=train REF_energy=-140.21629217860755 mock=0 pbc="T T T"
Cs       5.73668144       5.89195600       0.16282441      -0.02141780      -0.10892170      -0.02943913
Cs      11.31256325       5.94535553      -0.02257568       0.30324902       0.16852244       0.03414502
Cs       6.25122388      11.84073612       0.16708271      -0.22901973       0.23247992      -0.16479537
Cs      11.90036797      11.68207498      -0.31141483       0.00819076       0.14759341       0.05271610
Cs       5.88031322       5.80045429       5.78081594      -0.03445330      -0.01218317       0.08495105
Cs      11.66795578       5.75477401       6.13508836       0.19678632      -0.10932973      -0.26961539
Cs       5.68948675      11.56952849       5.86655512      -0.02972118       0.13838860       0.01725879
Cs      11.94845870      11.42756196       5.68404418      -0.14596718       0.02701304       0.28595732
Sn       2.92322179       3.32002017       3.12693629      -0.02603499      -0.56768672      -0.34214184
Sn       8.95439605       2.91253404       3.08494049       0.07156331       0.19325003       0.16957428
Sn       2.83337581       9.11706222       2.61991651      -0.24686087       0.18392798       0.28209475
Sn       8.65562609       8.87474045       3.22189108       0.74220318      -0.15267442      -0.02061279
Sn       2.78956981       2.93138804       8.84413801       0.46510999      -0.75900225       0.18710046
Sn       8.82110294       2.86382875       8.94733038      -0.04053190       0.05372012      -0.10878749
Sn       2.60395908       8.54287786       8.72332227       0.30228383       0.95196174      -0.18981863
Sn       8.50053714       8.78355543       9.11949450       0.38014326       0.25460863      -0.41525784
Br       6.09182343       3.08115385       3.28432709       0.11526307      -0.01540991      -0.17802627
Br      12.00172568       3.41954100       3.05560149       0.01266474      -0.00069857       0.08033232
Br       5.87603864       9.01346122       2.50212777      -0.29350994       0.00870961       0.31633825
Br      11.71862126       8.78193489       2.58953449       0.14274636       0.17218781      -0.00443875
Br       5.86941712       2.87609529       9.15320161       0.25644209       0.10356661       0.01538522
Br      11.80156394       2.91064948       8.74699255       0.06046001       0.02222744       0.10190902
Br       5.71701752       9.32517375       8.85210967       0.26866948      -0.33858523      -0.00602229
Br      11.66475644       9.25445437       8.84864106       0.16368106      -0.27403820       0.14121013
Br       3.11585130       6.29912756       2.84339594       0.05360699      -0.32509080      -0.08450933
Br       9.27055916       5.98153205       2.90727649      -0.45236143       0.02007363       0.16667536
Br       2.58180871      12.08077901       3.44211213       0.29728175       0.03374162      -0.41390339
Br       9.08751437      11.84058955       3.33335044      -0.16436857      -0.09907180      -0.17564980
Br       3.27965989       5.82923910       8.85777645      -0.04226199       0.08433604       0.03753759
Br       9.40073053       5.94259407       8.68017650      -0.49385287      -0.00507381       0.43725749
Br       3.21665146      11.85459749       8.47109756      -0.39050378       0.07981887       0.16011056
Br       9.09845647      11.89450044       8.74332274      -0.20317603      -0.25733503       0.20298577
Br       3.00220186       2.81042488       0.09617195      -0.01215386       0.08032718       0.13977288
Br       9.29805267       3.22540807       0.14497726      -0.34125044      -0.41254816      -0.12332862
Br       2.94948831       9.40765642      -0.31166943      -0.00294494      -0.15635213       0.28608511
Br       8.50967239       9.13922056       0.13704562       0.29394240      -0.21336145      -0.11071145
Br       3.38263104       2.78000151       6.00044649      -0.11029467       0.40514004      -0.04107774
Br       9.28276755       2.70183594       6.03644424      -0.19597103       0.21324447      -0.10791486
Br       3.11155121       8.76754029       5.75842201      -0.10769066      -0.08112370       0.00513218
Br       9.44900702       8.47167363       6.12252543      -0.54994148       0.31364785      -0.41847815
40
Lattice="11.841087389565814 -5.299540211115622e-07 5.134422012396998e-08 -5.299543174639322e-07 11.84110017440169 5.370282133059492e-08 5.1344211613704544e-08 5.370297858733353e-08 11.841077618801604" Properties=species:S:1:pos:R:3:REF_forces:R:3 system=cssnbr3_cubic base_model=chgnet config_id=cssnbr3_cubic_c03 T=100.0 draw=3 energy_qe_eV=-39977.09638193511 offset_eV=-39837.13142525455 split=train REF_energy=-139.96495668056014 mock=0 pbc="T T T"
Cs       5.67435856       5.82504956       0.02223511      -0.07275836       0.03980351      -0.06514661
Cs      11.60841007       5.74878105       0.01239354       0.09654621      -0.01793704      -0.04452302
Cs       6.09427374      11.98947893      -0.26725117      -0.07314454      -0.07869195      -0.01255547
Cs      11.77054000      11.64350467       0.28111608      -0.05635678       0.60068786      -0.63389237
Cs       6.10146266       6.11566714       5.84892820      -0.01761360      -0.13314175       0.10189745
Cs      11.76177711       5.79993725       5.84969827       0.10050417      -0.08372977       0.09595460
Cs       5.97608697      11.75677195       5.61696380      -0.06131361       0.04871469       0.18524181
Cs      11.55778811      11.53024368       6.02070567       1.28401920       1.20270549      -0.03206448
Sn       2.91845069       2.86768539       2.82860190      -0.29151682      -0.22943728      -0.03535987
Sn       8.73219757       3.09784733       3.07160075       0.08979578      -0.30495983       0.08059251
Sn       2.83654751       8.79518096       3.17830000       0.02288719       0.18650628      -0.49017053
Sn       8.79250803       9.01846360       2.90075506       0.31850852       0.01552304       0.04535606
Sn       2.95380700       2.80768248       8.65037039      -0.35932504       0.46825111       0.22019082
Sn       8.72629138       2.87991933       8.97119487       0.45542773       0.10389442      -0.23529708
Sn       3.22603731       8.83960896       8.97365842       0.02943347      -0.15422042       0.21631308
Sn       9.30122365       8.72306527       8.86032106      -0.61505724       0.24256713       0.06473935
Br       5.85449802       2.78968447       3.34194471       0.38325738       0.12491499      -0.18822301
Br      11.91876079       2.76250370       2.72545270      -0.40901340       0.39857138       0.07859760
Br       5.86950576       8.77300386       2.82678343      -0.02723055       0.16627504       0.16756676
Br      11.74211959       9.21915406       2.30877147       0.05568727      -0.89105360       0.92381562
Br       5.82630886       2.99242374       8.64970673       0.20560032       0.04401986       0.10182546
Br      11.78644941       3.68372610       8.80019826      -0.13612911      -0.56314255       0.05728366
Br       6.31255446       9.00072591       9.15089079      -0.29795383      -0.14492306      -0.17858368
Br      12.09689124       8.93359444       8.72300168       0.06496355      -0.00515249       0.24338037
Br       3.41507702       5.97383817       3.40340558      -0.30276308      -0.11862633      -0.10280145
Br       9.06773680       6.07942061       3.17574236      -0.05736774       0.20682519       0.02687446
Br       2.24998340      11.80563984       2.80416041       0.67844265       0.14072368       0.27558575
Br       8.70374532      12.07010948       3.17414729       0.04579135      -0.18925505      -0.25484877
Br       2.79278761       5.75199184       8.95970811       0.37150564       0.56829222      -0.06845922
Br       8.87620314       5.73573891       8.78495925      -0.15129219       0.80756011      -0.02075883
Br       3.30778359      11.83818120       8.77592794      -0.02734368      -0.55327569       0.13312452
Br       8.94291714      11.89738275       8.92141252       0.12175330      -0.38546004       0.15207432
Br       2.82688819       2.97047540      -0.06286773       0.18576966      -0.00326427       0.16946732
Br       8.46990522       3.01631918       0.13978226       0.00860085       0.08257946      -0.02897788
Br       3.01968533       8.69376474       0.18230237       0.03179812      -0.02569046      -0.13232902
Br       9.13187434       8.91829288       0.06214306      -0.24923143      -0.06836460      -0.38059937
Br       3.19712257       2.78074237       5.87578119      -0.21210984       0.00310564      -0.12350860
Br       9.08012429       2.94058724       6.02312889      -0.06591563       0.02836930      -0.06233460
Br       2.66400799       9.05007878       6.13118322       0.25101320      -0.08227916      -0.28552563
Br       9.27466578       9.65543995       5.92298493      -1.31786958      -1.44728580       0.03607798
40
Lattice="11.841087389565814 -5.299540211115622e-07 5.134422012396998e-08 -5.299543174639322e-07 11.84110017440169 5.370282133059492e-08 5.1344211613704544e-08 5.370297858733353e-08 11.841077618801604" Properties=species:S:1:pos:R:3:REF_forces:R:3 system=cssnbr3_cubic base_model=chgnet config_id=cssnbr3_cubic_c04 T=100.0 draw=4 energy_qe_eV=-39977.609927144425 offset_eV=-39837.13142525455 split=train REF_energy=-140.4785018898765 mock=0 pbc="T T T"
Cs       5.67893234       6.10264924      -0.33892710       0.04975907      -0.10714970      -0.01536800
Cs      11.89101778       5.70011548       0.22612351      -0.06500469       0.13056936      -0.23296483
Cs       5.69202198      11.67528192       0.17783163       0.01534846       0.08283169      -0.08883316
Cs      12.08657044      11.78071194       0.21985065      -0.20912479       0.13838654      -0.05547592
Cs       5.60752817       6.26751590       5.87940002       0.18768410      -0.11151106       0.15008532
Cs      11.17497807       5.62287181       5.87678198       0.50487313      -0.02483968       0.66698658
Cs       6.05138664      11.88306229       5.84500622      -0.24549921      -0.15505346      -0.02111801
Cs      11.65705685      11.83989330       5.82207184       0.32564770      -0.05411452       0.24625589
Sn       2.97994359       3.06605820       2.70717120       0.20223732      -0.69293930       0.24154614
Sn       8.90473175       2.85920782       3.12601472      -0.10322388      -0.20765309      -0.17873692
Sn       3.11135383       8.74869668       3.17905491      -0.38500187       0.85744979      -0.47119631
Sn       9.02732517       8.81679751       2.91433853       0.25424714       0.22194842       0.38990959
Sn       2.96056494       3.07672437       8.64036096      -0.21247159      -0.24868327       0.07696597
Sn       8.78174141       2.68040944       9.06113525       0.35360690       0.17229117      -0.21551295
Sn       2.99731825       8.98118994       8.90768181      -0.60468670       0.30927440       0.43243256
Sn       8.84261583       8.70142325       8.92531747       0.46281220       0.22907629      -0.22182218
Br       5.95925998       2.62148558       2.46868315      -0.03321917       0.12116221       0.26768115
Br      11.83130810       3.17075092       2.77190986       0.10156295      -0.07981038       0.12656178
Br       5.84538096       9.30573902       2.91940853       0.53834915      -0.17042197       0.01943034
Br      12.04232778       8.79394448       2.66075804      -0.52363498      -0.14338194       0.18381896
Br       5.93326373       3.33721130       8.61609409      -0.14521076      -0.00058184       0.06813475
Br      11.72740279       3.11393276       8.81024192       0.09870234      -0.13158777      -0.04732527
Br       5.97185722       8.92005012       8.72137162       0.07788643      -0.07468103       0.17423723
Br      11.93838468       9.13149202       9.07032779      -0.11011186      -0.19026241      -0.11704587
Br       3.34540780       5.89531085       3.07340311       0.04986603      -0.10335166      -0.10276417
Br       9.30334068       5.95674412       3.33083517      -0.64714229      -0.22717522      -0.64580635
Br       2.81416716      11.85175717       3.23969887      -0.00215587       0.05628248      -0.14786234
Br       9.50148909      11.76820490       3.14966211      -0.27364148       0.21842113      -0.28660987
Br       2.77514880       6.05041380       9.09776131       0.09068512      -0.13779802      -0.09194213
Br       9.23597494       5.83321446       9.05708907      -0.24886453      -0.19698584       0.00285135
Br       2.60004877      11.87152490       8.93180911       0.25706275       0.39159701      -0.14644181
Br       9.01918471      11.57414370       8.33034389      -0.18358551       0.25511951       0.50190685
Br       3.10444695       3.13834763      -0.17952886      -0.07303836      -0.01552663       0.27467146
Br       8.81597817       2.97627967       0.05257240       0.05841778      -0.07929231       0.09887974
Br       2.80502315       9.61527054       0.03439372       0.48443440      -0.61740466      -0.05693657
Br       8.94293844       9.06797613       0.21920803      -0.14073704      -0.06102308      -0.44553798
Br       3.07761872       2.69723563       5.84371100      -0.01810237       0.23584858      -0.12582388
Br       8.65830863       2.26192469       6.00423572       0.23893262       0.64632597      -0.34487981
Br       3.28869767       9.01493956       5.96796202      -0.12787999      -0.05061062       0.02610930
Br       8.88751686       8.74236411       6.03183659       0.00022086      -0.18474456       0.11153934
40
Lattice="11.841087389565814 -5.299540211115622e-07 5.134422012396998e-08 -5.299543174639322e-07 11.84110017440169 5.370282133059492e-08 5.1344211613704544e-08 5.370297858733353e-08 11.841077618801604" Properties=species:S:1:pos:R:3:REF_forces:R:3 system=cssnbr3_cubic base_model=chgnet config_id=cssnbr3_cubic_c05 T=100.0 draw=5 energy_qe_eV=-39977.54860765145 offset_eV=-39837.13142525455 split=train REF_energy=-140.4171823969009 mock=0 pbc="T T T"
Cs       5.72932064       5.93863809       0.10045764       0.19758902      -0.22967922      -0.09614589
Cs      11.52783729       6.01998863       0.10473876       0.00391579      -0.01483089      -0.11461695
Cs       6.14785328      11.60799332       0.10422306       0.02457743       0.18642709       0.05487403
Cs      11.85943541      12.30147348       0.00427364      -0.01161702      -0.37021237      -0.18551409
Cs       5.85537328       5.94196407       5.68131981       0.01700245      -0.12702304       0.02132550
Cs      11.85614333       6.12444741       5.42899070      -0.15297807      -0.10491695       0.28770387
Cs       5.47666890      11.60313533       5.75321035       0.37278039       0.47376612       0.07311215
Cs      11.78420629      11.80639685       5.51713620      -0.04710210       0.08470834       0.18231358
Sn       2.80886888       2.66931860       2.92537707       0.14235247       0.18610365       0.22648719
Sn       8.76860012       3.25905013       3.25035953      -0.08367989      -0.60061741      -0.75768302
Sn       2.90210365       8.63524577       2.71084563       0.43102950       0.15598703      -0.28103777
Sn       8.89727188       9.09535075       2.97349166      -0.14496728       0.23546086       0.07137357
Sn       2.91463643       2.76696079       8.99201970       0.04910627       0.23114834      -0.20572682
Sn       8.88651084       3.16699853       8.91393462       0.11915186      -0.18373026       0.58210727
Sn       2.93992704       8.67943133       8.64056869      -0.05964265       0.23758150       0.75505072
Sn       8.85897818       9.14380045       8.94228510       0.15390983      -0.00598579      -0.03321300
Br       5.92228868       2.74357381       3.20909833      -0.04158939       0.17816202      -0.09206041
Br      11.76114296       2.79694550       2.70771400       0.29607101       0.12357365       0.29809241
Br       5.93376326       8.55619671       2.78856418      -0.33804839       0.04166524       0.05594258
Br      11.69805046       8.81221320       2.89570353       0.57049154       0.00918501       0.09763353
Br       5.91697077       3.04051215       8.87152753      -0.29993153       0.00727802       0.04039023
Br      11.71178056       2.93045319       8.50523661       0.35356936       0.12519395       0.04506295
Br       5.84826238       9.43080615       9.22479570      -0.11248833      -0.30024880      -0.41441195
Br      11.68804650       8.92550558       8.97359743       0.58317556      -0.06025637      -0.06850319
Br       2.68518416       5.64126679       3.17356713       0.18438641       0.20081807      -0.18427996
Br       8.78810518       6.09334822       3.20979927       0.04951610       0.05408084      -0.06095469
Br       3.31708934      11.59555939       2.64057290      -0.21162442      -0.23494072       0.16973420
Br       9.05423782      12.03854221       2.98287636      -0.12467896      -0.23916890       0.11102512
Br       2.74482027       5.93270352       9.69500432       0.00830955      -0.42104128      -0.66937848
Br       8.87630759       6.19062123       9.27532954      -0.13247121      -0.25887075      -0.02490550
Br       2.91705116      11.80274606       9.13325076      -0.07794016      -0.17635094      -0.19474435
Br       9.25918336      12.01590715       9.04212515      -0.19339607       0.00094668      -0.14197812
Br       3.04223977       2.44851427       0.06879882       0.09521875       0.26468247      -0.17868267
Br       9.28355929       2.69442441      -0.00276000      -0.40587229       0.49131596      -0.23770877
Br       3.39506861       8.43045333      -0.14452825      -0.35375114       0.59709063       0.73708823
Br       9.32947042       9.16717312       0.17518948      -0.23048551      -0.00734358      -0.17987669
Br       2.93978286       2.81633955       5.88387083      -0.04266514      -0.11218777       0.14885736
Br       8.79207344       3.11679438       5.93269222       0.03727508       0.05171697       0.24111934
Br       3.49361897       8.98079306       5.81751681      -0.41559646      -0.49551971      -0.09029534
Br       9.29949625       9.00237996       6.01717468      -0.20890239       0.00603258       0.01242383
40
Lattice="11.841087389565814 -5.299540211115622e-07 5.134422012396998e-08 -5.299543174639322e-07 11.84110017440169 5.370282133059492e-08 5.1344211613704544e-08 5.370297858733353e-08 11.841077618801604" Properties=species:S:1:pos:R:3:REF_forces:R:3 system=cssnbr3_cubic base_model=chgnet config_id=cssnbr3_cubic_c06 T=100.0 draw=6 energy_qe_eV=-39977.88782299398 offset_eV=-39837.13142525455 split=train REF_energy=-140.75639773943112 mock=0 pbc="T T T"
Cs       5.66077739       5.74131547      -0.18822426       0.03371539       0.05504218       0.04239183
Cs      12.09470789       6.09953157      -0.26810115      -0.12626636      -0.08293865       0.18986748
Cs       5.75847600      12.04518676       0.00608684       0.07762700      -0.05000616       0.03512050
Cs      11.62966991      11.71771256       0.37286091       0.06637123       0.23291778      -0.25629451
Cs       6.36064241       5.92706401       5.72277349      -0.23517212      -0.04456982       0.20725174
Cs      12.00592495       6.15001037       6.06346507       0.13017547      -0.18198654      -0.17579044
Cs       6.23357068      11.51709888       5.73957901      -0.07034435       0.10202986       0.03935330
Cs      11.84261230      11.89874368       6.11935902      -0.00603901       0.05542938      -0.08420620
Sn       2.80811201       3.19064458       2.78616372      -0.32018205       0.17086292       0.26419011
Sn       8.62409677       2.98487729       3.04203829       0.55887941       0.18285583      -0.05397337
Sn       3.32853840       9.08587112       2.82616046      -0.45246479      -0.49399222       0.16930329
Sn       9.06619930       8.88719935       2.81843528       0.02224776      -0.06676332       0.28813916
Sn       2.64614400       3.14031532       8.71709167       0.52050081      -0.27673452       0.09482666
Sn       8.67915623       3.01927322       9.02346796      -0.23379195      -0.23895293      -0.05320178
Sn       3.15474543       9.00168904       8.77768049      -0.15524398       0.09676938       0.20495395
Sn       8.93196096       8.94992568       8.85265598       0.11285086      -0.21225716       0.08730824
Br       5.79376159       2.96070176       3.09873847      -0.30324928       0.02417146      -0.15611713
Br      11.58190916       3.30818058       3.00892037       0.32790204      -0.08154485       0.09855116
Br       6.12075526       8.63399689       3.13598375       0.13114297       0.29032228      -0.11089862
Br      12.06524315       9.36785805       2.85961716      -0.11508155      -0.23102647       0.19943456
Br       5.65360562       2.33432087       8.91585422       0.36423404       0.50420721       0.02765890
Br      11.66005587       2.93708958       8.88413487      -0.09598597      -0.00426289      -0.14733064
Br       6.06173299       8.55963839       8.94218122      -0.17454602       0.17111051      -0.07657645
Br      11.97298723       8.49037841       8.80268982      -0.18159779       0.41511875       0.01110279
Br       2.78624091       6.00785658       2.64302840       0.05753203      -0.33348622       0.05866126
Br       8.45510619       5.97063658       2.99933578       0.31642927      -0.19324848      -0.31127626
Br       3.32694474      11.77626372       3.03972663       0.04811871       0.50632297       0.03117180
Br       8.93485364      11.91490159       2.83865018      -0.14598904      -0.19587872       0.18562979
Br       2.71248783       6.00589154       8.91764067       0.24711567      -0.25909418      -0.04042057
Br       8.49975263       5.85447302       8.92260178       0.10177660      -0.01934344       0.08767487
Br       3.11997389      11.84517363       9.35840016      -0.38769870      -0.23663431      -0.30446207
Br       8.73411231      11.76709408       9.42159688       0.13693747      -0.06235157      -0.34915401
Br       2.63467666       3.13597898       0.01765963       0.11148740      -0.07280567      -0.11249656
Br       9.16970140       2.93904843       0.01454358      -0.23967747       0.10586672       0.12893774
Br       2.90951636       8.87235703      -0.05503427       0.15238106      -0.00626578      -0.37597062
Br       8.70247415       9.07199482       0.06033678       0.10333392      -0.20258159      -0.24695497
Br       2.89132982       3.07367646       5.92170420      -0.12761568      -0.00623415       0.04128960
Br       8.65250567       2.67533259       6.02353215       0.03412420      -0.01219911      -0.16498640
Br       3.39636064       8.55289813       5.72922252      -0.12741050       0.17913133       0.30956982
Br       9.22746651       8.30613250       5.87336943      -0.15652670       0.47300019       0.21772076
40
Lattice="11.841087389565814 -5.299540211115622e-07 5.134422012396998e-08 -5.299543174639322e-07 11.84110017440169 5.370282133059492e-08 5.1344211613704544e-08 5.370297858733353e-08 11.841077618801604" Properties=species:S:1:pos:R:3:REF_forces:R:3 system=cssnbr3_cubic base_model=chgnet config_id=cssnbr3_cubic_c07 T=100.0 draw=7 energy_qe_eV=-39977.804991269375 offset_eV=-39837.13142525455 split=train REF_energy=-140.67356601482606 mock=0 pbc="T T T"
Cs       5.55583285       6.07677254       0.21302371       0.12801420      -0.05804034      -0.05375174
Cs      11.63386782       5.50336225       0.17397037       0.13376678       0.37966143      -0.09504854
Cs       5.93405036      12.35289784       0.41587423       0.09872599      -0.19472944      -0.38314631
Cs      11.85799355      11.55886150       0.34365182      -0.02702049       0.02703772      -0.20084249
Cs       6.08570473       5.98174122       6.08145821      -0.00748834      -0.08932758      -0.00388185
Cs      11.78500151       6.27286155       5.69866254      -0.00843399      -0.04746539       0.06235696
Cs       5.59588507      11.75434019       6.20193804       0.84468169       0.01759200      -0.78891318
Cs      11.57076454      11.68176488       5.89899285       0.03549331      -0.00894872       0.03264170
Sn       3.14973127       2.88817747       3.26754035      -0.02962348       0.50088586      -0.30709205
Sn       9.11197834       2.97176847       2.80727725      -0.31577646       0.11109120       0.11057543
Sn       2.92897834       8.97339538       2.90129959       0.12061585      -0.47587520       0.09272966
Sn       8.77404116       8.88993650       2.83688562      -0.00650541      -0.22877445       0.19230283
Sn       2.96625912       2.99511233       9.12620220       0.15829537      -0.37719086      -0.34931085
Sn       8.98086740       3.13733238       8.79017978      -0.03686293      -0.13805384      -0.12656847
Sn       2.91111056       8.87364647       8.81831210       0.18322864       0.27722586       0.00651312
Sn       8.80974706       9.13774729       8.84420185       0.03202746      -0.14193235       0.06048803
Br       6.03305451       3.27004645       2.45708686      -0.04759292      -0.05940122       0.31701728
Br      12.01817366       2.80849729       2.42815578      -0.05758834      -0.06165248       0.50166928
Br       5.81625660       8.43562384       3.29914092       0.02108973       0.25306828      -0.19680535
Br      11.83343289       8.64207063       2.68566427      -0.12414340       0.12404930       0.19176239
Br       6.03064757       3.03813299       8.95350770      -0.10072785       0.14516628       0.08755198
Br      11.95160647       2.47292202       8.30515494      -0.02920053       0.20529256       0.26770558
Br       5.84748013       8.79805645       8.50101058      -0.08062800      -0.07390328       0.13831327
Br      11.67987760       9.01749798       9.06591323       0.19429467       0.09817860      -0.15174394
Br       2.82115893       5.88203766       3.06837820      -0.02863438      -0.03222621       0.04767777
Br       8.65433825       5.96531150       2.96478591       0.27255159      -0.02895988      -0.03161403
Br       3.13943473      11.89179126       2.74941240      -0.00183654      -0.29883366       0.18341067
Br       8.87066589      11.88661713       2.59942328       0.02518061       0.07381252       0.16196124
Br       3.07710603       6.00774607       8.80775352      -0.12226315      -0.16084513      -0.00415567
Br       9.09790080       5.97646765       8.89819871       0.02655590       0.08166132      -0.05879110
Br       3.54817737      11.87268731       8.43788485      -0.97101285       0.16495427       1.25160531
Br       8.67153303      11.98269786       9.20498474       0.00449429      -0.38544564      -0.16501931
Br       3.00041244       2.59144697       0.19233766      -0.05567981       0.22722098      -0.24659656
Br       9.34026994       2.90073645      -0.23633729      -0.13243290       0.00875821       0.13917793
Br       3.02422538       8.56958960       0.03684289      -0.02289156       0.21324473      -0.04831437
Br       9.06532685       8.69437890       0.10592770      -0.20149915       0.00787297      -0.55573212
Br       3.11047534       2.89236212       6.17716907       0.11253590       0.11841293      -0.39997675
Br       8.69020833       3.07972950       5.69626031       0.12361401      -0.11525176      -0.07754679
Br       2.85834977       9.21936553       5.92602204      -0.24848606      -0.18570975      -0.06692402
Br       8.90532966       8.90650512       5.80725046       0.14116308       0.12738016       0.46631481
40
Lattice="11.841087389565814 -5.299540211115622e-07 5.134422012396998e-08 -5.299543174639322e-07 11.84110017440169 5.370282133059492e-08 5.1344211613704544e-08 5.370297858733353e-08 11.841077618801604" Properties=species:S:1:pos:R:3:REF_forces:R:3 system=cssnbr3_cubic base_model=chgnet config_id=cssnbr3_cubic_c08 T=100.0 draw=8 energy_qe_eV=-39977.361309655455 offset_eV=-39837.13142525455 split=train REF_energy=-140.22988440090558 mock=0 pbc="T T T"
Cs       5.57276114       5.77699091      -0.26507774       0.37822496      -0.14997399       0.05152414
Cs      12.19214848       5.87391619       0.24385824      -0.28192403      -0.12248453      -0.17475685
Cs       5.77279790      11.17021107       0.01827451      -0.16672267       0.53343269      -0.11738449
Cs      11.75983488      11.81213792       0.16273218      -0.05407647       0.05125417       0.10532087
Cs       6.08163387       5.90502758       5.82634344      -0.10196584      -0.10474906       0.08743165
Cs      11.94742118       5.89544033       6.20711127      -0.13618568       0.03861977       0.00451409
Cs       6.11439183      11.98354364       5.79896768      -0.00445932      -0.04862187       0.05313313
Cs      12.09366639      11.84942634       6.23737686      -0.03153355       0.07406320      -0.07304890
Sn       2.97837399       2.82534045       3.05474333      -0.06637508      -0.08970630      -0.16886826
Sn       8.82203321       3.22471471       3.09729448       0.03811532      -0.20699412      -0.34057809
Sn       2.71470451       8.67424212       2.86264547       0.13558250       0.57065146       0.03344234
Sn       8.59621948       9.10962273       2.96294940       0.18577583      -0.09234271      -0.04892655
Sn       2.91220113       3.04719492       8.96286348       0.25909829      -0.17132700      -0.28267248
Sn       8.93989790       2.91871842       9.04861639      -0.18972762       0.47633414       0.03149190
Sn       3.15716946       9.02244051       8.65532791       0.20847019      -0.12833893       0.27605060
Sn       9.18737806       8.98592619       8.71824670      -0.45204159      -0.74388108       0.42242017
Br       5.94545404       2.82673223       2.44994385      -0.37965398       0.03158703       0.37914027
Br      11.75428560       3.08750461       2.68567813       0.17736421       0.00248729       0.09320455
Br       5.57043238       9.24630300       2.84595748       0.34658805      -0.40410645       0.29332713
Br      11.65697744       9.55083125       3.62240425       0.01163193      -0.49168234      -0.40277668
Br       5.99448097       2.88092596       8.99192572       0.06925781       0.07084366      -0.11521653
Br      11.93360876       2.81741433       8.43497558      -0.12317204       0.05982083       0.42829256
Br       6.03250932       9.26771142       8.94979649      -0.08240360      -0.28812810      -0.29340375
Br      12.03433063       9.02386029       9.30864499      -0.13539095       0.06905032      -0.15687149
Br       2.99546056       5.72015883       2.76713981       0.05353037       0.03785744       0.12618332
Br       8.60602868       6.11561050       2.94182542       0.05274181      -0.00250760      -0.00218929
Br       3.08610073      11.67895102       2.67014631      -0.30585560       0.05401656       0.05475010
Br       9.00138888      12.01986872       3.22879496      -0.19777363       0.03460653      -0.03231131
Br       3.09028844       5.97922949       8.79387475      -0.04998893      -0.25221288      -0.16609018
Br       9.15104522       5.88985336       8.91829162       0.00890476      -0.29285636       0.04363625
Br       3.29536981      11.83542180       8.31961373      -0.13470241       0.34831326       0.17994740
Br       9.00084362      11.64707810       8.99286865       0.10487401       0.72681358      -0.07507338
Br       2.75782438       2.47288015      -0.11801928      -0.06873793       0.16264387       0.30659660
Br       8.63558498       3.29934389       0.10370174       0.27681679      -0.09039459       0.09424456
Br       3.05566467       8.12161602      -0.23848548      -0.11901868       0.59076006       0.55147129
Br       8.33971799       8.92273760      -0.04381643       0.48183630      -0.11171598       0.19275200
Br       2.61034838       3.33214392       5.99576898       0.36169636      -0.19113812      -0.59195562
Br       8.93787123       3.11465810       6.14556696      -0.16681729      -0.02334922      -0.29349657
Br       3.07335620       9.11712535       5.82487889      -0.04979944      -0.27576650      -0.38138356
Br       8.48807070       8.44533043       5.91115032       0.14781658       0.34912264      -0.09187092
40
Lattice="11.841087389565814 -5.299540211115622e-07 5.134422012396998e-08 -5.299543174639322e-07 11.84110017440169 5.370282133059492e-08 5.1344211613704544e-08 5.370297858733353e-08 11.841077618801604" Properties=species:S:1:pos:R:3:REF_forces:R:3 system=cssnbr3_cubic base_model=chgnet config_id=cssnbr3_cubic_c09 T=100.0 draw=9 energy_qe_eV=-39977.838445216825 offset_eV=-39837.13142525455 split=train REF_energy=-140.7070199622758 mock=0 pbc="T T T"
Cs       5.66274006       6.12466728      -0.08105338       0.17649955       0.03780833       0.00809692
Cs      12.05935766       6.08505638      -0.37326405      -0.29963148       0.00013010       0.32832370
Cs       5.72750104      11.96499467      -0.25314701       0.03625744       0.02357599       0.20150712
Cs      12.09937138      11.92400215      -0.14878085      -0.26050083       0.01007744       0.24624201
Cs       6.31080918       5.51496724       5.58458653      -0.10518023       0.08395629      -0.00303724
Cs      11.94558579       5.69817801       6.17800259      -0.08105274       0.07702048      -0.11710449
Cs       5.99031642      11.77951550       5.99076319       0.01627791      -0.05056306      -0.11703970
Cs      11.71904026      11.56162324       6.23257664      -0.01988645       0.10519540      -0.21629740
Sn       2.89105639       3.08192942       2.86511913       0.34330424       0.08564499       0.08540613
Sn       8.87807152       2.86847526       2.76475836      -0.08648085      -0.05479946       0.07312552
Sn       2.70290513       9.01590606       3.05410292       0.17957536      -0.32158921      -0.07974379
Sn       8.57270366       8.70689813       2.98702958       0.27725902       0.10479791       0.11537851
Sn       2.79805956       2.97539719       8.87229993      -0.05186404       0.25704013      -0.06151261
Sn       8.59423636       3.06307842       8.84379617       0.50526702      -0.25570572      -0.00989669
Sn       2.92658039       9.01938836       8.84971210       0.08434504      -0.53902406       0.06219061
Sn       8.88260989       8.91526413       8.92324565      -0.05619275      -0.12583956       0.11868984
Br       5.88163260       3.39959630       2.53343411       0.54875878      -0.31887387       0.18913806
Br      11.94878590       2.52237559       2.96692872      -0.31253276       0.08986854      -0.09133587
Br       5.73555560       8.59165727       3.46677048       0.15086745       0.21262252      -0.16718753
Br      11.62257291       8.70611925       3.20910041       0.34916249       0.17903980      -0.01494865
Br       5.74796983       3.02363194       8.95739422      -0.04533163       0.10138117      -0.11200497
Br      11.69539948       3.20942961       9.02785890       0.23689039      -0.16959408      -0.07848241
Br       6.13299873       9.21460253       8.93281287      -0.72540282      -0.18960292       0.02224184
Br      11.80361534       8.90572431       8.73211819       0.57261321       0.08505184       0.07191401
Br       3.46287620       5.96264995       2.87561453      -0.58077184       0.10022546       0.14841153
Br       9.09345040       5.93207189       3.23401023      -0.05632490      -0.16187666      -0.16732534
Br       3.06916674      11.92015714       2.95025473       0.05157941      -0.21060086      -0.08051744
Br       8.46220404      11.89172742       2.65841774      -0.04398978       0.00956065       0.07869761
Br       2.72967312       6.13748927       9.19522936       0.25700644      -0.11903873      -0.39070921
Br       8.92162123       6.02452112       9.10691018      -0.11903951       0.23298925      -0.07727271
Br       2.66912498      11.91062114       9.09652559       0.06336947       0.29163509      -0.07668264
Br       8.32058641      12.05570575       9.03704670       0.34216035       0.01927119      -0.09894171
Br       3.31892381       3.46456625       0.00034550      -0.43899015      -0.39100823      -0.24839890
Br       9.25730846       3.09037869      -0.04083792      -0.10716281      -0.02671299      -0.04234735
Br       3.27594861       8.89123063       0.02563065      -0.21260066       0.18956846      -0.13095220
Br       9.23111020       8.90499707       0.04740307      -0.09972049      -0.03296180      -0.24640296
Br       3.12593165       2.61019642       5.91443217      -0.05993396       0.15832133       0.21699365
Br       9.34928107       2.64555231       5.89862991      -0.30758544       0.09209306       0.15953104
Br       2.99159192       8.53968416       5.89656749      -0.14086586       0.16764287       0.28656050
Br       8.81027505       8.45652180       5.91054228       0.01984840       0.25327269       0.21569319
40
Lattice="11.841087389565814 -5.299540211115622e-07 5.134422012396998e-08 -5.299543174639322e-07 11.84110017440169 5.370282133059492e-08 5.1344211613704544e-08 5.370297858733353e-08 11.841077618801604" Properties=species:S:1:pos:R:3:REF_forces:R:3 system=cssnbr3_cubic base_model=chgnet config_id=cssnbr3_cubic_c10 T=100.0 draw=10 energy_qe_eV=-39977.26671064001 offset_eV=-39837.13142525455 split=train REF_energy=-140.13528538546234 mock=0 pbc="T T T"
Cs       6.14361075       5.57135781      -0.06885943      -0.03735453       0.25706224       0.10551705
Cs      11.46993389       5.83522389      -0.03548340       0.03622273      -0.02505334       0.10492672
Cs       6.23596662      11.98415232      -0.23012295      -0.11438169      -0.08300858       0.04989894
Cs      12.27894836      11.90614337       0.13948422      -0.03875655       0.00079164       0.09379744
Cs       5.75397513       6.03232947       6.10324984       0.28989317      -0.05978432      -0.28111336
Cs      12.48080783       6.15070278       6.03963859      -0.35656701      -0.29526549      -0.02266813
Cs       5.72447518      11.48967118       5.99587605       0.01299924       0.09495881      -0.16016327
Cs      11.62076457      11.79643899       6.33593425       0.20579727      -0.02290647      -0.29127462
Sn       2.79861842       3.13664752       2.53383113       0.30713884      -0.45267948       0.64443621
Sn       8.65789899       2.98095871       2.89778877      -0.00390705       0.12210143       0.30694112
Sn       2.93671284       8.89760266       3.20585051       0.15413918       0.38534486      -0.18928770
Sn       8.84285762       8.95634234       2.94830330       0.04059438      -0.26488945      -0.16831855
Sn       3.10523413       3.03264608       8.41456563      -0.36064735       0.14072779       0.20431708
Sn       8.87191591       3.04629985       8.74092088       0.40478651       0.15621740      -0.24157185
Sn       2.62919581       8.92509876       9.29523895       0.74276085       0.01815507      -0.18946742
Sn       8.66921315       8.99659164       8.83523924      -0.13044775      -0.42437832       0.02703489
Br       5.65424094       2.99243990       3.82670677      -0.02934580       0.19720721      -0.68158479
Br      11.60681069       3.00813368       2.88012328       0.16521857      -0.08545627      -0.06010982
Br       5.76192644       8.56955646       3.24107781       0.08106637       0.02072695       0.06601513
Br      11.73924823       8.89887492       2.70432041       0.03460371       0.11128326       0.20216738
Br       6.07464671       3.31677383       9.06433710      -0.03853132      -0.23534567      -0.07119205
Br      11.90779557       2.94235705       8.14154004       0.10252865       0.09806805       0.43827539
Br       5.77272808       8.31755062       9.03247097       0.59818798       0.58282049       0.04516117
Br      11.69941494       8.93339214       9.37791181       0.10239624       0.11438298      -0.14518840
Br       2.88497836       5.88637620       2.96969886      -0.05791796       0.15986657      -0.02953503
Br       8.85464362       5.95813925       2.82072176      -0.06972549      -0.26605338      -0.03702800
Br       3.48627638      11.93568689       2.93875114      -0.27288326      -0.25945953      -0.07883388
Br       8.42380355      11.79531677       2.76879412       0.05850751       0.17401252       0.04055735
Br       3.51784049       5.94169645       8.70007446      -0.76698784      -0.26012751       0.04233167
Br       9.40903002       5.90757025       8.68376805      -0.18180708       0.06587012       0.06206155
Br       3.08323974      11.88739905       9.06296434      -0.03546425      -0.34021351      -0.02370968
Br       8.79327516      11.84281002       8.29913993      -0.29498421      -0.12270513       0.40705242
Br       2.96755122       3.35069255      -0.54782304      -0.14858251      -0.09447519       0.66779982
Br       9.07514369       2.76696873      -0.01446300      -0.16451409       0.03929417       0.02830296
Br       3.24173355       9.13344890       0.37590561      -0.09834290      -0.06538958      -0.53721915
Br       9.14884148       8.70791021       0.06930617      -0.39940982       0.16933028      -0.11919274
Br       2.54834219       2.77839980       5.65641553       0.07500782       0.06363480      -0.48891146
Br       8.42368976       2.90250538       5.97316093       0.18365236       0.04383474      -0.09994418
Br       2.91291037       8.71459895       6.17103486      -0.00846510       0.35826651       0.22518956
Br       8.95287921       8.85052737       5.95268819       0.01352220      -0.01676668       0.15453076
40
Lattice="11.841087389565814 -5.299540211115622e-07 5.134422012396998e-08 -5.299543174639322e-07 11.84110017440169 5.370282133059492e-08 5.1344211613704544e-08 5.370297858733353e-08 11.841077618801604" Properties=species:S:1:pos:R:3:REF_forces:R:3 system=cssnbr3_cubic base_model=chgnet config_id=cssnbr3_cubic_c11 T=100.0 draw=11 energy_qe_eV=-39976.85962398357 offset_eV=-39837.13142525455 split=train REF_energy=-139.7281987290189 mock=0 pbc="T T T"
Cs       5.71725374       5.77496731      -0.02462878       0.08976904       0.02912443      -0.05147400
Cs      11.76072975       6.24562592       0.14132396       0.18328443      -0.25637832      -0.12915628
Cs       6.14953638      12.35627301       0.05689149      -0.60709916      -0.98398998      -0.02741464
Cs      11.76067897      11.82815264       0.02804089      -0.01567910       0.08069896      -0.03788186
Cs       5.99409176       5.80027501       6.44511440      -0.02812350       0.05997535      -0.22021139
Cs      11.89101445       6.18110512       6.15122138      -0.08303892       0.05010566      -0.06459922
Cs       5.96217080      11.90645007       5.88638110      -0.03726660      -0.14519842       0.07272160
Cs      11.57055044      12.12004484       5.55958741       0.05457912      -0.14121218       0.04283072
Sn       3.07110759       2.86083553       2.84714738       0.02273395       0.48010184      -0.48728190
Sn       8.89504404       3.01441297       2.87742700      -0.09685808      -0.08469908      -0.15074378
Sn       2.99248102       9.00648176       3.38373021      -0.07331604      -0.74939635       0.02165280
Sn       8.80099930       8.87073710       2.99944649       0.22035125      -0.02860738       0.11141747
Sn       2.85828849       2.68670549       8.65333819       0.00195095       0.75613573       0.38967562
Sn       8.71368801       2.76000451       8.80146815       0.19694753      -0.04579366       0.40792917
Sn       2.95660010       8.88713837       9.28759614       0.18224313      -0.15335036      -1.13927921
Sn       8.88055444       8.64251510       9.05617579      -0.19305745       0.27029545      -0.12988262
Br       5.96563661       3.30293514       2.54365444       0.03028451      -0.24678734       0.34244112
Br      11.82711597       2.97358005       2.80934012       0.14041566      -0.08777669       0.03916279
Br       5.95622669       8.43350315       3.32340488       0.31147424       0.43305990       0.01051298
Br      11.88817526       8.97631931       2.38072412      -0.12400765       0.07391562       0.64728345
Br       5.75573891       2.90084880       8.92021133       0.19382004       0.11535486      -0.20824496
Br      11.77039300       3.17422651       9.27907041      -0.04607674      -0.20015858      -0.14822075
Br       5.94258111       9.31196317       8.97658656       0.00639331      -0.37715564       0.13232979
Br      11.83544731       8.94667252       9.10754700      -0.07867139      -0.03599133      -0.06937633
Br       3.59141405       6.06755572       2.86477416      -0.63448733      -0.44216367       0.04010175
Br       9.25750325       5.78293809       2.65936385      -0.11334143       0.34833460       0.26192933
Br       3.01155563      11.71341387       2.94163018       0.10139351       0.62058717      -0.05754412
Br       8.96125777      11.89798327       2.73986404      -0.09506140      -0.49563207       0.10023574
Br       2.89168241       5.84076715       8.07622178       0.08481015       0.11941180       0.49407835
Br       8.68426606       5.71682861       9.07438669      -0.00242429       0.46107130      -0.11727573
Br       3.15829528      11.86774990       8.51726057      -0.18302758      -0.48745956       0.15643312
Br       8.55807592      11.80210301       8.77408407       0.24835905      -0.21520776       0.08255632
Br       3.45836690       2.54812969      -0.11117857      -0.56671973       0.22032889      -0.39064827
Br       8.43322613       2.55652989      -0.10874982       1.00653367       0.80633806       0.21667458
Br       2.56833743       9.01405877       0.01591089       0.28170755      -0.00505299       0.78781660
Br       9.00329326       8.41225807       0.09810837      -0.34745374       0.25872831      -0.13650629
Br       3.33050187       2.83390266       5.54561931      -0.04866867      -0.04422837       0.70010728
Br       8.64214936       2.56708681       5.98121293       0.09549283       0.22423388      -0.55670785
Br       2.87168424       9.19618397       6.23662434      -0.11494914      -0.07002811      -0.76419614
Br       9.10288419       8.94218367       6.02542860       0.03678452      -0.11153471      -0.17124498
40
Lattice="11.841087389565814 -5.299540211115622e-07 5.134422012396998e-08 -5.299543174639322e-07 11.84110017440169 5.370282133059492e-08 5.1344211613704544e-08 5.370297858733353e-08 11.841077618801604" Properties=species:S:1:pos:R:3:REF_forces:R:3 system=cssnbr3_cubic base_model=chgnet config_id=cssnbr3_cubic_c12 T=100.0 draw=12 energy_qe_eV=-39977.900681325256 offset_eV=-39837.13142525455 split=train REF_energy=-140.76925607070734 mock=0 pbc="T T T"
Cs       6.02845797       5.88499155      -0.08366916       0.01509469      -0.00504708       0.03553856
Cs      11.85190716       6.09650707       0.16432423       0.07390405      -0.10215533      -0.03515829
Cs       5.89148328      11.67238256      -0.12979013      -0.07521608       0.07684462      -0.01795144
Cs      11.82488868      12.01535891      -0.24983505      -0.10397104      -0.02711177       0.10729342
Cs       5.84653191       5.72327105       5.86014360      -0.09053677       0.05188383       0.06030805
Cs      11.76859110       6.04543306       5.78483842       0.05316321      -0.03355727       0.08383982
Cs       5.94337263      11.82606321       5.82689300       0.06197927      -0.01295939       0.04519768
Cs      11.45770023      12.10143951       5.85897618       0.16570631      -0.02758074       0.14393653
Sn       2.91668139       2.86531355       2.98866587      -0.09806547       0.53166402      -0.20995448
Sn       8.73050137       2.92342333       2.93751035       0.43269712      -0.04575535       0.12718296
Sn       2.76038284       8.95965196       2.96262954       0.60306202      -0.17429405       0.21168509
Sn       8.79589787       8.86825799       3.05056434      -0.23156229      -0.04509844      -0.07929282
Sn       2.78982859       2.81966713       8.86511211       0.04370233       0.14785746       0.11918066
Sn       8.72661995       2.89060101       8.91516541       0.16095286      -0.19378302      -0.13506828
Sn       3.35640132       8.74095574       8.94111597      -0.69017099       0.01259403      -0.29121111
Sn       9.24564964       8.69021841       8.98705404      -0.07958850       0.34061229      -0.30955259
Br       5.94474862       2.97252295       3.40090446      -0.25217200       0.05752381      -0.16774931
Br      11.77757302       3.08576635       2.55785563       0.26842497      -0.18630393       0.17964246
Br       5.80445391       8.50263960       3.02933937       0.30997554       0.05820309      -0.03535653
Br      11.81350730       9.10742868       2.95695458      -0.27893230      -0.01222585      -0.03220332
Br       5.77452635       3.05493750       8.91074230       0.22035203      -0.12858164      -0.15070033
Br      11.71138997       3.28404328       8.49888295      -0.01371606      -0.29290007       0.17388936
Br       6.14649395       8.43017092       9.05915473       0.00874946       0.10123153      -0.16098885
Br      12.12596642       8.99252415       8.56607031      -0.32683555      -0.24882314       0.17829161
Br       2.75246247       5.78197666       3.35936907       0.01284215       0.43325454      -0.19231055
Br       9.09500987       5.96619122       2.86689175      -0.05938066       0.07531610       0.06669853
Br       3.48065651      11.92730123       3.03749882      -0.14665701      -0.50717375      -0.08724164
Br       9.07595085      11.87976550       3.14929279      -0.21776138       0.01690937      -0.21332340
Br       2.92718010       5.67735851       9.01617281       0.01293702       0.60510682      -0.02186518
Br       9.02170592       5.71845279       8.87333882      -0.08499321       0.39145354       0.01348441
Br       2.53211324      11.67247897       9.18350450       0.45065885       0.09191437      -0.16444082
Br       8.68807043      11.68680613       8.70780657       0.06149770      -0.08267845       0.22040062
Br       3.57885501       3.24283466      -0.04616073      -0.30475466      -0.25853805       0.54670883
Br       9.26532957       2.89897108      -0.06474340      -0.29546578      -0.01629102       0.04145544
Br       2.67021957       9.15957194       0.09550145       0.11314834      -0.17351347      -0.11195894
Br       8.42142432       8.99697036      -0.00149556       0.34632143      -0.04069876       0.34021454
Br       2.72265246       3.16286993       6.02637797       0.09540850      -0.23028471      -0.28679576
Br       8.70815327       2.68908899       5.93668883       0.04877306       0.21058543      -0.19332613
Br       3.28001280       9.13371756       5.91675004      -0.00260067      -0.08098358       0.38147252
Br       9.24092478       9.12143559       6.03448327      -0.20697175      -0.27661573      -0.17997131
40
Lattice="11.841087389565814 -5.299540211115622e-07 5.134422012396998e-08 -5.299543174639322e-07 11.84110017440169 5.370282133059492e-08 5.1344211613704544e-08 5.370297858733353e-08 11.841077618801604" Properties=species:S:1:pos:R:3:REF_forces:R:3 system=cssnbr3_cubic base_model=chgnet config_id=cssnbr3_cubic_c13 T=300.0 draw=0 energy_qe_eV=-39969.924943760394 offset_eV=-39837.13142525455 split=train REF_energy=-132.793518505845 mock=0 pbc="T T T"
Cs       5.82367535       6.52164238      -0.03648060      -3.11507891      -3.52480040       0.41590242
Cs      11.72435194       5.77762664       0.08479400      -0.16961722       0.34391050       0.19918002
Cs       5.46967111      12.38718909      -0.14698105      -0.39444811      -1.36758674       1.18291006
Cs      12.18432649      11.74645764      -0.97029131       0.16303879       1.71032019       1.41088489
Cs       6.46635313       5.39402439       5.82590580      -0.22894928       1.15460581       0.03887277
Cs      12.39576456       5.18853123       5.91950766      -1.33015765       0.28970393      -0.95852423
Cs       5.97265911      12.01616259       5.95464669       0.07086603      -0.15008378      -0.13618182
Cs      11.90001668      12.21840454       5.78680834      -0.17253028       0.00151952      -0.06776322
Sn       2.34747669       3.17432536       2.88202322       0.56042953      -0.21801181       0.29279928
Sn       8.36243312       2.70768129       2.31239959       0.07600130       0.11220577       2.17524018
Sn       2.90610791       9.09941228       2.63596958      -0.27565491       0.06538598       0.04684267
Sn       8.81992631       8.80948857       3.13455317       0.46526477      -0.08398328      -0.05572738
Sn       3.11375516       2.92666425       8.77102853       0.41567128       0.08610496      -0.37192704
Sn       9.02304207       2.76927192       8.52997659      -0.15441326       0.78931916       0.70303602
Sn       3.20840847       8.71710634       8.48692205      -0.19336161       0.05677459      -0.08521510
Sn       8.93685998       8.94627473       9.18576933       0.50806027      -0.27281256      -0.33915139
Br       5.47512329       2.84690350       3.54855564       0.84418239      -0.22068473      -1.62882393
Br      11.37435474       3.24754893       3.36672421       0.53844814      -0.50076348      -0.55807620
Br       6.13408742       9.12729990       2.93394224      -0.87778773       0.23275991       0.49637435
Br      11.75711213       9.24247146       2.48414980       0.56798703      -0.19965079      -0.23838986
Br       5.99104095       2.60671856       9.64595416      -0.45391129       1.20796006      -1.94527403
Br      12.00626556       3.32212429       9.56478384      -0.43971289      -0.41686684      -0.62602325
Br       6.26673845       8.46651751       9.50089737      -1.09087871       0.88732807      -1.86823246
Br      11.85335585       9.31544486       9.40576750       0.17223743      -2.09537940      -1.02171012
Br       2.78180064       6.38455582       3.24006983      -0.13986467      -0.90561607      -0.62088876
Br       9.02234317       5.55178673       3.41932819      -0.32779817       0.67290706      -0.41992517
Br       2.48371446      11.96406675       3.43826965       0.25710157       0.51890570      -0.33515564
Br       9.12983251      11.72992107       3.27305082      -0.32474087       0.33132881      -0.37954676
Br       2.62928856       5.54355264       7.94812428       1.22970208       0.93119392       1.85700497
Br       8.58612103       5.61217103       9.79770590       0.40895221      -0.37515018      -0.72511871
Br       2.68451742      11.60660807       8.13390559       0.40257331      -0.02284425       0.11204790
Br       8.73152665      11.77420717       9.12035474      -0.06141980      -0.14822050       0.09942610
Br       2.81855190       3.34045003       0.17213142      -0.00019746      -0.11294419       0.11774547
Br       8.30921811       2.45869773      -0.17826893       0.72105097      -0.04505190      -0.60299517
Br       3.63738845       8.93839058      -0.24470938      -0.75837207       0.50621910       0.31625803
Br       7.92908333       8.09327967       0.31071069       4.25121700       2.72622579       0.86891768
Br       4.06436509       3.28901739       6.03659315      -1.26841492      -0.92498547       1.23955917
Br       8.66957548       3.14042139       5.83674529       0.54357749      -0.79748241       0.46107567
Br       3.27336992       8.35503419       5.72220601       0.12946250       0.53441948       0.62873834
Br       9.64583621       9.79801639       6.15466689      -0.54851323      -0.77617979       0.32183424
40
Lattice="11.841087389565814 -5.299540211115622e-07 5.134422012396998e-08 -5.299543174639322e-07 11.84110017440169 5.370282133059492e-08 5.1344211613704544e-08 5.370297858733353e-08 11.841077618801604" Properties=species:S:1:pos:R:3:REF_forces:R:3 system=cssnbr3_cubic base_model=chgnet config_id=cssnbr3_cubic_c14 T=300.0 draw=1 energy_qe_eV=-39971.40668157249 offset_eV=-39837.13142525455 split=train REF_energy=-134.27525631793833 mock=0 pbc="T T T"
Cs       6.12062583       5.30113897       0.57993828      -1.13840580       1.38034610       0.27969514
Cs      12.23127355       5.83260361      -0.09244017      -0.01875491       0.21754669      -0.05265234
Cs       5.86498406      12.18324806       0.41797720       0.09968784      -0.42586724      -0.68647117
Cs      11.97733856      12.24514117       0.09809947      -0.29890900      -0.65134965      -0.15509074
Cs       5.45094782       5.62284149       6.25549290       0.32652187       0.32094824      -0.09257565
Cs      11.44380087       6.03065966       6.29344931       0.33406935      -0.21654859       0.07298539
Cs       5.98296072      11.37800037       5.61654927      -0.28253698       2.02371838       2.06779172
Cs      11.76425880      12.30593772       5.37478906       0.00862502      -0.87851355       0.60079122
Sn       2.54349246       3.13154657       3.31518958       0.26409472      -0.25574866       0.01909713
Sn       8.33030493       2.37395544       2.45001654       0.42380728       0.89586567       0.90307093
Sn       3.26471132       8.97747688       2.82695589      -0.21367950       0.60600207      -0.08697528
Sn       9.04592733       8.31425054       2.52060104       0.16955217       0.64631569       0.63677432
Sn       3.02176067       3.21869882       9.28182417      -0.03327882      -0.26410680      -0.65653762
Sn       8.81209700       2.83907297       8.52996175      -0.44184922       0.30676115      -0.12193791
Sn       3.39046990       9.26608970       8.61769966       0.11593027      -0.01190755       0.85823578
Sn       9.05468387       8.99705339       8.48710732      -0.31410987      -0.33276863       0.36749832
Br       5.56442450       2.64288188       3.16299516       0.48170826       0.26054711      -0.09323720
Br      11.53098232       3.09451869       3.66086883       0.74129918       0.53818897      -0.86085650
Br       6.27178999       9.44906450       3.62510478       0.30467135      -2.13230070      -2.19233056
Br      12.25611228       8.87449576       3.03999031      -0.65058526       0.04616493      -0.58563816
Br       5.78190908       2.74046920       8.44202366       1.93497907       0.34357497       1.68579830
Br      11.71248571       2.52890988       9.00661124       0.25397640       0.23642219      -0.05139507
Br       6.17242566       9.49560966       9.77653815      -0.30897409      -0.19242136      -1.27958122
Br      11.83214534       8.96672155       8.66236827       0.23452317       0.11740454       0.14808063
Br       3.16451927       6.28211743       2.94849439       0.06652267      -1.25975596      -0.04432659
Br       8.99967486       5.83027865       3.64144617      -0.31267443      -0.45654950      -1.15234684
Br       3.27885084      12.04376949       2.41340885      -0.79036791      -0.33884106       0.91827309
Br       9.12686199      11.65582078       2.36534274       0.03487239      -0.07929102       0.12524846
Br       2.57716287       6.12238975       8.64594483       0.18544776       0.04041466       0.08120855
Br       8.49432625       5.87829692       9.08852887       0.18088096       0.18401103      -0.28927327
Br       3.30390869      12.26130191       9.05514169      -0.32134342      -0.85868469       0.22150491
Br       8.50711293      11.87367986       8.63916044       0.27075362       0.12522429      -0.16526074
Br       2.47363770       2.61326598       0.40484241       0.25485752       1.15929293      -0.11446783
Br       8.13609833       3.33060683      -0.30797433       1.19472453      -1.31614925      -0.39521121
Br       3.69638869       8.77405658      -0.25109611      -0.84958762      -0.15567721       0.34282601
Br       8.86632344       9.05590858      -0.23008275       0.38855359      -0.33228397       0.08646363
Br       3.83279841       2.72313043       6.49820416      -2.28285319       0.02483146      -2.04213777
Br       8.76279299       3.04914571       5.37569806      -0.38530783      -0.54399786       0.76825334
Br       2.47086039       8.79033858       5.65128638       0.62933586       0.25981512       0.47692498
Br       9.16424371       8.30902506       5.64592725      -0.25617803       0.96936657       0.45778260
40
Lattice="11.841087389565814 -5.299540211115622e-07 5.134422012396998e-08 -5.299543174639322e-07 11.84110017440169 5.370282133059492e-08 5.1344211613704544e-08 5.370297858733353e-08 11.841077618801604" Properties=species:S:1:pos:R:3:REF_forces:R:3 system=cssnbr3_cubic base_model=chgnet config_id=cssnbr3_cubic_c15 T=300.0 draw=2 energy_qe_eV=-39971.46883455015 offset_eV=-39837.13142525455 split=train REF_energy=-134.33740929560008 mock=0 pbc="T T T"
Cs       5.80754578       6.20084416      -0.28806239      -0.01482061       0.38410507       0.62828942
Cs      11.47499427       6.61472736       0.16457803       1.75492215      -2.47585330      -0.13210611
Cs       5.74929347      11.47230969       0.06942696      -0.25322281       0.02295609       0.12485971
Cs      12.16281432      12.01553806      -0.52574940      -0.17882897       0.07356389       0.12113727
Cs       5.73269267       6.08321610       5.96090296       0.08889229      -0.10785212      -0.18850274
Cs      12.23879401       5.63707693       6.54171021      -0.01653708       1.46637315      -1.16570192
Cs       6.17815666      11.66847354       5.72104910      -0.15760245      -0.17648952      -0.00600327
Cs      11.68135793      11.75837883       5.81112635       0.32191343      -0.05438500      -0.23672995
Sn       2.70252619       2.75898961       3.12045299      -0.03256019       0.41095150       0.26093715
Sn       8.67515655       2.92929589       3.21507964      -0.17033867       0.07575987      -0.48184093
Sn       3.07570989       8.82205021       3.07312880       0.21004987      -0.36295543      -0.00508898
Sn       9.16344487       8.91946206       2.62435636      -0.01755961       0.01456273       1.56385679
Sn       2.97799725       3.15285307       9.15959979      -0.28934475      -0.79633287      -0.46477318
Sn       8.77384921       3.22028643       9.31115149       0.08109054      -0.50411517      -0.14396764
Sn       2.53949783       8.70227414       8.81976732       0.73817452       0.88188119       0.95161902
Sn       8.76157192       9.04957126       9.04023600       0.11751818       0.17543125      -1.53656967
Br       5.90973565       3.41484296       2.93376468       0.31557797      -0.79311848       0.27619587
Br      11.58620371       2.39379913       3.01398405       0.81101361       0.02827494      -0.06864974
Br       6.10992411       8.90118066       3.15250809      -0.12743133      -0.01603417      -0.15878722
Br      12.19100927       8.92163508       2.17557341      -1.46938263       0.57084738       2.13479673
Br       5.80352680       3.69020979       9.54843117       0.82961734      -0.58767139      -0.60710302
Br      11.88894029       2.99004213       9.06739024      -0.28696545       0.02157387       0.19094298
Br       5.87052576       9.24812879       9.08923660       0.17197492      -0.17180497       0.05278732
Br      11.73851566       8.82521950       9.12775422      -0.30784255       0.33697624      -0.41946622
Br       3.89509573       5.64397943       2.70071557      -1.11243586       1.23095241       0.07835360
Br       9.40205685       5.65511129       2.96301282      -0.08931061       0.35273504      -0.08423628
Br       2.95611209      11.77516621       3.76740875       0.14606103      -0.08013409      -0.22848725
Br       8.66793602      11.72880745       2.74948369       0.12075572      -0.63201804       0.15551960
Br       3.32029645       5.90858443       8.94780463      -0.32827639       0.37294391       0.06479514
Br       9.96662521       6.05017760       8.19153126      -2.71157615      -0.05626808       1.84481845
Br       2.72027846      11.81962015       8.55475119       0.07799956      -0.03754890       0.13195518
Br       9.13042552      12.09580770       7.81978149      -0.31851674      -0.77955616       1.65773316
Br       2.93495058       2.74564923       0.05065056      -0.05515685      -0.10300019       0.28435373
Br       8.05942027       2.05379435       0.24702727       0.64752359       0.62995318      -1.16602331
Br       2.06423353       8.99600067      -0.05415451       1.98802684       0.08850277      -1.18036826
Br       9.33831458       8.42462693      -0.27759341      -2.13854796       1.39113393      -0.06678440
Br       2.39334502       3.68368038       6.00204633       1.85105775      -1.87474661      -0.77310475
Br       8.39737941       2.42807642       5.86471556      -0.07223000       1.04025754       0.09246330
Br       2.94071068       8.84360933       6.13924460       0.03918053      -0.23392051      -1.20293998
Br       9.55630226       8.58288344       5.52869989      -0.16286164       0.27406880      -0.29817958
40
Lattice="11.841087389565814 -5.299540211115622e-07 5.134422012396998e-08 -5.299543174639322e-07 11.84110017440169 5.370282133059492e-08 5.1344211613704544e-08 5.370297858733353e-08 11.841077618801604" Properties=species:S:1:pos:R:3:REF_forces:R:3 system=cssnbr3_cubic base_model=chgnet config_id=cssnbr3_cubic_c16 T=300.0 draw=3 energy_qe_eV=-39974.3275038967 offset_eV=-39837.13142525455 split=train REF_energy=-137.19607864214777 mock=0 pbc="T T T"
Cs       6.10949791       5.83416792      -0.61736164       0.21814730       0.78417695      -0.10403995
Cs      11.81300655       5.42936239      -0.39031101       0.49009957       0.09620862       0.67873087
Cs       6.34882749      12.52706576       0.53361155      -0.54325430      -0.13078893      -0.42840801
Cs      12.08704127      11.44541126       0.53754144      -0.14859536      -0.11311800      -0.27346819
Cs       6.11753428       5.94910088       6.19128642       0.02926121       0.44787280      -0.34897455
Cs      12.43894326       5.64418003       5.84514723      -0.36696867       0.34677291      -0.03269466
Cs       5.82348639      12.21591662       6.05332927      -0.00696460      -0.67447903       0.46504880
Cs      11.26976798      11.73308297       5.78605140       0.06034045      -0.05556205      -0.13882569
Sn       2.69306088       2.53643531       2.93419095       0.60330627       0.90690496       0.16637866
Sn       8.73837768       2.91931467       2.97536095      -0.31034629       0.03130961       0.13893753
Sn       2.42884322       8.56029653       2.47636745       0.38015586      -0.96977512       0.16210034
Sn       8.40548525       8.58802263       3.10237827       0.23652066       0.04766671      -0.02435992
Sn       2.72360212       3.28158794       8.91896801       0.17340625      -0.33730611       0.43254208
Sn       8.58707888       2.65772011       8.80778180       0.59113724       0.38663144      -0.14687144
Sn       2.78900926       9.38231358       8.32883236       1.22723793      -0.11100635       0.68254124
Sn       9.02243292       8.80434672       9.01249813      -0.53538544       0.16924775       0.23506105
Br       5.75745169       2.77360972       3.94995146      -0.01917812       0.39310805      -0.88566996
Br      11.61790748       2.86631654       2.76754926       0.34605300      -0.26660309      -0.04408876
Br       5.76092783       8.12828656       3.56184784      -0.09075686       0.22290127      -0.55290931
Br      11.59101530       8.26049256       3.42360152       0.18420000       0.31161925      -0.26530159
Br       5.82631206       3.41590908       8.10494609       0.13477234      -0.65359191       0.72359328
Br      11.58757363       3.29482309       8.68192048       0.30091651      -0.38988414       0.16602076
Br       6.00577908       9.72606696       9.15780280       0.35691437      -0.29930649      -0.18719971
Br      12.09440808       9.02585943       8.92838877      -0.70043072       0.07136842       0.01791930
Br       2.70378511       5.71186383       2.08571134      -0.59464037       1.56233932       1.52352338
Br       8.91588552       5.60916608       3.18675842      -0.04226071       0.16379778       0.09546763
Br       2.99099109      11.64194604       3.02284026      -0.06777814       0.17624989      -0.01869552
Br       8.74790360      11.52171404       2.56397975       0.28486357       0.08326595       0.43370782
Br       3.06182813       6.01961359       8.81703594      -0.04079852       0.68551755      -0.24485052
Br       9.71774250       6.11289251       9.18986282      -0.95076567       0.09882189      -0.72252215
Br       3.16508748      12.27261691       9.58590644      -0.19631658      -0.30963744      -0.17356798
Br       9.39761171      11.80290814       8.69883133      -0.17253645       0.31749216       0.20280527
Br       3.64438570       3.97014261       0.06333115      -0.14637856      -2.09762037      -0.91532095
Br       8.57944322       3.55734108       0.05341516       0.07368319      -0.48069113       0.14260855
Br       3.24618352       8.65249560      -0.38169418      -0.33115629       0.21585928       0.21662778
Br       8.97301720       8.76876048       0.08053420       0.04902374      -0.01356411      -0.32936011
Br       2.87204915       3.24383411       6.11713564      -0.07550661      -0.54348673      -0.76515773
Br       9.22032869       3.10614798       6.06049507      -0.17930951      -0.18908741      -0.17090097
Br       3.04164374       8.62960431       5.54879420      -0.29682949       0.10629660       0.18435658
Br       8.59287990       9.05171840       5.91442765       0.07611777       0.01007924       0.10521648
40
Lattice="11.841087389565814 -5.299540211115622e-07 5.134422012396998e-08 -5.299543174639322e-07 11.84110017440169 5.370282133059492e-08 5.1344211613704544e-08 5.370297858733353e-08 11.841077618801604" Properties=species:S:1:pos:R:3:REF_forces:R:3 system=cssnbr3_cubic base_model=chgnet config_id=cssnbr3_cubic_c17 T=300.0 draw=4 energy_qe_eV=-39971.171117928585 offset_eV=-39837.13142525455 split=train REF_energy=-134.0396926740359 mock=0 pbc="T T T"
Cs       5.98999563       6.64714947       0.06753772       0.03411160      -0.29388326       0.23605607
Cs      12.06134701       5.74446506      -0.18873481      -1.08111314       0.24556863       0.68605003
Cs       6.16357679      12.64664028      -0.31752646       0.05201187      -0.76675438       0.94733376
Cs      12.28399176      12.24678620      -0.82817338      -0.71568688      -0.84532601       2.10542856
Cs       5.90445948       5.90284509       5.85542990      -0.01189752       0.35611861      -0.03564706
Cs      11.96712148       6.35797083       5.71721082       0.21383248      -2.78928569       1.45087660
Cs       5.93515895      12.15577946       5.79803695      -0.09288033      -0.25311534      -0.02847908
Cs      12.32907571      12.03523585       5.30510739      -2.76722871      -2.80240372      -1.14140397
Sn       2.97603566       2.90878291       3.27289496      -0.65052510       0.28334020      -0.45408202
Sn       8.79505982       3.01717637       2.88525003       0.64143316      -0.11904336       0.71411619
Sn       3.05911249       8.98063320       2.53248151      -0.44461881      -0.11825480       1.59255184
Sn       8.73764807       8.72263763       2.71094480       0.86218602       0.65656642       0.58710858
Sn       2.87370215       2.64803653       9.24687255      -0.31645523       0.06958665      -0.31767959
Sn       8.83557534       3.14956488       8.87864323       0.19141349      -0.18168418      -0.12122520
Sn       2.80409208       8.36810306       8.73537673      -0.46310479       0.41619064      -0.26081759
Sn       8.69596410       8.92162065       8.90361180       0.27948971      -0.01801521      -0.37620047
Br       5.75810703       2.79838468       2.95950057       0.35908232      -0.12073540      -0.17284524
Br      11.83187421       3.14923573       2.98960663      -0.31271891      -0.05848360       0.25976395
Br       6.13073260       9.22459590       3.51519890      -0.63069906      -0.16189671      -0.22660932
Br      11.83677426       8.38346086       3.90596649       0.03757847       2.58338764      -3.00955210
Br       5.66401884       2.53123921       8.98628324       0.28028187       0.60678857      -0.73914074
Br      11.80112353       2.67870714       9.11106187      -0.72456541       1.18538474      -0.87096917
Br       5.82278326       8.55276488       9.08948149       0.23434448       0.07915732      -0.43617454
Br      11.78040319       7.58036580       8.68279837       1.16572043       1.36091936       0.54588788
Br       3.35118444       5.72832300       3.14249450       0.01633165       0.03620165       0.21084614
Br       9.41390718       5.93472459       2.45672462      -0.45499219      -0.40489655       0.10171850
Br       2.32736082      11.63603992       2.44778767       0.27979079       0.13433911      -0.16464136
Br       9.24879040      11.61417014       3.27939086      -0.21513294       0.31142616      -0.09878975
Br       2.76374236       5.48716923       9.88835056       1.14335106       0.42051241      -1.19695522
Br       9.36091552       5.89055210       8.91543320      -1.09173565      -0.81418712       0.20918778
Br       2.58101240      11.41132519       9.05167515       0.95664578      -0.44218938      -0.83234143
Br       9.17275373      11.77918570       9.83679283      -0.22633395       0.65137767      -1.20597260
Br       2.44483216       3.41980792       0.46969924       0.63491259      -0.98810657       0.10018998
Br       8.87074371       3.14167408       0.24348445      -0.11053970      -0.05816401      -1.11258936
Br       3.24234313       9.08756112      -0.10884288      -0.05188512      -0.20693987      -0.91344585
Br       8.52429919       9.47240168      -0.12541521      -0.23656360      -0.93090929       0.89795418
Br       2.19825204       2.03190789       6.26329728       2.89518506       2.96837357       1.56096764
Br       7.95201290       3.16873210       5.90393114       0.48025893      -0.01151366       0.57685785
Br       2.84552957       9.24352779       5.61108187       0.44644481      -0.18624840       0.74284647
Br       9.08235267       8.31724782       5.97064938      -0.60572954       0.20679717       0.18981915
40
Lattice="11.841087389565814 -5.299540211115622e-07 5.134422012396998e-08 -5.299543174639322e-07 11.84110017440169 5.370282133059492e-08 5.1344211613704544e-08 5.370297858733353e-08 11.841077618801604" Properties=species:S:1:pos:R:3:REF_forces:R:3 system=cssnbr3_cubic base_model=chgnet config_id=cssnbr3_cubic_c18 T=300.0 draw=5 energy_qe_eV=-39973.38027140657 offset_eV=-39837.13142525455 split=train REF_energy=-136.2488461520188 mock=0 pbc="T T T"
Cs       5.78956314       6.12250209       0.75711512       0.25641329       0.15508740      -0.36158992
Cs      12.16156284       6.27823986       0.31605977      -0.04195835      -0.03450292      -0.14391416
Cs       6.12632954      12.29898814       0.28191751       0.03219073      -1.23971215      -1.05925336
Cs      11.92168464      12.08105362       0.05956568      -0.29732391      -0.46991615      -0.20549336
Cs       5.47369695       5.45485001       5.75132162       0.28958875       0.79500978       0.38108197
Cs      12.05151963       6.05842586       6.03276319      -0.10918730       0.05160307      -0.09310890
Cs       6.01337878      11.21823058       5.61150312       0.13376653       1.49316790       1.50006180
Cs      12.05994265      12.33182029       6.32880760      -0.13356624      -0.39312810      -0.21375483
Sn       2.95302875       2.87259175       2.46744172      -0.79136293      -0.59982371       0.66813947
Sn       8.63427108       3.32045718       2.83708440       0.75269122      -0.26146859       0.27911099
Sn       3.05566789       8.84661066       2.84409303       0.37543583       0.83097926       0.87846188
Sn       9.20162153       9.24729010       2.68543658      -0.20783512      -0.89019459       1.08447897
Sn       2.53365752       2.59914300       8.47792433       0.79944622       0.11579606       0.59683146
Sn       8.30861837       2.81217723       8.85272971       0.13577430       0.25434432      -0.19244013
Sn       3.22572704       8.46525242       8.94798237       0.05470536       0.41563117      -0.97447612
Sn       9.14469686       8.56132994       8.70455896      -0.55581465       0.39884546       0.01934472
Br       5.74934516       2.66589898       2.32232433      -0.18584936       0.89037637       1.13846160
Br      11.75085083       2.11239717       2.89801594       0.17267940       1.09545887       0.14229925
Br       6.05429285       9.40127101       3.31696996      -0.07693949      -1.21614414      -1.97656512
Br      12.26322209       9.06972097       3.60341169      -0.74070757      -0.52112816      -0.22377082
Br       5.54082519       2.74231522       8.49128848      -0.18480215      -0.33535773       0.19148008
Br      11.37553667       3.14132408       8.84989858       0.24773967       0.05761791      -0.17941081
Br       6.33462510       8.66945794       8.43782468      -0.72444534       0.36827428       0.07138771
Br      12.05404761       9.51917174       9.18515503      -0.02573494      -0.64995097      -0.05917085
Br       3.09100293       5.72504098       3.07932908      -0.23839654       0.19131656      -0.20211339
Br       9.53500920       5.95359484       2.83158401      -0.14150992      -0.35192412       0.08871720
Br       2.62045638      11.64642843       3.44972163       0.46495727       0.57217124      -0.80169053
Br       9.42797856      11.77703536       3.09415746      -0.45998784       0.83219847      -0.16500440
Br       3.57092195       5.49065855       9.36225171      -0.51212107       0.09009403      -0.17581975
Br       8.06727555       5.90721370       8.92381375       0.45141475      -0.66197062       0.04801689
Br       3.02276870      11.45677353       9.19599104       0.15927161       0.69919813      -0.21385768
Br       8.62515040      11.64262370       9.00433964       0.09997400       0.22182218       0.04058538
Br       2.32497432       2.62949008      -0.35341438       0.36125516       0.34838859      -0.00011133
Br       8.04949638       3.38299576      -0.02725471       0.50160037       0.00829232      -0.12965816
Br       3.59114437       8.81778251      -0.31265803       0.01022451      -0.00689158       1.07172424
Br       8.98108458       8.59315758       0.04095333      -0.01699628      -0.01775270      -1.15799838
Br       3.33758566       3.05702111       5.60314957      -0.78277904      -0.49751412      -0.02657852
Br       8.09638867       3.46236756       5.90630074       0.57094328      -0.36522392      -0.34855597
Br       3.22692367       9.48805107       5.87830359      -0.31815833      -0.96411689       0.00429863
Br       8.62374818       9.04724342       5.50442984       0.67540412      -0.40895196       0.69985505
40
Lattice="11.841087389565814 -5.299540211115622e-07 5.134422012396998e-08 -5.299543174639322e-07 11.84110017440169 5.370282133059492e-08 5.1344211613704544e-08 5.370297858733353e-08 11.841077618801604" Properties=species:S:1:pos:R:3:REF_forces:R:3 system=cssnbr3_cubic base_model=chgnet config_id=cssnbr3_cubic_c19 T=300.0 draw=6 energy_qe_eV=-39969.73238226641 offset_eV=-39837.13142525455 split=train REF_energy=-132.6009570118622 mock=0 pbc="T T T"
Cs       5.46580299       6.13916277      -0.49769298       0.99307420      -3.13299487       1.30777440
Cs      11.87923169       5.34326594       0.80175220       0.34671738       0.38974273      -0.64443749
Cs       5.40014315      11.80218206      -0.53518303       0.06862274      -0.07463038       0.18447125
Cs      11.74589320      11.86013519       0.02116287       0.78615619       0.78448471       0.21685404
Cs       7.01606892       5.37380404       6.39373586      -1.85271354       1.65504250      -1.36268776
Cs      11.67603679       6.15277862       6.02237433       0.27984272      -0.21803263      -0.09644079
Cs       5.41081650      11.93531210       6.42426488       1.80513605      -0.91051967      -1.50957000
Cs      11.88657711      11.71367612       5.91819844       0.06870630       0.10468915      -0.03247638
Sn       2.87436604       3.06175300       3.20267285       0.41830923      -0.14504159      -0.30460553
Sn       8.60136327       3.37866452       3.17998970      -0.17742463      -0.09063550      -2.08129850
Sn       2.85254698       8.84923615       3.11933343       0.84681211      -0.29220227      -0.19350045
Sn       8.93446993       9.36098623       2.61591460      -0.53338666      -0.20998817       0.10242375
Sn       2.64152980       2.87946335       8.98437856       0.06328796      -0.19552314      -0.64751228
Sn       8.82890068       3.20997261       9.03009081      -0.61643535      -0.85023862       0.59344352
Sn       2.69296683       8.49113854       9.02350460       1.13126688       0.36868977       0.02200916
Sn       8.95260071       9.24675739       8.60800925      -0.32914903      -0.29837215       0.47230137
Br       5.85241049       3.42154629       3.67548195       0.08494102      -0.10329356      -0.28484532
Br      11.76496376       3.08976933       3.25240458       0.34411850      -0.27505405       0.22397600
Br       5.89366761       8.98817296       3.32343318       0.29270415       0.20069748      -0.26043501
Br      11.80044763       8.96680110       3.70630064       0.76060533       0.18991171      -0.69710269
Br       5.97105423       2.88732758       7.90898494       0.12907066      -0.16172136       1.40108667
Br      11.60843758       2.72541681       8.12901914       0.49907606       0.04831540       0.35995084
Br       5.94595424       8.28430725       9.66090404       1.04266718       2.61383027      -2.26919394
Br      11.92668014       9.21872859       9.17003472      -0.58128014       0.03856783      -0.28610876
Br       3.68924807       5.97822288       2.10486907      -0.94289552      -0.49665486       1.48192858
Br       9.43296985       6.20641178       2.62304427      -0.68672983       0.07499831       0.44484018
Br       3.06229959      11.87991158       2.05591801      -0.24052439       0.22334813       0.45311528
Br       8.51598754      12.15767841       2.29987391       0.16912022      -0.12574031       0.51063703
Br       2.92426671       5.65434078       8.99235830      -0.28317770      -0.12150314      -0.44778590
Br       9.04722110       6.11025767       8.44792999       1.08316205       0.51430291       1.34701740
Br       3.24007642      11.53051459       8.33881593      -1.44887294      -0.34646309       1.39101438
Br       8.67402581      11.92570771      10.22100171      -0.43443904       1.58166913      -2.52438416
Br       2.59468809       3.29745283      -0.21327224       0.06615937      -0.50544803       0.35019762
Br       8.23658675       2.85194580      -0.00069167       0.09232369       0.91815019      -0.47132358
Br       3.31895463       8.20597425      -0.01529573      -1.49146686       1.56373954      -0.50515338
Br       9.54308907       9.75630107      -0.19078068      -0.25864398      -2.90286417       1.21241604
Br       3.38156880       2.40743016       5.87075198      -1.25272605       0.57738981      -0.38658439
Br       8.96157616       3.13892219       5.65311540       1.02569995      -0.98427563       1.59302158
Br       3.42819115       8.03126552       5.75456302      -0.40012793       0.09181538       0.22995638
Br       9.36647619       8.61463993       5.60716650      -0.86758662       0.50181249       1.10701058
40
Lattice="11.841087389565814 -5.299540211115622e-07 5.134422012396998e-08 -5.299543174639322e-07 11.84110017440169 5.370282133059492e-08 5.1344211613704544e-08 5.370297858733353e-08 11.841077618801604" Properties=species:S:1:pos:R:3:REF_forces:R:3 system=cssnbr3_cubic base_model=chgnet config_id=cssnbr3_cubic_c20 T=300.0 draw=7 energy_qe_eV=-39972.2805253685 offset_eV=-39837.13142525455 split=train REF_energy=-135.14910011395114 mock=0 pbc="T T T"
Cs       5.89376611       5.98701303       0.30443688      -0.07110257      -0.18117587      -0.20796959
Cs      11.52076867       5.79066466       0.53214526       0.01942468      -0.06303471      -0.01793267
Cs       5.95318855      11.85936722      -0.28609166      -0.24028939       0.29592395      -0.21701859
Cs      11.88523353      11.35216713      -0.28681228      -0.27527979       1.70606193       0.53211500
Cs       5.43593133       6.50041517       6.06350782       0.34772062      -0.53257214       0.51927619
Cs      11.64860071       6.47401023       6.27327681       0.81851995      -1.37878081       0.55931007
Cs       5.87228273      12.22673532       5.61472423       0.05775829       0.07717835       0.27518826
Cs      12.23309167      12.08503460       5.80498094      -0.00949868       0.02337750      -0.21822675
Sn       2.99228602       2.97002246       2.42472257      -0.40135846       0.29589155      -0.06306608
Sn       9.04896353       2.63029158       3.01239497      -0.17547136       0.34729356      -0.32771152
Sn       2.66157801       8.78453177       2.98157903      -0.39565704      -0.17048419      -0.43587501
Sn       8.51344156       8.64583159       2.74753016       0.21493214       0.15564507       1.03472247
Sn       3.12598452       3.54479233       8.44330855      -0.04065660      -0.88027270       0.38874334
Sn       9.24365941       3.19686060       8.83962432       0.12354228       0.17712510      -0.00843630
Sn       3.32458268       9.16896123       8.84757741      -0.69224099       0.13659654       0.19124894
Sn       9.24128610       9.22838916       8.74809841       0.10030799      -0.51489709       0.24758901
Br       6.07623963       2.50485647       2.98490077       0.12318130       0.43129818      -0.28777484
Br      12.21439104       3.34312794       3.25661708       0.02231203      -0.24398329      -0.03161506
Br       5.52869183       7.95498536       3.17750356       1.43085876       1.44713410      -0.43203686
Br      11.58668876       8.40286443       3.34880979       0.67158629       0.75562074      -0.50281290
Br       6.07954842       3.16086003       8.32881428       0.02439617       0.05117447       0.26523603
Br      12.02039172       1.91208144       8.73036803       0.21813599       1.33104057      -0.17337694
Br       6.10887728       9.38501597       8.99990723       0.06154398      -0.16868391      -0.22673890
Br      11.86322647       8.71005827      10.28390508      -0.60789029      -1.18945943      -1.86830780
Br       3.50512109       5.80252805       3.17677274      -1.02718322      -0.87753011      -0.47162414
Br       9.71288437       5.84121461       3.79981517      -1.29530275      -0.65737786      -1.04960196
Br       2.15519396      11.76513481       2.18943467       0.54786480      -0.05654087       0.57129938
Br       8.22612228      11.73299847       2.07589907       0.53793263      -0.65187364       0.72137493
Br       2.62489218       6.19727175       8.80566084       0.17208882       0.10720755       0.11142210
Br       8.82570744       5.97003860       9.35675001       0.05117061       0.82991713      -0.06441436
Br       2.90184851      12.05548004       8.83665781       0.58549547      -0.84816811      -0.09899287
Br       9.25059924      12.39607645       8.94829161      -1.02429125      -2.11833395       0.01781569
Br       2.26242870       3.37938204      -0.49758524       0.34740566      -0.05020053       0.88869229
Br       9.19148728       2.71871892       0.12134879      -0.02000524       0.41484852      -0.57686865
Br       2.67040687       8.14100255       0.13021905       0.63147039       0.21190852       0.41045477
Br       8.77524850       8.55214947       0.17242955      -0.23787718      -0.19602193      -0.51305489
Br       3.32405105       3.39811764       5.72612697      -0.11147275      -0.30679406      -0.31031544
Br       8.99430137       2.66690448       5.74355523       0.04624798      -0.24761343       0.64973422
Br       2.43787802       8.25129396       6.04595490       0.66525623       1.13590386       0.03991278
Br       9.27320715       8.29297071       6.06667573      -1.19357551       1.40265196       0.67963718
40
Lattice="11.841087389565814 -5.299540211115622e-07 5.134422012396998e-08 -5.299543174639322e-07 11.84110017440169 5.370282133059492e-08 5.1344211613704544e-08 5.370297858733353e-08 11.841077618801604" Properties=species:S:1:pos:R:3:REF_forces:R:3 system=cssnbr3_cubic base_model=chgnet config_id=cssnbr3_cubic_c21 T=300.0 draw=8 energy_qe_eV=-39970.236101581075 offset_eV=-39837.13142525455 split=train REF_energy=-133.1046763265258 mock=0 pbc="T T T"
Cs       6.04432381       5.98772650       0.40808683       2.32547771      -2.43357562       0.17987463
Cs      11.87711506       4.99518111       0.30339801      -0.10820796       3.45945916      -1.27926909
Cs       5.49686473      11.66436955       0.51867143       0.09761630      -0.03626387      -0.11260429
Cs      12.21900366      11.56536528      -0.03010734      -0.91792162      -0.76457435       0.12572874
Cs       5.71357592       5.65487056       5.92975490       0.33594085       0.20291043      -0.33906577
Cs      11.57876747       5.74702610       7.00353942      -0.36534656       0.85727676      -1.08153017
Cs       5.91232927      11.89602193       6.15722883      -0.05452538       0.01610462      -0.02460649
Cs      11.04801603      12.05177324       5.99668458       1.72462427       0.69436780      -1.87576991
Sn       2.97826380       2.99331930       2.21690786      -0.16606652      -0.26477477       0.74656865
Sn       8.94641085       2.92096894       2.75042795      -0.66384907       0.42394509      -0.10928397
Sn       2.61334661       8.90850125       3.26341726      -0.00683862      -0.24108720       0.19269338
Sn       8.58999233       9.05637065       2.66986624       0.23818005      -0.59527106      -0.08668629
Sn       3.44857392       3.14738558       8.21916207      -0.83440037      -0.89353471      -0.06931154
Sn       9.38863318       3.41749554       8.80925650      -0.87668344       0.07656411       0.63243918
Sn       3.25583469       9.02188571       9.06250630      -0.19855344      -0.00143982       0.05058954
Sn       8.95913580       9.38631082       8.65479433      -0.12190757      -0.95583640       0.72173205
Br       5.87316483       3.14407651       3.39930986       0.14430162      -0.17905651      -0.72710746
Br      11.75968247       3.50857657       2.54975403       0.06949229      -2.42282584       3.24765271
Br       5.88141992       9.51754412       3.42147670      -0.11965760      -0.08545653      -0.18056343
Br      11.58341150       9.04362844       3.32373500       0.65472756      -0.14851180      -0.10526225
Br       6.06150287       3.29272257       8.45641041       0.63133464      -0.07854437       0.07588097
Br      12.09830531       3.90192368       9.49920752      -0.25615052      -1.48826095      -1.61294146
Br       6.06316084       8.82615895       8.94324448       0.73033188       0.36985190      -0.31911813
Br      12.38532703       8.69901075       9.62986474      -0.51930165      -0.04542728      -0.11279712
Br       2.57203713       6.09890277       2.58580363       0.05864198      -0.34282961       0.49551971
Br       8.74193327       6.07601405       2.10538552       0.57120862      -0.41896563       0.91348313
Br       2.33657609      11.90618425       2.95038252       0.21500670       0.10135417      -0.21323187
Br       9.19715490      11.88333961       3.03326715      -0.17557369       0.34042151      -0.29786899
Br       2.86022930       5.67736906       7.77747926       0.32607733       0.64817794       0.30684831
Br       8.74266310       6.19718497       9.23760414       0.24191278      -0.70580176      -0.31003185
Br       3.06109345      12.09566415       8.77656023       0.16018950      -1.26383322      -0.29578228
Br       9.70741276      11.97021675       8.55746023      -0.87383800       0.74783595       1.96290639
Br       2.48274644       1.91105991      -0.39379845       0.97348085       1.28804015       0.64256779
Br       7.93555446       2.67433784      -0.30266836       0.53695613       0.03065038      -0.10365634
Br       3.94848448       7.61591035      -0.03511026      -3.01603719       3.01890680      -1.18595656
Br       8.45971651       8.60199903      -0.07225036       0.03706014       0.88573655       0.17056416
Br       3.20247626       2.38750523       5.41051671      -0.25395454       0.31480819       0.58930122
Br       8.66096968       3.18942143       5.65431075       0.44615402       0.03811892       0.23953374
Br       3.51705127       8.40452276       6.11010338      -0.39987570       0.71110877      -0.60520015
Br       9.35474481       9.41050525       6.01193335      -0.59002575      -0.85976841      -0.24623918
40
Lattice="11.841087389565814 -5.299540211115622e-07 5.134422012396998e-08 -5.299543174639322e-07 11.84110017440169 5.370282133059492e-08 5.1344211613704544e-08 5.370297858733353e-08 11.841077618801604" Properties=species:S:1:pos:R:3:REF_forces:R:3 system=cssnbr3_cubic base_model=chgnet config_id=cssnbr3_cubic_c22 T=300.0 draw=9 energy_qe_eV=-39971.53401207312 offset_eV=-39837.13142525455 split=train REF_energy=-134.40258681857085 mock=0 pbc="T T T"
Cs       5.63276484       5.12322730       0.47648946       1.98453066       0.11074281      -2.22498845
Cs      12.74483343       6.27429636       0.13474574      -0.82699842      -1.24933631       0.18853411
Cs       6.29271147      11.89510113      -0.09699111      -0.58067825       0.11427936      -0.52041828
Cs      12.24165083      11.53123138      -0.71593376      -0.20744997      -0.09911217       0.17508904
Cs       5.44432837       6.17570672       6.36971073       0.17007590      -0.06059447      -0.07449309
Cs      11.40951844       5.77570793       5.70255520       0.10399958       0.11512294       0.14487601
Cs       6.00954046      12.40080094       6.19322732      -0.00504168      -0.31721937      -0.20249391
Cs      11.98383076      12.21788056       5.52109891      -0.01934498      -0.54617867       0.49010291
Sn       3.44250538       2.81745026       3.13468055       0.65039783       0.32482006      -1.58737749
Sn       9.43431012       3.03096564       3.07918930      -1.40819320       0.04423557      -0.65200117
Sn       2.82092358       9.00653277       2.98566630       0.18155022      -0.31916749      -0.34892235
Sn       8.53023039       8.87969034       3.45323138       0.23422338      -0.36673521      -0.31379517
Sn       2.74813271       2.64523169       8.97307491       0.47344191       0.36722501       0.08754452
Sn       8.66410284       2.92880549       8.87633910       0.21408753       0.49069710       0.13770571
Sn       2.65283181       8.70489522       9.07226435      -0.38570533      -0.35131168      -1.13444168
Sn       8.29506137       8.78754775       9.58938283       1.17006045      -0.88252448      -0.14011972
Br       6.34573522       3.78468398       3.26697686      -0.71664590      -1.40887017       0.23249869
Br      12.35188954       2.72775070       3.31786988      -0.39198113       0.38954887      -0.44715572
Br       5.81420075       9.56464944       2.94696223       0.20234865      -0.55865032       0.25421628
Br      11.76800718       8.72684458       2.49901760       1.29282909       0.54856234       1.53790253
Br       5.57185920       3.11920621       8.98447661       0.08956798      -0.06366463      -0.20791663
Br      11.67449794       3.25928593       8.41152012      -0.49951315      -0.54504070      -0.00097548
Br       5.65505347       9.25067957       8.75832757       0.19662743      -0.54666873       0.06770743
Br      11.41472348       8.52228371       8.80741138       0.51364162       0.45974256       0.30173927
Br       4.02428947       6.16688814       2.56871673      -1.95148298       1.06141052       1.88973511
Br       8.39858638       5.99743205       2.83331862       0.77874190       0.50480294       0.38306249
Br       3.50500929      11.96004555       2.07204768      -0.46133793       0.09747489       0.36185423
Br       8.15909323      11.82839041       2.39016027       1.27587832       0.60112340       0.98820556
Br       2.09665848       5.82048039       8.76032298       0.61211590       0.03579361      -0.24007470
Br       8.19861491       5.85140511       9.08777882      -0.11377903       0.36102016       0.07322656
Br       3.50928376      11.58981231       8.44232446      -0.91363405       0.82971556       0.33551919
Br       8.52732680      11.92026976       9.04139308       0.25916180      -0.21142001      -0.13680043
Br       3.26886343       3.12527853      -0.06810235      -0.98479062      -0.61305615      -0.42489074
Br       8.99507316       3.14039437       0.01698269       0.13171839      -0.15707975       0.14395992
Br       3.02111141       8.43706598      -0.19382542       0.86318798       0.96729503       0.34029862
Br       9.97889737       8.03016053       0.41968775      -1.94920010       0.48187127      -1.49072356
Br       3.16823670       2.97695388       5.67818956      -0.04030076      -0.06803396       1.58079958
Br       8.20140580       3.11181290       5.81833245       0.86892360      -0.03270829       0.55354617
Br       2.99265466       8.90477554       5.64764061      -0.17433236       0.03182949       0.42762948
Br       9.10201445       8.21793364       6.39152916      -0.63670104       0.46005906      -0.54816434
40
Lattice="11.841087389565814 -5.299540211115622e-07 5.134422012396998e-08 -5.299543174639322e-07 11.84110017440169 5.370282133059492e-08 5.1344211613704544e-08 5.370297858733353e-08 11.841077618801604" Properties=species:S:1:pos:R:3:REF_forces:R:3 system=cssnbr3_cubic base_model=chgnet config_id=cssnbr3_cubic_c23 T=300.0 draw=10 energy_qe_eV=-39970.30109393058 offset_eV=-39837.13142525455 split=train REF_energy=-133.16966867603333 mock=0 pbc="T T T"
Cs       5.62207392       5.50634962      -0.13923761       0.23217730       0.26412017       0.02596557
Cs      11.72135745       5.56851039       0.46965460       0.33636329       0.60307256      -0.55779080
Cs       5.84991358      11.95539127      -0.05236551       0.21073481       0.32644860       0.01185176
Cs      11.16014034      12.26538196       0.46843324       1.23118149      -0.65447354      -0.71141833
Cs       6.87190587       5.75233394       5.48942168      -4.40863922      -1.96223945       2.13903442
Cs      11.86905541       6.46283631       6.15365921       0.11557983      -0.05981594      -0.16214765
Cs       5.71594688      11.63809360       5.94323554       0.04780581       0.07791625       0.02598460
Cs      12.20307520      12.54639009       5.81937593      -0.96364741      -1.07603521      -0.72407510
Sn       2.56746994       2.84109789       2.85551316       0.26830336       0.17675769       0.32186304
Sn       8.63057359       2.40973505       3.35512260       0.20448163       0.83393962       0.10214299
Sn       2.90453755       8.70642857       2.77309185      -0.41899340       0.31028973       0.00439093
Sn       8.56305901       8.50139544       3.03247781       0.56432758      -0.25138781       0.21071990
Sn       3.15519886       3.39499559       8.85396082      -0.71210944      -0.48766654      -0.53540601
Sn       9.10509627       2.93596458       9.36103364       0.11078446      -0.68403171      -0.89673445
Sn       3.55642961       9.21591714       8.38554312      -0.54008079      -0.03339400       0.50300599
Sn       9.59362098       8.87950992       8.94768776      -0.92534697       0.10628966       0.00752125
Br       5.50729952       2.64926030       2.94937217       0.74757987      -0.10875021       0.06427706
Br      11.63035229       3.21990034       2.45207455      -0.09406818      -0.84170281       1.14467852
Br       5.71034065       8.88215624       3.37362897       0.32571969       0.02481423      -0.04892706
Br      11.86323256       9.41955066       3.19051718      -0.41896769      -0.52350154      -0.15104125
Br       5.86397030       2.77087499       8.80379455       0.15439654       0.02037394       0.09093118
Br      11.67061438       2.37443693       8.53325055       0.27372041       0.75464680       1.32128966
Br       6.39773093       8.80998245       8.79545648      -0.56030354       0.23677829       0.18819138
Br      12.15921371       8.77193928       9.44445837       0.50753808       0.10168970      -0.02937588
Br       3.04232553       5.78338110       3.22600868      -0.06556930       0.39411875      -0.18442703
Br       8.85417089       5.52945244       3.68172695       2.47438674       0.30768803      -3.51919694
Br       2.52357227      11.87194316       2.52819954       0.10814394       0.14771322       0.12836618
Br       8.91032968      11.49087227       2.53428285      -0.77843259      -0.10679977       0.58111457
Br       2.72735566       6.19437063       8.55173567       0.37053427       0.18450468       0.11868186
Br       8.83115702       5.37495305       8.38966815      -0.34680608       2.09575092       1.99206630
Br       2.58339235      12.15235920       8.17627270       0.94635468      -0.52918985       0.61917435
Br       9.25123748      11.86685439       8.17997906      -0.32569321      -0.80499980       0.19265867
Br       2.71022809       3.64166446      -0.09736096       0.13931600      -0.31299119       0.09238771
Br       9.04328014       2.83486237       0.43220898      -0.95698517       0.48304806       0.10372833
Br       3.71582848       9.54111891       0.07556081      -0.36272583      -0.76050738      -0.23471369
Br       9.44737518       7.77635407       0.06031587      -0.79523141       0.70379090      -0.13472041
Br       2.21732792       3.13327347       5.99116440       0.88523725       0.94325342      -0.40152687
Br       9.62002738       3.86317933       6.19871771       0.12866186      -2.35706422      -1.70526875
Br       2.29995403       9.29011613       5.84497902       0.51795207      -0.09771632       0.01563591
Br       8.19262771       8.16572861       6.01564932       1.77231952       2.55526208      -0.00889216
40
Lattice="11.841087389565814 -5.299540211115622e-07 5.134422012396998e-08 -5.299543174639322e-07 11.84110017440169 5.370282133059492e-08 5.1344211613704544e-08 5.370297858733353e-08 11.841077618801604" Properties=species:S:1:pos:R:3:REF_forces:R:3 system=cssnbr3_cubic base_model=chgnet config_id=cssnbr3_cubic_c24 T=300.0 draw=11 energy_qe_eV=-39968.62235386272 offset_eV=-39837.13142525455 split=train REF_energy=-131.49092860816745 mock=0 pbc="T T T"
Cs       6.05397047       6.54351938      -0.12287005       0.32382042      -0.81273368      -0.61604326
Cs      11.97113993       6.02886868       0.28943924       0.04380131      -0.23479031      -0.18310111
Cs       6.44208893      11.59302045      -0.39018599      -0.71022637       0.04413839       0.68709107
Cs      12.06385436      12.48562386      -0.05809717      -3.06552861      -2.00068696      -0.27206282
Cs       5.32006766       5.91997826       5.73966106       0.85346767       0.07716189       0.91524305
Cs      11.39989325       6.27270313       5.39679148       3.55297969       0.75391867       4.48537174
Cs       5.63037434      11.51641590       6.13188325       0.83093118       0.04384991       0.40551362
Cs      12.01257828      12.07399621       5.14404250       0.48872532      -0.75332423       1.64784676
Sn       3.77390155       3.25693894       3.12818105      -0.17048882      -1.28079170      -0.11837333
Sn       9.66210162       2.80210898       3.23451514      -1.34817517      -0.27516692       0.14067380
Sn       2.19589562       9.26623626       2.66504571       0.17221943      -0.57685245      -0.28693614
Sn       7.99286175       8.54961061       2.56512245       3.60355278       0.29399870       0.52032983
Sn       2.65281037       3.22176741       9.12830051       0.13654615       0.17024560       0.01522916
Sn       8.37839488       2.94304056       9.19282492       0.18515645       0.34305535      -0.45655490
Sn       3.06901676       9.11994259       8.46958139      -0.36184806      -0.32514968       1.32130945
Sn       8.85868078       8.93301156       8.59081573       0.63950175      -0.63480177       0.13147105
Br       6.43535477       1.92806677       2.52035618      -0.75488489       0.48090222       0.56486854
Br      12.35609595       2.62483123       3.25483620       0.46878204       0.95077595      -0.57071394
Br       5.57625337       8.57261740       2.39694769      -2.25832101       0.43786658       0.33598636
Br      11.37691113       8.69401074       2.32429074       1.29037703       0.53155475       0.63120685
Br       5.58009401       2.21334846       8.62876265       0.17271128       0.42483135       0.29078740
Br      11.60654371       3.78212850       9.50573605       0.25551546      -0.40534933      -0.26786036
Br       5.98644611       8.65782836       8.94669248      -0.36172542       0.53922975      -0.33724646
Br      11.66574397       8.01322052       9.20034564       0.38602517       0.42253484      -0.61244500
Br       3.01100560       6.11991628       3.61497481      -0.67938830       0.24930985      -1.08690712
Br       9.79696504       5.84772808       3.42788467      -3.85543758      -0.92910412      -4.28866949
Br       3.42443400      12.25083174       4.02565267      -0.56832333       0.13048091      -0.89916028
Br       9.54956671      11.73769250       3.38977857      -0.90976428      -0.07478362      -0.96272721
Br       3.69285323       6.09419818       9.20994019      -0.33370939      -0.67025137      -0.55355877
Br       8.47102028       5.87021398       8.41768177      -0.17643013       0.24745685       0.06443210
Br       2.95570094      11.95115189       9.92549345       0.13122473      -1.09712931      -1.15687661
Br       8.43995020      11.91955030       9.10740273       0.89078646      -0.27491032      -0.58944340
Br       2.38438867       2.27151189       0.19203544       2.99387762       2.93671455       1.18165819
Br       8.56915640       3.13994525       0.25793429       0.32491133       0.12541147      -0.29052694
Br       3.14437270       8.25950615      -0.29076586      -0.58317376       0.71883519       0.80728037
Br       9.43901047       8.84370054      -0.20972828      -1.17710888      -0.00688207       0.13727017
Br       3.00167148       3.43530613       6.24962830      -0.16128504      -0.14371541      -0.35054678
Br       8.79960213       2.40706223       6.17596350       0.23151524       0.20808298      -0.32627119
Br       2.86779752       8.90437237       5.62316806      -0.09483565       0.21953956       0.00570039
Br       9.05785470       8.84682525       5.67566357      -0.40577459       0.14652871      -0.06324502
40
Lattice="11.841087389565814 -5.299540211115622e-07 5.134422012396998e-08 -5.299543174639322e-07 11.84110017440169 5.370282133059492e-08 5.1344211613704544e-08 5.370297858733353e-08 11.841077618801604" Properties=species:S:1:pos:R:3:REF_forces:R:3 system=cssnbr3_cubic base_model=chgnet config_id=cssnbr3_cubic_c25 T=300.0 draw=12 energy_qe_eV=-39971.74247100179 offset_eV=-39837.13142525455 split=train REF_energy=-134.61104574723868 mock=0 pbc="T T T"
Cs       5.74035754       6.04026572      -0.41253737       0.64112514       0.27343194       0.69049444
Cs      11.61969665       6.20445020       0.19835447       0.13091235       0.00473057      -0.14691386
Cs       5.95799295      12.25491962      -0.12670907       0.14861902      -0.76650216       0.05740939
Cs      12.73534239      11.91759086       0.03230208      -0.80450769       0.00331775       0.31695634
Cs       5.40881078       5.96924392       5.88742764       0.88517168       0.37098499      -0.32539599
Cs      12.17884289       6.54942363       5.56650969      -0.00367411      -0.67355909       0.75227856
Cs       5.54976436      12.28487497       6.11828387      -0.04901063      -0.23543540       0.01694614
Cs      11.54800574      11.76303153       5.52135535      -0.51964797      -0.14546093       0.56826342
Sn       3.11452647       2.60270218       3.01912398      -0.20330201       0.13929671       0.14393498
Sn       9.03689696       3.68799643       2.78170060      -0.35597515      -1.11936524       0.19172279
Sn       2.96398772       8.47928209       2.91925936      -0.02463631       0.35781734      -0.42285828
Sn       8.72429840       9.68805514       2.74537429      -0.48729630       0.09083116       0.05769401
Sn       2.94546268       2.70755166       8.99781459      -0.00598887       0.65369964       0.30769394
Sn       8.76370517       2.49594420       8.56485684       0.26842188       0.36347814       0.89356891
Sn       3.10811393       8.65525110       8.70756150       0.15318761      -0.31327118       0.91796430
Sn       9.10807685       8.36252335       8.94049707       0.11820775       0.52535094      -0.72651636
Br       5.83050740       2.46041747       2.75285544      -0.17445295       0.80003192       0.06087524
Br      12.05521902       1.97530673       2.85662461      -1.37735410       1.47602764      -0.20524834
Br       5.81771447       8.63403946       2.83710186       0.31644495       0.21321644       0.15982286
Br      11.73343418       8.54879908       3.13262166       0.09759728       0.50076811      -0.86482063
Br       5.76559387       3.90520116       9.22923684       1.21489175      -2.18722358      -0.80144474
Br      11.52654252       3.25597716       9.88329152       0.69936783      -0.43000441      -0.31985243
Br       6.09935919       8.73465244       8.42675667      -0.12430512      -0.02457409       0.04330766
Br      11.98761923       9.09990428       9.75440636      -0.08897405      -0.39427841      -0.26381010
Br       2.88371383       5.70177517       3.25662374      -0.02514436      -0.11445729      -0.16990981
Br       8.69868999       6.35349827       3.06123695       0.07708424      -0.38254210      -0.20478245
Br       2.17242919      11.59617968       3.44960825       1.54899118      -0.60154789      -0.32913334
Br       8.03421884      12.43459460       3.63708416       1.14354287      -1.85489641      -0.58499282
Br       3.53361644       5.61578035       8.51599952      -1.69500464       1.69402891       0.43416162
Br       9.40274912       5.55560271       8.37822492      -0.16515893       0.27445961       0.08458981
Br       3.16890612      11.70421482       9.70006647       0.52015217      -0.33665073      -1.03894345
Br       9.29065257      11.43597475       8.56823696      -0.17483553       0.39598974      -0.18931213
Br       3.69541590       2.65021618       0.01326625      -0.97639494       0.69001621       0.14049150
Br       8.57918489       2.22017899      -0.31256726       0.38848263       0.62543036       0.37648715
Br       3.20224302       7.85561174       0.04863386      -0.74209571       0.59744724       0.39721050
Br       8.23601312       9.64726876      -0.15051341       0.32110122      -0.30778676       0.62655907
Br       3.37487485       3.44869072       6.08300133      -0.46755305      -1.15453408      -0.51263760
Br       8.06103094       2.89921252       5.78068832       0.32191394       0.76519578      -0.10024731
Br       2.94635140       9.18282842       6.09948949      -0.10588137       0.01642086      -0.53368234
Br       9.59561937       8.65511336       5.92337860      -0.42402222       0.21011749       0.50206934
40
Lattice="11.841087389565814 -5.299540211115622e-07 5.134422012396998e-08 -5.299543174639322e-07 11.84110017440169 5.370282133059492e-08 5.1344211613704544e-08 5.370297858733353e-08 11.841077618801604" Properties=species:S:1:pos:R:3:REF_forces:R:3 system=cssnbr3_cubic base_model=chgnet config_id=cssnbr3_cubic_c26 T=600.0 draw=0 energy_qe_eV=-39966.17378551367 offset_eV=-39837.13142525455 split=train REF_energy=-129.04236025911814 mock=0 pbc="T T T"
Cs       6.72100463       5.52508870       0.77777029      -0.41489583       0.42820618      -0.10578444
Cs      11.40306302       5.92987215      -0.29578580      -5.38420241       0.89401911       0.57011282
Cs       6.58746352      11.52600734      -0.42837636       0.02117818       0.12784733       0.23665076
Cs      12.02307490      11.32994969       0.10804113      -0.09779705       0.17741717      -0.13818034
Cs       5.89183224       4.99096474       5.83962000      -0.23661142       1.67458571       1.81569068
Cs      12.18295530       6.76907631       5.74546871       0.39393568      -0.83516707       0.01002679
Cs       5.17651582      10.96729209       6.13348045       0.41658787       1.56902547       0.74361523
Cs      12.08567971      11.98604907       5.57185970      -1.21247672       0.03614714       0.91021089
Sn       2.92080322       2.81447316       2.24146718      -0.85617710       0.14488861       0.40589620
Sn       9.02562262       3.70269238       3.19648200       0.15382190      -0.91664019      -0.06903386
Sn       2.87580180       8.49798585       3.03649677       0.04281144       1.89127983      -0.02322632
Sn       8.82038834       9.57166174       3.23307633       0.44452060       0.09939653      -0.33587992
Sn       3.58656704       3.17457715       8.38874427      -1.10709722      -0.29755685       0.19744941
Sn       9.39541088       3.14010425       8.93726083       0.14573990      -0.55259975       0.06633575
Sn       2.40392782       8.97188587       9.10312807      -0.17259353      -0.59110562      -0.19226067
Sn       7.91823842       8.80035254       9.10207747       1.51977882       0.03300525       0.02201584
Br       5.94109483       3.32260543       3.54631625       0.20898724      -1.28417707      -2.14935483
Br      11.75572929       2.61117646       2.34079826       1.02875648       0.46629167       0.17613137
Br       6.04581427       9.43215805       3.64978617      -0.22265085      -0.74068211      -1.04787726
Br      11.77559960       9.51113978       2.92383748       0.57085818      -0.48575621      -0.02638415
Br       6.17965201       2.66937099       9.29801945      -0.07948565       0.05474701      -0.18536111
Br      12.10185730       1.99990112       8.77590932      -1.11079241       0.88787366       0.21965423
Br       5.30824073       8.42342642       8.75573935      -0.19731957       0.00872607       0.09805982
Br      11.32257901       7.94930386       8.96477355      -0.06610178       1.08082286      -0.17453188
Br       3.13557977       5.98861847       2.75582561       0.15534220      -1.49189315       0.28813608
Br       9.36971670       6.39326379       3.34760460      -0.17643218      -0.43444676      -0.21289120
Br       2.42301818      11.90033377       3.51345781       1.36040694       0.25287288      -1.62180457
Br       9.08023381      12.46035392       2.53125267      -0.33739224      -0.67586897       0.35130268
Br       2.00639188       5.87751525       8.93272362       0.80345508       0.80657537      -3.57354620
Br       8.01375994       6.08073192       9.46131715       0.11332831      -0.27212530      -0.36824034
Br       2.60556588      11.86632156       8.50925571       0.64837385      -0.64934085       0.31498739
Br       8.46849041      11.59237039       7.58492327      -0.11714023       0.10233968       0.58430608
Br       2.00137568       5.22515992      -0.41659780       6.03292285      -3.40673071       3.15582961
Br       8.82478624       2.92472325       0.13808165       0.07289360       0.25765642      -0.29131293
Br       3.63132628       9.12502206       0.27497515      -0.20267441       0.12991064      -0.33343531
Br       9.35693858       8.37051514       0.47867935      -0.89241808       0.86524255      -0.57065532
Br       3.15479768       2.36964749       5.72067483       0.27220706       0.72511177       0.44426014
Br       9.04431613       3.80774480       6.26196046       0.34936690      -0.07290517      -0.24860382
Br       3.30522158       8.53244595       5.97223011      -0.91702919      -0.73255151       0.18480267
Br       9.83851457       8.76004614       5.65847754      -0.95398443       0.72555786       0.87288952
40
Lattice="11.841087389565814 -5.299540211115622e-07 5.134422012396998e-08 -5.299543174639322e-07 11.84110017440169 5.370282133059492e-08 5.1344211613704544e-08 5.370297858733353e-08 11.841077618801604" Properties=species:S:1:pos:R:3:REF_forces:R:3 system=cssnbr3_cubic base_model=chgnet config_id=cssnbr3_cubic_c27 T=600.0 draw=1 energy_qe_eV=-39963.26651241777 offset_eV=-39837.13142525455 split=train REF_energy=-126.13508716322394 mock=0 pbc="T T T"
Cs       7.45216915       5.78996918       0.16284492      -0.79376074      -1.26223245       6.71207692
Cs      12.58353043       5.98168891      -0.65067403      -1.89109137       0.52217125       2.11698387
Cs       5.75034501      12.58151698       0.02654920       0.17497411      -0.92115042       0.60670836
Cs      11.41351537      12.09821263      -0.07815609       0.47129298      -0.45323201       0.11664118
Cs       5.45496673       6.15078108       6.37597089      -0.05412712       0.10035144      -0.11279172
Cs      11.20632988       5.89822440       5.69703379       2.30157236       0.53719910       2.02293163
Cs       6.81110156      12.66659543       5.77761411      -6.15091000      -3.00819995       2.86967380
Cs      12.14239092      12.15226749       5.84818879      -0.37701294       1.16950715       0.07761389
Sn       3.04728703       2.56210300       2.47967001      -0.38847955       0.02992584       0.70127661
Sn       9.32123465       2.81756431       2.91050072      -1.74795934       0.10203551      -0.27790643
Sn       2.95452005       7.96011625       3.05439788      -0.61308006       5.81090063       1.54357207
Sn       8.98609051       8.52609482       3.46448002      -0.93362335       0.40094580       0.68289066
Sn       3.23525375       2.67725106       8.53627233      -0.18935969       1.55585834      -0.39472604
Sn       9.33447400       2.68679490       8.63232486       0.76786484      -0.25419057       0.49346540
Sn       2.98956958       8.98284033       8.92552066      -0.09498066      -0.22242356      -0.23964250
Sn       8.35458534       8.54904454       9.65296001       0.35208327       1.00334396      -3.79297906
Br       5.66574137       3.48592941       3.22454943       0.00440533      -0.42047075      -0.06219499
Br      11.80823051       2.72491177       2.85824122       0.93482380       0.22599328       0.15109216
Br       5.89213679       8.76003611       2.91751502       0.52498481      -0.42016402       0.18715806
Br      12.01609504       8.28745796       2.72163978      -0.61691692      -0.29110184      -0.18876294
Br       5.86776083       2.80797196       9.52102428       0.70093620       0.39803351      -0.79043450
Br      12.08515697       3.24478052       9.32552333      -0.64972497      -0.14004336      -0.89013263
Br       5.80386712       9.48261934       8.18321137      -0.96047055       0.02800651       0.55388684
Br      11.50268769       8.59256845       8.53532816      -0.28650600      -0.30417333       0.68023805
Br       3.39096194       5.85971973       2.34820668       0.65634890      -5.25097453      -1.71777459
Br       8.96186553       5.75301772       4.02634597      -2.32224043      -0.15902273      -1.88543263
Br       1.58834519      11.68925357       3.01369476       1.13409818       0.30308138      -1.07667799
Br       7.39004949      11.94338390       3.22139251       1.40598411      -0.62110216      -3.26184468
Br       2.69726783       5.81062732       9.23608608       2.31964567       0.10622127      -2.30364595
Br       7.50537493       6.04373490       9.48315344       0.14055681       0.07477462      -6.23056406
Br       2.76821885      12.02823190       8.87401359      -0.20658531      -1.72069356      -0.29682975
Br      10.34353210      11.98901233       8.47431522      -1.06121023       0.21567185       0.72179350
Br       2.83855896       2.35084932      -0.60216168      -0.20869413       0.47156217       1.48379109
Br       9.88802944       3.20511752       0.02711013      -0.79191854       0.18731952       0.02795792
Br       3.82491821       8.45270143      -0.22185742      -0.19729926       0.36270192      -0.02923550
Br       8.83584995       8.73051728       0.17188637       0.70595885       0.50181737       2.86661882
Br       1.99473570       3.91260534       5.46630015       0.75824763      -0.50468030      -0.20376224
Br       8.91314522       2.24254229       5.84678532       5.18002108       3.75411838       0.14957830
Br       1.77289737       9.59104294       5.89370000       1.21437933      -1.65091922       0.24913604
Br       8.20365235       8.87318190       6.30077677       0.78777341      -0.25676579      -1.25974799
40
Lattice="11.841087389565814 -5.299540211115622e-07 5.134422012396998e-08 -5.299543174639322e-07 11.84110017440169 5.370282133059492e-08 5.1344211613704544e-08 5.370297858733353e-08 11.841077618801604" Properties=species:S:1:pos:R:3:REF_forces:R:3 system=cssnbr3_cubic base_model=chgnet config_id=cssnbr3_cubic_c28 T=600.0 draw=2 energy_qe_eV=-39959.11913288411 offset_eV=-39837.13142525455 split=train REF_energy=-121.98770762955974 mock=0 pbc="T T T"
Cs       4.95267447       6.03126898      -0.73494191      -0.41335857      -3.69033985       1.31844782
Cs      11.10389689       5.70620782       0.14202997       1.08703799       0.66341455      -1.85085206
Cs       6.23449203      11.36631477      -0.73507183      -2.01522680       0.26510156       4.88072616
Cs      12.11186030      11.85325316      -0.62130996      -2.36390001      -0.12097195       1.59810979
Cs       6.44216408       7.01922938       5.93584441       0.94280476      -1.70445448       1.33397085
Cs      12.07148835       5.86628513       6.64413757       0.78111708      -1.05248391      -2.49869035
Cs       6.55965757      11.69777935       6.13013978      -2.57558639      -0.14580932      -1.73389258
Cs      11.89266609      12.37840776       5.20366088       0.03439982      -0.11142467      -0.06237188
Sn       3.19611740       3.29507440       2.96113264      -0.69129148       0.33536647      -0.64519417
Sn       8.81893367       2.79714530       3.03856701      -0.37586469       1.08852537      -0.11519468
Sn       2.87677439       9.41652740       3.24861461      -1.75609791      -0.58247391      -0.22864460
Sn       8.52222536       8.93634272       3.32817928       0.91257939      -0.63100502      -0.97561692
Sn       3.55229722       2.92647527       8.61997288      -0.52158839       0.40094245       0.57052753
Sn       9.29411130       2.69791362       9.09859268      -0.05867695       0.54228577      -0.12734648
Sn       2.91839634       8.92474680       9.57239194      -0.21477505      -0.12878630      -3.72403981
Sn       8.94307205       8.80611529       9.04815756       0.08404936      -0.09147394       0.29108282
Br       5.93437743       3.17631191       3.35904275      -0.26177198       0.06797817      -1.84487733
Br      11.99247327       3.83366767       2.35169462      -0.00919092      -1.31227923       1.37630149
Br       5.25284756       8.69926703       3.89281061       3.43807966       1.32340927      -3.06105207
Br      11.49602352       8.79675661       1.78411874       1.25520099       0.12349291       1.94230774
Br       6.24134445       3.28684332       8.30061595      -0.16089089       0.47365634       1.91019261
Br      12.22897710       3.01849165       9.52305230      -1.19766947      -0.05857847      -0.88348530
Br       5.70256607       8.47583098      10.12688934       1.48389445       2.00485934      -1.93307337
Br      11.55195737       8.70586126       9.48000208       0.38765551       0.10915336       0.49870788
Br       2.87475084       6.09810932       2.79141691       0.27046463      -0.23190991      -0.03694264
Br       8.94318469       5.66928341       2.11844095      -1.68373344      -0.29244987       1.56599003
Br       2.51097782      12.10686110       2.51169529       0.10843396      -0.30676552       0.50714573
Br       8.28613885      11.56009476       3.78257354       1.28650752       0.07875520      -1.49869372
Br       2.66356863       6.17606722       8.12035552       2.03018317      -0.96374537       1.84719904
Br       9.77209519       5.47543186       8.27067813      -2.38485862      -0.48362888       1.68785029
Br       2.64040421      11.54877602       9.70134900       2.13276890       0.45926844      -1.56101854
Br       7.31338514      11.75801341       8.75502656       3.53049282       0.32902356      -1.07294783
Br       2.44038439       2.29025626      -0.15110642       1.51438670       1.16851265       0.95985143
Br       8.22901572       2.41535189      -0.05649977       0.38154451       0.16426238      -0.17852815
Br       2.93840182       8.38898976       0.04502469      -0.82086377      -0.15059594       3.62093420
Br       9.27387332       9.24541417       0.19916313      -1.98631192       0.26456909      -1.41987475
Br       4.03972762       3.17535219       6.03081813      -1.09092730      -0.21400886      -0.75036232
Br       7.46196882       2.94981987       5.76652735       2.80463723       0.08005387      -0.27761178
Br       3.52750558       8.27672210       5.92012660      -2.45072437       0.70272492       1.50500501
Br      10.79754719       8.54951070       6.33927026      -1.43292978       1.62782995      -0.93403936
40
Lattice="11.841087389565814 -5.299540211115622e-07 5.134422012396998e-08 -5.299543174639322e-07 11.84110017440169 5.370282133059492e-08 5.1344211613704544e-08 5.370297858733353e-08 11.841077618801604" Properties=species:S:1:pos:R:3:REF_forces:R:3 system=cssnbr3_cubic base_model=chgnet config_id=cssnbr3_cubic_c29 T=600.0 draw=3 energy_qe_eV=-39965.61503580107 offset_eV=-39837.13142525455 split=train REF_energy=-128.48361054652196 mock=0 pbc="T T T"
Cs       5.69789337       5.98801788      -0.08695160       0.76284708       0.81219940      -0.06310567
Cs      10.83745557       6.51710758       0.07210215       2.92591951       0.48928016       0.08557017
Cs       6.59520610      13.00819659      -0.33867580       0.03562315      -1.54086341       1.59689572
Cs      12.50265997      11.54552078       0.18783333      -0.17842762       0.01169826       0.01359676
Cs       5.96162668       5.50280522       5.84867086       4.61671655      -1.26801769       0.82097792
Cs      11.51282624       5.37522160       6.42141471       2.29555752       1.42842778      -0.28579303
Cs       5.34351933      11.71927900       5.88196816       3.27073350      -0.11800078      -2.51444016
Cs      12.03389449      11.54982007       6.08207967      -0.31394481       0.08614970       0.16205586
Sn       2.37984324       2.98366641       3.17286945       0.83471250       0.34575887       0.14317111
Sn       8.40812705       3.10421196       3.29236701       0.94449063       0.31103072      -0.08411210
Sn       3.28196429       8.88450549       2.28220379      -0.19128133      -0.92059017       0.80492241
Sn       9.07004785       9.15913952       3.01881951      -0.00561323      -1.26028329       0.40404758
Sn       2.71296299       3.00828621       8.94991793       1.09294690       0.26353653       0.16030417
Sn       8.96025272       3.13761922       9.19654174       0.11779329       0.40083267      -0.19509094
Sn       2.40086096       8.55123258       8.39319879       1.10635469      -0.20678534      -0.00538312
Sn       8.45639161       9.02029431       8.91667462       0.65664201      -0.11378700      -0.55756146
Br       5.79293879       2.94957455       3.34261123      -0.39042073      -0.00101790      -0.15365761
Br      11.62283955       3.24432646       3.18407541      -0.14232830      -0.28612316       0.20148141
Br       6.16224442       8.76595295       2.74095179      -0.59186152      -0.04614307      -0.13940264
Br      12.23786793       9.11360791       3.46027108       0.03548431       0.12248813      -0.36735871
Br       6.20339439       3.01150714       9.33236822      -0.31427905       1.56680250      -1.65175200
Br      11.94697193       2.62823770       8.71193536      -0.41544605      -0.30701209       0.27006816
Br       5.98583024       8.54889220       8.30140987      -0.68934361      -0.27774316       0.17049036
Br      11.70076435       8.55620531       9.01661880      -0.08216269       0.24341302      -0.09773303
Br       2.62648811       5.92327814       2.44831757      -0.15045350       0.75776735      -0.69858236
Br       9.14867685       6.20140868       2.64601485      -0.73878670       0.00662830       1.08284529
Br       2.95314236      11.93839465       4.26388603      -1.42413456      -0.00777990      -1.71235059
Br       8.33608530      11.79802549       2.77405256       0.07033021       1.08290237       0.09176730
Br       3.01451052       5.81655339       8.15184038      -0.56302171      -0.28081743       2.43940329
Br       9.32156850       5.93779449       9.24840592      -0.61174386      -0.08710538      -0.50813689
Br       4.34151468      11.67063125       8.36188380      -2.14401876       0.19406944       3.79324877
Br       8.93406316      11.90309590       8.54091256      -0.04597955      -0.03773068       0.07192584
Br       3.69281173       3.71350732       0.12499413      -0.99244942      -1.50253726      -0.30500508
Br       9.60054698       3.93750100       0.49531279      -1.36652462      -2.64796732      -0.44297151
Br       3.04147739       8.67445511      -0.57162794      -0.09107902       0.17465504      -0.08478650
Br       8.88878545       8.72874824      -0.15131603      -1.14332072       1.50113215       0.08418229
Br       2.60850832       3.19934114       6.08603104      -0.02734471      -0.67203777      -0.23716293
Br       8.95760507       4.19717169       6.35771240      -1.94456929      -2.02626300      -0.26016504
Br       3.55323088       6.28309109       5.47399651      -4.54692524       3.15338347      -2.14506211
Br       8.55375259       8.04913065       5.63813598       0.33930848       0.65645046       0.11265854
40
Lattice="11.841087389565814 -5.299540211115622e-07 5.134422012396998e-08 -5.299543174639322e-07 11.84110017440169 5.370282133059492e-08 5.1344211613704544e-08 5.370297858733353e-08 11.841077618801604" Properties=species:S:1:pos:R:3:REF_forces:R:3 system=cssnbr3_cubic base_model=chgnet config_id=cssnbr3_cubic_c31 T=600.0 draw=5 energy_qe_eV=-39968.11915768691 offset_eV=-39837.13142525455 split=train REF_energy=-130.98773243236064 mock=0 pbc="T T T"
Cs       6.09395089       5.61974744       0.22282664      -0.05696125       0.50593988      -0.63188537
Cs      12.56621296       6.14023243      -0.01143258       0.02514899      -0.06616863      -0.17919303
Cs       6.69072504      11.75874708      -0.18867892      -2.10980046       1.56730129       0.17573413
Cs      11.84932775      12.25599319       0.15108680       0.32039262       0.14767877       0.11566056
Cs       5.81887503       5.59826192       5.94417207       0.08312377       0.27962367      -0.06587655
Cs      12.39891856       5.88244829       5.28641665      -0.18742236      -0.65717860       0.65457098
Cs       5.49456662      12.45939090       5.80842724      -0.11317225      -0.78078849      -0.42678950
Cs      10.80688985      11.89529456       5.85766927       0.13684311      -0.28814405       0.14079232
Sn       2.50830136       2.63529338       3.23415848       1.10710648      -0.89621097      -3.44061914
Sn       8.85643979       2.62304170       3.45736960      -1.21034347       0.48478690      -0.18385753
Sn       3.12576841       8.60778700       3.18696343      -0.31577183       0.10861420      -0.96272387
Sn       8.85912343       8.56234006       2.98628878       1.02890175       0.02889817      -0.00210985
Sn       3.15874658       3.21272004       8.63318506      -0.74209133       0.99632639       0.70546751
Sn       9.31708247       2.40869045       9.50503698      -0.08510249       0.39430078      -0.82368838
Sn       2.68006963       9.71994183       8.80690576      -0.24391259      -2.36289574       0.29244782
Sn       8.63738940       8.34523120       8.82693038      -0.24056115      -0.40774919      -0.60426941
Br       5.52681124       2.55227574       2.97730202       0.21521805      -0.23642785       0.15906670
Br      11.54734400       2.66703821       3.47621008      -0.07381174       0.10159534      -0.05359336
Br       6.33968299       8.61662574       2.75451181      -1.38758992       0.15286160       0.27017821
Br      11.97114435       8.67328760       4.12506499       0.13281573       0.82297927      -0.80530988
Br       5.72211094       2.69628150       8.22724438       0.04973773       0.32271613       1.17823939
Br      12.16609892       2.92992381       8.11493095      -1.05349101      -0.32177896       0.41465081
Br       5.51861466       8.49216575       8.68954174       0.96350934       0.15316010       0.02693205
Br      11.43892701      10.06887554       9.47762747       2.71859732      -2.02663761      -0.66486594
Br       4.06359864       5.83629019       2.55155959      -1.00931894       0.67438802       1.57026089
Br       8.83539691       5.57223831       3.80673075      -0.00269374      -0.03071980      -0.67209151
Br       2.34860650      11.58511844       2.53735125       0.23901643       0.13479368       0.24848067
Br       9.10229802      11.64736432       2.11143188       0.24116382       0.59405647       1.23015176
Br       2.58180791       6.42566973       8.34334182      -0.08384753      -0.43027514      -0.05844992
Br       9.44628648       5.71402813       7.08557856      -0.08825749       0.42679695       1.65825252
Br       2.90646347      12.25854770       9.16374993       0.24899694       0.91608997       0.31624800
Br       9.22594741      11.49515536       9.67695856      -1.85507124       2.66844384      -0.73625802
Br       3.25394500       3.60271947       0.44694213      -0.61197346      -0.56855447      -1.21884559
Br       8.63766171       3.68542220       0.45877610       0.82732443      -0.79022701      -0.35206913
Br       3.24375165       8.36488517      -0.21580180      -0.13303993       0.60360863      -0.12313553
Br       8.35343735       9.44052621       0.06759619       1.17271769      -2.97153345      -0.19840355
Br       2.74489682       3.32337468       5.55377541       0.70756245       0.38241354       3.02911485
Br       8.06567706       2.77102787       6.41491858       1.31629709      -0.77444970      -0.74217335
Br       3.30159627       9.54778274       5.64140760       0.25880030       0.17557806       0.86918688
Br       8.64275720       8.72758147       6.05087081      -0.18904036       0.96678827      -0.10922766
40
Lattice="11.841087389565814 -5.299540211115622e-07 5.134422012396998e-08 -5.299543174639322e-07 11.84110017440169 5.370282133059492e-08 5.1344211613704544e-08 5.370297858733353e-08 11.841077618801604" Properties=species:S:1:pos:R:3:REF_forces:R:3 system=cssnbr3_cubic base_model=chgnet config_id=cssnbr3_cubic_c32 T=600.0 draw=6 energy_qe_eV=-39965.741809012565 offset_eV=-39837.13142525455 split=train REF_energy=-128.61038375801581 mock=0 pbc="T T T"
Cs       5.78034179       5.42775711       0.06005502       0.74622233       1.28840345       0.86786199
Cs      11.63147998       6.28704606       0.70761336       1.36972950       0.19245967      -2.39284986
Cs       5.15464149      11.10316700      -0.32605633       2.85619608       3.69708257       0.07032507
Cs      11.81416901      11.31516614      -0.67191584      -2.62040766      -0.04262992       2.56976156
Cs       5.86715300       5.60996742       5.66115751       0.01713023      -0.39112187       0.53964396
Cs      11.54819542       6.02450432       6.58516725      -0.14682670       1.87682792      -1.64252252
Cs       6.51930116      12.18414826       6.28410278      -0.59265265       0.70026694      -0.73825371
Cs      12.38307599      12.35875303       6.04988314      -0.36209591      -0.51478139       0.20142434
Sn       2.84189638       2.60794207       2.79522067      -0.58235075       0.71151166       0.50125045
Sn       8.60794200       2.63535260       2.54096428       0.34773887       0.04489660       1.45505027
Sn       3.21623169       8.81779157       3.05236991       0.08306360      -0.46365372      -0.24630911
Sn       9.37513989       8.69329985       2.68355380      -0.58249859       0.14175906       0.22453572
Sn       3.00642395       3.45051193       8.96698458      -0.09525320       0.40888459       0.14926822
Sn       8.88582097       2.71342691       9.05564884       0.04617907       1.73669894      -0.51111037
Sn       3.40375345       9.40341218       8.61083465       0.56871876      -0.60990938       0.58758346
Sn       9.59916347       8.91703371       8.43890246      -3.93450440      -0.45894166      -0.63284362
Br       5.74677478       1.56198983       3.02742980      -0.03174438       0.47424255       0.00962030
Br      11.79696755       2.44950781       3.48347626      -0.14535577      -0.15479918      -0.94115206
Br       6.19185176       7.90812314       3.48157512      -0.04998867       0.47297500      -0.74634163
Br      12.25987381       9.04508307       3.01306270      -0.66321709       0.14712804      -0.07045645
Br       5.96892562       3.71473688       9.26921322      -0.65194794      -0.99378691      -1.31645984
Br      11.74924560       3.69062850       8.12702648      -0.30823567      -2.38569268       2.51719433
Br       6.48991254       9.29503542       7.73696832      -1.33497075      -0.79560936       0.83319786
Br      11.91693978       9.06612899       9.06431190       3.24617226      -0.45153919      -0.05659435
Br       1.46253113       5.69203647       3.17834790       1.51664619       0.07064003       0.77433323
Br       9.71697774       5.45118345       2.66955064      -1.69507406       0.13492532       1.27903872
Br       2.58276230      11.66930163       3.12616972       0.20826244      -0.20370927      -0.22340778
Br       8.84974899      11.80227697       2.16074606       0.32741122      -0.93248667      -0.31023214
Br       3.11497593       6.18709050      10.12063823      -0.52271453       0.51446309      -1.92572027
Br       8.50443814       5.71797337       9.42638953       0.67378895      -0.16552248      -0.45244782
Br       2.24061061      12.11561627       9.81431135       2.61740770       0.82029092      -1.88086506
Br       8.55523598      11.65743491       8.68555532       1.05110040       0.02993227       0.86708166
Br       3.11212397       3.76137847      -0.00279281      -0.85797198      -1.55133037       0.80156789
Br       7.79073616       2.84106403       0.08752302       0.29989553      -0.37378852      -0.94019560
Br       3.65929881       8.90003700      -0.16240833      -2.31448830      -2.91035482       0.87283682
Br       9.08098174       8.15599534      -0.24411858      -0.21249988       0.93960991       0.03726763
Br       2.02237218       3.39762072       5.90199950       1.70194688       0.17795299      -0.15989511
Br       8.97672549       3.81772804       5.82704773      -0.53467119      -0.59360036       0.54572359
Br       3.42710950       9.27718426       5.95026404      -0.40945024      -0.01763365      -0.45708224
Br       8.80171315      10.01123355       5.36988339       0.97131032      -0.57005985      -0.05982803
40
Lattice="11.841087389565814 -5.299540211115622e-07 5.134422012396998e-08 -5.299543174639322e-07 11.84110017440169 5.370282133059492e-08 5.1344211613704544e-08 5.370297858733353e-08 11.841077618801604" Properties=species:S:1:pos:R:3:REF_forces:R:3 system=cssnbr3_cubic base_model=chgnet config_id=cssnbr3_cubic_c33 T=600.0 draw=7 energy_qe_eV=-39960.58049998213 offset_eV=-39837.13142525455 split=train REF_energy=-123.44907472757768 mock=0 pbc="T T T"
Cs       6.17236914       6.00380882      -0.35354861      -0.90018050      -3.44572715       6.27382621
Cs      12.35680765       6.15431752      -0.02857943       0.94545557       2.57159810       3.83587252
Cs       6.39557795      10.91327721       0.25764031       0.40889256       0.86204230       0.14366707
Cs      11.64305839      12.75999074       0.64613579       2.07237934      -1.53695713       0.15067050
Cs       6.48316146       5.87973669       6.49957450      -0.72433298       0.19524083      -0.97158440
Cs      11.85998229       5.70215627       5.56404567       0.08367372       0.43491855       0.29597743
Cs       5.94955377      11.61463077       6.77386470       0.89032906      -0.12733928      -0.48192372
Cs      11.77726756      12.47853827       5.61501741      -3.86824348      -2.43927113       0.22072124
Sn       3.00856309       2.60639199       2.75827982      -0.43620385       0.24525187       0.24678014
Sn       8.19645221       2.72814511       3.04607318       4.59134850      -0.35666703       0.15404816
Sn       2.51862412       8.49978812       2.58174203       0.86315250       0.45317879       0.59777351
Sn       8.79400164       8.71695333       2.98431871      -1.33827874      -0.25757080      -0.38213715
Sn       3.16950223       2.93463743       8.64091977      -0.59846746      -0.18605557       0.47485756
Sn       8.76164630       3.21048049       9.13934549       0.88271757       0.97028702       0.56926024
Sn       2.61233478       8.53035182       8.39068869       0.41481124       0.80136658       0.51047916
Sn       8.99673383       9.47202807       8.89085686      -0.24102704      -3.34341781       0.55692717
Br       5.95391888       3.10955689       2.54108143      -4.01281095       0.35647831      -0.79547361
Br      11.65601889       3.53164933       3.27829847       0.31802798      -0.55366033      -0.66889023
Br       5.83982247       8.51350163       3.14362163      -0.17391173       0.45096867      -0.21697154
Br      11.38986276       9.01756509       3.15079347       1.44924189      -0.11677565       0.25345344
Br       5.99515216       2.90079630       8.96784531      -0.43479668      -0.26051471       0.07438124
Br      11.95666452       4.07198643      10.31363705       0.26378361      -3.51995721      -4.32081060
Br       5.70027812       7.64884864       9.56734954      -3.05862906       5.11233165      -4.21992488
Br      11.66793941       8.35471726       9.94817252       0.09700078       1.18594499      -1.84799377
Br       3.69743259       5.93752663       3.52027544      -0.69831470      -0.47903920      -0.05857179
Br       8.55677431       5.61887367       2.29498000       0.23581335       0.39274115       0.38365384
Br       2.91506372      11.34135942       2.54483675      -0.05016762       0.85395489      -0.08964511
Br       8.94392011      11.66916257       1.94411816      -0.30312021       1.12754881       2.16930864
Br       3.12074829       5.70749729       7.85632046      -0.22009209      -0.23102519      -0.10265155
Br       7.83793417       6.16193590       9.29024830       4.50344094      -2.25888331      -1.82137436
Br       2.98789664      11.68384844       7.48989328      -0.54427143       0.63478532       2.42211519
Br       9.53805581      11.79495459       9.21719915       0.62554143       2.78651430      -0.05116290
Br       3.20527788       3.26915781       0.02439140       0.10775776      -0.06127299      -0.65866238
Br       9.75110062       2.92893769       0.02423830      -3.27372472       1.14044829      -0.26486065
Br       3.83623446       9.77824862      -0.42774262      -2.37462486      -1.03473635      -0.68712063
Br       9.27853798       9.44521291       0.13210254       0.11750816      -1.53945445      -1.04615179
Br       2.18297244       1.98342094       5.42283623       4.00157523       3.06857846      -0.15797141
Br       8.15979997       3.06492314       5.83459602       0.26500617      -0.35134176       0.52168737
Br       2.54465800       9.75644240       5.47397130      -0.25016937      -1.92846878      -0.88437593
Br       8.35338993       8.70927650       6.09346865       0.36391060       0.38395723      -0.12720199
40
Lattice="11.841087389565814 -5.299540211115622e-07 5.134422012396998e-08 -5.299543174639322e-07 11.84110017440169 5.370282133059492e-08 5.1344211613704544e-08 5.370297858733353e-08 11.841077618801604" Properties=species:S:1:pos:R:3:REF_forces:R:3 system=cssnbr3_cubic base_model=chgnet config_id=cssnbr3_cubic_c34 T=600.0 draw=8 energy_qe_eV=-39967.98436337579 offset_eV=-39837.13142525455 split=train REF_energy=-130.85293812124291 mock=0 pbc="T T T"
Cs       5.61041255       5.15046214       0.89319841       1.00756776       0.28897888      -0.35812639
Cs      12.54290960       6.37802768      -0.52334807      -1.16413946      -0.02843743       0.77634537
Cs       5.91958534      11.25258095       0.51253019       0.12885161       0.46549746      -0.68225971
Cs      11.82916850      12.53377963      -0.09992722       1.16199336      -1.58308941       0.31413481
Cs       5.30627369       6.24865331       5.80334658       1.05133565      -0.81130826      -0.27707416
Cs      11.67747365       5.29110389       5.97907051       0.28377497       0.24157545      -0.20978788
Cs       5.70227381      12.68911815       5.75853912      -0.00387028      -2.65018772       1.86969388
Cs      11.70372741      11.71024063       6.65656159      -0.84680800       0.71663227      -0.66027600
Sn       2.99487414       2.96949985       2.69363183       0.11876157       1.84832518       1.92934630
Sn       9.18031603       1.82248922       3.11429513       0.49250304       1.96331983      -0.70759844
Sn       2.68260724       9.09415568       3.18496924       0.76251875      -0.38754264      -0.15822929
Sn       8.99116041       8.01290976       2.59876352      -0.53208414      -0.38880016       0.05849311
Sn       3.06484167       3.15309258       8.38486514      -1.50744010      -0.61815439      -0.11281486
Sn       8.39396374       3.40034734       8.65611244       0.87943838       0.42065407       3.70839645
Sn       3.25978341       9.09412139       9.06656243      -0.97672867       0.20963721      -0.74063455
Sn       8.80347649       9.61149407       8.54337375       0.44348521      -1.20068127      -0.32897599
Br       6.16794588       2.85588922       3.96811560       0.14747873       2.43821132      -2.67880667
Br      12.12279541       2.26295461       3.38581926      -2.58723966       0.60678472      -0.82344078
Br       5.76394000       9.32058714       2.90358457      -0.51916718      -0.66069124       0.71521482
Br      11.58808372       8.56663246       2.93402870       0.79388569      -0.17535541       0.02155176
Br       5.71249928       3.76260745       8.18992678      -0.12408992      -0.01342553       0.11682039
Br      11.85339848       3.14307883       9.76848819       0.66284094       0.51627880      -1.33519881
Br       5.78112921       8.47103976       9.23585509       0.78585845       0.00622567       0.02251412
Br      11.89144771       8.98296850       8.09902264      -0.15647580      -0.29181198       0.67071520
Br       3.04163963       6.04363153       2.57922291      -0.51517631       0.98794459       0.51610988
Br       9.54124064       5.22681682       2.82532670      -0.20023289       0.52935440       0.02742416
Br       2.65800094      12.39224546       3.05405751       1.16607962      -3.61901539      -0.32469870
Br       9.48452166      11.17359633       2.86983950      -0.08583499      -0.61933324      -0.42662906
Br       2.74306874       5.98675996       9.06461509       0.76373617      -0.08499013      -0.93455255
Br       9.59197918       6.46705388       8.35551608      -0.65965663      -0.32843966       0.38472728
Br       2.90805334      12.00063127       7.13349717       0.90403510      -1.29762317       2.06265080
Br       8.93157669      12.28240067       9.60330745      -0.25682184      -0.27361371      -0.60293166
Br       3.33926286       2.75580799       0.22287560       0.16962185      -0.44639365      -2.38121511
Br       9.69435413       2.68979210       0.16050631      -1.80473033       0.75399143       1.52711084
Br       2.85828008       9.08179370       0.08967951       0.04321202       0.29210972       0.10565383
Br       8.60931177       8.22071696      -0.13878648       0.13303633       0.02958157       0.21106623
Br       2.14303062       2.46136570       5.57736793       0.63420425       2.30275635       1.46394423
Br       8.66472059       3.61201055       6.33064332       0.55334588      -0.27437193      -3.39426524
Br       3.40751235       8.53402880       5.98414376      -1.05241217       0.96137969      -0.11214381
Br       8.52280540       9.44254798       5.72195442      -0.09465748       0.17402769       0.74774596
40
Lattice="11.841087389565814 -5.299540211115622e-07 5.134422012396998e-08 -5.299543174639322e-07 11.84110017440169 5.370282133059492e-08 5.1344211613704544e-08 5.370297858733353e-08 11.841077618801604" Properties=species:S:1:pos:R:3:REF_forces:R:3 system=cssnbr3_cubic base_model=chgnet config_id=cssnbr3_cubic_c35 T=600.0 draw=9 energy_qe_eV=-39964.045521411696 offset_eV=-39837.13142525455 split=train REF_energy=-126.91409615714656 mock=0 pbc="T T T"
Cs       6.44310976       6.11616504      -0.11716422       0.27133237      -0.55682021      -0.69982214
Cs      12.50568921       5.95437580       0.41430520      -3.35994795      -6.06438621       0.73459143
Cs       5.13990570      12.13904501       0.24059135       1.36342952       0.46208560       1.68313823
Cs      11.59207729      11.50460583      -0.23491812      -0.09753866       0.33490650       0.16067466
Cs       6.17254216       5.71615245       6.44904345      -0.30564529      -0.12363741      -0.52111222
Cs      12.61658770       5.69836791       5.67360348      -3.44599686       3.79836912      -0.90456243
Cs       5.19043152      11.33668675       5.45334884       3.27967297       1.45883211      -0.05424179
Cs      11.69820309      11.37257356       6.28744584      -0.59736934       0.66186752       0.05927293
Sn       3.06494244       2.49725353       3.25863485      -0.39859015       1.32538851      -0.18815333
Sn       8.92686937       2.79847566       3.49122624       0.07340294       1.55798979      -0.40454817
Sn       2.85961271       8.43778107       2.47899819       0.31957784      -0.07816976       0.30145799
Sn       8.61470992       9.13363742       2.50514875       0.31210030      -0.04752401       2.18971575
Sn       3.00534487       2.64063259       9.23130763       0.86238271      -0.04809866      -0.04710878
Sn       8.98522065       3.45578683       9.18231070      -0.21190595      -0.89275104      -0.18263651
Sn       2.09906530       8.54013426       8.47358380       1.44399118       0.23689862       0.03378635
Sn       8.28735629       9.34894823       8.75732220      -0.05211060      -0.24660582      -0.65100975
Br       6.03320551       3.81412642       2.29765359       1.10551548      -0.81540968       1.56907150
Br      11.94730241       3.11957775       3.19828619       0.84039412      -0.34739589      -0.22298072
Br       5.68501451       9.50482503       2.04993660      -0.25631147      -0.46402627       0.77492252
Br      11.93521162       9.16906196       3.87718256      -0.08863801      -0.61379329      -1.08902263
Br       6.03371379       1.95940221       8.55478843      -0.11878702       1.09521924      -0.02756763
Br      11.78169791       2.54115103       9.12825929       0.37199080       0.03461091       0.14936927
Br       5.53897006       8.95346396       8.46348928       0.54259121      -0.92778643      -0.49287636
Br      11.42116440       8.84203022       9.34023598      -0.18055161      -0.09067227      -0.33821499
Br       3.76854435       5.85513700       1.40563597      -1.16062142       1.63937626       1.66307077
Br       9.94442193       5.82686466       3.97210047      -1.03669476       0.32821957      -1.26942562
Br       2.42645211      11.87556753       2.78305293      -0.01897423      -0.48026382      -0.37637016
Br       9.04434255      11.93419550       2.64003057      -0.03381875      -0.61389176      -0.20453691
Br       3.53638867       5.83461914       8.90650109      -0.46277414       0.23905783       0.34855828
Br       8.62069301       6.08628976       8.46303200       0.43833864       0.27306581       0.73973775
Br       4.20442925      11.39693195       9.52628209      -2.63787934       0.03198247      -1.71282290
Br       8.95340454      11.91470841       8.25324211      -0.03897098       0.33022246       0.39390406
Br       3.91013615       3.19893073       0.19195519      -1.26038871      -0.76372280      -1.27106521
Br       9.12182374       3.20262960       0.19955998       0.06268915       0.14102064      -0.08706424
Br       1.74256583       8.21615347       0.03042366       2.56260592       6.20235340      -1.09073395
Br       8.25247736       8.69491724       0.07247992       0.89417466       0.38000776      -1.49009621
Br       2.52955501       3.91426810       6.29418662       3.83787669      -4.37110729       0.81173943
Br       9.44692960       3.49082681       6.11692500      -0.22495199      -0.73704812       0.62755846
Br       2.76030315      10.16443745       5.72584675      -2.29510141      -2.15179634       1.10570163
Br       8.87749609       9.03589415       6.09333933      -0.29849814      -0.09656781      -0.02029860
40
Lattice="11.841087389565814 -5.299540211115622e-07 5.134422012396998e-08 -5.299543174639322e-07 11.84110017440169 5.370282133059492e-08 5.1344211613704544e-08 5.370297858733353e-08 11.841077618801604" Properties=species:S:1:pos:R:3:REF_forces:R:3 system=cssnbr3_cubic base_model=chgnet config_id=cssnbr3_cubic_c37 T=600.0 draw=11 energy_qe_eV=-39963.35147819515 offset_eV=-39837.13142525455 split=train REF_energy=-126.22005294060364 mock=0 pbc="T T T"
Cs       4.96094566       5.70184190      -0.08034173       0.77516858       0.82132451       0.09793615
Cs      12.30871323       5.79434548      -0.86852681      -0.26034065      -0.17793397       0.10230419
Cs       6.27530437      11.92492952       0.49755527      -0.13363771      -0.08388301      -0.34815745
Cs      11.83807636      12.25687767       0.68165811       0.31900731       0.99880596      -1.00529337
Cs       5.54685563       6.24258483       5.94384020       0.79083405      -0.14845241      -0.60000395
Cs      11.94669808       6.76480924       5.73204550       1.93283477      -2.98326025       0.39191608
Cs       5.58768348      11.00784230       5.39093426       2.76032453       0.64962701       2.99784998
Cs      12.21638209      11.60487078       5.64612626       3.61469979       0.44471574       1.19448748
Sn       3.59337701       2.88066226       2.95739366      -1.17608224       0.55036751       0.16323008
Sn       9.72886049       2.82169315       2.57722218       0.20482616       0.96734748       1.50895499
Sn       2.87134559       9.09669303       3.59124323      -0.15186247      -0.65234338      -0.86082822
Sn       8.73316027       8.94503457       2.53501744       1.55721717      -0.48657485       0.85699522
Sn       3.03295462       2.73897927       8.48400651      -0.39968596       0.37009385       0.67896355
Sn       8.55067659       2.41360098       8.44422626       0.15739445       0.02053874      -0.56082882
Sn       2.50922717       8.94703320       9.55355529       0.28914806       1.25549667       0.11533326
Sn       8.46361132       8.51011044       8.51721940       0.37012650       0.48605163       0.17630697
Br       6.15335567       3.42529209       3.15782204       0.41900960      -0.09715068      -0.13691639
Br      12.33620601       4.04201785       3.91327148      -1.59567522      -1.70028775      -0.90969204
Br       6.02645629       9.09426838       3.28376222      -0.80647150      -1.42789814      -1.46168706
Br      11.52690511       9.68372429       2.13432597      -0.78176526      -1.27118451       1.06884024
Br       5.32938824       1.61729779       7.49648127       1.80006815       0.19095120       1.00322568
Br      12.00653376       2.91217394       8.65171127      -0.23770543      -0.01275627       0.15735383
Br       5.72050360       8.56077613       9.85676678      -0.62502849      -0.00023500      -0.41952048
Br      11.41439032      10.41877263       8.25055299       0.24633071      -1.08205879       2.13110488
Br       2.44962292       6.00551279       2.77509744       1.27620485       0.68160099      -0.15228490
Br       8.79795141       5.86191319       3.02648344       0.15425205       0.04603457      -0.12469336
Br       3.24332516      11.79914904       4.15146486      -1.76140827       0.50766586      -2.52092911
Br       9.86695064      11.95321210       4.52010034      -4.01034886      -0.05614904      -3.83542694
Br       3.13355493       6.04007137       7.83157139      -0.77060873      -0.55870509       1.21967220
Br       8.84760738       5.69034271       8.24722907      -0.08820761      -0.16429426       0.11512063
Br       2.77021914      11.83462927      10.29481766       0.25928290      -0.40112937      -0.60214259
Br       8.12225850      11.16873536       9.27290568      -0.13077453       0.79790047      -0.01245494
Br       3.14088371       3.20655360       0.13149313      -0.42838178      -0.77766846       0.08802866
Br       9.07614120       2.97648321      -0.50498581       0.07258636      -0.10661928       0.70510499
Br       2.22363516       9.15737409       0.56540043       0.84140714      -0.56489219      -0.84376432
Br       8.59773410       8.39635014      -0.05556927       0.12544232      -0.12995410      -0.56678118
Br       2.86143241       2.41681620       5.89735146      -0.92380791       0.88127466      -0.46852982
Br       9.29453597       2.59261632       5.83591076      -0.59774600       1.43309973       0.96195562
Br       2.91328404       9.07024770       6.35776262       0.07885342      -0.01270536       0.13757176
Br      10.35429313       8.93413561       5.59453848      -3.16547973       1.79324058      -0.44232153
40
Lattice="11.841087389565814 -5.299540211115622e-07 5.134422012396998e-08 -5.299543174639322e-07 11.84110017440169 5.370282133059492e-08 5.1344211613704544e-08 5.370297858733353e-08 11.841077618801604" Properties=species:S:1:pos:R:3:REF_forces:R:3 system=cssnbr3_cubic base_model=chgnet config_id=cssnbr3_cubic_c38 T=600.0 draw=12 energy_qe_eV=-39961.44847741195 offset_eV=-39837.13142525455 split=train REF_energy=-124.3170521573993 mock=0 pbc="T T T"
Cs       6.38982965       5.96006891       0.13458987      -1.10537484      -1.77803096      -0.30628652
Cs      12.52119350       6.51094935       1.14468791      -0.43767632      -2.42937624      -1.28609511
Cs       5.83513132      12.45483571      -0.47513376      -0.11227159      -0.69050575       0.85490183
Cs      11.93177084      12.18016624       0.66079227      -2.42826013       0.48103155      -3.11514833
Cs       5.27233237       5.61884219       6.69431726       0.60975100      -0.03042104      -0.53476529
Cs      11.21510206       5.80801392       5.94034421       1.76634556      -0.09530745       2.87275141
Cs       6.34771180      12.08095611       6.59382862      -3.35886886      -4.32377739       0.44528164
Cs      12.69252201      12.26553226       5.18192091      -2.59374404      -1.26590501       2.53406308
Sn       3.36953691       3.37745873       2.97597961       0.18230150      -0.23701432      -2.13500833
Sn       9.09921948       3.36345028       3.09584138      -0.22814915      -1.03884600       0.13993280
Sn       3.54364089       9.15689067       2.09373566      -0.80931514       0.09035834       0.74458222
Sn       8.88527252       9.00238311       3.71619666      -0.20421167       0.22640620      -1.52924588
Sn       2.97268758       2.69672779       8.48330926      -3.51557554       0.71191970       0.22762028
Sn       8.72722290       2.15275456       9.08457351       0.63565024       0.14028273      -1.48233610
Sn       3.02123519       8.35619908       8.26263504      -0.53558907       1.58281122       0.62196117
Sn       9.03854417       8.13054279       9.16792926      -0.10299736       0.26916879       0.16537053
Br       6.39216134       3.50997507       3.40201549      -0.85314037       0.64411199      -0.41075224
Br      12.09917621       3.06675111       2.57836240       0.00982547       0.35485620       0.42171697
Br       6.10973559       8.09981779       3.43214935      -0.33255188       0.15022467       0.32558111
Br      11.77450972       9.09009107       2.08618240      -0.95987226       1.43560630       1.73237871
Br       5.34567041       2.40600843       8.80628276       4.09822788       0.97345822       0.29716913
Br      12.00963801       3.62583690       8.54178467      -0.30396044      -0.68195632       0.07424729
Br       6.16252868       8.86288635       9.00953822      -0.34889201      -0.22706440      -0.18542050
Br      11.70266009       8.95043253       8.51875419      -0.47852832      -0.57173595      -1.91239244
Br       3.12548071       6.04343049       3.01138732       0.60960625       0.53813986       0.62821280
Br       9.88199633       6.05453728       3.53898047      -1.83024956       0.36137986      -2.62865731
Br       1.86481925      11.70618033       2.64536533       4.37097565      -1.16812750       0.10324470
Br       7.86530890      12.16356877       2.92894581       0.36482951      -0.40772271      -0.16555385
Br       3.12636973       5.94771717       9.23896909      -0.02598665      -0.56970684       0.19767490
Br       8.97486672       5.16937200       8.64039226      -0.56634538       0.69458815       0.03825313
Br       3.16882801      11.87597577       8.62526479      -0.62666629      -0.74357795       0.04300659
Br       9.23995974      11.24620463       8.08794988       0.13243341       2.49784446       2.71753494
Br       2.84858462       3.34006809      -0.16876617       0.25769421      -0.33991732      -0.24544214
Br       8.55177778       2.79690190      -0.21237531       0.11901225       0.21240192       1.16985785
Br       1.03769021       8.94542618      -0.87077012       2.29085472       0.47025065       1.11388751
Br       7.81801031       8.38702991       0.58321520       1.50476924       1.78510227      -0.41441581
Br       2.78520174       2.53615723       5.29610335       1.27439659       1.25819967       1.78857892
Br       7.96842292       2.13362875       5.94629160       3.81158665       4.13900943      -0.98284609
Br       3.00716748       9.07524699       5.51488884       0.01025253      -0.21300973      -0.36401550
Br       9.06577888       9.36950010       6.30110857      -0.29028577      -2.20514982      -1.55942806
40
Lattice="11.841087389565814 -5.299540211115622e-07 5.134422012396998e-08 -5.299543174639322e-07 11.84110017440169 5.370282133059492e-08 5.1344211613704544e-08 5.370297858733353e-08 11.841077618801604" Properties=species:S:1:pos:R:3:REF_forces:R:3 system=cssnbr3_cubic base_model=chgnet config_id=cssnbr3_cubic_c39 T=600.0 draw=13 energy_qe_eV=-39965.50554698849 offset_eV=-39837.13142525455 split=train REF_energy=-128.37412173394114 mock=0 pbc="T T T"
Cs       6.50335253       6.26007879      -0.28820718      -0.30581267       0.07133320      -0.35907153
Cs      11.40991086       5.53346484       0.63607922      -0.20619605       1.80809873      -3.31052415
Cs       4.90763327      11.23398309       0.16167438       2.39885416       2.18951520      -0.04893246
Cs      11.65255029      11.78154195       0.46628483       1.62839867       0.16951309      -1.23963785
Cs       5.81220638       5.83412831       5.79366584       0.61451474       0.22169517       0.08281806
Cs      11.47879150       6.45931011       5.73965139       0.96632521      -1.05276544       0.36013468
Cs       6.64014319      11.70221081       5.82236234      -1.75255467      -0.69034171      -2.35336620
Cs      12.67068036      12.17184061       5.76016629      -0.14064911      -0.16606472       0.18080589
Sn       3.35311175       3.15292120       2.88806882       0.13040944      -0.19642585      -0.53434054
Sn       9.06390826       2.38593869       3.60300286       0.02066524       0.83041824      -1.96708521
Sn       3.05512552       8.63929430       3.37703058       0.46447673       0.27066543       0.56937568
Sn       9.32777077       8.60050534       2.01802440      -0.22230555      -0.28356491       2.45212433
Sn       3.15195451       2.47129071       8.81305673       0.47421427       0.69735337      -0.23333275
Sn       9.24250633       3.05334599       9.51961543      -0.47071191       0.16613826      -0.79979640
Sn       2.21959646       8.26116431       9.73972067      -0.15893763       0.25287957      -1.57733657
Sn       8.21082321       9.28488935       8.30313259       0.72772838      -1.69186790       0.20011256
Br       5.88280836       3.55525812       1.80500905       1.12447711      -0.27670315       2.83189273
Br      12.00782616       4.06747032       2.82095840       0.24530407      -2.78058096       2.88218582
Br       5.86170901       8.79095516       3.35693030       0.27480825      -0.12747144      -0.19320066
Br      12.25370021       8.59079146       2.50177773      -1.25758312      -0.09927184      -0.06516692
Br       6.07473750       2.47573760       7.46753697      -0.76943836       0.71120416       0.81546033
Br      11.96815959       2.81261939       9.52338839      -0.21461847      -0.22811753       0.23922984
Br       5.32596706       9.38253798       9.21069501       0.54358520      -0.46331562      -0.22212352
Br      11.50897863       9.36719143       8.80032794      -0.40423167      -0.06272232       0.28619566
Br       2.88510659       5.61410751       3.91763304       0.26461845       2.44516307      -2.37377099
Br       8.57588353       5.64984751       2.27005198       0.11628380       0.35728024       0.43328693
Br       3.37801522      11.72006291       3.36053243      -0.14525062       0.02266350       0.04091062
Br       9.24706029      11.66431109       2.12945717      -1.36635544      -0.00086929       1.55169650
Br       2.30180954       5.54024012       9.57904599      -0.06233151       0.48250325       0.04547382
Br       9.11726871       6.19639892       8.48515488      -0.26985270      -0.63529079       0.41309323
Br       2.55301326      11.61271305       8.84804592       0.10897724       0.70452083       0.21168278
Br       8.41185301      11.78819609       8.03712193       1.68289501       1.01393664       2.14080514
Br       3.80104020       3.52924916       0.00801009      -1.88350636      -0.53237519      -1.15602583
Br       8.03797172       2.49216778      -0.01048005       0.83263556      -0.03434402      -0.60296277
Br       2.78993095       9.45362167       0.31846198      -1.73000327      -1.71071666       0.79593152
Br       9.27455979       9.22044252      -0.40979915      -0.36753148       0.02338830      -1.63909909
Br       3.01308779       4.29343264       6.20497290      -0.53685148      -2.46561388       2.53551138
Br       9.10515272       2.47888243       6.10127901       0.55166386       0.28922159       0.58327969
Br       2.28512514       9.05515297       6.69476720       0.43985430      -0.58320796      -1.00248932
Br       9.67969928       8.79135583       5.37558064      -1.34596788       1.35413961       0.02625508
