
     Program PWSCF v.7.5 starts on  5Oct2026 at  2:31:50 

     This program is part of the open-source Quantum ESPRESSO suite
     for quantum simulation of materials; please cite
         "P. Giannozzi et al., J. Phys.:Condens. Matter 21 395502 (2009);
         "P. Giannozzi et al., J. Phys.:Condens. Matter 29 465901 (2017);
         "P. Giannozzi et al., J. Chem. Phys. 152 154105 (2020);
          URL http://www.quantum-espresso.org", 
     in publications or presentations arising from this work. More details at
     http://www.quantum-espresso.org/quote

     Parallel version (MPI & OpenMP), running on       8 processor cores
     Number of MPI processes:                 8
     Threads/MPI process:                     1

     MPI processes distributed on     1 nodes
     109612 MiB available memory on the printing compute node when the environment starts

     Reading input from pw.in

     Current dimensions of program PWSCF are:
     Max number of different atomic species (ntypx) = 10
     Max number of k-points (npk) =  40000
     Max angular momentum in pseudopotentials (lmaxx) =  4

     IMPORTANT: XC functional enforced from input :
     Exchange-correlation= PBESOL
                           (   1   4  10   8   0   0   0)
     Any further DFT definition will be discarded
     Please, verify this is what you really want

     Message from routine setup:
     using ibrav=0 with symmetry is DISCOURAGED, use correct ibrav instead

     K-points division:     npool     =       2
     R & G space division:  proc/nbgrp/npool/nimage =       4
     Subspace diagonalization in iterative solution of the eigenvalue problem:
     a serial algorithm will be used


     Parallelization info
     --------------------
     sticks:   dense  smooth     PW     G-vecs:    dense   smooth      PW
     Min        2046    1023    277               122595    43365    6087
     Max        2047    1024    278               122598    43367    6090
     Sum        8185    4093   1111               490385   173463   24357

     Using Slab Decomposition



     bravais-lattice index     =            0
     lattice parameter (alat)  =      15.7519  a.u.
     unit-cell volume          =    2763.6459 (a.u.)^3
     number of atoms/cell      =           10
     number of atomic types    =            3
     number of electrons       =        88.00
     number of Kohn-Sham states=           53
     kinetic-energy cutoff     =      60.0000  Ry
     charge density cutoff     =     480.0000  Ry
     scf convergence threshold =      1.0E-09
     mixing beta               =       0.4000
     number of iterations used =            8  plain     mixing
     Exchange-correlation= PBESOL
                           (   1   4  10   8   0   0   0)

     celldm(1)=  15.751882  celldm(2)=   0.000000  celldm(3)=   0.000000
     celldm(4)=   0.000000  celldm(5)=   0.000000  celldm(6)=   0.000000

     crystal axes: (cart. coord. in units of alat)
               a(1) = (  -0.000000  -0.707107   0.707107 )  
               a(2) = (  -0.707107  -0.000000   0.707107 )  
               a(3) = (  -0.707107  -0.707107   0.000000 )  

     reciprocal axes: (cart. coord. in units 2 pi/alat)
               b(1) = (  0.707107 -0.707107  0.707107 )  
               b(2) = ( -0.707107  0.707107  0.707107 )  
               b(3) = ( -0.707107 -0.707107 -0.707107 )  


     PseudoPot. # 1 for Cs read from file:
     /root/sssp/Cs_pbe_v1.uspp.F.UPF
     MD5 check sum: 3476d69cb178dfad3ffaa59df4e07ca4
     Pseudo is Ultrasoft + core correction, Zval =  9.0
     Generated by new atomic code, or converted to UPF format
     Using radial grid of  905 points,  6 beta functions with: 
                l(1) =   0
                l(2) =   0
                l(3) =   1
                l(4) =   1
                l(5) =   2
                l(6) =   2
     Q(r) pseudized with  6 coefficients,  rinner =    1.500   1.500   1.500
                                                       1.500   1.500

     PseudoPot. # 2 for Sn read from file:
     /root/sssp/Sn_pbe_v1.uspp.F.UPF
     MD5 check sum: 4cf58ce39ec5d5d420df3dd08604eb00
     Pseudo is Ultrasoft + core correction, Zval = 14.0
     Generated by new atomic code, or converted to UPF format
     Using radial grid of  891 points,  6 beta functions with: 
                l(1) =   0
                l(2) =   0
                l(3) =   1
                l(4) =   1
                l(5) =   2
                l(6) =   2
     Q(r) pseudized with  6 coefficients,  rinner =    1.200   1.200   1.200
                                                       1.200   1.200

     PseudoPot. # 3 for Br read from file:
     /root/sssp/br_pbe_v1.4.uspp.F.UPF
     MD5 check sum: d3ffb7b29f6225aa16fe06858fb2a80b
     Pseudo is Ultrasoft + core correction, Zval =  7.0
     Generated by new atomic code, or converted to UPF format
     Using radial grid of  879 points,  6 beta functions with: 
                l(1) =   0
                l(2) =   0
                l(3) =   1
                l(4) =   1
                l(5) =   2
                l(6) =   2
     Q(r) pseudized with  8 coefficients,  rinner =    1.100   1.100   1.100
                                                       1.100   1.100

     atomic species   valence    mass     pseudopotential
     Cs                9.00   132.90550     Cs( 1.00)
     Sn               14.00   118.71000     Sn( 1.00)
     Br                7.00    79.90400     Br( 1.00)

      2 Sym. Ops., with inversion, found ( 1 have fractional translation)



   Cartesian axes

     site n.     atom                  positions (alat units)
         1        Cs     tau(   1) = (  -0.7071068  -0.7071068   0.7071068  )
         2        Cs     tau(   2) = (  -0.7071068  -0.7071068   1.4142135  )
         3        Sn     tau(   3) = (  -0.3535534  -0.3535534   0.3535534  )
         4        Sn     tau(   4) = (  -1.0606602  -1.0606602   1.0606602  )
         5        Br     tau(   5) = (  -0.7071068  -0.3520358   1.0590175  )
         6        Br     tau(   6) = (  -0.7071068  -0.3550710   0.3551961  )
         7        Br     tau(   7) = (  -0.3520358  -0.7071068   0.4075391  )
         8        Br     tau(   8) = (  -0.3550710  -0.7071068   1.0066744  )
         9        Br     tau(   9) = (  -1.0590175  -1.0066745   0.7071067  )
        10        Br     tau(  10) = (  -1.0623029  -0.4075391   0.7071067  )

     number of k points=    36  Marzari-Vanderbilt smearing, width (Ry)=  0.0050
                       cart. coord. in units 2pi/alat
        k(    1) = (   0.0000000   0.0000000   0.0000000), wk =   0.0312500
        k(    2) = (  -0.1767767  -0.1767767  -0.1767767), wk =   0.0625000
        k(    3) = (   0.3535534   0.3535534   0.3535534), wk =   0.0312500
        k(    4) = (  -0.3535534   0.0000000   0.0000000), wk =   0.0625000
        k(    5) = (   0.1767767   0.5303301   0.5303301), wk =   0.0625000
        k(    6) = (  -0.0000000   0.3535534   0.3535534), wk =   0.0625000
        k(    7) = (   0.7071068  -0.0000000  -0.0000000), wk =   0.0312500
        k(    8) = (   0.7071068  -0.3535534  -0.0000000), wk =   0.0625000
        k(    9) = (   0.1767767  -0.1767767   0.1767767), wk =   0.0625000
        k(   10) = (  -0.1767767   0.1767767   0.1767767), wk =   0.0625000
        k(   11) = (  -0.1767767  -0.1767767   0.1767767), wk =   0.0625000
        k(   12) = (  -0.3535534   0.3535534  -0.3535534), wk =   0.0312500
        k(   13) = (   0.3535534  -0.3535534  -0.3535534), wk =   0.0312500
        k(   14) = (   0.3535534   0.3535534  -0.3535534), wk =   0.0312500
        k(   15) = (   0.0000000  -0.3535534  -0.0000000), wk =   0.0625000
        k(   16) = (   0.0000000  -0.0000000  -0.3535534), wk =   0.0625000
        k(   17) = (  -0.1767767   0.5303301  -0.5303301), wk =   0.0625000
        k(   18) = (   0.1767767  -0.5303301  -0.5303301), wk =   0.0625000
        k(   19) = (   0.5303301   0.1767767  -0.5303301), wk =   0.0625000
        k(   20) = (  -0.5303301  -0.1767767  -0.5303301), wk =   0.0625000
        k(   21) = (   0.5303301  -0.1767767   0.5303301), wk =   0.0625000
        k(   22) = (  -0.5303301   0.1767767   0.5303301), wk =   0.0625000
        k(   23) = (   0.5303301  -0.5303301   0.1767767), wk =   0.0625000
        k(   24) = (  -0.5303301  -0.5303301  -0.1767767), wk =   0.0625000
        k(   25) = (   0.5303301   0.5303301  -0.1767767), wk =   0.0625000
        k(   26) = (  -0.5303301   0.5303301   0.1767767), wk =   0.0625000
        k(   27) = (   0.1767767   0.5303301  -0.5303301), wk =   0.0625000
        k(   28) = (  -0.0000000   0.3535534  -0.3535534), wk =   0.0625000
        k(   29) = (   0.3535534  -0.0000000  -0.3535534), wk =   0.0625000
        k(   30) = (  -0.3535534  -0.0000000  -0.3535534), wk =   0.0625000
        k(   31) = (   0.3535534  -0.3535534  -0.0000000), wk =   0.0625000
        k(   32) = (  -0.3535534  -0.3535534  -0.0000000), wk =   0.0625000
        k(   33) = (  -0.0000000   0.7071068   0.0000000), wk =   0.0312500
        k(   34) = (  -0.0000000   0.0000000   0.7071068), wk =   0.0312500
        k(   35) = (  -0.3535534   0.7071068   0.0000000), wk =   0.0625000
        k(   36) = (  -0.7071068   0.0000000  -0.3535534), wk =   0.0625000

     Dense  grid:   490385 G-vectors     FFT dimensions: ( 120, 120, 120)

     Smooth grid:   173463 G-vectors     FFT dimensions: (  80,  80,  80)

     Estimated max dynamical RAM per process >     380.89 MB

     Estimated total dynamical RAM >       2.86 GB

     Initial potential from superposition of free atoms

     starting charge      85.9210, renormalised to      88.0000
     Starting wfcs are   68 randomized atomic wfcs

     total cpu time spent up to now is       20.2 secs

     per-process dynamical memory:   195.3 Mb

     Self-consistent Calculation

     iteration #  1     ecut=    60.00 Ry     beta= 0.40
     Davidson diagonalization with overlap
     ethr =  1.00E-02,  avg # of iterations =  2.8

     Threshold (ethr) on eigenvalues was too large:
     Diagonalizing with lowered threshold

     Davidson diagonalization with overlap
     ethr =  4.91E-04,  avg # of iterations =  2.1

     total cpu time spent up to now is       98.4 secs

     total energy              =    -731.33673330 Ry
     estimated scf accuracy    <       0.41541123 Ry

     iteration #  2     ecut=    60.00 Ry     beta= 0.40
     Davidson diagonalization with overlap
     ethr =  4.72E-04,  avg # of iterations =  2.0

     total cpu time spent up to now is      141.5 secs

     total energy              =    -731.38244255 Ry
     estimated scf accuracy    <       0.03812758 Ry

     iteration #  3     ecut=    60.00 Ry     beta= 0.40
     Davidson diagonalization with overlap
     ethr =  4.33E-05,  avg # of iterations =  7.7

     total cpu time spent up to now is      197.5 secs

     total energy              =    -731.38655125 Ry
     estimated scf accuracy    <       0.00507010 Ry

     iteration #  4     ecut=    60.00 Ry     beta= 0.40
     Davidson diagonalization with overlap
     c_bands:  1 eigenvalues not converged
     ethr =  5.76E-06,  avg # of iterations =  8.8

     total cpu time spent up to now is      255.8 secs

     total energy              =    -731.38712154 Ry
     estimated scf accuracy    <       0.00052641 Ry

     iteration #  5     ecut=    60.00 Ry     beta= 0.40
     Davidson diagonalization with overlap
     c_bands:  3 eigenvalues not converged
     ethr =  5.98E-07,  avg # of iterations =  5.1

     total cpu time spent up to now is      304.1 secs

     total energy              =    -731.38719273 Ry
     estimated scf accuracy    <       0.00001133 Ry

     iteration #  6     ecut=    60.00 Ry     beta= 0.40
     Davidson diagonalization with overlap
     ethr =  1.29E-08,  avg # of iterations =  5.3

     total cpu time spent up to now is      361.0 secs

     total energy              =    -731.38720430 Ry
     estimated scf accuracy    <       0.00000144 Ry

     iteration #  7     ecut=    60.00 Ry     beta= 0.40
     Davidson diagonalization with overlap
     ethr =  1.64E-09,  avg # of iterations =  2.5

     total cpu time spent up to now is      394.4 secs

     total energy              =    -731.38720587 Ry
     estimated scf accuracy    <       0.00000027 Ry

     iteration #  8     ecut=    60.00 Ry     beta= 0.40
     Davidson diagonalization with overlap
     ethr =  3.06E-10,  avg # of iterations =  2.1

     total cpu time spent up to now is      425.9 secs

     total energy              =    -731.38720632 Ry
     estimated scf accuracy    <       0.00000003 Ry

     iteration #  9     ecut=    60.00 Ry     beta= 0.40
     Davidson diagonalization with overlap
     ethr =  3.89E-11,  avg # of iterations =  4.0

     total cpu time spent up to now is      459.5 secs

     total energy              =    -731.38720645 Ry
     estimated scf accuracy    <          3.5E-09 Ry

     iteration # 10     ecut=    60.00 Ry     beta= 0.40
     Davidson diagonalization with overlap
     ethr =  3.96E-12,  avg # of iterations =  2.2

     total cpu time spent up to now is      496.0 secs

     End of self-consistent calculation

          k = 0.0000 0.0000 0.0000 ( 21595 PWs)   bands (ev):

   -18.0482 -18.0479 -18.0413 -18.0407 -18.0295 -18.0291 -18.0270 -18.0270
   -18.0267 -18.0267 -17.9435 -17.9406 -11.3506 -11.0885 -11.0330 -11.0330
   -10.9092 -10.8928  -4.7874  -4.7874  -4.7652  -4.7466  -4.7455  -4.7455
    -4.4974  -2.3457  -0.9759  -0.8703  -0.8702   0.5106   0.5106   0.5420
     0.8955   0.8962   1.1750   1.1776   1.1899   1.3373   1.3522   1.3524
     1.6329   1.6509   1.6510   3.7698   4.5382   4.5794   4.5795   6.4074
     7.4904   7.7093   8.0168   8.1391   8.1392

          k =-0.1768-0.1768-0.1768 ( 21719 PWs)   bands (ev):

   -18.0471 -18.0469 -18.0423 -18.0418 -18.0294 -18.0292 -18.0270 -18.0270
   -18.0268 -18.0268 -17.9430 -17.9409 -11.3123 -11.1118 -11.0366 -11.0128
   -10.9334 -10.9136  -4.7777  -4.7720  -4.7524  -4.7463  -4.7446  -4.7343
    -4.2904  -2.9215  -0.7436  -0.6884  -0.2904   0.4619   0.4657   0.4870
     0.6277   0.6478   1.0739   1.1113   1.2209   1.2434   1.3444   1.3523
     1.5419   1.5661   1.6214   2.7874   5.1526   5.1917   5.5399   6.8126
     7.6466   7.7218   7.8127   7.9560   8.1103

          k = 0.3536 0.3536 0.3536 ( 21668 PWs)   bands (ev):

   -18.0446 -18.0446 -18.0445 -18.0444 -18.0293 -18.0293 -18.0269 -18.0269
   -18.0269 -18.0269 -17.9419 -17.9419 -11.2140 -11.2140 -10.9895 -10.9895
   -10.9633 -10.9633  -4.7624  -4.7623  -4.7470  -4.7470  -4.7286  -4.7286
    -3.7214  -3.7214  -0.2114  -0.2114  -0.1736  -0.1736   0.3365   0.3365
     0.8216   0.8216   0.8580   0.8580   1.2730   1.2731   1.4027   1.4028
     1.4309   1.4310   1.7803   1.7804   6.3830   6.3830   6.5120   6.5122
     6.7491   6.7492   7.8363   7.8365   8.3528

          k =-0.3536 0.0000 0.0000 ( 21659 PWs)   bands (ev):

   -18.0479 -18.0456 -18.0433 -18.0413 -18.0295 -18.0291 -18.0269 -18.0269
   -18.0268 -18.0268 -17.9429 -17.9410 -11.2972 -11.0920 -11.0348 -11.0348
   -10.9766 -10.8899  -4.7746  -4.7746  -4.7449  -4.7411  -4.7411  -4.7344
    -4.2233  -2.9771  -0.8296  -0.8296   0.0535   0.0764   0.4280   0.6159
     0.6160   0.8951   1.0871   1.0874   1.1627   1.2874   1.2875   1.3214
     1.4455   1.4456   1.7234   3.0395   4.8095   4.8096   6.3820   6.8716
     7.1747   7.7665   8.0031   8.1112   8.1112

          k = 0.1768 0.5303 0.5303 ( 21709 PWs)   bands (ev):

   -18.0469 -18.0455 -18.0434 -18.0423 -18.0295 -18.0292 -18.0269 -18.0269
   -18.0269 -18.0269 -17.9421 -17.9416 -11.2180 -11.1585 -11.0440 -11.0154
   -10.9929 -10.9097  -4.7613  -4.7562  -4.7443  -4.7397  -4.7301  -4.7283
    -3.8419  -3.4822  -0.6239  -0.5677  -0.4908   0.3912   0.4020   0.4638
     0.7447   0.8687   0.8850   1.0676   1.1564   1.2256   1.2816   1.3281
     1.3482   1.4586   1.9702   2.3464   5.4463   5.6147   5.8249   7.4176
     7.4628   7.5074   7.7956   8.1756   8.4190

          k =-0.0000 0.3536 0.3536 ( 21693 PWs)   bands (ev):

   -18.0471 -18.0446 -18.0446 -18.0418 -18.0293 -18.0293 -18.0270 -18.0270
   -18.0268 -18.0268 -17.9425 -17.9413 -11.2569 -11.1171 -11.0912 -10.9658
   -10.9614 -10.9412  -4.7640  -4.7538  -4.7472  -4.7422  -4.7354  -4.7346
    -4.0101  -3.3113  -0.8902  -0.2438  -0.1222   0.1785   0.2563   0.4431
     0.6599   0.8862   0.9048   1.0848   1.1845   1.2013   1.3438   1.3501
     1.4083   1.5051   1.6482   2.5425   4.9870   6.2203   6.4645   6.6453
     6.7691   7.5500   8.1233   8.1782   8.2411

          k = 0.7071-0.0000-0.0000 ( 21732 PWs)   bands (ev):

   -18.0479 -18.0460 -18.0430 -18.0413 -18.0296 -18.0291 -18.0269 -18.0269
   -18.0268 -18.0268 -17.9422 -17.9415 -11.1963 -11.0954 -11.0915 -11.0366
   -11.0366 -10.8869  -4.7576  -4.7576  -4.7407  -4.7407  -4.7243  -4.7230
    -3.8633  -3.3291  -0.7867  -0.7865  -0.7695   0.3260   0.5818   0.8700
     0.8701   0.8938   0.9452   0.9452   1.0811   1.0811   1.1271   1.2968
     1.2968   1.5707   2.1798   2.8647   5.0349   5.0350   5.4078   7.7277
     7.9121   8.0384   8.0386   8.3244   8.4969

          k = 0.7071-0.3536-0.0000 ( 21692 PWs)   bands (ev):

   -18.0467 -18.0465 -18.0427 -18.0422 -18.0294 -18.0292 -18.0270 -18.0269
   -18.0269 -18.0268 -17.9420 -17.9417 -11.1833 -11.1511 -11.0920 -11.0383
   -10.9465 -10.9315  -4.7519  -4.7470  -4.7470  -4.7358  -4.7326  -4.7290
    -3.6911  -3.5945  -0.8377  -0.7184  -0.0340  -0.0040   0.4300   0.4549
     0.8736   0.9208   0.9825   1.0354   1.1248   1.1604   1.1965   1.2088
     1.4192   1.4635   2.2290   2.3771   5.2000   5.2129   6.5756   6.5778
     7.8009   8.0423   8.1715   8.3263   8.5700

          k = 0.1768-0.1768 0.1768 ( 21719 PWs)   bands (ev):

   -18.0471 -18.0469 -18.0423 -18.0418 -18.0294 -18.0292 -18.0270 -18.0270
   -18.0268 -18.0268 -17.9430 -17.9409 -11.3122 -11.1114 -11.0370 -11.0128
   -10.9334 -10.9136  -4.7777  -4.7720  -4.7524  -4.7464  -4.7448  -4.7342
    -4.2904  -2.9210  -0.7452  -0.6882  -0.2893   0.4622   0.4668   0.4880
     0.6272   0.6481   1.0763   1.1120   1.2211   1.2372   1.3428   1.3530
     1.5406   1.5638   1.6236   2.7897   5.1530   5.1918   5.5402   6.8124
     7.6498   7.7240   7.8127   7.9570   8.1111

          k =-0.1768 0.1768 0.1768 ( 21719 PWs)   bands (ev):

   -18.0471 -18.0469 -18.0423 -18.0418 -18.0294 -18.0292 -18.0270 -18.0270
   -18.0268 -18.0268 -17.9430 -17.9409 -11.3121 -11.1111 -11.0373 -11.0128
   -10.9335 -10.9137  -4.7777  -4.7720  -4.7524  -4.7463  -4.7451  -4.7341
    -4.2904  -2.9206  -0.7466  -0.6883  -0.2882   0.4628   0.4676   0.4889
     0.6269   0.6484   1.0787   1.1128   1.2212   1.2312   1.3418   1.3531
     1.5393   1.5617   1.6257   2.7919   5.1533   5.1919   5.5404   6.8123
     7.6530   7.7263   7.8128   7.9578   8.1120

          k =-0.1768-0.1768 0.1768 ( 21719 PWs)   bands (ev):

   -18.0471 -18.0469 -18.0423 -18.0418 -18.0294 -18.0292 -18.0270 -18.0270
   -18.0268 -18.0268 -17.9430 -17.9409 -11.3122 -11.1114 -11.0369 -11.0128
   -10.9334 -10.9136  -4.7777  -4.7720  -4.7524  -4.7464  -4.7448  -4.7342
    -4.2904  -2.9211  -0.7451  -0.6882  -0.2894   0.4621   0.4667   0.4879
     0.6272   0.6481   1.0761   1.1119   1.2210   1.2377   1.3429   1.3529
     1.5407   1.5640   1.6235   2.7896   5.1529   5.1918   5.5402   6.8124
     7.6496   7.7238   7.8127   7.9569   8.1110

          k =-0.3536 0.3536-0.3536 ( 21668 PWs)   bands (ev):

   -18.0446 -18.0446 -18.0445 -18.0444 -18.0293 -18.0293 -18.0269 -18.0269
   -18.0269 -18.0269 -17.9419 -17.9419 -11.2138 -11.2137 -10.9898 -10.9897
   -10.9634 -10.9632  -4.7625  -4.7619  -4.7475  -4.7471  -4.7286  -4.7285
    -3.7211  -3.7210  -0.2113  -0.2107  -0.1743  -0.1741   0.3377   0.3389
     0.8219   0.8220   0.8583   0.8595   1.2657   1.2678   1.3996   1.4008
     1.4299   1.4317   1.7850   1.7863   6.3838   6.3859   6.5112   6.5170
     6.7458   6.7487   7.8403   7.8425   8.3519

          k = 0.3536-0.3536-0.3536 ( 21668 PWs)   bands (ev):

   -18.0446 -18.0446 -18.0445 -18.0444 -18.0293 -18.0293 -18.0269 -18.0269
   -18.0269 -18.0269 -17.9419 -17.9419 -11.2135 -11.2135 -10.9900 -10.9900
   -10.9634 -10.9634  -4.7621  -4.7620  -4.7475  -4.7475  -4.7286  -4.7286
    -3.7208  -3.7207  -0.2106  -0.2106  -0.1748  -0.1748   0.3400   0.3401
     0.8223   0.8223   0.8597   0.8597   1.2607   1.2607   1.3982   1.3982
     1.4302   1.4303   1.7906   1.7906   6.3868   6.3869   6.5157   6.5160
     6.7454   6.7455   7.8462   7.8464   8.3506

          k = 0.3536 0.3536-0.3536 ( 21668 PWs)   bands (ev):

   -18.0446 -18.0446 -18.0445 -18.0444 -18.0293 -18.0293 -18.0269 -18.0269
   -18.0269 -18.0269 -17.9419 -17.9419 -11.2138 -11.2137 -10.9898 -10.9897
   -10.9634 -10.9632  -4.7625  -4.7619  -4.7475  -4.7471  -4.7286  -4.7285
    -3.7212  -3.7210  -0.2113  -0.2107  -0.1743  -0.1740   0.3376   0.3387
     0.8219   0.8219   0.8582   0.8594   1.2662   1.2683   1.3998   1.4010
     1.4299   1.4317   1.7846   1.7859   6.3837   6.3857   6.5111   6.5168
     6.7459   6.7488   7.8400   7.8421   8.3520

          k = 0.0000-0.3536-0.0000 ( 21659 PWs)   bands (ev):

   -18.0481 -18.0457 -18.0434 -18.0408 -18.0294 -18.0292 -18.0271 -18.0269
   -18.0268 -18.0267 -17.9430 -17.9409 -11.3026 -11.0905 -11.0373 -11.0367
   -10.9563 -10.9012  -4.7751  -4.7595  -4.7547  -4.7414  -4.7404  -4.7400
    -4.2561  -2.8969  -0.9386  -0.8257   0.0534   0.0873   0.4049   0.6233
     0.6635   0.8844   1.0632   1.1336   1.1933   1.2742   1.2908   1.2991
     1.4024   1.5618   1.6554   3.1152   4.7711   4.7851   6.2326   6.7981
     7.1246   7.8584   8.0981   8.1186   8.2202

          k = 0.0000-0.0000-0.3536 ( 21659 PWs)   bands (ev):

   -18.0481 -18.0457 -18.0434 -18.0408 -18.0294 -18.0292 -18.0271 -18.0270
   -18.0268 -18.0267 -17.9430 -17.9409 -11.3026 -11.0905 -11.0373 -11.0367
   -10.9563 -10.9012  -4.7751  -4.7595  -4.7547  -4.7414  -4.7404  -4.7400
    -4.2561  -2.8969  -0.9386  -0.8257   0.0534   0.0873   0.4049   0.6233
     0.6635   0.8844   1.0632   1.1336   1.1933   1.2742   1.2908   1.2990
     1.4024   1.5619   1.6554   3.1152   4.7710   4.7851   6.2326   6.7981
     7.1246   7.8584   8.0981   8.1186   8.2201

          k =-0.1768 0.5303-0.5303 ( 21709 PWs)   bands (ev):

   -18.0469 -18.0455 -18.0434 -18.0423 -18.0295 -18.0292 -18.0269 -18.0269
   -18.0269 -18.0269 -17.9421 -17.9416 -11.2178 -11.1583 -11.0442 -11.0154
   -10.9930 -10.9098  -4.7613  -4.7562  -4.7444  -4.7399  -4.7301  -4.7283
    -3.8418  -3.4819  -0.6238  -0.5680  -0.4910   0.3910   0.4031   0.4643
     0.7455   0.8697   0.8858   1.0676   1.1532   1.2243   1.2811   1.3281
     1.3474   1.4571   1.9718   2.3472   5.4465   5.6153   5.8256   7.4197
     7.4613   7.5051   7.7981   8.1810   8.4208

          k = 0.1768-0.5303-0.5303 ( 21709 PWs)   bands (ev):

   -18.0469 -18.0455 -18.0434 -18.0423 -18.0295 -18.0292 -18.0269 -18.0269
   -18.0269 -18.0269 -17.9421 -17.9416 -11.2176 -11.1581 -11.0443 -11.0155
   -10.9932 -10.9098  -4.7612  -4.7561  -4.7445  -4.7400  -4.7301  -4.7283
    -3.8417  -3.4817  -0.6238  -0.5682  -0.4911   0.3910   0.4041   0.4648
     0.7462   0.8707   0.8866   1.0676   1.1502   1.2232   1.2807   1.3278
     1.3465   1.4557   1.9734   2.3481   5.4466   5.6162   5.8260   7.4217
     7.4600   7.5031   7.8006   8.1860   8.4233

          k = 0.5303 0.1768-0.5303 ( 21709 PWs)   bands (ev):

   -18.0470 -18.0453 -18.0439 -18.0419 -18.0293 -18.0293 -18.0271 -18.0269
   -18.0269 -18.0268 -17.9423 -17.9414 -11.2326 -11.1508 -11.0422 -11.0106
   -10.9782 -10.9236  -4.7619  -4.7502  -4.7415  -4.7410  -4.7349  -4.7299
    -3.9048  -3.4133  -0.6756  -0.5160  -0.4606   0.3620   0.3984   0.4337
     0.7608   0.9071   0.9161   1.0557   1.1720   1.2122   1.2630   1.2780
     1.3428   1.5689   1.8223   2.3869   5.4479   5.6186   5.7936   7.2322
     7.4752   7.6417   7.9184   8.2534   8.3648

          k =-0.5303-0.1768-0.5303 ( 21709 PWs)   bands (ev):

   -18.0470 -18.0453 -18.0439 -18.0419 -18.0293 -18.0293 -18.0271 -18.0269
   -18.0269 -18.0268 -17.9423 -17.9414 -11.2326 -11.1512 -11.0417 -11.0106
   -10.9782 -10.9235  -4.7619  -4.7504  -4.7415  -4.7406  -4.7349  -4.7300
    -3.9049  -3.4135  -0.6736  -0.5180  -0.4602   0.3612   0.3969   0.4325
     0.7631   0.9075   0.9151   1.0540   1.1727   1.2153   1.2622   1.2799
     1.3440   1.5698   1.8214   2.3849   5.4495   5.6157   5.7947   7.2325
     7.4749   7.6384   7.9155   8.2511   8.3658

          k = 0.5303-0.1768 0.5303 ( 21709 PWs)   bands (ev):

   -18.0470 -18.0453 -18.0439 -18.0419 -18.0293 -18.0293 -18.0271 -18.0269
   -18.0269 -18.0268 -17.9423 -17.9414 -11.2325 -11.1510 -11.0418 -11.0107
   -10.9783 -10.9235  -4.7617  -4.7505  -4.7418  -4.7406  -4.7348  -4.7300
    -3.9048  -3.4133  -0.6737  -0.5181  -0.4603   0.3627   0.3960   0.4333
     0.7638   0.9088   0.9157   1.0544   1.1698   1.2116   1.2621   1.2809
     1.3431   1.5678   1.8238   2.3858   5.4496   5.6165   5.7951   7.2331
     7.4756   7.6344   7.9196   8.2582   8.3649

          k =-0.5303 0.1768 0.5303 ( 21709 PWs)   bands (ev):

   -18.0470 -18.0453 -18.0439 -18.0419 -18.0293 -18.0293 -18.0271 -18.0269
   -18.0269 -18.0268 -17.9423 -17.9414 -11.2324 -11.1506 -11.0423 -11.0107
   -10.9783 -10.9236  -4.7618  -4.7502  -4.7418  -4.7411  -4.7349  -4.7299
    -3.9046  -3.4130  -0.6757  -0.5161  -0.4608   0.3635   0.3976   0.4345
     0.7616   0.9085   0.9168   1.0561   1.1690   1.2084   1.2629   1.2790
     1.3419   1.5668   1.8249   2.3879   5.4481   5.6194   5.7940   7.2329
     7.4757   7.6380   7.9226   8.2609   8.3640

          k = 0.5303-0.5303 0.1768 ( 21709 PWs)   bands (ev):

   -18.0470 -18.0453 -18.0439 -18.0419 -18.0293 -18.0293 -18.0271 -18.0269
   -18.0269 -18.0268 -17.9423 -17.9414 -11.2326 -11.1508 -11.0422 -11.0106
   -10.9782 -10.9236  -4.7619  -4.7502  -4.7415  -4.7410  -4.7349  -4.7299
    -3.9048  -3.4133  -0.6757  -0.5159  -0.4606   0.3621   0.3985   0.4338
     0.7607   0.9071   0.9162   1.0558   1.1719   1.2119   1.2630   1.2780
     1.3427   1.5688   1.8224   2.3871   5.4479   5.6188   5.7936   7.2322
     7.4753   7.6417   7.9186   8.2539   8.3647

          k =-0.5303-0.5303-0.1768 ( 21709 PWs)   bands (ev):

   -18.0470 -18.0453 -18.0439 -18.0419 -18.0293 -18.0293 -18.0271 -18.0269
   -18.0269 -18.0268 -17.9423 -17.9414 -11.2326 -11.1512 -11.0417 -11.0106
   -10.9782 -10.9235  -4.7619  -4.7505  -4.7415  -4.7406  -4.7349  -4.7300
    -3.9049  -3.4135  -0.6735  -0.5181  -0.4602   0.3613   0.3968   0.4325
     0.7632   0.9076   0.9151   1.0540   1.1726   1.2153   1.2621   1.2800
     1.3440   1.5698   1.8214   2.3848   5.4495   5.6156   5.7947   7.2325
     7.4749   7.6381   7.9155   8.2512   8.3658

          k = 0.5303 0.5303-0.1768 ( 21709 PWs)   bands (ev):

   -18.0470 -18.0453 -18.0439 -18.0419 -18.0293 -18.0293 -18.0271 -18.0269
   -18.0269 -18.0268 -17.9423 -17.9414 -11.2325 -11.1510 -11.0418 -11.0107
   -10.9783 -10.9235  -4.7617  -4.7505  -4.7418  -4.7406  -4.7348  -4.7300
    -3.9048  -3.4133  -0.6736  -0.5182  -0.4603   0.3626   0.3960   0.4332
     0.7639   0.9088   0.9156   1.0543   1.1699   1.2119   1.2621   1.2809
     1.3432   1.5680   1.8237   2.3857   5.4497   5.6163   5.7951   7.2331
     7.4756   7.6344   7.9193   8.2579   8.3649

          k =-0.5303 0.5303 0.1768 ( 21709 PWs)   bands (ev):

   -18.0470 -18.0453 -18.0439 -18.0419 -18.0293 -18.0293 -18.0271 -18.0269
   -18.0269 -18.0268 -17.9423 -17.9414 -11.2324 -11.1506 -11.0423 -11.0107
   -10.9783 -10.9236  -4.7618  -4.7502  -4.7418  -4.7411  -4.7349  -4.7299
    -3.9046  -3.4130  -0.6758  -0.5160  -0.4608   0.3634   0.3977   0.4345
     0.7615   0.9084   0.9168   1.0561   1.1690   1.2084   1.2630   1.2789
     1.3419   1.5669   1.8248   2.3880   5.4480   5.6195   5.7940   7.2328
     7.4757   7.6383   7.9226   8.2608   8.3639

          k = 0.1768 0.5303-0.5303 ( 21709 PWs)   bands (ev):

   -18.0469 -18.0455 -18.0434 -18.0423 -18.0295 -18.0292 -18.0269 -18.0269
   -18.0269 -18.0269 -17.9421 -17.9416 -11.2178 -11.1583 -11.0442 -11.0154
   -10.9930 -10.9098  -4.7613  -4.7562  -4.7444  -4.7399  -4.7301  -4.7283
    -3.8418  -3.4820  -0.6238  -0.5679  -0.4910   0.3910   0.4030   0.4642
     0.7455   0.8696   0.8858   1.0676   1.1535   1.2244   1.2811   1.3281
     1.3474   1.4572   1.9717   2.3472   5.4465   5.6153   5.8255   7.4195
     7.4614   7.5053   7.7979   8.1806   8.4209

          k =-0.0000 0.3536-0.3536 ( 21693 PWs)   bands (ev):

   -18.0471 -18.0446 -18.0446 -18.0418 -18.0293 -18.0293 -18.0270 -18.0270
   -18.0268 -18.0268 -17.9425 -17.9413 -11.2569 -11.1171 -11.0912 -10.9658
   -10.9613 -10.9412  -4.7640  -4.7537  -4.7472  -4.7422  -4.7354  -4.7346
    -4.0101  -3.3113  -0.8902  -0.2438  -0.1222   0.1786   0.2563   0.4431
     0.6599   0.8861   0.9048   1.0848   1.1845   1.2015   1.3409   1.3531
     1.4083   1.5054   1.6478   2.5425   4.9869   6.2202   6.4645   6.6452
     6.7692   7.5498   8.1234   8.1781   8.2409

          k = 0.3536-0.0000-0.3536 ( 21693 PWs)   bands (ev):

   -18.0468 -18.0445 -18.0445 -18.0424 -18.0294 -18.0292 -18.0270 -18.0269
   -18.0269 -18.0268 -17.9424 -17.9414 -11.2528 -11.1502 -11.0379 -10.9884
   -10.9783 -10.9261  -4.7633  -4.7615  -4.7468  -4.7370  -4.7359  -4.7320
    -3.9762  -3.3780  -0.7734  -0.2543  -0.1309   0.1622   0.2465   0.4458
     0.6957   0.8434   0.8707   1.1092   1.1593   1.2296   1.2869   1.3969
     1.4307   1.4481   1.7139   2.4060   5.0055   6.3144   6.5887   6.6558
     6.8520   7.5530   7.9053   8.0344   8.3317

          k =-0.3536-0.0000-0.3536 ( 21693 PWs)   bands (ev):

   -18.0468 -18.0445 -18.0445 -18.0424 -18.0294 -18.0292 -18.0270 -18.0269
   -18.0269 -18.0268 -17.9424 -17.9414 -11.2531 -11.1505 -11.0379 -10.9881
   -10.9780 -10.9261  -4.7635  -4.7614  -4.7464  -4.7371  -4.7358  -4.7320
    -3.9764  -3.3786  -0.7735  -0.2537  -0.1304   0.1625   0.2461   0.4434
     0.6945   0.8433   0.8699   1.1083   1.1639   1.2299   1.2852   1.3991
     1.4351   1.4500   1.7098   2.4049   5.0044   6.3109   6.5903   6.6548
     6.8544   7.5481   7.9062   8.0263   8.3372

          k = 0.3536-0.3536-0.0000 ( 21693 PWs)   bands (ev):

   -18.0468 -18.0445 -18.0445 -18.0424 -18.0294 -18.0292 -18.0270 -18.0269
   -18.0269 -18.0268 -17.9424 -17.9414 -11.2528 -11.1502 -11.0379 -10.9884
   -10.9783 -10.9261  -4.7633  -4.7615  -4.7468  -4.7369  -4.7359  -4.7320
    -3.9762  -3.3780  -0.7733  -0.2543  -0.1309   0.1622   0.2465   0.4459
     0.6958   0.8434   0.8707   1.1092   1.1591   1.2296   1.2869   1.3968
     1.4305   1.4480   1.7141   2.4060   5.0055   6.3146   6.5887   6.6559
     6.8519   7.5532   7.9053   8.0347   8.3315

          k =-0.3536-0.3536-0.0000 ( 21693 PWs)   bands (ev):

   -18.0468 -18.0445 -18.0445 -18.0424 -18.0294 -18.0292 -18.0270 -18.0269
   -18.0269 -18.0268 -17.9424 -17.9414 -11.2531 -11.1505 -11.0379 -10.9881
   -10.9780 -10.9261  -4.7635  -4.7614  -4.7464  -4.7371  -4.7358  -4.7320
    -3.9764  -3.3786  -0.7735  -0.2536  -0.1304   0.1625   0.2461   0.4433
     0.6945   0.8433   0.8698   1.1083   1.1640   1.2299   1.2851   1.3992
     1.4352   1.4502   1.7096   2.4048   5.0044   6.3108   6.5904   6.6547
     6.8545   7.5478   7.9062   8.0259   8.3375

          k =-0.0000 0.7071 0.0000 ( 21732 PWs)   bands (ev):

   -18.0481 -18.0456 -18.0436 -18.0409 -18.0293 -18.0293 -18.0271 -18.0269
   -18.0269 -18.0267 -17.9425 -17.9412 -11.2283 -11.0925 -11.0441 -11.0403
   -11.0377 -10.8994  -4.7629  -4.7429  -4.7364  -4.7358  -4.7338  -4.7309
    -3.9545  -3.2213  -0.8990  -0.7842  -0.6289   0.3031   0.5440   0.7875
     0.8690   0.9443   0.9610   1.0673   1.0755   1.1432   1.1497   1.2222
     1.2273   1.6572   1.9716   2.9340   4.9740   4.9947   5.4479   7.6218
     7.9083   8.0378   8.2522   8.3769   8.4762

          k =-0.0000 0.0000 0.7071 ( 21732 PWs)   bands (ev):

   -18.0481 -18.0456 -18.0436 -18.0409 -18.0293 -18.0293 -18.0271 -18.0269
   -18.0269 -18.0267 -17.9425 -17.9412 -11.2283 -11.0925 -11.0441 -11.0403
   -11.0377 -10.8994  -4.7629  -4.7429  -4.7364  -4.7358  -4.7338  -4.7309
    -3.9545  -3.2212  -0.8990  -0.7843  -0.6289   0.3031   0.5440   0.7875
     0.8690   0.9443   0.9610   1.0673   1.0755   1.1432   1.1497   1.2222
     1.2273   1.6572   1.9716   2.9340   4.9739   4.9948   5.4479   7.6218
     7.9083   8.0378   8.2522   8.3769   8.4762

          k =-0.3536 0.7071 0.0000 ( 21692 PWs)   bands (ev):

   -18.0464 -18.0464 -18.0426 -18.0426 -18.0293 -18.0293 -18.0270 -18.0270
   -18.0268 -18.0268 -17.9418 -17.9418 -11.1831 -11.1831 -11.0409 -11.0409
   -10.9471 -10.9471  -4.7523  -4.7523  -4.7384  -4.7384  -4.7302  -4.7302
    -3.6562  -3.6561  -0.7117  -0.7117  -0.0255  -0.0255   0.4055   0.4055
     0.8842   0.8842   1.0981   1.0981   1.1018   1.1019   1.1708   1.1708
     1.4556   1.4556   2.2242   2.2242   5.2113   5.2113   6.7201   6.7201
     7.7768   7.7768   8.3231   8.3232   8.4515

          k =-0.7071 0.0000-0.3536 ( 21692 PWs)   bands (ev):

   -18.0467 -18.0465 -18.0427 -18.0422 -18.0294 -18.0292 -18.0270 -18.0269
   -18.0269 -18.0268 -17.9420 -17.9417 -11.1833 -11.1511 -11.0920 -11.0384
   -10.9465 -10.9315  -4.7519  -4.7470  -4.7470  -4.7358  -4.7326  -4.7290
    -3.6911  -3.5945  -0.8377  -0.7184  -0.0340  -0.0040   0.4300   0.4549
     0.8736   0.9208   0.9825   1.0354   1.1248   1.1604   1.1965   1.2088
     1.4192   1.4635   2.2290   2.3771   5.2000   5.2129   6.5756   6.5777
     7.8009   8.0424   8.1715   8.3264   8.5699

     the Fermi energy is     4.2228 ev

!    total energy              =    -731.38720651 Ry
     estimated scf accuracy    <          3.1E-10 Ry
     smearing contrib. (-TS)   =      -0.00000000 Ry
     internal energy E=F+TS    =    -731.38720651 Ry

     The total energy is F=E-TS. E is the sum of the following terms:
     one-electron contribution =    -250.35057278 Ry
     hartree contribution      =     162.33339840 Ry
     xc contribution           =    -309.00904917 Ry
     ewald contribution        =    -334.36098296 Ry

     convergence has been achieved in  10 iterations

     Forces acting on atoms (cartesian axes, Ry/au):

     atom    1 type  1   force =     0.00000043    0.00007821   -0.00007227
     atom    2 type  1   force =    -0.00000043   -0.00007821    0.00007227
     atom    3 type  2   force =     0.00000000    0.00000000    0.00000000
     atom    4 type  2   force =     0.00000000    0.00000000    0.00000000
     atom    5 type  3   force =     0.00000036    0.00002540   -0.00002752
     atom    6 type  3   force =    -0.00000036   -0.00002540    0.00002752
     atom    7 type  3   force =    -0.00006073   -0.00000038   -0.00053963
     atom    8 type  3   force =     0.00006073    0.00000038    0.00053963
     atom    9 type  3   force =    -0.00006577   -0.00054003    0.00000030
     atom   10 type  3   force =     0.00006577    0.00054003   -0.00000030

     Total force =     0.001099     Total SCF correction =     0.000011
     Message from routine punch:
     Nothing written, as per user request (disk_io='none')

     init_run     :     17.44s CPU     18.63s WALL (       1 calls)
     electrons    :    442.08s CPU    475.81s WALL (       1 calls)
     forces       :     11.52s CPU     12.63s WALL (       1 calls)

     Called by init_run:
     wfcinit      :     11.50s CPU     11.93s WALL (       1 calls)
     potinit      :      1.97s CPU      2.14s WALL (       1 calls)
     hinit0       :      1.13s CPU      1.19s WALL (       1 calls)

     Called by electrons:
     c_bands      :    332.91s CPU    345.77s WALL (      11 calls)
     sum_band     :     76.66s CPU     88.66s WALL (      11 calls)
     v_of_rho     :     12.07s CPU     13.35s WALL (      11 calls)
     newd         :     20.91s CPU     29.00s WALL (      11 calls)
     mix_rho      :      1.34s CPU      1.40s WALL (      11 calls)

     Called by c_bands:
     init_us_2    :     13.51s CPU     13.55s WALL (     432 calls)
     cegterg      :    285.05s CPU    297.88s WALL (     198 calls)

     Called by *egterg:
     cdiaghg      :      3.61s CPU      3.62s WALL (     955 calls)
     h_psi        :    168.60s CPU    180.65s WALL (     991 calls)
     s_psi        :     16.55s CPU     16.57s WALL (     991 calls)
     g_psi        :      0.82s CPU      0.82s WALL (     775 calls)

     Called by h_psi:
     h_psi:calbec :     32.49s CPU     32.69s WALL (     991 calls)
     vloc_psi     :    114.72s CPU    126.18s WALL (     991 calls)
                                        0.00s GPU  (     991 calls)
     add_vuspsi   :     18.87s CPU     18.90s WALL (     991 calls)

     General routines
     calbec       :     46.04s CPU     46.35s WALL (    1261 calls)
     fft          :     10.79s CPU     11.59s WALL (     153 calls)
     ffts         :      0.67s CPU      0.69s WALL (      22 calls)
     fftw         :    124.86s CPU    137.94s WALL (   67794 calls)
     interpolate  :      1.44s CPU      1.50s WALL (      11 calls)

     Parallel routines

     PWSCF        :   7m52.61s CPU   8m28.71s WALL


   This run was terminated on:   2:40:19   5Oct2026            

=------------------------------------------------------------------------------=
   JOB DONE.
=------------------------------------------------------------------------------=
